Zr Ti V  Cr W 
 1.0000000000000000
    15.4218125631900325   -0.0059686382723848    0.0062585989012477
    -0.0059677460242910   15.4281327699692579    0.0068346148581175
     0.0062604253005019    0.0068382331099848   15.4329886035241781
 Zr  Ti  V   Cr  W  
   1   3 110   3   7
Direct
  0.3990389857990544  0.8024267375255705  0.5979024715031267
  0.2021971846600117  0.6062609119561132  0.1907129298993460
  0.1988145855953998  0.7908622364686193  0.0075378261849890
  0.6000464763216472  0.5978501565506105  0.5803178430082948
  0.0021571148880255  0.9979890612315104  0.9999927568131309
  0.0003554976272081  0.0031102340287348  0.1997162213862763
  0.0008190752959018  0.9946645594390872  0.4000330758948392
  0.9992497986577022  0.0015444990908654  0.6012617547828246
  0.0000779743421033  0.9980750057103347  0.8010916244073529
  0.0006111897114425  0.1986150405034025  0.0039625693670842
  0.9999982158726111  0.1996051079522495  0.3970234456428238
  0.0022267019185172  0.1995278707333730  0.5982903255212764
  0.9987734967109116  0.1988360580836037  0.8010877569269157
  0.0036169912199567  0.4016146562339222  0.9998865908194268
  0.0014976532457754  0.3969646818615595  0.2012498815771691
  0.0010891529371270  0.4033862745984866  0.3992484728170657
  0.0005453339039695  0.3993375187260085  0.5990909939919157
  0.9993543923918703  0.4001934875157165  0.8003908086306692
  0.0016805604766458  0.6001046702867072  0.9998165298219399
  0.9957946385672161  0.5989099905722641  0.1980340373808087
  0.0014725497396333  0.6039767677684044  0.3986973476941296
  0.0010555528513219  0.5986108648923374  0.6002777415300695
  0.9976949480161647  0.6009365499440822  0.8005156503198687
  0.9968836056378247  0.7974904850991347  0.0014904795924042
  0.9994811581474373  0.8001562115351181  0.5971809755164851
  0.0002043443530853  0.7991367633001097  0.8002428944350026
  0.2007215507888040  0.0011686728895475  0.9994702570492361
  0.2001472512863931  0.0013680024539338  0.1998220660110733
  0.2008914098653302  0.9993231617454210  0.4008691494776940
  0.2000005538157917  0.0053622483425248  0.6009489690197108
  0.2006417932607356  0.9983404851713049  0.8012495048402302
  0.2000359676556001  0.2020203379208385  0.9985754506955992
  0.1952301856712288  0.1996070840927784  0.2018101016366332
  0.1998448986050223  0.1997947084339812  0.4031757809968959
  0.2003132110191446  0.1987759587243872  0.7958647292092723
  0.2002280549930891  0.3973601358986512  0.1955197437334963
  0.2006122607790208  0.4021721925671006  0.3986045401217381
  0.2000344385547730  0.3946241813445101  0.6002181636463251
  0.2004537735221826  0.3994590965314599  0.8022117044192066
  0.2008666336974090  0.5907759856742987  0.9932462946252375
  0.1998800577999936  0.5963846727157822  0.6000089738580940
  0.2016075679307457  0.5990867388461807  0.7970330439122385
  0.1989600135542268  0.8034157569467890  0.2039830899725395
  0.1946431453728213  0.7985849628508873  0.4004727724695432
  0.1956754718268295  0.8007537948551844  0.6009574314629236
  0.1995733872797684  0.7977430250006290  0.7989663896135579
  0.3988856705063982  0.9989252833925725  0.0006002728047180
  0.3997874000810636  0.0006933799972037  0.1991905083517324
  0.3989149726752828  0.9978236047245298  0.3984597545318255
  0.3995538312833830  0.0046200494682493  0.6005454685529410
  0.4006481849022548  0.9977206396328561  0.8021072892540340
  0.4005470635922800  0.1991210446411066  0.0008542449630936
  0.4006089976680691  0.1985197604626663  0.2008196793784530
  0.3993477762096630  0.2006621073276060  0.3977694174979582
  0.3996504174361176  0.2007471957585401  0.5990977744673163
  0.4011680024255554  0.1988705275241383  0.8009046243900909
  0.3958707237691839  0.3986117964050116  0.0005197116138670
  0.4002325902011064  0.3994218817910570  0.2006114909297816
  0.3992164681330502  0.4015656469192918  0.3981120117920138
  0.3989814670294090  0.3991104833448488  0.6002109054132414
  0.4009397524956915  0.3997018663639813  0.8002863548699556
  0.3989971665331328  0.5992424029829990  0.0013981353406315
  0.4017007663694381  0.6005386856797612  0.2002963787588495
  0.3984205092388972  0.5997367679107687  0.3989647638818985
  0.3976108406531050  0.5955938994381644  0.5998386164025382
  0.4058296250882510  0.5999051999351175  0.7990402399499900
  0.4007532280822112  0.7990664510642050  0.0021059706121405
  0.4006573007978696  0.8009431411539438  0.2004484107511933
  0.3980809810729753  0.7980038905610934  0.3949099525323892
  0.3997779175473858  0.7992802119335477  0.8043422105003798
  0.5987298481469886  0.9994877869104268  0.9985333274484502
  0.5994287059933917  0.0002920492771004  0.2004679835373565
  0.5986323606288139  0.9983640186574609  0.4008812919595616
  0.5999259730334303  0.0049878406185992  0.6007939720942060
  0.6001853421121953  0.9975895763724490  0.8004234545510388
  0.5996506802230782  0.1997147188658241  0.9988932690555351
  0.6044056176379125  0.2000576525295514  0.2017017635496631
  0.5997326606725832  0.1996538905710773  0.4033194590109216
  0.6006401226534108  0.1995099281476425  0.7965997127368937
  0.5999432250788430  0.3994123226279183  0.0006442828694566
  0.6000098368916292  0.3985577888956392  0.2003952557742952
  0.5990424154714319  0.4018408369797550  0.4008473498312815
  0.6000393506192423  0.3929790282897310  0.6003585297663071
  0.6007986795967274  0.4025818800222672  0.7999543135253417
  0.5961893973916018  0.5986868075996110  0.0016438789991350
  0.6023849853884680  0.5994459065305751  0.1982921830418548
  0.5996179315653872  0.6004836292459756  0.3952001553207619
  0.6018393516759283  0.7982533583855977  0.0027149252951566
  0.6015904694942570  0.8012959712842070  0.2012969850111106
  0.6007580903078863  0.7992736828657712  0.4005652532162105
  0.6046142695188215  0.8037739423971669  0.5998785442385999
  0.6015067310138713  0.7955302621716436  0.7998054238698681
  0.7996359398083528  0.9995301761084537  0.9996972529330035
  0.7993837391977127  0.0041238635765901  0.1998607300377408
  0.7989422131775106  0.9987038037629435  0.4004610953254016
  0.8005741822692274  0.0020360098731220  0.6008764159517096
  0.8000784830324478  0.9991864263357305  0.8012007568994540
  0.8001883793349399  0.2000733190084286  0.0028518148333141
  0.8002250247198834  0.2002970038874534  0.3972861309282673
  0.7976585879678643  0.1998373665219773  0.5990422138025995
  0.7997199952600471  0.3974123536242419  0.1983357723629801
  0.8009068221726579  0.4014370356681871  0.4007491937263239
  0.8015934691783880  0.3974448603173067  0.6008383923478525
  0.8015242814564246  0.4002031908125684  0.8019864166194611
  0.8015848377773416  0.3979706730975496  0.9993926975883569
  0.8006941035535481  0.5982628629156380  0.2006232205129712
  0.7993368773836640  0.5996148530694776  0.3998141588027739
  0.8019965591252952  0.5980076549531208  0.5994896986113654
  0.7963630418452018  0.5995516723955413  0.7958141287645044
  0.8012096554124539  0.8021959554088643  0.0014632326573438
  0.7995464892984079  0.7998321762488968  0.1993887255337152
  0.8034912508593118  0.7994212283854387  0.3997310867021320
  0.8007055473077028  0.8012645378424792  0.6016939268658849
  0.8011339302689436  0.7981407438586782  0.8014986378514187
  0.9988330095888037  0.8013322367305921  0.2013288663408001
  0.1998532952856518  0.5994262153488346  0.4010248600313293
  0.8002908793761210  0.1995992431799041  0.8011041343916070
  0.9966426068723260  0.1991483173946745  0.2013863161732628
  0.9979758495178418  0.8003884864254274  0.4019180261471282
  0.2002801542275697  0.2005971751180419  0.5996508434972797
  0.2009042583276874  0.3965919910956556  0.9979030337730274
  0.5985809315847677  0.1996674616639547  0.5987518361869809
  0.6017202228274855  0.5990801456092935  0.8084583657653819
  0.8025673088718729  0.1998236508351818  0.2010661893240391
