Ti V  Cr W 
 1.0000000000000000
    15.3947628529237015   -0.0004726939770559    0.0021267196503963
    -0.0004726263884090   15.4017912768726095   -0.0008921615345846
     0.0021270963932924   -0.0008941263393480   15.4191178141427301
 Ti  V   Cr  W  
  13 101   9   1
Direct
  0.9949272759922753  0.1910852997750383  0.4000723394052895
  0.9997167842886752  0.4034916286119341  0.4004933742901291
  0.2052070735818308  0.0069850960145017  0.3958492376580851
  0.1977586914300808  0.1986322079139174  0.0067359750821832
  0.1961859614562658  0.1980125143814011  0.7956603325524377
  0.3976522803355646  0.0050874476108794  0.2021451778370731
  0.3940675068438489  0.1955930117641962  0.3968164849926384
  0.4006786920211038  0.8020483816229077  0.3957634246709845
  0.6047411220981637  0.1957624214644997  0.3989095584092326
  0.7998295031247281  0.0099623684229859  0.9971345628669785
  0.8031708932017977  0.0048826596302314  0.4003964285506582
  0.8004232243570549  0.1913670193289121  0.8041537157499165
  0.7991848495567435  0.4015263343446560  0.8016378794269579
  0.0019922194800603  0.0009539787922872  0.9991631425654666
  0.0001685253683411  0.9998349537131248  0.2001515118386577
  0.0028859224401978  0.9987690141711025  0.4002016091724442
  0.0013150172061758  0.9996302758564329  0.5995285500395557
  0.0005109222996582  0.9998328573152909  0.8005737656589557
  0.9984363602120963  0.2008060531387309  0.0004960710386166
  0.0012491058611122  0.1997387868519238  0.1981144883290186
  0.0011165046175326  0.1992970892013643  0.6025821852689311
  0.9999065720718833  0.1990104276120267  0.8004123907989229
  0.0013135585913537  0.3996913337437805  0.9995117056895467
  0.0008368870783018  0.3984534788955419  0.1976521959962886
  0.0005592653587133  0.3979269205430258  0.6033276803058041
  0.0025406260206476  0.3987042859894660  0.8015007929778627
  0.0005350266950767  0.5992224273361072  0.0001181741212857
  0.0004553030752378  0.6009454478991731  0.2006653763890600
  0.0003678885515281  0.5989834587789477  0.4003212495857640
  0.0008100105054373  0.6001072951486006  0.6001600860313535
  0.0002470195344190  0.5994633952082148  0.8009225075308541
  0.9998234088804951  0.8004602349190751  0.9994520873402578
  0.9998374287033764  0.8019196438647587  0.2655845651897597
  0.9999883563647646  0.8010399100266586  0.6020821936781118
  0.0002780662753195  0.8006628628491773  0.8002003081538043
  0.2016354578005164  0.9993139928429330  0.0004063354780269
  0.1972988512937302  0.0016851575774457  0.1978795785842964
  0.2004650198422409  0.9982227231263675  0.7992488377517267
  0.1963541784791587  0.2040754309462390  0.4005800324813127
  0.2044575616592193  0.4003897460461446  0.0013419430575146
  0.2002776825391508  0.3988938980115463  0.2024145467287160
  0.2029727771546648  0.3997556107884086  0.4002767560521856
  0.2014112474912537  0.3985882465636719  0.5992209320472874
  0.2005444414251225  0.4004333848836359  0.7999136654676728
  0.2000675466887003  0.6003238595060838  0.0019047047677534
  0.1993204790892411  0.6006077402466419  0.2022263087591538
  0.2003441149220108  0.6011682006914543  0.4008569802889778
  0.2005936874529258  0.5991693887304131  0.5991978627781437
  0.2000931983908222  0.6005466540550545  0.7985983428769630
  0.2008790129395934  0.8001113791407775  0.0012823048236905
  0.1992120523164037  0.8012935231470902  0.2015657976425385
  0.2008855148768923  0.8009949961368025  0.3998405062302698
  0.2002068387344589  0.8006203504495883  0.5979428315978628
  0.2008762199628086  0.8001474702853237  0.8008791568042651
  0.4001607968372413  0.0015258391805149  0.9976803847444643
  0.4027615280157288  0.0005033535993280  0.4040294732903750
  0.4013059459053339  0.2030224927938405  0.9986578398934137
  0.3993376271213784  0.2022718197745406  0.1972938118439628
  0.3982936321965244  0.1995244030516235  0.6025027592041268
  0.4001835349092849  0.1986029714407427  0.7999540163792080
  0.4004989158882443  0.3994136139328744  0.1977384829349418
  0.4015155114511432  0.3993449418066495  0.4005486436984975
  0.4003095698991940  0.3977493497747560  0.6018325919168979
  0.3999983981629887  0.3990403734947690  0.8044688757472955
  0.4004907696067870  0.5957009822862581  0.0001397769509988
  0.3997921886024509  0.5999416504304594  0.2018687996203711
  0.4002320260254307  0.5987831058260811  0.6007272514883018
  0.4003294986052042  0.5993794024190777  0.8004005331573600
  0.4003855862120335  0.7993714302114506  0.0003021885407961
  0.4001562751722051  0.7994745000246751  0.1970257905953006
  0.4006916280204941  0.7988796816372985  0.8010555069000721
  0.5975002610412142  0.0006913680062137  0.9997560035487895
  0.6015378967953228  0.0004994270748149  0.2002333750941148
  0.5980797246857741  0.9974383918305981  0.4011650589459794
  0.5995754498643716  0.0004539776601862  0.6004228840015225
  0.6000514829944466  0.9983896650571147  0.7996855000759863
  0.6008203705326371  0.1998910907749266  0.0010625292854816
  0.6012965171159299  0.1989315531486543  0.1995915899851370
  0.6001400076527106  0.1991675054365786  0.6017059619646619
  0.5993638581928696  0.1979478137483976  0.8001248966952679
  0.5966384620526838  0.3991724328015283  0.0013166965436422
  0.5999991690755035  0.3993087703382150  0.2021715618167803
  0.5988781515293790  0.3984424929372529  0.6002164494687147
  0.5994545296143867  0.3983896916413617  0.8005304069080255
  0.6004818708798222  0.5993824940562407  0.0011204358887966
  0.6010566549934454  0.6009837247493689  0.2016193439279593
  0.5996790273827426  0.6000729912303099  0.4012026259936378
  0.6001808035310912  0.5996316697795575  0.5999443087925027
  0.6007607981475196  0.6005187797692729  0.7995767873207981
  0.6003005504032570  0.8004204389330943  0.0006337043652746
  0.6006172964609379  0.8014196421316564  0.1995032973162486
  0.6015763530247533  0.7999158283990319  0.4000254831130307
  0.6003610656421715  0.8005779037374076  0.6004388791989171
  0.6007498724883196  0.8004110163785577  0.8010328439546799
  0.8008038715803582  0.0021939250387821  0.1989488850445322
  0.8000295574073844  0.0014283220418656  0.6011924756271608
  0.8003685627469216  0.9962357630235288  0.7974906772631273
  0.7995989970840469  0.2057293810859743  0.0038622811995519
  0.8019019015187019  0.2018906967259385  0.2024671827966460
  0.8002466074562939  0.2055981481112245  0.4004153006127948
  0.8011657664037537  0.2003574051866644  0.5986607916386840
  0.7988270804310849  0.4011103188417807  0.0032253271756354
  0.8003202990176641  0.4002703475948446  0.2016986352655335
  0.7965264680231789  0.4026940598863828  0.4006420472162490
  0.8003155882650057  0.3985448000124929  0.5989903070785482
  0.8000800707508935  0.5997467545067259  0.0013954478452621
  0.8007742582491324  0.6008377858831966  0.2013343263851486
  0.8017347627056477  0.6026483502254486  0.4004785131705472
  0.8002807469738215  0.5996821153021324  0.5994950964687631
  0.8007840991814275  0.6011803200217493  0.7997388512418524
  0.8011198769503970  0.8026772632167074  0.2002146665062998
  0.7990772958795594  0.8008662546676637  0.3990503117859176
  0.8016132020129560  0.8014082245984970  0.5980966801682873
  0.8001408754507696  0.7992965578888823  0.8008378049923179
  0.2009748838641997  0.0003722112270543  0.6008347758622902
  0.1989487784295995  0.2003270894457374  0.2039181078233175
  0.1991615445025503  0.1992319116082745  0.5963185975948646
  0.3996113989377383  0.9993669765542785  0.6013623895140293
  0.4000218941788079  0.9991119090733284  0.7990167713298079
  0.4003785114623747  0.5983166259445625  0.4008111593295804
  0.4003663799739484  0.8002172662365190  0.6022945079715282
  0.5993209990602940  0.4014187587090035  0.4006631511612391
  0.7999475448544573  0.7990794789499650  0.0003705588791003
  0.4007722482390329  0.3997081143201678  0.0013407397773251
