Zr Ti V  Cr
 1.0000000000000000
    15.3990340272275770   -0.0170018773457157   -0.0022529018582575
    -0.0170107766548915   15.3787801482628375    0.0165544931564424
    -0.0022517709109467    0.0165430754876648   15.4057927644380346
 Zr  Ti  V   Cr 
   3  13 107   1
Direct
  0.1924076035342930  0.2025022959266601  0.3725161377918411
  0.2010360341673988  0.6169966110020775  0.3850178384344979
  0.3807728340002310  0.7958879449240474  0.3903650649937612
  0.0015806158217748  0.0067262460834773  0.9961860510175055
  0.0003677317795463  0.1943073884347677  0.8072718312510261
  0.2032556239560508  0.1996327264142424  0.1750861766506625
  0.2044488976606150  0.5910985566082519  0.1840288530268555
  0.2062513841360577  0.8019479405783725  0.2150574111376567
  0.3898662087135458  0.2032011897144499  0.6037404170142660
  0.6092966464017484  0.0150400661393453  0.5937788713381597
  0.6035808842286599  0.1932001445578523  0.4134624298775754
  0.5896089170369889  0.2037895306013752  0.8129131063554971
  0.7961250174644761  0.1967655814097476  0.1974219416861392
  0.7853600987807531  0.1944665649147982  0.5937810286379205
  0.7971718212389459  0.1989039624907097  0.8031773458997450
  0.8070660821207953  0.8026175320395401  0.2029469085573171
  0.0027541167100842  0.9975059481812553  0.2036993434902667
  0.0016647371857359  0.0002010855881831  0.5981149571144715
  0.0015986694141850  0.9976924001608819  0.7973967863842466
  0.0008749892182698  0.2028499942689757  0.0058925859996880
  0.0028699656067936  0.1987176445050853  0.2019066725102503
  0.9915265052779613  0.2011820027597056  0.4015092243265489
  0.9976784262454094  0.1995059858113395  0.5988622489035522
  0.0006254145985358  0.3997700701233491  0.0019062512850878
  0.0004102084741270  0.3980008912340333  0.2017271807031951
  0.0006163929829602  0.3983458411208938  0.4012855496739338
  0.9991672408359256  0.3982726951173541  0.6017899344733596
  0.0010190664579262  0.4004885024708597  0.8006774289984326
  0.0013623141283432  0.5994094351664743  0.0007091527792419
  0.0007443410778394  0.5997084934306189  0.2000506298807759
  0.9955527013443749  0.5941280988121821  0.3984505027689103
  0.0011047075311157  0.6008816265954776  0.5967551039586789
  0.0004494967209503  0.5994474051845140  0.8008401074719087
  0.0028919046676118  0.7988947711222624  0.0022627394414438
  0.0051731165271945  0.7998412182649065  0.2001371773553320
  0.0013097060846510  0.9715180287143013  0.3996437668650986
  0.0008915596537706  0.8007450239705168  0.6012394541777338
  0.0007798107561316  0.7991053868831013  0.7999170353833924
  0.2030548702524602  0.0002584218915034  0.9997130886195713
  0.2032715559129178  0.0044953902224971  0.2009177764984207
  0.2009162845658596  0.0031392193636668  0.4014610015911086
  0.2030683165667530  0.0041466664575732  0.6002706775014257
  0.2018912968520872  0.0007821550671051  0.7986111496750945
  0.1994206031573347  0.2000069555509635  0.9873955649304573
  0.1947302383639865  0.2011988230624547  0.5960155271762568
  0.2015522361830491  0.1996388442374363  0.7955983724161085
  0.2002717623608795  0.3982267686980484  0.9994119986692270
  0.2015095377840111  0.3957640573260320  0.2007277239633402
  0.2001981234052966  0.4043996353021382  0.4018679664141765
  0.1998989972046085  0.4012250699125951  0.5993196310449523
  0.2003518587653918  0.3993771626847927  0.8002749401637036
  0.2008771203923821  0.5994019366837016  0.9938472141458999
  0.2012115667045651  0.6009740911002628  0.6002663254355635
  0.2011659494247069  0.5995140309365092  0.7982589919250997
  0.2011723970033688  0.8003555951613015  0.9996315202141206
  0.1758848919483818  0.8164511995501350  0.4091314688341778
  0.1994983886360655  0.8016756880991429  0.6035025718775733
  0.2008492357836172  0.8024630153982061  0.8017482416452832
  0.4015251365704142  0.0000002181540255  0.0017692737181632
  0.4026313733377954  0.9985447269401513  0.2009270135697556
  0.4001801558065869  0.0044358720301929  0.4008377587934497
  0.4027873811403989  0.0005593672132942  0.7985675862579863
  0.3993391306578195  0.1986280776814122  0.0021017213750267
  0.4006321499844073  0.1990347130310290  0.2020251044032731
  0.3997806983238267  0.1990779420077882  0.4006627573545011
  0.3958959181943549  0.1993540353762121  0.8054370329579462
  0.4007027498090054  0.3987160287661272  0.0022242251011981
  0.4019055051882524  0.3981161624202282  0.2021797446271764
  0.4006070436866694  0.3951425157082332  0.4018908555007898
  0.3997990317244189  0.4011327358868160  0.6013957112407909
  0.4008249389758252  0.3991918982868617  0.8006199348381053
  0.4010446708967881  0.5990196942478883  0.0005861959774986
  0.4046039622114782  0.5971805723401113  0.1996209274638711
  0.4084092808074541  0.5909282672983429  0.3999778436342130
  0.4010805575571495  0.5989135542983889  0.5993846114922695
  0.4015509318043995  0.6000063206493053  0.8011419492997377
  0.3999693825287641  0.7999945632506310  0.9979215075022934
  0.4047512833114970  0.7998361496773471  0.1917679767808595
  0.4000081644543896  0.8008498645689082  0.6016584107320235
  0.4010713868642453  0.8002155572516648  0.7997812953082861
  0.6017275397047998  0.0004477903523437  0.0003539416041259
  0.6019237641802763  0.0002061473848651  0.2016569343961501
  0.5979246258606935  0.9953046639790361  0.3986265578031489
  0.6009669683223318  0.0010099451645820  0.8015644088704207
  0.5999955881600179  0.1998706879404210  0.0078388091231425
  0.5975959585387166  0.1984542383601498  0.2023562791741187
  0.5918353701434497  0.2066051233324634  0.6096977916713019
  0.6016258462389449  0.3994349646551764  0.0017091254292854
  0.6007926032624332  0.3974649593441478  0.2029621246623868
  0.6013726280930588  0.3992737071807054  0.4024000166821677
  0.5996986249593113  0.4021071700101929  0.6026542552768190
  0.6006917942837288  0.4024602398837931  0.8025198800727564
  0.6016542235268795  0.5998682999455601  0.0012698802989111
  0.6031315328244913  0.5996751820736067  0.2000787452134931
  0.6024261369303197  0.5985678707907685  0.4002796197765110
  0.6008705226164336  0.6022173885417978  0.6010047664033661
  0.6010047106040810  0.6006347578511292  0.8012777736918605
  0.6020415392793875  0.8003492013445191  0.0014100159711310
  0.5998471836704805  0.7994721931101176  0.2006678437260686
  0.5980235644621268  0.7995714654689340  0.4004039849558195
  0.5990225076021901  0.8016939378778546  0.5998692708757644
  0.6007157043238393  0.8021853760221243  0.8004026777966837
  0.7999516623054261  0.0001989251054151  0.0001867598543125
  0.8018974373368234  0.0000230249645606  0.1995316438957133
  0.8113870501602168  0.9944310845926074  0.3966866214465412
  0.8054889725729009  0.9959158412890229  0.5988274577084463
  0.8006933846518066  0.9981003176392327  0.7983626194787092
  0.8009163358120877  0.1995016991006121  0.9989536509269694
  0.7997044251270919  0.1973164740996013  0.3966458225618780
  0.8013722637469324  0.3981967946669886  0.0005898526353785
  0.8012847324734380  0.3989480886727628  0.2006886194666630
  0.7995688320822527  0.3970240199721779  0.4004558119783492
  0.7996131130666559  0.4005973603060180  0.6001411271730615
  0.8006868600347333  0.3996789641186117  0.7991713619249976
  0.8017847218316332  0.5988098229428096  0.9999902045920394
  0.8009101537020795  0.5965951577535681  0.1989978439984579
  0.8006345606090668  0.6006010383735619  0.3993845161611049
  0.7999935100380029  0.5990013527449821  0.6004202988719485
  0.8010267824617322  0.6001469244495256  0.8003095978287091
  0.8023939322149037  0.8002431587842700  0.9980111429613863
  0.7974006385738005  0.7989307476120081  0.4027429626332702
  0.8018523822298494  0.7989950051983518  0.6001859986973546
  0.8006106401801460  0.8002940582251202  0.8004784221375905
  0.3996139727716184  0.9983648902417017  0.5989846993914141
