Zr2 Ta1 Ti3 V111 Cr3 W5
1.0
  -7.5249999999999995    7.5249999999999995    7.5249999999999995
   7.5249999999999995   -7.5249999999999995    7.5249999999999995
   7.5249999999999995    7.5249999999999995   -7.5249999999999995
Zr Ta Ti V Cr W
2 1 3 111 3 5
direct
   0.9968029916716303    0.9979363202372171    0.5994600816160864 Zr
   0.0002647120432686    0.5994107481605102    0.5990115211433155 Zr
   0.8011260751381553    0.7971979885263401    0.0025933929914549 Ta
   0.8011101152915761    0.5997409091931568    0.2007050155767710 Ti
   0.2005131113799304    0.5998043161224121    0.9982260006160466 Ti
   0.0001525454345502    0.7961371215167732    0.9931738795966925 Ti
   0.8031961368088197    0.9958065863077515    0.9967782178752479 V
   0.5970496157734795    0.0010303569988512    0.9997025683975520 V
   0.8032113295990140    0.2035718568839594    0.0000487583594054 V
   0.7997978424991055    0.9987002576870698    0.2018168040009674 V
   0.4002569927440609    0.9997347141067052    0.0073568694372156 V
   0.6020318935489222    0.2017221837982399    0.0035652695641624 V
   0.8006799158935447    0.4012821931584376    0.0004563114332474 V
   0.6002243787661806    0.9995919560613262    0.1993461998951117 V
   0.7953410213018399    0.2014449718980640    0.1975481881740952 V
   0.7990758758624880    0.0016452050192168    0.4072157473570537 V
   0.2014640391086888    0.0062515018710960    0.0052033586307259 V
   0.3965592303375615    0.1977605143788409    0.9991649986457574 V
   0.6005975977764481    0.4026039120758529    0.0003733773718104 V
   0.3986441759485220    0.0040380610208858    0.2028400079036187 V
   0.6073504834846141    0.2024564953764850    0.2025091846234069 V
   0.7986753584459544    0.3963987050266445    0.1979994315754735 V
   0.6007801573951503    0.9975815134495356    0.3958103446313772 V
   0.8079123528304832    0.2044344390933265    0.4057188542455158 V
   0.8031912314293642    0.0038672475294141    0.5999918835711570 V
   0.0031160530055750    0.9983360554439877    0.0040382521907567 V
   0.2020085408030945    0.1970052746761641    0.9973113334566164 V
   0.4054019824504610    0.4040182616145937    0.0048933977604490 V
   0.5999623302643541    0.6044965759922108    0.9985605738935542 V
   0.2029440875638967    0.9994573654734533    0.2005549914420245 V
   0.4025061982657143    0.2015254013532233    0.2025699959593892 V
   0.5945626873822064    0.3950214849432132    0.1987611420865113 V
   0.4022706704480292    0.0003211521855218    0.3987661747742869 V
   0.5995078997390036    0.1989443945149854    0.3967315174255578 V
   0.7950193603596563    0.3951214312673823    0.3998042329394384 V
   0.5988948853894136    0.9994687665409484    0.6005219305688231 V
   0.8009482435301244    0.2066443094912928    0.6011769378042667 V
   0.0012973793945524    0.1998298537606731    0.0005377078777545 V
   0.1959058560829213    0.3954862967824164    0.9939662703959519 V
   0.6010072615058446    0.8010439212290504    0.9997172397422962 V
   0.9995825656216903    0.0074989678355481    0.2045657330952981 V
   0.1992360034979275    0.2013619174498937    0.1975720369835244 V
   0.4002572532901271    0.4046666224802872    0.2005307431260198 V
   0.6002939707493876    0.6005924795313258    0.1987295078460619 V
   0.8004085256535642    0.7990290870656059    0.1966643917045136 V
   0.2036830831949674    0.0085369347120355    0.4016574857588583 V
   0.3964808114466538    0.1990607514573550    0.3984847032412406 V
   0.6029910943132507    0.4042372434201277    0.4025062311704500 V
   0.7995079720246518    0.5995005878031088    0.4002803762966675 V
   0.3981098650538565    0.9992799412215073    0.5997279372931252 V
   0.6049992301955444    0.2009380901807642    0.6034817614377622 V
   0.7993252648842919    0.4060757678476413    0.6014437404100056 V
   0.5939792865487553    0.0018185516618281    0.7978489079419819 V
   0.7995171090723822    0.2007457107431979    0.7986608974382099 V
   0.9964935870282470    0.3939079761723502    0.9972754768095602 V
   0.3993945135924887    0.8033095985400633    0.9967743525784845 V
   0.0039947582782101    0.2029533343188542    0.1989999717200766 V
   0.2029618345099868    0.4073438131293488    0.2004396142189815 V
   0.3978771443721798    0.5991629437746704    0.2017090810875524 V
   0.5930491100518553    0.7993123306557190    0.1993826619455885 V
   0.9968129274977185    0.9963952311979132    0.3956561197155222 V
   0.3996922179914310    0.3985411950348702    0.3996850345821077 V
   0.8005004260297780    0.8051227418884769    0.3988993408828456 V
   0.1930920148033574    0.9973307840194920    0.5987181091752974 V
   0.5979117146235421    0.3995020236498557    0.5991547609390935 V
   0.8032531057759500    0.5967904434125160    0.5999507552203092 V
   0.5971782672714859    0.2031393995875524    0.8027012827296878 V
   0.7975648929659847    0.3971313043988909    0.8004047947255959 V
   0.0051803554447466    0.6011375546731219    0.0060852534557477 V
   0.1967929399546572    0.8001698057195876    0.9982542092711797 V
   0.9961633244934031    0.4008785913398688    0.2018137735767334 V
   0.1999384234292109    0.6060207713226768    0.2040688355217796 V
   0.3957289294013344    0.7975914667412796    0.1914901199300241 V
   0.9992210516851024    0.1981402573575425    0.3993999825585324 V
   0.2002534097973145    0.4004163390437447    0.4012865945633847 V
   0.3973978039018812    0.6004264590008066    0.4007933343266821 V
   0.5943698647081035    0.7975949139938072    0.3997561626891077 V
   0.2006485472397292    0.2008240614702239    0.6009695275982130 V
   0.3990961679659348    0.3995587761864656    0.5986330501432287 V
   0.6046233582236316    0.5961772439295964    0.6006335974655050 V
   0.7975822054611178    0.8009372347762689    0.6003900677867966 V
   0.1983496472426027    0.9966649459398108    0.7947008872707184 V
   0.3983607880513267    0.1981651961713702    0.7959073592348803 V
   0.6062886984475658    0.4010180091370283    0.8042207705055600 V
   0.7944773762120243    0.5947997597521372    0.7954995633322595 V
   0.0005121153983930    0.6005514337674311    0.1992155135221408 V
   0.2053678945287556    0.8044849868977693    0.2087827096397489 V
   0.9973037725567020    0.3959389185773030    0.3978002832347107 V
   0.1992013267739698    0.5922475533646396    0.3954084689797112 V
   0.4012753026546341    0.8016475321422722    0.3997532927731288 V
   0.9984028109209329    0.1947380727440517    0.5931620692070534 V
   0.1958951532034607    0.4028486304007592    0.6026027880291518 V
   0.3987724714186736    0.5917656415762765    0.5980546563131530 V
   0.5952934002306518    0.8010143798032676    0.5994225357062557 V
   0.0017023595344131    0.0007304874449904    0.8001437517084264 V
   0.2017594782451058    0.2010611956209162    0.8029609685509026 V
   0.4026728250405534    0.4059337475841254    0.8083124914896580 V
   0.6014971893406759    0.6005929491417298    0.7994183125019469 V
   0.8012625898286707    0.7979896747979405    0.8016878273557380 V
   0.0010235174382752    0.8024171095207727    0.1978736847349540 V
   0.9924123460770811    0.5955993348874131    0.3994611151476586 V
   0.1968597335649518    0.7954043604967638    0.3930584445902267 V
   0.2040694149031500    0.6015670582254733    0.6055854001003839 V
   0.3950428162924673    0.8018360866373959    0.5975491138250448 V
   0.9985879944906526    0.1988466162963484    0.7996736878808860 V
   0.1997089235103283    0.4009673345738053    0.7993775910530807 V
   0.3993062523809653    0.6004954506361964    0.8037835882190212 V
   0.6002849708135749    0.7982459110613246    0.7957315055177591 V
   0.9994846757532342    0.7988316849583121    0.4011407218192126 V
   0.2056386422709715    0.8050388891953270    0.6022799774136335 V
   0.0024292246600635    0.4033479865427449    0.8033117768985889 V
   0.2036044530793112    0.6018084030878648    0.7991522585161802 V
   0.4010851824307872    0.7997981194332510    0.7977988690237778 V
   0.0023082794822570    0.8036688029109840    0.6001847690005199 V
   0.0005185356175157    0.5995414089490207    0.7989843857054051 V
   0.1973452820136440    0.8054353751962355    0.7984029390378424 V
   0.9983403472889512    0.7984367460966254    0.8010358468430264 V
   0.4029342909992034    0.6018126862618256    0.0006712340278379 Cr
   0.1985527686094501    0.2004353491335999    0.4004293750651561 Cr
   0.4054813287383662    0.0026622896052459    0.8044950448563832 Cr
   0.7964537665297133    0.6007785784587090    0.0001214137934150 W
   0.7998263107384702    0.0000686436775446    0.7982927535388624 W
   0.6001701441369685    0.6032746409859536    0.4034304324173924 W
   0.3989859748935705    0.2004108133212472    0.5996065723764951 W
   0.0041818115828365    0.4016216088785929    0.6022232872639174 W
