Zr Ti V  Cr W 
 1.0000000000000000
    15.4119853477336850    0.0092002105036784    0.0075686985216924
     0.0091978282521091   15.4168317070722267    0.0033033723005877
     0.0075647771218920    0.0033039266611125   15.4231482065347798
 Zr  Ti  V   Cr  W  
   1   3 110   3   7
Direct
  0.3992252503129711  0.2012822843202264  0.5986722620249050
  0.0019440153092550  0.1987518770623853  0.0015398056679229
  0.1968362963703100  0.3974362248333886  0.1939449764799336
  0.3871421061077938  0.9998495629268043  0.0057399232216532
  0.9993968792628122  0.0001870435018656  0.0002394353209239
  0.9999070500393208  0.9982038813013050  0.1981150344947733
  0.0002344677690802  0.9987939451134636  0.3998909561282368
  0.9983165256065402  0.9996353751074134  0.5989291698598588
  0.0001915383749675  0.9990180993796278  0.8011594952496361
  0.0003735565281111  0.1996899935998347  0.2020123268326062
  0.0045813604829956  0.1990606280987979  0.3989974911176352
  0.9972112146017722  0.2000469126181318  0.6000973925669526
  0.0003777773064175  0.1991869858272276  0.7993430754929227
  0.0004949491757407  0.4014221099950830  0.9991019825683060
  0.9984089208410738  0.4001897285261029  0.1992928727843283
  0.0007873724308258  0.4009871474054931  0.3992969442800263
  0.0023458062777009  0.4011859836748289  0.6011443778048982
  0.0000460612166028  0.3998768334491089  0.8003232219807425
  0.9994743155983600  0.5975253423301538  0.0005710265814837
  0.0005666953492660  0.6012436765485716  0.1999056425500645
  0.0014889235802940  0.6002451023031879  0.3989730749617166
  0.9980538287285718  0.5991947917421134  0.5983302057776050
  0.9988653703353357  0.6008141421207659  0.8012489716194627
  0.1318491240945585  0.9331191384776732  0.0000967360300228
  0.0008034513000730  0.7997710573246688  0.2014837015085177
  0.0029613709389256  0.7996404290703362  0.3996726795219013
  0.9996760410297596  0.7987288702405356  0.5986028032774340
  0.0043136073251298  0.7993188047537174  0.7977414708330961
  0.1994123706916104  0.0005227364266789  0.1997441669158077
  0.2005646227153603  0.0046059478288480  0.4003626708808561
  0.1981396311448379  0.0019473137354158  0.6000778676900260
  0.2001720131205552  0.9977778783671118  0.7979006960323560
  0.2049013481420602  0.2016782650936783  0.0011454892581620
  0.2007693704932168  0.1978798102213860  0.2033142716549083
  0.1944131806313159  0.2037490685927989  0.5962182177422383
  0.1995282261146252  0.1974551753253648  0.8018829639644751
  0.2007237938928391  0.3994631026455285  0.9943474802856896
  0.2004528979298592  0.3951019027298386  0.4061356245679829
  0.1998643434738390  0.3994645192288105  0.7955120873532002
  0.2003723581104944  0.5994205968422636  0.0002244401853537
  0.1998179187734136  0.6008325353589284  0.1994482205746848
  0.2042133550859794  0.5990901063227227  0.3996714246888296
  0.1996133197107444  0.5947754141942763  0.5999824434712808
  0.2009613543935330  0.6033882528481852  0.7992338266683092
  0.2030625049899015  0.7988079704363792  0.9956710174407296
  0.1982360453566720  0.8013092523621012  0.1961739001399186
  0.2035470867293166  0.8021706735207995  0.4015622729224348
  0.1997005227484908  0.7988634060825718  0.6038240897298491
  0.3997914744548843  0.9988674089355093  0.2018109824017023
  0.4009649020785737  0.9953533149761674  0.3992698842195504
  0.4018856283525098  0.9956087830790786  0.5986940612649010
  0.3999505953600207  0.9992233592750064  0.7976938623671674
  0.4035610894795129  0.2030617436223371  0.0022276877436984
  0.4012278300527294  0.2008435758182690  0.1992584018231194
  0.3971280212149170  0.1996075418217822  0.3932361237684380
  0.4005222694816897  0.1989144701933429  0.8047543380046683
  0.3996270726569593  0.4024259139945377  0.0006562990118416
  0.4012892341601514  0.4019514865756693  0.1999347430060258
  0.3998220988518749  0.4055194181449833  0.3978418364169640
  0.3957899981069733  0.4059691325452373  0.6009109508724140
  0.3986391473576731  0.4015351390141297  0.8006918923565993
  0.4017563020461541  0.5992768172077966  0.0023217897389343
  0.4005644816097472  0.6003376894256367  0.2041598832218295
  0.4053076088082472  0.6011366752068962  0.5954686186145945
  0.4006471026429724  0.6008509612178593  0.8004665983088294
  0.4003729267627500  0.7972131407353203  0.0023016936881371
  0.4001380540387124  0.8003485450111403  0.2028999511931222
  0.3995500655792931  0.7989319054154073  0.5957692012559705
  0.3961084485781012  0.7999888940050749  0.7997411211805225
  0.6028384737813473  0.0050300976617355  0.9994196922343351
  0.6012196422384144  0.0010057815751171  0.1993708490789770
  0.5997158387977568  0.0010900082318554  0.4007878152503471
  0.6022729637408690  0.9992440992001751  0.6004116318049615
  0.5997691890017843  0.0000256212878028  0.7996153719811371
  0.6006521109131522  0.2002625336556320  0.1967687459294916
  0.5990861965523218  0.2000246597370333  0.3984567727484968
  0.6009108774578532  0.2002787865759521  0.8039795767791633
  0.6004025532101303  0.3970316207486063  0.9987193290610167
  0.6014330212247668  0.3998386562211335  0.2002355752564027
  0.5994594823222861  0.3984194819451728  0.4007144998489660
  0.6011358949447129  0.4027158928042233  0.6013305463914757
  0.5990846023306744  0.3993358080238930  0.7993800218228740
  0.5999990399210833  0.5979698948905301  0.9994170816206617
  0.6015433080747223  0.5996799368605273  0.1996993969846373
  0.5968494928740111  0.5992790629088660  0.4040349254132494
  0.5997622972378197  0.6003778913080228  0.7972356413777325
  0.5985304862981646  0.8015668710743034  0.9990433132109264
  0.6006698306845718  0.8008450499004266  0.1993075246014929
  0.5963761592045145  0.8018215060023566  0.3995648650477308
  0.6008457906189885  0.7963666857860571  0.6015383733844880
  0.5976527848228105  0.8011857099239605  0.8004879435762036
  0.8020287931968645  0.9985529547138076  0.9997524579213091
  0.8014678887070066  0.9996247414824424  0.2008887947845058
  0.7999246602377563  0.9996579857773163  0.6000569783729629
  0.8009901530642045  0.9992093602577908  0.7988869086395459
  0.7951459973299447  0.2004958804136079  0.0006280035473685
  0.8012360745633046  0.1994647418378515  0.2010668946343035
  0.8006995216212217  0.2001713856890663  0.4000291240199070
  0.8008885854930581  0.2008145581146817  0.5993240361572668
  0.8011301736766437  0.1992583181273717  0.8000006282146052
  0.8005499683425904  0.3994577449398947  0.9996555222060191
  0.8012357191969975  0.4002767674028734  0.2005817904817610
  0.8010350085588765  0.3989839779496250  0.4001237758219361
  0.8019911747330503  0.3993370847656116  0.5996992255882863
  0.7996722717770415  0.6000708915538518  0.0000710102158343
  0.7994989870672109  0.5996315023807945  0.2010200332133832
  0.7991805844655091  0.6000740036602145  0.3994481108666755
  0.7967485701281839  0.5991895814297827  0.5995619044948217
  0.8003343555336591  0.6004264780178746  0.8003497989032710
  0.7978793260410542  0.7993042663343134  0.9998623621770620
  0.8009232699174741  0.8000607861195863  0.1994064670469905
  0.7992692435732416  0.7999226194431017  0.3996166513482637
  0.8001026887383430  0.7995690214069502  0.5993154804182609
  0.8027165611238342  0.8007546528528104  0.8014175049444304
  0.6039128051656696  0.2008582357521757  0.6010632710119865
  0.7998646062593937  0.9999963965868204  0.4000265916985239
  0.8004781269933680  0.3999092807597009  0.7996131150360799
  0.2021732287783542  0.2001077365318886  0.4009143296108208
  0.1993334594056437  0.3987684695747235  0.6014907097981597
  0.1998005663676577  0.8008287260306516  0.8001204179773086
  0.4013644730199228  0.6043201223925129  0.3995462893207311
  0.3983454381153791  0.7979734704637717  0.3988862995338430
  0.5996193978963585  0.2014037076511148  0.9999518681388571
  0.6014609116539579  0.5987035476417039  0.6012214184585601
