Zr Ti V  Cr W 
 1.0000000000000000
    12.2882735461728885    0.0000000000000000   -4.3445607757035454
    -6.1441367710433559   10.6419570608175889   -4.3445607757035454
     0.0000000000000000    0.0000000000000000   13.0336823299999995
 Zr  Ti  V   Cr  W  
   5  10 103   3   3
Direct
  0.9321035777769502  0.1489134630874575  0.5537505077671465
  0.9970736660316746  0.3927779753906384  0.7894967319971345
  0.4020644194142693  0.1890092535604324  0.5973156579209452
  0.5960009424456451  0.5941592341160546  0.5977183452201827
  0.8033528011651578  0.2031721270705698  0.0028073244016051
  0.0007568521443151  0.2000357842067145  0.1958786580983437
  0.2035653687916420  0.8055036159160326  0.4017014890416495
  0.4015141337970009  0.0012560444341982  0.8021241835727601
  0.4004340713783131  0.1975352427446225  0.1882491188070577
  0.3981346758386610  0.2046803006504743  0.3935071522556323
  0.3966097725488282  0.4113299988135844  0.2016097176998809
  0.6026879991653149  0.4036253018353869  0.2013527258266207
  0.6019843808376024  0.4059999357184913  0.8082215082237285
  0.6400184404930576  0.8408965011728873  0.2390192803476847
  0.8002590849049064  0.4015823182214311  0.5969801328997373
  0.0029503364323600  0.0021343539913419  0.0014514976165810
  0.0035159382263926  0.9995667076806651  0.2004773324073889
  0.9978349954789345  0.9954468249620448  0.3941242548224472
  0.0011634946701778  0.9945167607185338  0.6041217552191288
  0.9977361932531803  0.9939454953157231  0.8004555877758868
  0.0111607104777490  0.2017244412361002  0.9961547299780337
  0.0043088278731345  0.2054399982956405  0.3977050904497938
  0.9953531873133001  0.1867727060717253  0.8054350761441211
  0.0063649354194473  0.4055200256500872  0.0046368096033733
  0.0126657055061517  0.4157954183706520  0.2111769292933535
  0.0031823625755830  0.4028508288486339  0.5791085104800325
  0.0046402762775849  0.6024434606648927  0.0015791154475452
  0.9997282893590385  0.6003439300837419  0.1950717972237430
  0.0015168003582277  0.6021811310663802  0.6018766349540081
  0.0043000106099001  0.6119874316437587  0.8059085531294543
  0.0031792568382968  0.8001063544511499  0.9992491683444799
  0.0046890969133257  0.8009479758897885  0.2030927886817162
  0.9993394129307213  0.8051970443736507  0.4022640415634337
  0.0005636748149140  0.8022502609454547  0.6031991680149476
  0.1916619838296937  0.9933259478751575  0.9935059868354469
  0.1964367201178430  0.9952565170512354  0.1934922441680040
  0.1904958170602209  0.9970843915298738  0.3906075483383543
  0.1977401218312245  0.0001670275688834  0.5996668988740759
  0.1962986999157544  0.0026771133743434  0.7985408977753812
  0.1982750388654698  0.1983062469244308  0.9955400625065514
  0.2007127952000247  0.1993956480243959  0.1988170433337182
  0.1933774976144805  0.1997033626734629  0.3985618985230627
  0.1861839027384568  0.1946037801347791  0.5947459506957882
  0.1927625451898019  0.1985009257270461  0.7962697340607473
  0.2037825027850138  0.4032099926082051  0.0002454862399317
  0.1962717947811489  0.4041212120285583  0.2002121710067779
  0.1986226257103564  0.4038356844654070  0.4036702023369723
  0.1985537625768688  0.3993294374579823  0.6002285597091462
  0.2074071857644191  0.3995351860097477  0.7986989811930699
  0.2085861376452762  0.6059162106273376  0.0045371269908289
  0.2030910824704767  0.6038145627635374  0.1997140553795869
  0.2031629023944606  0.6011361655704061  0.4007411300009071
  0.1990345189804578  0.5990835065709709  0.6004211438621713
  0.2043987589074123  0.6000318824336842  0.8017609798554526
  0.2036596689610570  0.7995126169030613  0.0027275501323400
  0.2007007034834474  0.8001884184040510  0.1963675380029755
  0.1979532365400966  0.8007083812143567  0.6010471125444659
  0.4010576759339069  0.0000434602984790  0.0035319518042940
  0.3979759871140198  0.9950659040189552  0.1982495777991508
  0.3998408727244765  0.9933736571925248  0.3947448288078637
  0.4102776851316503  0.9964431597021451  0.6063729933134853
  0.3940131866125220  0.1965202423440747  0.9868854972314617
  0.3986517910659027  0.2035238617127254  0.8075118533107004
  0.3974218383411444  0.4035757561231570  0.9954112497217529
  0.3841021370242970  0.3961644907377824  0.3928666113552778
  0.3915655620812494  0.4008052472521744  0.5996210390635075
  0.3908406043901493  0.4007960266146496  0.8003668803281889
  0.4017463675250420  0.6041100298929869  0.0019081707432497
  0.4017426453292859  0.6092385201473578  0.2004837027729444
  0.3961144441962856  0.6000563606100253  0.3964304224445001
  0.3905023595955096  0.6007550573279302  0.6009911303562170
  0.3987554483708138  0.6008209422885570  0.8024784414452786
  0.4044246370001736  0.8011496937052081  0.0029530395816146
  0.4058658939476650  0.8053167037489075  0.2040971260696555
  0.4030593516917748  0.8004515466120689  0.3984031260904792
  0.3967764150172410  0.7978826239169469  0.5997687988735704
  0.4018629829861531  0.7972905110428822  0.8040551549275426
  0.5978924038652325  0.9960746003432461  0.9992189450836869
  0.5981567982590715  0.0024980743351794  0.1955758442666743
  0.6024868831541754  0.0030521127319523  0.4023912203425394
  0.5964304057606016  0.9931233241947721  0.5997767435235203
  0.5972172810980283  0.9939509852613061  0.7960471487052819
  0.5964153991467015  0.2064646521624595  0.0006838449950445
  0.6070382769606321  0.1982050000446513  0.1978512085973132
  0.5953315041757845  0.1983496616897383  0.3895677705403336
  0.6220689622185733  0.1994525043912180  0.6017462037331277
  0.5992467664808058  0.4073967219990499  0.0042666522511550
  0.6043394338328968  0.4024664259930540  0.4053268036399517
  0.6029239849603925  0.3955100846984328  0.6043346558572668
  0.5991210484741686  0.6031791236266817  0.0046385603432997
  0.6044014740798591  0.6108376388680631  0.2039773445061483
  0.6068074883923431  0.6034847825416672  0.3948026850927034
  0.5963872972689616  0.6042666920238032  0.8085770192522996
  0.6018671812132138  0.8033781080929395  0.0055293602605919
  0.5978507579948129  0.7972254093901094  0.4023192021448421
  0.5988245638232117  0.8028480273121833  0.5996976512420157
  0.5967361131135271  0.7994026695880124  0.8002589560083578
  0.7947055916383694  0.9885018766719587  0.9948974227695657
  0.8067910234466783  0.0081214374670669  0.2046354639982835
  0.7913150007220894  0.9867974098829121  0.5299082986477065
  0.7984623476112495  0.9939457836416367  0.7995796732248933
  0.8009733764018824  0.2045518352403564  0.2091343921816885
  0.7908805034928258  0.1984229393169130  0.3902913779958755
  0.7780338739597795  0.1208037171465469  0.5958643146898120
  0.7944135936039335  0.1942626622321715  0.7939261155642843
  0.7985389222630118  0.4060419293856408  0.9997480382749322
  0.8040423195168553  0.4058457894291611  0.2002709913286744
  0.8006749431230757  0.4026929458453559  0.3962931566582008
  0.8009706869523990  0.4054069686478590  0.8106276943091179
  0.8058267320953314  0.6044656395878168  0.0066789883181740
  0.8001626754818110  0.6033561914619334  0.2027183679789602
  0.8040492166784604  0.6064628599507639  0.4042333924488782
  0.8131631725057453  0.6090205386799498  0.6058920719337649
  0.8018501867070770  0.5975914458431902  0.8021452548658741
  0.8051161161934399  0.7994004558702262  0.2016789658720252
  0.8063872103483182  0.8062129126100743  0.4076439993947803
  0.8000894834996353  0.7989696905516708  0.6006705932203555
  0.8087773596828571  0.8029541229062491  0.8058189541118537
  0.0004902579869650  0.4011949043118371  0.3990749786985087
  0.0010628839686254  0.8005904171322347  0.8024369168632345
  0.6000730873931899  0.1946770628105359  0.8031602262589422
  0.0025122718055685  0.6040422218722532  0.4014162554935355
  0.2012960213187972  0.8016162037421634  0.8021314474052357
  0.8012755358245370  0.8004071780435761  0.0017948868039276
