Zr Ti V  Cr W 
 1.0000000000000000
    15.4411249493602298   -0.0057725826640909    0.0015034816595225
    -0.0057736157285930   15.4404920489432147    0.0129561230258158
     0.0015050534304008    0.0129519398306557   15.4493068869615229
 Zr  Ti  V   Cr  W  
   2   1 100  10  11
Direct
  0.4018350399179818  0.1952450134049776  0.9995892134477080
  0.7964213272326268  0.3981913316948429  0.2005745481307687
  0.7921403336700296  0.3957498928570599  0.6040713795867729
  0.9951767224859291  0.0002013726308818  0.9995315919524257
  0.9974033301606610  0.9993179451536847  0.1999654245207737
  0.0006621448224133  0.9989210325304081  0.4006178996831088
  0.9986315056279723  0.9980335755031262  0.6001989507426368
  0.0001186898790220  0.0003108959377178  0.8009999291216040
  0.0004912475381591  0.2000554967726795  0.9994842702273793
  0.0012474934725661  0.2016179300313105  0.2007058272780547
  0.9945014393495610  0.2010385672266749  0.4016535902145852
  0.9998294880288753  0.2011509738875520  0.6010589964064101
  0.9999182957903614  0.2016176554292575  0.7986157428941125
  0.0032962442323203  0.4016202242212707  0.2004458616071407
  0.0010650106093431  0.4015219687110151  0.4011616608514815
  0.0032801065783622  0.4041926566910984  0.6001743694778621
  0.0010930248031034  0.3992192135192943  0.8001413468061587
  0.0000129956060544  0.6011215482325418  0.2004918844871113
  0.9992369266787987  0.5994481912199269  0.4040262959008221
  0.9963877759860491  0.5993143227684541  0.7961303752727277
  0.0025115045484756  0.8011704449865141  0.0013714397291806
  0.9997875376959316  0.7992389901822800  0.2008431491305633
  0.0007130243745107  0.8000848239375842  0.3988871111618947
  0.0000688170199348  0.7961932204718603  0.5987252102035540
  0.0001740797861658  0.7999498853207283  0.8007859774239868
  0.1992415119316845  0.0019190309304158  0.3991742281183891
  0.1987727701594109  0.0000072508577571  0.6003938839041452
  0.1983905631521211  0.9982530116055792  0.7966914530493765
  0.1955826099340527  0.2016628688494911  0.0022210923906520
  0.1987240263910132  0.1983719993410470  0.2009238917498636
  0.1978324513856336  0.1987922829594519  0.4011824860229425
  0.1987695487651620  0.1993278598330155  0.5994981587730990
  0.2007383957563254  0.4006306473228385  0.9996155920555442
  0.2000902608688767  0.4002611824704447  0.1988847084117930
  0.2040475648144975  0.3976969155795335  0.3988780449771152
  0.2003451324929746  0.3982649925099867  0.6011098140813865
  0.1996928273741187  0.3996989094376082  0.8015929673169494
  0.2006901407128105  0.6010659310498037  0.9992268444549053
  0.1986265159174769  0.5991668192933197  0.1981128715119180
  0.1986942879346876  0.6005238253500105  0.3972779004336597
  0.1979941540934526  0.5999682784130409  0.6013695234582579
  0.1992927678879808  0.5988815679251848  0.8014460544094250
  0.2020283633343602  0.7987481405574254  0.9998573970317777
  0.2007608820309535  0.8666033701251269  0.1320950590725352
  0.2039677928965547  0.8012895736259493  0.3988448803532881
  0.1994173615527098  0.8004189046595600  0.5996131051989968
  0.2001605602115615  0.8007861975136343  0.8018032934840246
  0.4001310578040181  0.9997313439286534  0.2001503566001667
  0.4002425644448395  0.9986148952958923  0.4001332615049318
  0.3998187831494763  0.9979475402823441  0.5982746394685222
  0.3996061250848592  0.1990205658047662  0.2065392839167791
  0.4006726317471483  0.2022319408695860  0.4042205735524136
  0.3979625901749129  0.4006889867113064  0.2044049152335976
  0.3983211296329061  0.4042816932859997  0.5967124312772172
  0.4008161957076861  0.6004335432618060  0.9980611153977020
  0.3999177468615627  0.5998017574995521  0.4029217696275798
  0.3997342755234289  0.5983647044437098  0.7948079084104801
  0.4026595069589441  0.8005158811078000  0.0003166142454170
  0.4006108604910516  0.7996935858348800  0.2038149453236215
  0.3992741484356024  0.7959155454003105  0.5963784408166092
  0.3998993213368247  0.7981177356926581  0.7976143644519422
  0.6016989874109873  0.9942033083565345  0.9988426491675121
  0.6052579116257190  0.0003291166174562  0.2013606572343036
  0.5985152864874738  0.0007531928944478  0.4001768031593503
  0.6006418439232081  0.9987339741826304  0.6005995982906729
  0.6028405570878510  0.9987780679506695  0.7985343399379261
  0.6069870436321871  0.2018690681275783  0.0011146781517029
  0.5991259861723477  0.2000118804429189  0.2008161268664196
  0.6044485236694588  0.1998947381297493  0.4025169104918953
  0.6000616031359931  0.1986080490586965  0.6013482659896798
  0.5972532834123934  0.2005632051580341  0.7994524303422778
  0.5990819192849615  0.4021442537704458  0.0009173505731041
  0.5934609844234148  0.4009690031100270  0.1991541429852467
  0.5940144882733119  0.4008315183007513  0.3996601067357765
  0.5968028542429560  0.3995663293821867  0.6015969741906121
  0.5998480404110057  0.3997934197645815  0.8014213656949219
  0.6000237330569334  0.6032882100434945  0.9996937731251454
  0.6018788713386615  0.6005526381403188  0.1987873684939558
  0.6018389072849949  0.5998011650407088  0.3993185211770917
  0.5966014608104314  0.6004701022751230  0.6005484709859652
  0.6037918498949726  0.5976028325753229  0.8000752773776545
  0.5992494797500890  0.7987848662915604  0.1969102349662830
  0.5959794132738262  0.7994238248910015  0.3982225514137925
  0.5995713367161661  0.8008072371749708  0.6002172583154988
  0.5989080006411144  0.7987687609480375  0.8024699320698628
  0.8005353854828365  0.9979431105619099  0.6026576381248203
  0.8003472244750531  0.0010889275833168  0.8039208361884194
  0.8015259602773156  0.1972372966163401  0.9980953405794386
  0.8012195725458823  0.1919670897370474  0.2064055969238083
  0.7999248264003409  0.1957106287829161  0.5965238205227106
  0.7995808900464340  0.2008676666075572  0.7973878254260264
  0.7999278301465484  0.3993937453820487  0.9979227506841031
  0.7974024763296509  0.3961816451912223  0.4054263831852171
  0.7994222991436771  0.4019613842957864  0.8031554642052745
  0.8013844088478586  0.6020142504526472  0.9957424690159501
  0.8024025025541540  0.6042073282941779  0.1997924185307179
  0.7991936664287600  0.5993870331472904  0.4018976678396864
  0.8035305000456381  0.6023942791317471  0.6041635851903566
  0.7948180214901269  0.8030770002991549  0.9997562362287642
  0.8002325715004290  0.8038422363050038  0.2016969284469727
  0.7970271286397210  0.7999508491788051  0.4002527059222768
  0.7984258157510097  0.8018625967211430  0.5986850382896578
  0.7995388892562461  0.7964627542968860  0.8004314268876425
  0.0003001068259763  0.4014410902193390  0.9995598162145521
  0.0001018777102830  0.6008229304092390  0.9990986930259913
  0.1984924012287182  0.9990311597312665  0.1998566818956523
  0.2009350388588677  0.1990498155087349  0.7998839907058741
  0.4001385776839923  0.9977779583073559  0.7981938687661113
  0.3991758908795962  0.1994921318877280  0.6026295030812485
  0.3998495438827625  0.4038617380315112  0.0016523311643284
  0.3995106635144249  0.3991226602076320  0.7997661774442509
  0.3996396988427693  0.6005999298454487  0.1994467467616618
  0.7996570496613753  0.9997777977491346  0.3995724705658819
  0.0004272459989928  0.5999133412689748  0.5994900916217885
  0.4057474697140154  0.9964515124401598  0.0028968962652209
  0.4030087222147654  0.1985463235410390  0.7997086367045915
  0.3994862869526811  0.4002469471221260  0.4007180905023598
  0.3983256583449593  0.6009365021436999  0.5989009419959914
  0.3993326860131150  0.8013758959239237  0.3987412003129611
  0.5980326909741026  0.7984831373285403  0.0001085026932379
  0.7994379026131231  0.9996713199672989  0.0022440028038933
  0.7997136609802077  0.9995236011676413  0.1937419953183906
  0.7993852274526032  0.2019226884522153  0.3999519109964321
  0.8004034976414486  0.5994708885375003  0.7990687049310683
