Zr Ti V  Cr W 
 1.0000000000000000
    15.4847436070765792    0.0009784504468245   -0.0026808154501451
     0.0009766316503661   15.4905098634905833   -0.0070399733666702
    -0.0026790679861846   -0.0070400244986968   15.4873846095500749
 Zr  Ti  V   Cr  W  
   1   5 108   8   2
Direct
  0.1894916567726798  0.5978434277727830  0.3926587778332448
  0.0112324060873615  0.5995779730541531  0.2139657825457748
  0.9988138813129004  0.8042605330429503  0.5991011819905366
  0.3944177010243951  0.4039550591519497  0.9995309847700666
  0.8035940024053003  0.1988741190590484  0.4032178772832504
  0.8025801875657784  0.7983088844179858  0.1971664050634647
  0.0009599914647069  0.0008497175149957  0.0013940967946100
  0.0008480096820965  0.0013238648349042  0.2004400668965068
  0.9989090767346087  0.0003830545756232  0.3997458027303800
  0.9999150824301026  0.0000524831055357  0.8008180245093470
  0.0003759744989491  0.2000621664971514  0.0010068547339753
  0.0007379035896065  0.2003056319192150  0.2003264544792296
  0.0015460795829652  0.1992163016646951  0.4006525623271375
  0.0007783363127143  0.2000989414174075  0.8002604328474172
  0.9994640487180503  0.4015269773458522  0.0014694963498356
  0.0013293708916120  0.3979837517621759  0.2019066083074653
  0.9992028503957883  0.3994482668041894  0.4014127623443918
  0.0002479110881184  0.3999057410000252  0.6005861361900751
  0.0004756373546322  0.3996477316186549  0.7996414644904146
  0.0003431040626649  0.6005430930087399  0.0006175788957703
  0.9897629627647423  0.6003190087445037  0.4077987014504219
  0.9989121977007603  0.5986688123469693  0.6022621436934635
  0.9996789173839159  0.5999913285773861  0.8014832448705439
  0.0011396488568123  0.7994960146549724  0.0014512540494815
  0.0032370697770189  0.8028444429217542  0.2002961849200236
  0.9995533767101196  0.8000258043738095  0.3965668077350741
  0.0006018922137740  0.8006546313774443  0.8016958508628121
  0.1994784214581168  0.9996823315627358  0.9989372522495819
  0.1980601993058699  0.0001920465656042  0.4003833474853584
  0.2018035498281520  0.0005598267076271  0.6003876779093834
  0.1998968443972609  0.2005538951335480  0.9998304884909418
  0.2011249193783972  0.2015200381817850  0.1992746686589505
  0.1995397315284017  0.1995363623442816  0.3998225950973976
  0.2007519959749250  0.1994740325413049  0.6010594393294540
  0.2004121318414105  0.2004795077516102  0.7997498570615875
  0.1969135853378420  0.4011639946873589  0.9997636241054714
  0.2020773108421124  0.3985809413230330  0.1981137824690364
  0.1995728047956979  0.3947836160413124  0.4004877734623436
  0.1995113822008217  0.4000016183404028  0.7998262175531951
  0.1993898852119519  0.6016278678694151  0.9977952068925998
  0.2065381231881894  0.6009235573121592  0.1913936314434895
  0.1989110563155389  0.6001294162507863  0.6022950228948812
  0.2003794098509347  0.5997194469693949  0.7994423651848367
  0.2003744561574062  0.8009476125761832  0.9993670037848358
  0.2002492417114521  0.8038801746053256  0.3993263431067623
  0.2017259370357339  0.8004577849899273  0.5997076015445713
  0.2004667548143306  0.8002681457531622  0.8001472330277998
  0.4000527421607362  0.9999519397794128  0.0038632839715379
  0.3990809304252071  0.9992402259217058  0.3945749936578981
  0.4004386217989185  0.0005921138827263  0.5984401692887297
  0.4003768050360690  0.0002740274802165  0.8008670938363416
  0.3995820594166217  0.2001908133122625  0.9984097146568661
  0.4047258754045079  0.1986860323526147  0.2001285002199400
  0.3991511269606137  0.2010786306554145  0.4015326219928476
  0.4005234010744375  0.2006022143713497  0.5996858271759431
  0.4011422806144396  0.2002895547856635  0.8002362844842650
  0.4000814523322239  0.4002374654304552  0.2023944647083802
  0.3984704285514331  0.4015454843907557  0.4008583253323674
  0.3996796443175587  0.4003119193587593  0.5994706824076745
  0.4004091292325237  0.4007427326385405  0.7977883827926379
  0.4011313165753836  0.6037554592317301  0.0001826421462706
  0.4013137437707043  0.6006311140121066  0.1996281363956519
  0.3998239659176293  0.6011575235041928  0.3991531539368830
  0.3989816191739928  0.5994889669802462  0.5997755936781719
  0.4003144585162791  0.6002484109191940  0.8000285618436340
  0.3997668039945261  0.8006980824818027  0.9985576698260648
  0.3992556962528170  0.7993664496253897  0.3998164479419526
  0.3999101368316562  0.7999895063617198  0.5995992856758464
  0.4007631170670551  0.8009941835432438  0.7994391754010045
  0.6018840081363320  0.9991698679167612  0.9990650126776449
  0.5978112000372416  0.0035792149144347  0.1996162140992840
  0.6022840973618927  0.9988614641820558  0.4011179046137750
  0.5988356769926053  0.0009718359072322  0.5992105083509867
  0.6010289315329196  0.0008235244227677  0.7998205401655901
  0.6007889857428290  0.2015717540870322  0.0033090654275236
  0.5987746952339560  0.2009398498570584  0.3961481384395182
  0.6008203116918437  0.2000885133015872  0.5992637751413274
  0.6002846996851240  0.2003706137911066  0.8012746338847180
  0.6024574578130318  0.4017721209564876  0.9991992750237076
  0.5996314492411599  0.3965417033070824  0.2001231817190257
  0.6004416582020207  0.4010472818824765  0.4001985308889697
  0.5997914416662583  0.3998265041600836  0.5997108195929772
  0.6003328155384464  0.6002338138401425  0.0009057517297144
  0.5989365811327846  0.5995819463746653  0.1998101034130770
  0.5987520512541424  0.6004108147432600  0.3994925629310522
  0.5989059894637132  0.5991747303495414  0.6003234452042727
  0.6002024800882746  0.6000606680290685  0.8007788860454872
  0.6006606011207596  0.8000330000258370  0.0004285100072613
  0.5997673418925789  0.7999638650695760  0.3989914304427499
  0.5997892154841161  0.8005897701659717  0.5998443451775893
  0.5999131024414793  0.8004529477739110  0.7999465688464661
  0.8009222800903274  0.9997610820801810  0.9992424126454315
  0.7996158727301110  0.0007080405969828  0.1997067964846361
  0.8011168008067925  0.9969536637614498  0.3989970103456960
  0.9352353376579623  0.0014828357871768  0.5995924678132183
  0.8012482033513282  0.0000256344018120  0.7994690940076652
  0.8017730837932731  0.2015067010629166  0.9991460170245586
  0.7969635557334679  0.1999384574031051  0.1981349943506739
  0.8006817113508122  0.2025915718779777  0.6015455149270468
  0.7998906793651656  0.1994197954923438  0.7996509151171269
  0.8012155316952642  0.4012068878991908  0.9999249291689568
  0.8016147230889491  0.4016037624630888  0.2001857040602283
  0.8007654526316069  0.4029416859334580  0.4003280744437336
  0.7999648224999487  0.4005270196472241  0.6002519648667082
  0.8005187894086986  0.4007776789454043  0.8005303965208285
  0.8015565023241324  0.6003215014294737  0.0017444973141556
  0.7980975113016118  0.5989516884570887  0.2011366541323887
  0.7961972038672877  0.6005690863855420  0.4003720063413119
  0.7984059213869817  0.5996919219510798  0.6021348774538794
  0.7993401206126944  0.6000135314782861  0.8011328630515318
  0.8005911706999317  0.7997225650341138  0.9994964640765993
  0.7996427081671804  0.7994445920759986  0.4014246869239510
  0.7981836941893004  0.7977311041931846  0.5997707472485304
  0.7999194563919029  0.8003172424213891  0.7997630071282733
  0.0014265241804350  0.2002218435011540  0.6008801484220736
  0.2013348309820448  0.0009338128469947  0.1994095042475630
  0.2007889578149043  0.0006265988713880  0.7999308245009437
  0.1996230773892916  0.3996381865738746  0.5999678235634672
  0.2020915498894362  0.8025291231970667  0.1979624383142470
  0.4004714712655978  0.8022479005167085  0.1993742190327063
  0.6006390338273606  0.3997784453473502  0.7995035143787672
  0.5985725759196024  0.8008246923342197  0.1998630683998712
  0.4024179614552746  0.0057740965303541  0.1994291430241736
  0.6020307896718771  0.2018199562453263  0.1999685247776188
