Zr Ti V  Cr W 
 1.0000000000000000
    15.1444721515289729    0.0215626281354150    0.0345980255608667
     0.0218415399095087   15.0790018661118914   -0.0290573745029757
     0.0348858737663407   -0.0289704403818100   15.2196710799379300
 Zr  Ti  V   Cr  W  
   2  10  99  11   2
Selective dynamics
Cartesian
 -0.5142126343527527 11.7182820846066278  3.3008759177658922   F   F   F
  2.4651468383895372  8.5635823650518947  5.2873225149104126   F   F   F
 15.2129941891951521 -1.1057203315589901  8.6298235961359300   F   F   F
 13.7304496262419136  4.5273425273954393  2.7088105695873503   F   F   F
  2.7761057075351374  5.6604554837872652  2.8153689209270305   F   F   F
  5.9968936604698273  6.7448827041066650  9.2724686788354340   F   F   F
  6.2096211761860376 11.8977812576151258 11.9998667876370089   F   F   F
  8.6860687836155961  5.7977105764742252  6.0891066021493288   F   F   F
  9.4549510782765402  5.9028276277984943  9.8837822020267048   F   F   F
  9.4096242425434085  9.4337370768206572 15.5426523067156310   F   F   F
 12.6266079860101961  3.5350376494768430 14.5223991323136925   F   F   F
 11.9816161124607863  7.6272600843782499  6.4925481303536587   F   F   F
 15.0543093642499475 -1.0717888628029109  0.5496096695185183   F   F   F
 14.5579166257224237  0.0486107135273902  2.6347270240514766   F   F   F
 15.2250617905135393 15.1944599155112421  5.0428161996915666   F   F   F
 -0.8109714947749447 15.2596844020712847 10.9944245017015234   F   F   F
 15.3432639519484848  2.6373888104192575 15.1790525787989310   F   F   F
  0.6565799520711125  2.4632382072829686  2.3079988955506390   F   F   F
 15.4983840704873206  2.0803605469096724  6.9151259481110827   F   F   F
 16.2693115323098887  4.0280760855843196  8.6885769949449703   F   F   F
 15.4368956665400958  3.4253400260011899 12.2403577839836402   F   F   F
 15.6496019024403186  5.8342492170018545 -0.1147644442929757   F   F   F
 15.3091521622714755  5.7351371126862203  5.6650844896735206   F   F   F
 15.2943109743814833  6.5470362698751838  9.4119096062721699   F   F   F
 14.5742784760186019  5.5811543745391079 11.6937558402574933   F   F   F
 15.3786583078860204 10.2939726148347326 15.2884446433114896   F   F   F
 15.0095475965513678  8.0839683641941527  2.8191111206259545   F   F   F
 -0.9696873389179180  9.2640644547294375  6.0591646899508689   F   F   F
 -0.6214855237783187  9.3775052000571133 11.7824728331932285   F   F   F
 14.8709019164274476 13.0509272582134059 12.2622301827513045   F   F   F
  3.2873085247143785  0.3289453502704303 15.6309096216127177   F   F   F
  2.3519583027510880 -0.8842765462900180  3.1219940451637074   F   F   F
  3.7374474690438273 15.4787742566805697  5.0246617944965424   F   F   F
  3.6754690521351967  0.0801205307358464  7.8981245070477133   F   F   F
  2.5477471710388566  0.6118981285368522 13.3652969621378883   F   F   F
  3.6065418091795625  3.8658284334665796 -0.3850499980148651   F   F   F
  3.1757046452172957  2.8840659709813070  2.3405091694938993   F   F   F
  2.5370233120259664  2.8564489286374877  5.3900047023589774   F   F   F
  2.7511324770849259  2.0981939719107130  9.8841452461916131   F   F   F
  3.6793395669426641  6.4443734578640717 14.4242044705820689   F   F   F
  2.6524590736441001  5.8877221135632727  7.8180840955286843   F   F   F
  3.3562221782915929  5.4603158036639581 11.6017524645866974   F   F   F
  2.7302349002800583  8.6442985725496673 15.6305837742220355   F   F   F
  1.9366657977957136  8.3012291840016434  9.2170377713814862   F   F   F
  3.2137045453799797  9.4860752197199822 11.3545852674604415   F   F   F
  3.2501248747342708 12.3767101656254006 15.1570468699405172   F   F   F
  3.2965629647526700 11.8173909681391081  3.7978398507096842   F   F   F
  1.9098203944378245 12.1922400337904442  6.0543940324563881   F   F   F
  3.3054438077291226 13.4519639578422296 10.1684239158416325   F   F   F
  2.3928580051709436 11.8758291527528801 12.3439326065578197   F   F   F
  5.9875626769075554 14.6679641828672871 14.5326443186528245   F   F   F
  5.8950067201932317 -1.2823853520449442  2.2441312467049577   F   F   F
  6.0059796353928387 14.5280444149749268  5.9787967588723561   F   F   F
  6.3853069564038751  0.7199929812105841  8.7532363029890163   F   F   F
  7.8519244178861101  0.3114252780580717 12.2940784484452248   F   F   F
  6.6597049124404037  1.7206410749694676  0.3046113687649023   F   F   F
  5.9167348791852543  3.4467096315092705  2.5969090223616123   F   F   F
  6.2957351130084778  3.1978223893002684  5.1986445828033689   F   F   F
  6.7777643361233162  3.1498502694921551  9.9721028295565031   F   F   F
  5.5003602005949475  2.3834925740363886 12.2037226239980328   F   F   F
  5.8138217720135961  6.7180769930077746  0.6519375545256383   F   F   F
  6.5207706678690291  5.6130815892713430  3.6377355585918174   F   F   F
  4.8712761551579327  5.8028422036891447  5.9109903165712234   F   F   F
  6.3125610099570686  6.1324415891663122 12.0497431556049843   F   F   F
  6.6421617168703335  9.3553438474714241 14.8713621925455612   F   F   F
  5.2429595691707958  8.5358303591783695  2.9743110083669650   F   F   F
  5.9772211484180300  9.5213904102411959  6.5364855910738378   F   F   F
  6.4175241004203789  9.5395999506476077  9.1358377903826167   F   F   F
  5.2213732005424465  8.3131537661975781 12.6837784649553029   F   F   F
  6.5111585602104114 11.9742010535642116  0.6670156431756145   F   F   F
  6.4099423088996268 12.0534704486679711  3.8947559108540473   F   F   F
  9.6021890819934637 14.6111923232786953 15.3929953910704889   F   F   F
  8.7178836668690174  0.8237236681733556  3.6740780990315240   F   F   F
  9.8634103361132901 14.4220759112683101  5.7325919448314764   F   F   F
 10.1074220412556599 15.2997064659659099  9.3827864637312732   F   F   F
  9.1694894449196980  3.3184629758844020 16.0840798652336510   F   F   F
  8.8398738711624478  2.8814432627899502  6.7442786249282314   F   F   F
  9.0402285729425564  3.7909090295846246 13.1143359553602057   F   F   F
  8.3869725825554671  5.8506657108477116  0.0206514306056844   F   F   F
  9.0068657831863614  6.6736753335259937  2.7357002988360990   F   F   F
 10.1703401341873914  6.1733358266251432 13.6061147887181910   F   F   F
  8.1785683260178370  8.7487530293493077  3.7062121156392402   F   F   F
  8.8446507445754090  9.6158666076442874  5.5989718400916084   F   F   F
  9.0252548021138956  8.3816613726532481  8.3580229220601101   F   F   F
  8.7481342090937027  9.0066670285576773 11.9328534493960952   F   F   F
  8.6925368365033702 12.6306122254173303 -0.6596260660492226   F   F   F
  9.3172006820878774 12.2032410041511490  2.9905092694746140   F   F   F
  9.4626456764077371 12.2875541860643747  7.0918136184298266   F   F   F
  9.3565195972200002 11.9433301180596736  9.8211630951622304   F   F   F
  9.9887906920371830 12.4827443312533966 12.4487436293289555   F   F   F
 12.1818177137755264  0.9613041142590895 15.8546963424303904   F   F   F
 12.1545554313934954 14.6563596305329185  2.9426500318014206   F   F   F
 12.1933763061060478 14.9287870936201390  6.8634645739153584   F   F   F
 13.5423678738274997 16.1824984420608899  8.5254947271774082   F   F   F
 12.5002505252378011 -0.0768068640896123 13.2478758673504320   F   F   F
 11.3151680250795650  2.1741790407321679  4.1746498204224700   F   F   F
 12.7696122003138832  2.9477043279789825  6.6680965753305506   F   F   F
 11.6931484415763549  2.9925947014090961 11.1682448985440974   F   F   F
 12.1154186476895571  6.7983938220116062  0.6385416839477034   F   F   F
 11.5417524653477948  7.1878078028076393  3.7817022192879932   F   F   F
 12.9722852647996234  5.5276083498138400  5.2944435189486390   F   F   F
 12.8145160630440014  5.4287765261406955  8.3494500541388135   F   F   F
 12.4549186757527526  6.3957082243113863 12.1368196891202658   F   F   F
 13.0183074103627732  8.4564029762247461 15.0544804324111308   F   F   F
 11.7600265315629589  9.4865763616583401  3.2147705498143750   F   F   F
 11.6650487014627071  8.8503914422522669  9.6705070216528206   F   F   F
 12.2728793720036062  9.5104684045651737 12.9841142285953879   F   F   F
 12.1010179372478035 11.9804869701157717 15.7444583065572505   F   F   F
 11.7739532759107508 12.1536370751333784  5.7217982670165082   F   F   F
 12.3269569365847609 12.3987699426887037  9.5066003025560146   F   F   F
 12.5646501559768318 12.1796253829664138 13.3162110205891544   F   F   F
 -0.8034837627789461  8.7578796529155625  8.8982610532782118   F   F   F
  1.0191337078495617 12.2496195227695068 14.1928644217885367   F   F   F
 -0.4090269002237905 11.6093425342091781  5.9890361944632433   F   F   F
 14.2673946289689724 11.0955035288026576  8.5959254144307717   F   F   F
  3.1709155349944491  3.0964021862282087 12.5025128959363752   F   F   F
  2.5882880966575179  5.7235377618759058  5.2916159427281055   F   F   F
  3.1775821302732208  9.6168265528441026  2.7029168165341053   F   F   F
  7.1547674256388794 11.9196591881373930  6.0287213411858929   F   F   F
 10.1840249496001682  0.3633732963541123 11.9565003518521333   F   F   F
 12.0534037881566629  3.2414656581304033  8.9163230213725306   F   F   F
 11.6141376177565228 11.8395452967891774  2.7811482864427743   F   F   F
  8.7024345513662329  3.7734578583325260  3.8035236152548744   F   F   F
  9.3142496521253086  2.5934735162778861 10.1523363832088620   F   F   F
