Zr Ti V  Cr W 
 1.0000000000000000
    15.4922094526580185    0.0026204863925650    0.0046977305367004
     0.0026188043060658   15.4835477254094869    0.0031726630963070
     0.0046996939887954    0.0031721804069598   15.4787035328288578
 Zr  Ti  V   Cr  W  
   3   2 108   7   4
Direct
  0.0002112511589907  0.5970628028160304  0.4036104447583338
  0.4049605906455561  0.8008838367860377  0.1928627643921088
  0.5660339680174372  0.7846146708925861  0.0163506915435503
  0.3971602783279545  0.7968544672072905  0.5993808565340371
  0.6012064974899471  0.2052582275579460  0.2051088677442189
  0.0024334091223764  0.0008790854366378  0.0007497242177313
  0.0000674749955007  0.9995838981656960  0.1998791570048907
  0.0001770568444612  0.0009187222715406  0.3995654567723090
  0.9997763543858132  0.0004398912899926  0.5994026453034113
  0.9961883362729292  0.9986391256912679  0.8003895157703942
  0.9962102951621102  0.2002209691267063  0.9999600117967606
  0.0003674522591083  0.1996260616412779  0.2003153636977056
  0.9996801618088974  0.1992360652856146  0.4008813907997051
  0.0000105247974651  0.1977385990108476  0.5993279178842503
  0.0007251264806829  0.2020074315837594  0.7969774630428161
  0.0008372965388914  0.3998956068102449  0.9988290217644333
  0.0021555623849647  0.4000441783600975  0.1988126220262200
  0.0005690450540061  0.3939694094436677  0.3968463883653394
  0.0000174230457849  0.4002691274124693  0.8011836091466916
  0.0001705608568953  0.5988416253385256  0.9983383651190272
  0.9957359277218628  0.6008019004963868  0.1947516868950586
  0.9995149102894948  0.6018074190630429  0.6053463418026035
  0.9985559526944077  0.5990565418943599  0.8009859113161829
  0.0000220845370391  0.8003145594591767  0.9996817734352386
  0.0013505418546358  0.8010639258379909  0.2011892954258592
  0.0017005525291272  0.8046954866745958  0.4003962093598232
  0.9997463737247669  0.8006519380605951  0.5998082393676986
  0.0007926325214618  0.7993976064183673  0.7994116956269239
  0.2006880383125741  0.0010532651062437  0.9998946369233802
  0.2008978955455585  0.0001016580344110  0.1997128859448973
  0.2019782719249908  0.0001921329449323  0.3988859162984945
  0.2007474766171107  0.9995304752527800  0.5993075484687226
  0.1999958342506332  0.9992898077481583  0.7994189177352328
  0.1992731975926540  0.2003387551966097  0.9990033587428450
  0.1995144014798660  0.2009725068097301  0.1989054486441505
  0.2009102921287104  0.1988759642692963  0.3987134235487755
  0.1986941418895111  0.2019583695386020  0.5992454434121688
  0.1996059678828443  0.1992593089209386  0.7998514206851386
  0.2007637302473013  0.3997687110243147  0.9996018366604036
  0.1999761068818927  0.4009199746146915  0.1988747341245062
  0.2012088607943760  0.3997334646936978  0.3998674705424096
  0.2030639251191141  0.4002948001672391  0.5985725338243659
  0.2014763267169868  0.5992383087195150  0.9989489823716546
  0.2008532131857994  0.6002010820998792  0.1974152780518645
  0.2052170966791797  0.6014251541347351  0.3975966886032024
  0.1995922410023248  0.5979646434784833  0.5997722753835446
  0.2005137096125202  0.5998386068249661  0.8000410286479894
  0.1939847162248067  0.7992986038730447  0.9988737617169557
  0.2021868103566601  0.8012488592148467  0.3990724496974301
  0.1979721768405853  0.7995877017430770  0.5988748100603772
  0.1979039034903873  0.7998788096812774  0.7973312404351075
  0.4007250546388821  0.0003680476650916  0.9988245495903962
  0.4008224237252822  0.0059616603298659  0.2001603113185739
  0.4008872808883225  0.0022903673193668  0.5994209538943399
  0.4016978847251451  0.9998075609438761  0.7994776334927189
  0.4004985268865663  0.1999684344448323  0.9990183474082436
  0.3987010876088590  0.2006204689107800  0.1983734624482507
  0.4005466919354065  0.1998022682128476  0.3991690022354937
  0.3999027882638668  0.1996348360337055  0.5995545855773401
  0.3999960810897842  0.1989420477725563  0.7998076151933170
  0.3997398011429754  0.3995386716108548  0.1981682687108836
  0.4007472036353783  0.3989043697676318  0.3982824303260293
  0.4001861537831287  0.3989601596775929  0.5985475237157238
  0.3999149144967586  0.3990960483337905  0.7994408527037296
  0.4031635976260462  0.5980458210063565  0.9972305105277143
  0.4001614128711161  0.5950088098228793  0.1996152082471203
  0.4025235343841129  0.5998214404685308  0.3973485124187912
  0.4015183384921895  0.5971352808533779  0.5993404702644453
  0.3993631972408219  0.5982277300570548  0.7978195213116470
  0.3792798695014489  0.8010135475637024  0.9882703224720795
  0.4004621175050140  0.8015116354351319  0.3999315283089742
  0.3992547515504841  0.7996233612671355  0.7979794710804330
  0.5982578408279354  0.0005978298059642  0.0023956274783754
  0.6021419612318812  0.9994100676867302  0.2028496140087364
  0.6005463056786823  0.0005969721304500  0.4019625981229187
  0.5998471067623231  0.9995861554816142  0.6000521715480395
  0.6029183765941143  0.9982643859113087  0.8008643309922027
  0.6031194498287112  0.2006511480473716  0.9987880132144634
  0.6008485216779682  0.1995627793711196  0.4029031602730091
  0.6001549835139501  0.1998414510744342  0.6001507753905339
  0.5990595178169400  0.2007250085127609  0.7987447887148688
  0.5977199119332910  0.4000421028417614  0.9984296798064944
  0.5987051588479225  0.4019038646945882  0.2006367252225226
  0.5985404499213137  0.4004162977131077  0.3995493995421515
  0.5997880453235983  0.4003092341385593  0.5997462637290814
  0.5989471255809723  0.3990240032802968  0.7980534781765821
  0.6057238149716584  0.6023121034433535  0.1953896402067819
  0.5987558655162931  0.6008165002463535  0.3999032305518726
  0.6002972542735834  0.6000164077853503  0.5999476105011730
  0.6094360613673796  0.8027596423226304  0.2133373805408419
  0.5992608718280478  0.8011139347881797  0.4057660818603951
  0.6021549887874204  0.7988251421105406  0.6023650942313765
  0.5984271883945211  0.7996313234673471  0.8020346438245995
  0.7980871736796316  0.0019472739474118  0.9988954872048980
  0.8002212211810330  0.9992037515457026  0.2003268176832533
  0.7999446388562199  0.9997509567091193  0.6037830011309916
  0.8027838728382585  0.2007403044535437  0.1960357341147511
  0.8000166110122821  0.1997020608986345  0.3989640577211055
  0.7993199786162127  0.1950657812254784  0.8034384961724763
  0.7994840582134011  0.3945626893466362  0.9991471794018297
  0.8002786643343294  0.4052979243610477  0.1995524269830939
  0.8001746292255317  0.3983116351988419  0.4009548585393387
  0.7966474574379850  0.4000760412147589  0.5989280578397151
  0.8013900252913299  0.3997445121138952  0.7972283709912034
  0.7948488988532759  0.6002721341661115  0.0019552810445249
  0.7938594066738220  0.6009165686474960  0.3947803797690489
  0.8001484506833426  0.5986312414312500  0.6006112997890994
  0.7997871953121831  0.6011004609039127  0.8010115911746337
  0.8051600183522483  0.8025238526789072  0.0017022584307283
  0.8030542789304624  0.7975222393383192  0.2010467328859820
  0.8007778500750075  0.8023271859715593  0.4025088580588883
  0.8004294530330770  0.7986678322240268  0.6001442868540432
  0.7987654565104220  0.8021728296942316  0.8025831260266142
  0.2000634227925647  0.3998370901412656  0.7988742556862701
  0.1977620555634906  0.8003764938349658  0.1991933139167015
  0.4010239575508213  0.0007737401803660  0.3990965941125170
  0.3995033031101866  0.3981002045877916  0.9984746284518626
  0.6002616535935901  0.5988529443356871  0.8006618612642973
  0.8001610791958074  0.0008363513852270  0.4012903650886002
  0.8002882633729846  0.2003097236579856  0.6006999652815335
  0.6026107972711128  0.5890304440102372  0.0005984854857394
  0.7989575450384008  0.9984605786522467  0.8017416386322949
  0.8000467224556975  0.2001009804408662  0.0000141967491511
  0.8021578055971489  0.6000791601468902  0.1998841776731416
