Zr10 Ti9 V92 Cr5 W8
1.0
  12.6172176936866709    0.0115451545700756   -4.4669336730166407
  -6.2903605648566554   10.8649981714077679   -4.4432462987804993
  -0.0385933284248056   -0.0380859578850954   13.2914089255054595
Zr Ti V Cr W
10 9 92 5 8
direct
   0.9975946532006320    0.9993823757846858    0.7947906763830124 Zr
   0.0026860387494310    0.1995898582530565    0.0039800320387971 Zr
   0.0004332251300214    0.4000934066653422    0.6100690351498216 Zr
   0.2014312616502408    0.1979001204084470    0.8006547952055755 Zr
   0.1848550800111263    0.3931932766111882    0.3840038131882216 Zr
   0.3961516446438696    0.3881321131773656    0.3964632192886108 Zr
   0.4000917633243197    0.8010939266030253    0.6060732497845966 Zr
   0.5931135709093289    0.1889085828594614    0.0008435253822377 Zr
   0.5935245421088347    0.4020413849587219    0.9980512401894742 Zr
   0.6092735188907309    0.4049446689918024    0.4076386666291524 Zr
   0.9915139664260562    0.4024613434612658    0.3963238985735664 Ti
   0.9989912284019475    0.6093844605538641    0.0039629489089626 Ti
   0.0046172492946450    0.5994672136544695    0.7983216861003439 Ti
   0.2264547079475465    0.2138839809329267    0.0332718512850276 Ti
   0.1971894814100083    0.1938172145433008    0.5875614163533893 Ti
   0.4009518928792548    0.8103588236757465    0.4000066887254002 Ti
   0.6032452754249070    0.6166515861392016    0.9956958271339018 Ti
   0.6044574268710450    0.7990319029976084    0.8041802920300409 Ti
   0.7983420364975985    0.6032522419900909    0.8014729335079381 Ti
   0.9958565220318534    0.9816536772849496    0.0055949664869867 V
   0.9938275467877075    0.9900881403719151    0.2006209779463056 V
   0.9935057266074122    0.9927310513449252    0.3994934987393051 V
   0.9796170801257935    0.1765495026063491    0.1958747887869309 V
   0.9948771805471345    0.1893228718168205    0.3997829906039240 V
   0.9910923811265189    0.1830062733250976    0.5939309636609079 V
   0.9972323879434134    0.2219701942438673    0.7958776308960229 V
   0.0042058670542604    0.4068889407679213    0.9958278930861583 V
   0.9936802836574533    0.4022573119275650    0.1907079112325346 V
   0.9966581435330970    0.6045347706376879    0.2021289257813605 V
   0.9981677783907226    0.6068450700768167    0.3978321421195036 V
   0.0017608744743966    0.6091181817667267    0.5953741451869252 V
   0.0030722384854715    0.8062096260342816    0.0034912843970065 V
   0.9984216716272110    0.7984311602590571    0.2003598222499506 V
   0.9987984815345673    0.7992819366846702    0.3980378035331280 V
   0.9983288949499732    0.8021005071235777    0.5975209648057940 V
   0.9988583927267527    0.7956628356816504    0.7985065840092608 V
   0.2018860018868051    0.9915326437566182    0.0021362686885900 V
   0.1974794924091676    0.9910955751279658    0.1981650838190351 V
   0.1967697091053892    0.9943931371552172    0.3969691391853954 V
   0.1947495097164187    0.9905030820746424    0.5947032272067252 V
   0.2080853308137308    0.9872719693587519    0.8012984463464409 V
   0.1856765863648051    0.1732999209357675    0.1996874613102637 V
   0.1924153454191235    0.1811513691572753    0.3892134204575285 V
   0.2139085378541218    0.4191045282139172    0.1937857700928062 V
   0.2061684920526229    0.4117631360086806    0.8115742963093755 V
   0.2023831368686960    0.6021577218646483    0.9999852303858970 V
   0.1893082420392124    0.6040045022417420    0.3877872266769443 V
   0.2039227553342327    0.6051514531008084    0.6066382215891463 V
   0.2181176475204612    0.6148287645827104    0.8134483167318223 V
   0.2018814853519543    0.8034002564559866    0.0030974602381283 V
   0.2017948853862946    0.8062616474841259    0.2041346774006441 V
   0.1932588817060988    0.8045071813526165    0.3991622728433944 V
   0.1890857972802285    0.7976525970918299    0.5980264749144403 V
   0.1977687465741897    0.7983179949762119    0.8012777131694115 V
   0.3984560461453132    0.9960338974512303    0.0035792710043670 V
   0.3989793202408223    0.9978396850820958    0.1993174671878451 V
   0.4011270316563253    0.0057748882926148    0.4000276541312042 V
   0.3994529629358105    0.0063320016645143    0.5978563497011663 V
   0.3867395873964055    0.9875012513809800    0.7890344326457084 V
   0.3948556360818920    0.1941661860076793    0.0018346031764665 V
   0.4003043994780211    0.1863460941050100    0.1938367408263048 V
   0.3959344613354963    0.1807178719343866    0.3959901594658059 V
   0.3999803388278801    0.1942062733229758    0.5953806692158967 V
   0.3940045684998724    0.1814127380191734    0.7798399632561449 V
   0.3952436048144363    0.4157136442427385    0.0089143448660061 V
   0.4222629678031107    0.4202757408196548    0.2046873041688843 V
   0.3983967188684826    0.4012408477901035    0.6101162034407835 V
   0.3976067377393344    0.4016312535778479    0.8000218195408759 V
   0.4018478933208443    0.6071121166117301    0.0014968026990056 V
   0.4045548422070677    0.6090088638146831    0.1992697731521878 V
   0.4027453583791148    0.5944778546227276    0.6019042763843263 V
   0.4062488201413051    0.6040250398910186    0.8028324383040457 V
   0.4011418812089601    0.8025147645842073    0.0021360388570772 V
   0.3945202918131978    0.7989067553668473    0.8110259871155621 V
   0.6004867159773333    0.9885602106484138    0.0010423453741010 V
   0.5993664704672991    0.0001422450393289    0.2005530323230022 V
   0.6020501112210798    0.0012355204408682    0.4000346469776865 V
   0.6078944956232089    0.0102373326570422    0.6043825438862019 V
   0.6123323263093730    0.0119304515547588    0.8074778004480172 V
   0.5997053869420258    0.1876260044706368    0.3937814862441718 V
   0.5993072509892041    0.1954411645554576    0.5967686720170430 V
   0.5978329681525142    0.1942732245059665    0.7900151996270753 V
   0.6042027006689235    0.4028082958090603    0.2029336097216282 V
   0.5965686093225897    0.3936009632965236    0.6054652355069259 V
   0.6054846888199471    0.6081596947319299    0.2039169775079788 V
   0.6062542908553883    0.6121010646756138    0.4011543847874201 V
   0.6067905546435997    0.6086271830442529    0.6184613792560516 V
   0.6039065249426167    0.8122954731054730    0.0082404555272571 V
   0.6042595474658891    0.8037608853703593    0.1999555606972765 V
   0.6069480746934978    0.8010387600752878    0.5977482878612369 V
   0.8016764515452999    0.9976311566490257    0.0039551239871183 V
   0.7980618063439500    0.9946009260902934    0.2027372498084812 V
   0.7978164193456937    0.9988040035673760    0.3976430017378684 V
   0.7985650197084692    0.0006070142868257    0.5955014495718056 V
   0.7812430307365157    0.9906922975644218    0.7902756913324595 V
   0.7995787065238348    0.1996392122281007    0.9992339311888533 V
   0.7938921858454252    0.1889876349250699    0.3981043754449438 V
   0.7961775967586648    0.1946972676676048    0.5972517708516720 V
   0.7972543436024898    0.1974984131740395    0.7968650198355165 V
   0.8090569742767729    0.4035368459756617    0.0014269483286885 V
   0.8065162364753786    0.4098310274476170    0.2049971927202510 V
   0.7907013881377664    0.3945925259890266    0.5985605401275261 V
   0.8032643673581191    0.6053671572843010    0.0101280824911722 V
   0.8076419397217087    0.6114591338730297    0.2073539806900064 V
   0.8038928504620995    0.6064273079055768    0.3987220510660052 V
   0.8157886237001643    0.6138981821175146    0.6094353790683826 V
   0.7984248805321020    0.7968995227256246    0.9987864752458706 V
   0.8045576526895099    0.8040498717109426    0.2041853813950267 V
   0.8050436225705663    0.8051472499253297    0.4025050100087542 V
   0.7944003622752345    0.7926021038130890    0.5932806335121678 V
   0.8046919813331381    0.8045377078314334    0.8013711013428931 V
   0.9903749807899204    0.9913476493127358    0.5809256406150403 Cr
   0.0013664017125879    0.4010016779596539    0.8114926169252787 Cr
   0.2090388461704058    0.4140055831287719    0.0049290455300987 Cr
   0.5982862569122489    0.1920487285821482    0.2055798258132213 Cr
   0.5985700808542230    0.5996266911543416    0.7975111521731226 Cr
   0.2051618565837562    0.4036549779955765    0.6069356662358324 W
   0.1968559455749786    0.6058569560497553    0.1959026809995002 W
   0.4032433307830970    0.6062734437079557    0.4024148021118792 W
   0.4018978193786991    0.8050023829266136    0.1970358174954127 W
   0.5993865057240632    0.4017021544320334    0.7961530422038462 W
   0.6052603915222616    0.8056382052399012    0.3997569384269017 W
   0.7938368411972589    0.1925683497343779    0.1991528813730167 W
   0.8009580912493636    0.3987145825015993    0.3987019191937188 W
