Zr Ti V  Cr W 
 1.0000000000000000
    15.4863295998759050    0.0024137293282322    0.0105674120120943
     0.0024156779473548   15.5040449564505511   -0.0174543962439357
     0.0105707746262879   -0.0174578174046017   15.4782021514271442
 Zr  Ti  V   Cr  W  
  10   1 106   6   1
Direct
  0.0018397058243615  0.9673999670692396  0.7658013824819783
  0.0079183458558496  0.2112300157581353  0.6048975518117914
  0.0001097949256366  0.4360360131626937  0.0375845816995244
  0.0037112292012406  0.5765546017072066  0.2217677138249953
  0.9598232682023078  0.7894353589028745  0.1942962003492149
  0.0025408275570402  0.8018614624606208  0.5992281452460207
  0.1918371481210044  0.6274114328440966  0.5975919193804723
  0.3587640839061041  0.8019460333515717  0.2019278660662885
  0.8331406061948963  0.4307558656455382  0.3981676463613336
  0.7497001503904280  0.7931138418276752  0.1994776371889014
  0.1889475814049606  0.3885134672270450  0.6017587893864614
  0.2023598648713583  0.0021446673003500  0.9980231638229800
  0.0045508392035927  0.9986975040321557  0.3913765767187631
  0.0001661424069600  0.0079070662202469  0.5810705115350498
  0.0009702305831534  0.1973436105165586  0.1999445823576188
  0.0013621777267687  0.2006826809020302  0.3981786217786515
  0.0002140833281263  0.2043551185516699  0.8091795102974151
  0.9991469187594729  0.3851863071493034  0.2289406867388789
  0.0209121038769802  0.4003462736579376  0.4099616876718549
  0.9925215900888504  0.4099234839182790  0.6001887015531293
  0.0003934862526127  0.3974091777658605  0.8014946414527031
  0.0001037508087169  0.6264251320473745  0.0134379603518371
  0.0069170580063225  0.6043784443807422  0.4182354910208423
  0.9908954385780629  0.5995868027450142  0.6096014985190373
  0.9987672431073531  0.5896554629005725  0.8091614100874990
  0.0016373479529574  0.7996450575010979  0.9927633548905163
  0.0034764251573802  0.7997722248762026  0.3968791799180748
  0.0009758912458127  0.7794081356392465  0.8027100576691911
  0.1994739700745827  0.0017454713885401  0.1983938683785050
  0.2023048867669691  0.9994834598539619  0.3971760579061084
  0.2031110017151938  0.0041877246773079  0.5970330354895795
  0.2020647343548811  0.0010362290416383  0.8011654136424425
  0.2005205587055767  0.1993826587987895  0.0003149461811774
  0.2008779209960217  0.1999866905860838  0.1992416346694305
  0.2043400587878125  0.1984392071280879  0.3989028670409246
  0.2029264006392216  0.1990850893943739  0.8011464047923839
  0.2035928580984552  0.4007145586864813  0.9997967817684940
  0.1976576898414465  0.3983892621415653  0.1985060628209940
  0.2061932365196997  0.4018455554907437  0.3981948812142099
  0.2000292226336380  0.3985770828106747  0.8032418497800350
  0.2015815445044437  0.6014980023045235  0.0014921676718943
  0.2061649100576014  0.6014299119435975  0.1991961878893528
  0.2024095939814702  0.6001481578878562  0.3935181939138815
  0.2004650736803463  0.5983709067061644  0.8046021827436994
  0.1992194697357735  0.8035301645692778  0.9995857783858640
  0.1710627414511060  0.7988190278881877  0.1992465700217404
  0.1991447049469524  0.8001376755350597  0.4000810373006479
  0.2085860869261325  0.8152021684386151  0.5994639101730034
  0.1989661520408268  0.7994347969424547  0.7986935716816463
  0.4012071682523555  0.9997135217972586  0.9983687075739215
  0.4032834605971661  0.0033952899980212  0.1988189947902883
  0.4003817318804683  0.9983668039648735  0.3991738450593443
  0.4040053192528689  0.9993962326994285  0.5984091404452236
  0.4006018394900500  0.9986937267005399  0.7965807363839165
  0.4014070415099407  0.2001669795651296  0.9986422554200095
  0.4006945462640111  0.2001679963301766  0.2000335492005049
  0.4020083703392527  0.1992340055064255  0.3995752998724553
  0.4048371788191343  0.1985500598192867  0.5993320472389172
  0.4001534227772395  0.3996323207888742  0.9999668587539703
  0.3993435014281541  0.3971028248472397  0.1995170944496961
  0.4008788935943777  0.3990216092934314  0.4011326499628369
  0.4003691598484735  0.3975157572856740  0.6009402234947774
  0.4004591038073345  0.3996443019552808  0.7988706211704839
  0.4019773797214644  0.6002272110697838  0.9999765051475848
  0.4041132787108626  0.5932268618657144  0.2009501514516054
  0.4014985226345312  0.5993162193278382  0.4007230955547670
  0.4008108732569087  0.5966974475755054  0.5990275973322732
  0.4002944742824143  0.5985000687466310  0.8001677340430979
  0.3993687700635279  0.7997966651639030  0.9948137935622414
  0.4000819369409380  0.7982021149750945  0.4040567770438944
  0.4009856679929265  0.7996794217576292  0.6010128979455948
  0.3993698450310888  0.7976510954950728  0.7986603671256802
  0.6002515857882941  0.9987186699209919  0.9982302268939499
  0.6011973211928603  0.9959664832770568  0.1989757634329369
  0.6016562238447789  0.9972744346595173  0.3974936255264100
  0.6013499486576515  0.9989888384417539  0.5967681130981878
  0.6009155145713574  0.9971438206466632  0.7973190553240043
  0.5990387765031063  0.1985851926011978  0.9996492494572151
  0.6020568319400147  0.1997128467705947  0.1988891852154590
  0.6019807369810077  0.1990556537037583  0.5986808556325304
  0.6008063759778268  0.1992946590734481  0.7990981174053463
  0.6001326057145669  0.3984726255058155  0.9988932091897456
  0.6015494614373543  0.4001777311827922  0.1997630330612871
  0.6010977417905107  0.3981339770978742  0.3982890595606515
  0.6008892450116282  0.3992422776533496  0.5980288694651217
  0.5999563681352436  0.3999100907698830  0.7991440892952670
  0.6021031829873035  0.5990488257293506  0.0038793355346052
  0.6046017979113066  0.5988614164627039  0.3958245270942168
  0.5997559344808816  0.5994028130746679  0.5968005118362970
  0.6011472926382248  0.5994893362946834  0.8011085227598098
  0.6003668421136933  0.7993556371447746  0.9978590810021171
  0.5640150652861526  0.7897936532436638  0.1985234695799943
  0.5988597646791319  0.7990938341680207  0.3989819232436544
  0.6004804314199954  0.7986432399880353  0.5985546095883997
  0.5998352431570040  0.7976535905697407  0.7982043550884216
  0.7980803620934845  0.9997868104337220  0.9972630020855878
  0.8052243860289744  0.9972574944532737  0.1961940240948969
  0.8015959057515456  0.0002595414289134  0.3978952872989561
  0.8008699837498613  0.0009230030214917  0.5978382715264222
  0.8002209523948448  0.0004592613892020  0.7988184234255835
  0.8005256303346235  0.1984948414527974  0.9983990716715284
  0.7999463668459209  0.1985528617708543  0.1982276849927857
  0.8007373502426705  0.1960861301102236  0.3986105219600494
  0.7996048731441441  0.2015939373562784  0.5994574261917797
  0.8011614990710284  0.1990050269791660  0.7998716566800685
  0.8033296583506138  0.3972025635223569  0.1946299598269279
  0.7975395628026711  0.4001758804370494  0.6009932078001853
  0.7992459249259233  0.3997278144307581  0.8003270350379971
  0.8024519742157097  0.5993152033925748  0.9994649811987476
  0.7944003983730449  0.5952687940354736  0.2087145663085569
  0.8032292780447918  0.6180950262462123  0.4042313969832745
  0.7965048941255742  0.6017559224672199  0.6002518775284482
  0.7998216786754154  0.5992089771309363  0.8016876660554290
  0.8019148576447023  0.8026689804456290  0.9970665094770604
  0.8079677819699316  0.8060393884377198  0.4015707997605260
  0.7958990990055915  0.8017027662343382  0.6006461896696104
  0.8016320911068200  0.7987390545517199  0.7985211872626092
  0.0009049264599994  0.0013203450949608  0.1938454656390692
  0.0008583768964886  0.2016401609817622  0.0028978963224469
  0.2096424812407092  0.1952149815326766  0.6002474528709429
  0.4022502137810741  0.1994821684970952  0.7996370156896914
  0.6008685763108353  0.1982827917703945  0.3982132514542327
  0.7976658828811729  0.3988782857873851  0.9981227984432163
  0.6016224468079280  0.5976382644064514  0.1992440293634405
