Zr Ti V  Cr W 
 1.0000000000000000
    15.4805872964875064    0.0164407112200041    0.0035989963029214
     0.0164446277914183   15.4746249029866600    0.0001853387473097
     0.0035966273084505    0.0001816893159112   15.4646802772830902
 Zr  Ti  V   Cr  W  
   3   5 108   7   1
Direct
  0.2020369129654713  0.5983943970089022  0.6035091626105021
  0.4049789844378413  0.5896774166478829  0.7987261436162844
  0.3892382394598667  0.8086065281858962  0.1989428643516637
  0.0023485771818312  0.4000547883250701  0.7960648585216973
  0.2126990355075375  0.9872670975798128  0.2008174085646462
  0.4017550608884368  0.2019774628548480  0.5974495658643224
  0.5963995101731882  0.9970928957088268  0.9991498728143993
  0.5844600622584499  0.4076150117903858  0.7979514903650281
  0.0010001007547316  0.9998066783191113  0.0012954728682935
  0.9990527939985372  0.9991006708616135  0.2008096778180505
  0.0018283663829710  0.0004316785238118  0.4003926271175358
  0.9988434983081963  0.9998529436825253  0.5999557550516555
  0.0004652855170743  0.0000742720043225  0.7995938378701314
  0.9993986117790928  0.2000641641209503  0.0003435563357823
  0.0019080556517690  0.1976015714865412  0.1998236713886583
  0.9998721219154695  0.1993379637458572  0.3999070331820492
  0.9986302543335285  0.1971451551832008  0.8008304556103147
  0.0001149343808413  0.3989325733678517  0.0025916788163556
  0.9997352029737298  0.3992551834348855  0.2017477950342384
  0.0002722666316051  0.3992874428756190  0.4009559006091700
  0.9993144852618763  0.3990062219276551  0.5977432093304145
  0.9957886335121534  0.5994893262143136  0.0012618095642336
  0.9993453946601849  0.5993061435470687  0.2014427167360981
  0.9990183773900169  0.6003482285458217  0.3996105952346558
  0.9955667053787020  0.6001395770830983  0.6003193441470810
  0.9994833417613920  0.6024408417953504  0.8005865981144511
  0.0006668622220236  0.8008446101221677  0.0003594037297665
  0.9967821958207659  0.8002958695900814  0.2008789220073033
  0.9997912484406204  0.8006202269591433  0.4009626055127843
  0.0002673276395975  0.8006094702445417  0.5998564515990518
  0.9999617977493152  0.8013586933053953  0.8002993113832249
  0.2006101137304347  0.9989118405453159  0.9980468309996231
  0.2011900146303673  0.9993565555027702  0.4029693499970854
  0.2005213937225283  0.0006368486193265  0.6009678214874902
  0.2001793632167173  0.9995903738107943  0.8001570777012479
  0.1989260545362190  0.1989927592024389  0.0010690981401271
  0.2010127512333117  0.2003961217292552  0.1993027558195758
  0.1987690745302454  0.1987644490437670  0.4001584297691289
  0.1984981174447454  0.1980227081397755  0.8008513015443225
  0.1992541185204819  0.3995141244765438  0.0008893098916421
  0.2002284793335376  0.3987578854291649  0.2005455310733603
  0.2001128647704476  0.4003091772650001  0.4011787451085048
  0.1993918814558822  0.3940630541279538  0.6009680768006889
  0.1992112664298269  0.3977061130157682  0.8011982179929201
  0.1993601070359978  0.5987468590659111  0.0016304812366599
  0.1981584804830798  0.5970921002520849  0.1996429665813180
  0.1991323354672605  0.5995839540070750  0.3975036538384981
  0.1957676005692616  0.5989474935705538  0.8075832703675129
  0.1982782457491931  0.7979747124452692  0.0001134650813963
  0.1899762829049557  0.7924390723289035  0.1996904055794485
  0.1997755772026840  0.7998292340393072  0.4005701101593659
  0.1997751944120916  0.8030536916069775  0.6015902668803590
  0.1999923201028190  0.7996426725242893  0.8003393130939054
  0.3975800902361973  0.0018205486570386  0.0002907656629854
  0.4081687000100597  0.0107733900076954  0.1999316431449517
  0.4015517128231642  0.0034064662711808  0.4019737052447393
  0.3991841077334042  0.9999094168147015  0.7996664943318855
  0.4007929253060284  0.2028941536832500  0.2004326416067519
  0.3974856982724278  0.2006827402108711  0.3998776460302890
  0.3986980956509386  0.1961479258561167  0.8023552229250697
  0.3989310585150141  0.3997911212555527  0.0012646146237583
  0.3996264559534383  0.3998474030388859  0.2009272189301200
  0.3995345597146053  0.3990670836446452  0.4002112493878289
  0.3995278924728111  0.4020300440396075  0.6000926716637706
  0.3919608210285983  0.3886834307502712  0.8001815476512352
  0.4003971703366022  0.5996115911802236  0.0042818177201294
  0.4003065641577528  0.6008867562521403  0.3982917069761022
  0.4061751879496042  0.6008400199047168  0.5934341620640018
  0.3992321676520229  0.7977154368042416  0.9944205392292771
  0.3990219586172112  0.8005021571756810  0.4038871762377775
  0.4005062927190655  0.8005928904441704  0.6012237142378346
  0.3988305606858615  0.8010904068941388  0.7993874753793739
  0.6024662124986648  0.0028926623674501  0.2034844021312975
  0.5999060671376928  0.9994015113818696  0.4015415617755898
  0.6002099436319088  0.0016948153257419  0.5989599604738413
  0.5996342071062647  0.0006950391544349  0.7989522460362612
  0.6006475893370261  0.2031979690639605  0.9997265818966109
  0.6008641498900027  0.2016551704889377  0.1977689731653605
  0.7653985377900063  0.0348403412698334  0.4011054135620000
  0.6011085321777122  0.2011819617190854  0.6030042575007765
  0.5986822818427234  0.1988085588313611  0.8015585720012016
  0.5975454904857591  0.4011448686632045  0.0009322764119319
  0.5983315799735491  0.4001838219675758  0.2016511843953204
  0.5986420133517604  0.4042685695202485  0.4006635332272643
  0.5993822083712489  0.3998046253030457  0.5973490746763684
  0.6048725267478234  0.6013342863711877  0.0006195543021523
  0.5995317417004583  0.6014209746107085  0.2007691250303297
  0.6005639261832778  0.6015445666526196  0.3995036746200344
  0.6037682479200063  0.6024683719526474  0.6008317412239479
  0.5982952652598383  0.8001314451445901  0.0009417860040939
  0.6000073470893100  0.8017096150991277  0.2004147349885276
  0.5984567994031540  0.8009420093022706  0.4005624624987426
  0.6000625380203045  0.8019886536015461  0.5998822492305718
  0.6003612021237095  0.8029623493926469  0.7990370641053263
  0.8004382847309047  0.0011145297464197  0.1994774458361143
  0.8005114010153273  0.0017411268636699  0.6011504671830974
  0.8001159793355265  0.0010163361519227  0.8012028643391222
  0.8005222330590601  0.2014828899033296  0.9998952925123480
  0.7992639974264578  0.2009879233327387  0.1996113167688576
  0.8020095428923748  0.2013620858439446  0.4000081385937587
  0.7983716189003541  0.2007533159186760  0.6001938908874652
  0.7987892272837697  0.2021896620211042  0.8016676970844440
  0.7987696169750967  0.4040842244121456  0.9993617579035001
  0.7994829040795521  0.3998288423028529  0.2009264640589657
  0.7985866004271106  0.3999293016525102  0.4004226328068818
  0.7988922730185380  0.4001781421597845  0.6018449159301635
  0.7984136598474336  0.4010764648542464  0.7999656878188390
  0.7995527229489114  0.5999736655951700  0.1966130577631154
  0.7996894134891086  0.6008292781693126  0.3994465175179720
  0.8002128342311138  0.5996953766231730  0.6014577927961117
  0.8018100772994354  0.6012217074021051  0.8049874176042835
  0.8002505091117055  0.7979546407619541  0.9994663338147896
  0.7985847368892810  0.8015345926687454  0.2005872607654426
  0.8007363338151390  0.8001310609265124  0.4002592830126860
  0.7993495748059143  0.8005827929677393  0.6015576049150813
  0.8006256976361318  0.8023100361435342  0.8005848673787278
  0.9992360476862969  0.1990332485695850  0.6002764991352785
  0.1979929223902079  0.1984136687148930  0.6008427224262325
  0.4004519431305606  0.9996573413425880  0.6007492711342066
  0.3990899708280288  0.2006047293485215  0.0004983683504518
  0.3997267804478972  0.5980160821715822  0.1999990671885455
  0.6071359603233447  0.6070256645149469  0.8006507677636182
  0.8021393998289635  0.0005137992268958  0.0003052700156582
  0.8009877754576340  0.6010488869293119  0.0021974824655369
