Zr Ti V  W 
 1.0000000000000000
    15.3704372863088707    0.0041087699184726    0.0045828320708022
     0.0041071823098185   15.3593176205705255    0.0049868964281650
     0.0045832368054306    0.0049883200619353   15.3853693029952101
 Zr  Ti  V   W  
   2   2 106  14
Direct
  0.1972214484945302  0.9833002218453680  0.1682549751474832
  0.7919349208206898  0.4013960668637516  0.8102790741062960
  0.4071371466058334  0.8006705941093375  0.8075228799391017
  0.6135696099876280  0.4017939709434403  0.9890467473558793
  0.0020049410612725  0.9976392486775281  0.0044244766969335
  0.9915586897143108  0.0033847744974369  0.2029072640852680
  0.0002483011141861  0.9970049819141396  0.4002206901924214
  0.9942415664717530  0.0002533058801157  0.6032557904086506
  0.0025360143802924  0.9987203936752330  0.8033834757349453
  0.0011873999770845  0.1989997922827164  0.0003110554040333
  0.0004105242402612  0.2031826895085697  0.2033421084286340
  0.0008025499137221  0.2000350206662835  0.4014727743572611
  0.0030848370473417  0.2005992341850340  0.5996654122320154
  0.9993312709161478  0.2007745820851352  0.8018734082891830
  0.0040319371641453  0.3992857322296353  0.0066543137836787
  0.9990168545584693  0.4008228061005879  0.3970839462227347
  0.9973994789820275  0.4001829656690464  0.6001423321384881
  0.9995166457538949  0.4009622125517394  0.8031611848981989
  0.9984875812883246  0.6060328887664199  0.0011235342531154
  0.0027896570182036  0.5962994806347616  0.2010964040279999
  0.9998575650906504  0.6031831459164781  0.4020177660652479
  0.9993628151724162  0.5996674028629110  0.6016520127322991
  0.0024388040863939  0.6006416741680426  0.8003339282921543
  0.0065041416644437  0.8026711710933434  0.2020242042180976
  0.9994374437195231  0.8000512584817174  0.5953349783110309
  0.9992337660173942  0.7992151509482051  0.8071735181338591
  0.2989063197128165  0.0019268513242539  0.9937716373324417
  0.1978430454766665  0.9991957519533223  0.4039209265096774
  0.1982349541299838  0.0032017466468084  0.6051130792274731
  0.2014546797540944  0.2045023585638260  0.9989926142506829
  0.2007289578725555  0.1974236684961476  0.2008598162455661
  0.2023613432169342  0.1985195061959539  0.4033403470992928
  0.2004851104249914  0.1967747772694399  0.7962667696972097
  0.1964315029943565  0.4036381056820814  0.1959596618004592
  0.1993623970564049  0.4017340409465038  0.3998362446967839
  0.1978122549797142  0.3967444617626161  0.6009152952911359
  0.1978344865626119  0.4044306638338661  0.8043944250983328
  0.2004399486283111  0.5947714144497206  0.9960522907288489
  0.2008696445074639  0.5992652111724227  0.4007281605124052
  0.1995386627886702  0.5988635164194854  0.6046058537243503
  0.1962669508768653  0.7956511743924607  0.0007374747391919
  0.1953982275790985  0.8013708374717819  0.3964577693193349
  0.1993275504434237  0.7998119932459745  0.5991206039059799
  0.1980333587660475  0.7979645196438871  0.7998413327327892
  0.4038189893201775  0.9964609256586615  0.2017786290756513
  0.3997073570679250  0.0028342798169841  0.3995346419039959
  0.4013052733719609  0.9991168650064044  0.6005440154145925
  0.3964480173657919  0.0002007608178247  0.8008542797844608
  0.4006396650899232  0.2012215860741528  0.0015921069952813
  0.3995797085703321  0.1976515904385185  0.2043458197732616
  0.3961160596607639  0.2002516066964129  0.5953348052197195
  0.3995169458417289  0.1992020873051984  0.8003000362158124
  0.3961615596117270  0.3981314698642268  0.0010396313029850
  0.4023894020355595  0.4009215337188400  0.1985945574127604
  0.3996346684370073  0.3971368481898883  0.3977026454881776
  0.3993504161210700  0.4001740740171666  0.5984822440841305
  0.3965557348851684  0.3992475952099749  0.7996420109306120
  0.4022247596445855  0.5988674357079323  0.9997930243394328
  0.3997993597940654  0.6031206489557532  0.2002632701144771
  0.4002969889028802  0.5999166979065282  0.4004813843004965
  0.3986693184221272  0.6005163837770059  0.5989795833113272
  0.3958404310018286  0.5996659619669451  0.7999449858536070
  0.4003662557360598  0.7986455475440232  0.0065047827727100
  0.4004734454569469  0.8019315734874383  0.3953376762019840
  0.3995575713056846  0.8015336851230489  0.5933856073223792
  0.6021316337012392  0.0003000221939835  0.9983275105602545
  0.6020700093644966  0.0002540258356418  0.1980497802919672
  0.5995704666472225  0.0006346517733509  0.4020744400245767
  0.6020978834116157  0.0008875503185086  0.6027796304725552
  0.5966879079671014  0.9991801167501884  0.8022163532372657
  0.5988441114812890  0.1983046529402568  0.9992296501354678
  0.5987082583921228  0.2027262656947260  0.1988262914529512
  0.5948873745631049  0.2012498634659441  0.4009872578808039
  0.5980690995508124  0.2010967144124785  0.6012257234602219
  0.5964994056809503  0.2012179789397402  0.7998747297358541
  0.6027542631552338  0.4014719418459829  0.1993222099349873
  0.6010411826234674  0.4013708197552169  0.3984761139916517
  0.5997786076554472  0.4007410569560869  0.5989546993876074
  0.5897860421654723  0.4008327536030059  0.7944347572855041
  0.6011724673345933  0.6017852335018631  0.9981155533884422
  0.5988373468762502  0.5992708885535803  0.1979896433801920
  0.5994619107289073  0.5995033337569515  0.4018940792363427
  0.5984639795258098  0.6001765750054364  0.6019458326085789
  0.5960095519043963  0.6005428300451658  0.7997941255966899
  0.6002281942972073  0.8003928637313511  0.9997411047944856
  0.5949622042070308  0.7991570572181997  0.1993377279781249
  0.6027327260929519  0.7990262752615649  0.3986163316322524
  0.5995435277872927  0.7995601780242454  0.5997006779891840
  0.6025461176372958  0.7994428768206672  0.8005703958353442
  0.8003200778384377  0.0003290699588858  0.0052587991399746
  0.7981308436902885  0.9971531492159221  0.4016470623555081
  0.7996565688564358  0.9993223795443600  0.7978416028804687
  0.8006114324467682  0.1996814863478121  0.0012538740632564
  0.7982716683494775  0.1971526636095338  0.2025841306927626
  0.7985412766086574  0.1989086894016361  0.4017505064118579
  0.7992488310469491  0.1964958548002989  0.6002115094981608
  0.7995618663100922  0.1953964698247481  0.8007086770847714
  0.8083145840273830  0.4003423350204094  0.0108718901362688
  0.8042707275368116  0.4005479924169965  0.2046848892532900
  0.7999703442568880  0.4004487168864231  0.4016302912587205
  0.7993539189141023  0.3987773134258963  0.5992771328740166
  0.8002014026703520  0.6020162967098801  0.0011684734952227
  0.7988388651570835  0.6017549921896630  0.2011963346184812
  0.7984095295388904  0.6050538936194468  0.4016896931318305
  0.7987390988744869  0.6002222680225660  0.6026840236026469
  0.7993404763981660  0.6063780791502510  0.7993330301296397
  0.8053634271228897  0.8015362991602205  0.0036175726795899
  0.7968665222522598  0.8043116609065490  0.2048622951990188
  0.7998898362665297  0.8049297315771343  0.5961311946896682
  0.8004624049349229  0.8016462527290609  0.8002787329768596
  0.0008058985801178  0.4011381155026149  0.2019849194457520
  0.9999624836177304  0.8008678146381792  0.0043045030147027
  0.9974365374147973  0.7986042812989370  0.3995208968301375
  0.1998984809084424  0.9969985240498274  0.7946579936430923
  0.1995227061570089  0.2011918150657396  0.6010224668782391
  0.1996238943013445  0.3999970175256560  0.9996456095880212
  0.2032766225355367  0.5991460510595320  0.1979674012350169
  0.2004349214489802  0.6004106313711606  0.7997144554905982
  0.2024195970586591  0.7842359095399545  0.2002508201852006
  0.3988326489167989  0.2001175281918918  0.3995290823292332
  0.3952808745487048  0.8024097449484250  0.2012720284776232
  0.7966690584994013  0.0019088105466091  0.2025800354194772
  0.7987667066931694  0.0007998955548022  0.6008590344548265
  0.8033485166100651  0.8010527983045405  0.3993031626016327
