Zr V  Cr W 
 1.0000000000000000
    15.4863295998759050    0.0024137293282322    0.0105674120120943
     0.0024156779473548   15.5040449564505511   -0.0174543962439357
     0.0105707746262879   -0.0174578174046017   15.4782021514271442
 Zr  V   Cr  W  
  10 107   6   1
Direct
  0.0006253968285148  0.9681923131128156  0.7586266683756204
  0.0307255141481587  0.2358485435068149  0.6064450377470357
  0.0001936892452077  0.4331902931047178  0.0400491864173301
  0.0040909299483512  0.5786582990180882  0.2202727096950343
  0.9611069649613004  0.7921664061892715  0.1934781840213848
  0.0037718596700640  0.7973452361988248  0.5983138586875418
  0.1995604444309925  0.5918026220640801  0.5989836512293782
  0.3586878915415664  0.8032676547198856  0.1997129338361301
  0.8349314407570925  0.4306081828202000  0.3976316156849789
  0.7505627591729875  0.7914722537056998  0.1980430118546250
  0.0010461560645436  0.0063679477210595  0.9993395830930935
  0.0037620621143872  0.9985889354060967  0.3935048680456295
  0.0011281959929256  0.0061467331368925  0.5727443898008022
  0.0010018758633141  0.1993947597330764  0.2024722699319853
  0.0010404286800155  0.1997285736600286  0.4007246844217296
  0.0006175055001798  0.2043519201769401  0.8092170347971647
  0.0001110023214179  0.3866632640171647  0.2319504762935361
  0.0235231766234668  0.3973217574140393  0.4123164793711567
  0.9911211404179856  0.4031232843845913  0.6006975110334181
  0.0014674763215294  0.3968665330408248  0.7995750025957462
  0.0010356995164966  0.6229187606850090  0.0122896832362089
  0.0062639297280125  0.6062458322936584  0.4178153493598014
  0.9948743431999032  0.5966081718321549  0.6091783399509721
  0.9990811176576352  0.5923349611406072  0.8095967212603535
  0.0015580836330709  0.8121939919124453  0.9924406667215062
  0.0024217216678408  0.8004918913897520  0.3951753650025672
  0.0002960602202976  0.7819157885616290  0.8040827160545225
  0.1997775869987234  0.0023034840166112  0.9973485084369739
  0.2003385720904730  0.0017133952745063  0.1987773258972517
  0.2021269571950028  0.9992825302290960  0.3972892959491578
  0.2014148715306781  0.9996604922807292  0.5974563438955710
  0.2030440993284949  0.0006216999398909  0.7992504777838686
  0.2017065126105214  0.2008294309841315  0.0008611900555591
  0.2012919041624956  0.2001294234205588  0.1990252437557526
  0.2029413807554891  0.1995503918282112  0.3999446185919696
  0.2010454081895300  0.2004071598313239  0.8005305994346539
  0.2032542094989820  0.4009348837564325  0.0006466644179832
  0.1988889589986375  0.3993701682656304  0.1990922243043737
  0.2065537170513704  0.4029939045805080  0.3966900617122072
  0.1993658454591978  0.4003455188067354  0.8042805351889846
  0.2013683884121397  0.6023916783203526  0.0016647909199570
  0.2071513865658314  0.6008699063281073  0.1988896656830507
  0.2013836419457495  0.6015360990746973  0.3935405025573138
  0.2003977557632957  0.5997958070575820  0.8055913286716514
  0.1996003047940582  0.8027272850221069  0.9997325182230172
  0.1717487328819644  0.7970500116404762  0.1971328780359537
  0.1993497145330415  0.7997929520843778  0.3979783112549000
  0.2074808401584264  0.7989126767883180  0.5985393296908854
  0.1994822182868284  0.7996119296298446  0.7987542351142238
  0.4015446755497611  0.0006151243123422  0.9985019781227534
  0.4022490089447391  0.0040611422277876  0.1982445738395916
  0.4003870701785311  0.9990324785635745  0.3987783650286461
  0.4022341041790112  0.0006460909811044  0.5983398751086683
  0.4003386143071328  0.9992981202071347  0.7971455687229385
  0.4013774601384540  0.2001961765985043  0.9988236922673166
  0.4009782446221108  0.2007236531205235  0.1999293116661533
  0.4005233003006956  0.1990264007243220  0.3999609188712028
  0.4016351681201256  0.2008000092438536  0.5990596964211240
  0.4006465342073172  0.4003176151419851  0.9998383615298984
  0.4002574040248835  0.3979266436784020  0.1994013020759678
  0.4010254615454800  0.3987848445135110  0.4011841725606060
  0.4024962623328887  0.4002807416134480  0.6004210446744520
  0.3995306606839892  0.3997663065622808  0.7983758920909256
  0.4026325651674829  0.6009550148122229  0.9999087808098941
  0.4043875200863140  0.5940741075810358  0.2006862385817922
  0.4016424455335588  0.6013720273946451  0.4004964680018258
  0.4059205698746214  0.5994163538823304  0.5993302486918594
  0.4011936016104648  0.6006252900151976  0.8006919560544848
  0.3993792241067535  0.8009920727272452  0.9949022673896707
  0.4007062548913037  0.8000039350524437  0.4026802641945639
  0.4014020769428565  0.8003878641183790  0.6003657629936849
  0.4003746863973306  0.7992619760715860  0.7988764964160078
  0.6007187991461639  0.9992996818795854  0.9986326633309490
  0.6009487521762515  0.9964846466697372  0.1987198862119694
  0.6007864687397166  0.9978277769311248  0.3977553595040764
  0.6007276361473348  0.9991882745736220  0.5970672137930743
  0.6006290325769273  0.9979689429765756  0.7978784090674951
  0.5995187661727227  0.1986553477550540  0.9998602055831601
  0.6014066932064029  0.2004360463842217  0.1989345253718069
  0.6001368254020594  0.1986724261057588  0.5993455220752947
  0.6002185509989616  0.1996430972686689  0.8000079097263250
  0.6005010058051614  0.3990978009121341  0.9990127076846523
  0.6021962465047483  0.4003706842480577  0.1996312810609992
  0.6017083041779729  0.3987866271233367  0.3980099455929537
  0.6008735001529643  0.3998006157635726  0.5980616055038661
  0.5995507832329069  0.4000607769159082  0.7996974378534254
  0.6026665538837815  0.6001305629595669  0.0039880102522765
  0.6044078385166644  0.5991570054685337  0.3955957011110307
  0.6023729980230902  0.6000938535861591  0.5969426181256845
  0.6021286884706762  0.5995614951479743  0.8017929221476348
  0.6010441424018798  0.8005588399094313  0.9979483876066141
  0.5646837395166926  0.7907115847491769  0.1986627275917516
  0.5996984644650846  0.7997648693387203  0.3982767394013933
  0.6012340373690624  0.7994608691616806  0.5984803119126016
  0.5998561555350298  0.7981489982043080  0.7984112627311384
  0.8016112850907536  0.0013433156826705  0.9971478227280165
  0.8013931131362517  0.9976433099714510  0.1981483370110724
  0.8002394543364943  0.0004538491727062  0.3981221652260459
  0.8023458260958765  0.0003878699638806  0.5988993530216025
  0.7982765535942404  0.9999562089878108  0.7989379862791538
  0.7996054471930264  0.2003388901728956  0.9996784108476586
  0.7994242987164388  0.1994778415665507  0.1989318584677587
  0.7997313969762019  0.1965055591033786  0.3988376965868943
  0.7944439424477168  0.2013715362950267  0.5997605218920606
  0.8005947256483353  0.1992118462095299  0.8012681702407100
  0.8038833699828548  0.3978077500098194  0.1945056907179879
  0.7964986782874731  0.4001824437123296  0.6008902951107968
  0.7993348068137365  0.4001219326788810  0.8008002316155626
  0.8035523684251642  0.6009039743280336  0.0002851909067042
  0.7943328680250282  0.5944704246555748  0.2076362233052709
  0.8028929849052558  0.6179388119852648  0.4035418088922141
  0.7986401692539693  0.6007160530158818  0.6003932179057619
  0.8008482410891511  0.5990748072410420  0.8024803614563873
  0.8024970958158557  0.8024228931496908  0.9969547294604276
  0.8063376028286565  0.8061641336170547  0.4008786240228304
  0.7963220846487730  0.8006610140227973  0.6004999255163551
  0.8005774637639411  0.7988040358710726  0.7986243259008905
  0.0002089227488922  0.0032355078480923  0.1973863414581025
  0.0006715910775645  0.2011322344937086  0.0036386236551475
  0.2040884354289209  0.2041750957950778  0.6003599107043003
  0.4009538174994965  0.1998806865498579  0.7992622237119181
  0.5998842821978256  0.1986506093688731  0.3984226706208661
  0.7979168420857894  0.3996543089420094  0.9983243929565334
  0.6017679093462244  0.5979058265498878  0.1990081203827407
