Zr Ti V  Cr W 
 1.0000000000000000
    14.8362270864452732    0.0342945415310531    0.0632994498331546
     0.0339351896445548   14.8983894338415102   -0.0127873021644523
     0.0632076059505806   -0.0132458839333475   14.7654188790837111
 Zr  Ti  V   Cr  W  
   3  14  93   2  12
Selective dynamics
Cartesian
  0.1283535217544110 11.5772648067057169  5.4312680690283903   F   F   F
  3.3538176180095820  3.0953124484314647 11.5344523063695092   F   F   F
 11.2008945796799928  8.8664698640612141  2.8849266842803476   F   F   F
  0.4926830195855973  2.8364109784267928  3.2883366169464465   F   F   F
 -0.1944114113387986  3.5309958111653721  6.8951322241535085   F   F   F
  0.1393896756137851  5.2696700897623066 15.3948934467304355   F   F   F
 14.9969421118624382  8.9905390363373296  8.3270385805508376   F   F   F
 -0.1308788295626149 11.9157411710527565 10.8820384613189631   F   F   F
  2.9663879170438774  0.4245631091427716 14.0099669938885523   F   F   F
  6.4010290927318945  3.5252802989815128 13.9321205813413407   F   F   F
  5.5422972407054667  8.9967950037781126  2.9206443943940856   F   F   F
  5.8816656907928584 11.4814229392758218  8.1309450322863821   F   F   F
  9.1934911067213747  3.2118303658358456 11.9157770514382158   F   F   F
  8.8305911397979795  5.7712768097956539  3.0912995022580243   F   F   F
  8.9173415280569142  9.0957559234707652 11.7017606497844913   F   F   F
  9.2335479264745111 12.1906444750321796  9.5399218026642032   F   F   F
 12.0600259697520737  2.5323820943974527  9.4679793819669467   F   F   F
 15.1121985389692455  0.4382436723559257  0.3047784099555645   F   F   F
 -0.3547766968461856 15.3024621670178860  6.1940377180652915   F   F   F
 15.0960264466835223 15.1677458451070635  8.9364413566156351   F   F   F
 15.8556669075440198  2.6937879701038008 -0.4606945602677376   F   F   F
  1.1349770097027203  2.6696283342819087  9.6908196634153700   F   F   F
 14.6512761135722691  3.2049817289855720 12.0857364407848209   F   F   F
 -0.0587371067684187  5.5214622771625352  3.5381771746799795   F   F   F
 13.7389491418564376  6.2529396133569985  6.0512132223482142   F   F   F
 -0.0472667831117009  6.4254478996552438  8.9031564850777318   F   F   F
 15.2757125760864909  5.5531607827005063 11.9286376661560976   F   F   F
 14.2394625516657651  8.3691843545417370  0.7776930637383360   F   F   F
 14.7658832924644603 10.1078289196760824  2.3682579982448924   F   F   F
 -0.4444771635997848  8.1347833555683327  4.5739529889577630   F   F   F
 15.0836241760258183  9.3892616173252570 12.1754063700774395   F   F   F
 -0.4274818409938289 10.9102645268707601 -0.4361977083687433   F   F   F
  0.0116347123778798 12.4712585082961631  1.7179483666728490   F   F   F
 -0.1059332067761973 12.7909711541068063  7.8800386471777255   F   F   F
  2.6376239963557881 -0.3834821730284824  3.0534761103813750   F   F   F
  2.3386134046176656 14.5286737715091210  5.5482622164641482   F   F   F
  4.1698542678952029 15.2630315746914480  8.9084197758342114   F   F   F
  2.6811604886732501 -0.6998853890279049 11.3352743381710663   F   F   F
  3.3417336240685769  2.8811826369077935 15.4824047804099720   F   F   F
  3.2414242276265854  3.2853640012627534  3.3946296077138194   F   F   F
  3.2053558507056046  2.2787213880009713  5.8707999583215509   F   F   F
  3.8257641605771169  5.4742351199234394 14.4723046179592920   F   F   F
  2.5776291345532107  5.9611566713304711  3.4254201021630317   F   F   F
  3.9737663386527995  7.0557709008625045  5.5553633297716836   F   F   F
  2.0712323054577233  5.5766117241820101  8.7079299181418843   F   F   F
  2.9477884132430874  6.8684741123602491 12.0371425677631798   F   F   F
  2.4710460571386634  8.1690917823626119  0.5866376437633066   F   F   F
  2.8420669215520586  9.5094831936682098  5.6683890481564747   F   F   F
  2.7073716867410060  8.2679848309605948  8.0937269478655054   F   F   F
  2.8863163098548514  9.3193692779970903 10.8205174383028524   F   F   F
  3.9783763535860563 12.4997689380624752 14.7518462328610536   F   F   F
  2.6990591342903940 11.5293501860464662  2.4851465952070493   F   F   F
  3.9623978353038178 11.9043789544818228  5.1951783370755695   F   F   F
  2.2840508583140311 12.0838363561310622  8.3453498670506487   F   F   F
  3.5651017263921818 11.8447214651491244 11.8996659014496604   F   F   F
  6.7403729269100925  0.3019999963871065 15.1637471184095993   F   F   F
  6.0333805441058681  0.0447042352314197  5.7469185217965002   F   F   F
  6.7477586926101605 -0.1668093519620059  8.0756829989846413   F   F   F
  6.0798995772675166  0.5906464067118081 12.1853179645931764   F   F   F
  5.5875520295046623  2.2078832946265758  2.4954642957076629   F   F   F
  5.6919335170253973  3.6540961392181792  6.1082498754897285   F   F   F
  5.8869298860973798  2.3488526788822428  8.7162807452044007   F   F   F
  5.0387364434977000  6.0374913146006310  3.0936596549157476   F   F   F
  5.7063236199172351  6.2422884789059854  8.7632025002776448   F   F   F
  4.9278280314184775  8.8613263571000882  1.0071216695178937   F   F   F
  5.7821463806682480  9.0029145515248921  6.3094565490535057   F   F   F
  5.1793430491650980  8.3786888800674468 11.7797528233910516   F   F   F
  6.2615454689070065 11.3496298604937511 14.7757479730732424   F   F   F
  6.3481508167734901 12.5222782387419471  2.8888441913366103   F   F   F
  6.3493566813406606 11.8437703952488302 11.9659118961335409   F   F   F
  9.0551689117102168 15.7379999528575993 -0.3932956567938443   F   F   F
  8.8861855938210059 15.2628487088942908  3.3518341574948431   F   F   F
  9.5759897806014358 14.8491237084799259  6.8991310900247633   F   F   F
  8.6174880013739230  1.0808075257794476  9.6092896666023204   F   F   F
  8.9650542089731040 -0.1753098153451824 12.1675111025282749   F   F   F
  9.3344531727575450  2.8765777764588063 15.5790291881964702   F   F   F
  8.9439782552825644  2.8714550416263611  4.0182349473055341   F   F   F
  9.6305656659600185  2.3641107750556656  6.4909373718694559   F   F   F
  8.3802825389550026  3.4532722799731581  9.1804125715115514   F   F   F
  8.1586176816803437  5.6485069617276684 -1.0200267631820614   F   F   F
  8.7988593690518204  6.0812218620495013  6.7288772165320232   F   F   F
  9.6909639319384091  5.5718663989685471  9.2964050587380544   F   F   F
  8.2053824438553118  5.6067028526859755 11.3778148151854950   F   F   F
  8.4121129644021959  8.2638079103529609  0.6102741943691802   F   F   F
  8.4881001711581483  8.4244539366996829  3.1340598905301276   F   F   F
  8.6600851749223846  8.7711592724948684  5.4275433893450238   F   F   F
  8.2088394520863286  8.8455317028611784  8.9265122050514112   F   F   F
  9.1146400545272019 11.7204927625751711 -0.4001328205975497   F   F   F
  8.5060139938259915 11.5202064909419590  2.9324619672381065   F   F   F
  8.8736284696256504 12.5773676963588361  5.7638442000547307   F   F   F
  9.1575620917626122 11.9226883476889149 12.1289961586932460   F   F   F
 11.3199524768580151 -0.1728596369750839  0.4282207845267987   F   F   F
 12.4456637076129688 15.3461207996890732  2.6307563203718560   F   F   F
 12.1119807123240957 -0.7661812321302821  5.2344142357907879   F   F   F
 12.1717448260290411 -0.2910930771430718  9.9385351198855716   F   F   F
 11.7660362917565209 15.6270429146696852 12.6815445217815430   F   F   F
 12.3087873642076264  3.5819441863132235 13.1341466866265435   F   F   F
 11.4402918155715785  2.9211491474208153  3.0901146151808336   F   F   F
 12.2425084973670710  2.5588814520907004  5.6647702238858821   F   F   F
 11.3401637245612346  6.0758654131671337 15.3591533791141988   F   F   F
 12.5427953784599833  5.3805590089838011  2.4799674746724953   F   F   F
 11.3518182703618891  6.3844841470301610  5.8237349716965454   F   F   F
 12.3428133081257343  6.3753652265587109  9.4487682020814141   F   F   F
 11.3341189277749077  6.0923866594897342 11.8186956992032126   F   F   F
 11.9206645069715975  9.2885311890591478 13.9120396200809715   F   F   F
 11.1121666279122557  8.9292285923063339  8.5460374534235122   F   F   F
 12.5040177201353657  8.8015122961090793 11.1809044270196374   F   F   F
 12.0281233508616143 12.6590810814679955  3.2507165428059377   F   F   F
 12.3873527472198024 11.1953942000604467  8.0996844440326736   F   F   F
 12.0440468186201759 12.6243280411258407 12.0390715090077229   F   F   F
  6.5146228070223433 14.9075622243042218  2.7743105967971595   F   F   F
 11.1759846796764979 11.6553270761771852  5.6218597384606444   F   F   F
 14.6542320649345932 14.4304736946705461  3.7611584728634129   F   F   F
  0.6750879301960722 15.5972499977277206 11.8860364289985512   F   F   F
  3.4638107922622172  3.3491070645795613  8.2897306538294053   F   F   F
  2.6993324025125864  8.6076961757090658  3.1668534314330898   F   F   F
  6.5677735399646604  3.6042162746937421 11.1510873967968127   F   F   F
  6.2246865730458394  6.1131518779388037  0.5969655781321830   F   F   F
  6.8021725580828623  6.5941294617813027  5.0453586684433720   F   F   F
  5.4843303217094856  5.7453990423536982 12.4378177336155087   F   F   F
  5.2634212624565047  8.7441083413180341  9.1468955396610756   F   F   F
  6.5328179128405592 11.3538398025554219  5.2527956922316141   F   F   F
 12.2391666253703235  9.2183152789961529  5.8508800722339842   F   F   F
 12.2830386496360422 11.2098979749007324 15.6927998590404609   F   F   F
