Zr Ti V  Cr W 
 1.0000000000000000
    15.3161674756862691   -0.0038639056753981   -0.0081742366427040
    -0.0038625530149281   15.3180417040563182   -0.0084288121243241
    -0.0081714294601317   -0.0084252347079361   15.3251398317997438
 Zr  Ti  V   Cr  W  
   1   2 101   1  19
Direct
  0.0004840798533856  0.4059517988968091  0.6039920898340397
  0.4056695511095368  0.9921387540786790  0.3999568260068568
  0.3990603563353699  0.7978514065132164  0.6147565161846890
  0.0001110364035033  0.0012348284531776  0.9991653391284461
  0.0004033084113506  0.0007981205852736  0.2005762229556041
  0.9974160808749046  0.0057784422501127  0.3989262107443510
  0.0022562130893634  0.9975498873327994  0.5995491733063500
  0.9998438947669943  0.0023244918653447  0.8005108891358572
  0.9991067218564222  0.2042781556723455  0.9993197079822698
  0.0038958507381193  0.2024831767256441  0.2034358255940935
  0.9990097331233189  0.1982439425584983  0.5949245889139642
  0.9976255221173717  0.2024631547698917  0.7977619438291758
  0.9975609604904243  0.4025495735015222  0.1950348532253407
  0.9980552888538889  0.3976465390364819  0.3956318876191431
  0.9993668927396074  0.4051938691321199  0.8084126532755386
  0.0010176778920699  0.5985620603190582  0.9959634428331069
  0.0055592533042514  0.6000562868170430  0.2015895702346277
  0.0012063779660032  0.5989505488427993  0.4015667184826723
  0.0047116735691576  0.6097069767759175  0.6015895638257294
  0.9962315423904926  0.8005530921370890  0.9984079062326661
  0.0000248436819539  0.7998778461722262  0.1994427304268016
  0.9971919589777348  0.8006953162071716  0.4039618411600326
  0.9949013017944753  0.7954579241971027  0.7977502375930858
  0.1985173485590596  0.0008696977575982  0.0001571145202044
  0.2011143012527175  0.0049672031729766  0.2025478525504043
  0.1994701714139540  0.0002360281980678  0.4029925329835984
  0.1984488289018146  0.0022157861819160  0.7980021121489402
  0.1992894800754606  0.1996724759748332  0.0038757013923962
  0.1975115397910286  0.2008138402986557  0.3960530971436124
  0.2007495186315727  0.1973175785687538  0.5995369233427188
  0.2014801017836758  0.2008547732005166  0.8000968624676625
  0.1964942323524521  0.4001312970910894  0.0011629141593770
  0.2022099744331164  0.4007211867403878  0.1989334478925153
  0.1983749168458129  0.4000598836897272  0.3992749695195366
  0.2056709569510157  0.3980280189478645  0.5998489322626659
  0.2003244354765521  0.3997510312927146  0.8017255640189124
  0.2011447371691338  0.6012268734901438  0.0061701030014605
  0.2041555300390897  0.5998205101738039  0.3972559221445321
  0.2063524982422358  0.6032745366023531  0.5972905002916119
  0.1970443989649091  0.6005596564162912  0.7992132492785197
  0.2004943480285926  0.8026165571060474  0.0010665239666857
  0.1993740094845024  0.7978240699639503  0.1988201827505315
  0.1985153466012350  0.8023170372027113  0.3988618790197402
  0.1933899920249540  0.8055031401980786  0.6012186249233364
  0.2024118174729496  0.8011320940573438  0.8025699952177112
  0.3989674914120983  0.9961444005962671  0.9999428444060570
  0.4000231303385279  0.9986770338080895  0.1975993825856563
  0.3906230466897682  0.9995146577654775  0.6014219101772393
  0.4014370396344621  0.9959017106827766  0.7982840959335482
  0.3985171163004828  0.1983154781760046  0.9988757038132138
  0.3969318770916381  0.2018153563532471  0.1997923069713806
  0.3976809033752783  0.2038110260557196  0.4007431324332253
  0.4010718499868240  0.1995209017675948  0.5992190430172666
  0.4026696931945414  0.2003168331632004  0.8009176664414243
  0.3987600203911250  0.4030022689641267  0.9980650714885603
  0.4039666025429789  0.4018075062335989  0.1982388535564242
  0.3997569096819081  0.4032193463401548  0.4010466511574783
  0.4003591125969611  0.4027868815725348  0.6020568279659543
  0.3990208940994295  0.4019342692955368  0.8024489423669470
  0.3997094812672404  0.6040273043667209  0.9991712085502453
  0.4002500270597292  0.6007383467772771  0.2056476490492737
  0.3998416883104214  0.6025761170971383  0.7979431242185799
  0.4001406828205185  0.7993148271199195  0.1934352577679038
  0.3991790817475499  0.7944129125498628  0.3985024903296345
  0.5988662706706804  0.0014786902467588  0.0027562148409692
  0.5983470058444792  0.0027612028723853  0.2056082047392819
  0.5989152657081143  0.0038372983215197  0.8029030705592004
  0.5992378733726649  0.1996530998722649  0.9979952335818082
  0.5986951671477885  0.2044127081155503  0.2009215952691144
  0.5984871661190591  0.1980787338280557  0.4039388606508337
  0.6010872907050319  0.3995523305399951  0.0030970021882881
  0.6026639913944297  0.3963685584974542  0.3951727759013505
  0.5993007787337391  0.3993310549767850  0.5992826091849632
  0.6012477545443501  0.3957929235613487  0.8038006322493793
  0.5990284604103358  0.5985997944971576  0.0047020495591354
  0.5952012206269431  0.5972190415034104  0.4000689178450470
  0.6011898714221476  0.5938441928518133  0.7953949780448405
  0.6003198044573348  0.7994891568926721  0.0007788627701676
  0.5998332033833230  0.7940645417984041  0.1990164133382033
  0.6009626463777340  0.8011281231876464  0.4015511152309115
  0.6021215813561610  0.7903994989659823  0.6007232913952277
  0.6008975132475756  0.8018593635592830  0.7989869217407995
  0.7996918055620048  0.9966257744963041  0.0016347901595908
  0.7997121185195718  0.9998934109862767  0.1993160092270518
  0.7968920140561363  0.9985569818958311  0.3998911298452796
  0.8046859136456306  0.9999889984432189  0.5991089336568423
  0.7973078590272643  0.9969428422603779  0.7979299325929191
  0.8007623748457761  0.1973781864651399  0.9992584022216185
  0.7991218352070331  0.1997069745031020  0.1980066989366369
  0.7968496574735970  0.1984277786021836  0.5997525541335444
  0.7964073148616345  0.1989116890561386  0.7996479697588966
  0.8032574428215535  0.4012916559256549  0.0001735625458405
  0.7974325272746277  0.4013688649997584  0.1981705181212884
  0.8016495897703347  0.4011436890987648  0.3984512846554343
  0.7955454698872959  0.4021467884718448  0.5996909084670252
  0.8005308211471297  0.4010897578352859  0.8017025616204490
  0.7991397000315690  0.6054596763086656  0.0007492276515441
  0.7952766301608714  0.6021232483509730  0.2013967380480089
  0.8005456995863479  0.6019682291609574  0.4002058102541819
  0.7940174287777046  0.6014373446474645  0.5982978722726973
  0.8022020976366308  0.6042053741364519  0.7990998673619939
  0.7994831801701390  0.8000035834600002  0.1953019201922435
  0.8011242358510681  0.8007092989875249  0.3982770965990911
  0.8001367306755748  0.8027415701288991  0.6041042253993308
  0.8008478919819956  0.1997106540097032  0.3989575567671733
  0.0017388744052722  0.2026177960770673  0.3997030434277826
  0.9982911163214988  0.4017163464608659  0.0004397514980580
  0.0008915319690166  0.5992271066581424  0.7965583729702086
  0.9979896482615066  0.8024164563596013  0.6016386627532746
  0.1979804167480772  0.0016297685433402  0.5997749320414317
  0.2011061030895694  0.2024308425683436  0.2003520236476629
  0.2029271498475629  0.5991460887011540  0.2031338883504630
  0.3990670290367889  0.6003050129793871  0.4041634269334752
  0.4039421461071082  0.5977426962938496  0.5987675167305778
  0.4011941052111673  0.8005457116657528  0.9950816122571736
  0.4013131757086471  0.7985043130181430  0.8080464388449573
  0.6009895549250548  0.9991397323937511  0.3967496677823635
  0.5981876713571016  0.2080242662071007  0.6036916976047851
  0.5993244499003810  0.1990840083663456  0.7980631276282499
  0.6010614243784140  0.4012344241105734  0.1993854874578035
  0.5973012133527685  0.5953555752384824  0.2038630735379484
  0.5964083118959528  0.5960954155200793  0.5968553888010532
  0.7985073840998210  0.8016794196768265  0.9966378584296255
  0.7983634522807986  0.8011282971399977  0.8033284380565454
