Zr Ti V  Cr W 
 1.0000000000000000
    12.5621370302832354   -0.0144609796444934   -4.3694671498154918
    -6.3106504411076889   10.8455967951286638   -4.4172525574444723
     0.0645936488402372    0.0530360159305710   13.2904639751343350
 Zr  Ti  V   Cr  W  
  10  14  88  10   2
Direct
  0.2016889798602004  0.5986571974116824  0.2005800367766609
  0.2013978135519018  0.8010617264927120  0.5968255944430676
  0.3956218995053316  0.5939863899693379  0.4034092677513757
  0.3926287733565589  0.8368906193939440  0.4264705738701435
  0.6668862859184813  0.6730439255124465  0.9923279716768659
  0.5950826060801002  0.8003455610562826  0.3969281265679419
  0.7952087475892187  0.1894192709821507  0.1918890420895383
  0.7858371845851898  0.3846622524659910  0.3890191688436877
  0.8029426780977941  0.3974388076085809  0.7984292542849312
  0.9465779650777763  0.7938073648952123  0.9971927623606875
  0.9987601123753272  0.9972711600602471  0.7935973618147443
  0.9897524684157952  0.1694656115400553  0.0047758525582545
  0.0102800981218935  0.4044533002744369  0.4140135192236138
  0.1965725406971242  0.2026799173684844  0.9987313815659197
  0.2005039847346219  0.2002685795505841  0.6007626620688091
  0.1794858497750433  0.3706802995055657  0.1864260459721427
  0.4089953967842765  0.4045593700264342  0.1989733297827479
  0.3949059540808907  0.8036569096652890  0.1902594713877171
  0.5966101745903498  0.0087641265681299  0.2032797627343798
  0.6216269373321450  0.0152748347348216  0.6274011119052240
  0.5827331978342075  0.1881679144256683  0.5857744402174297
  0.5930060805429107  0.4108513957720626  0.9977079972823488
  0.7975669017862747  0.9997778375710463  0.8089003082417978
  0.7913069741954709  0.7884054719042540  0.7992217666825181
  0.9950394134832610  0.9964807448861644  0.2031032555956005
  0.0003324579220576  0.0007816559494036  0.4066288068330601
  0.0082238449789342  0.1915076384879907  0.2084306761302278
  0.0051087755321711  0.1945583365698706  0.4051188012961655
  0.0020371469051185  0.2011039890412080  0.6027605278257967
  0.0112677611993795  0.2128354669363533  0.8055600142666096
  0.0027313271888365  0.3974501780485758  0.9949991469428000
  0.9931463408322456  0.4002062672045711  0.2005217422069004
  0.0103552852596680  0.6033471306589934  0.0095808489934346
  0.9937928134609902  0.6000038866468997  0.2090453272158934
  0.0011555032152999  0.5980999310461206  0.6020062974919066
  0.0021105944488641  0.5991187903881715  0.7964068213300083
  0.0095674959829158  0.9781452950237488  0.0078464314920608
  0.0029323283648279  0.8003531293201197  0.2122497900614984
  0.0003764676455597  0.8030849571056220  0.4077093794133533
  0.9972867657299100  0.8020301871328298  0.6035000025828819
  0.9996809285926603  0.7896546012755765  0.7905422297382244
  0.1930675745917635  0.9941644819910747  0.9934243695001572
  0.1923737609762620  0.0077524929188816  0.1982156446208103
  0.1971478036265150  0.0086213804613645  0.4064448383947513
  0.1972115083050060  0.1983204031727097  0.3961782883569633
  0.1944480344737852  0.1997753263746959  0.7957634056645091
  0.2013640536769709  0.3954785816223038  0.4084863045301110
  0.1956634734544981  0.4017435114978911  0.6033827917675068
  0.1994425801846417  0.4008775036373172  0.7990238089976341
  0.1921083098858759  0.5889997550097803  0.9819275752964272
  0.1765705456490749  0.5875022598574001  0.4031089170292524
  0.2007186026939916  0.5949642534356623  0.6091719524562595
  0.1944763079634346  0.5971131249569114  0.7948114661553776
  0.1981440219316763  0.7985193784731235  0.9945445892866260
  0.1905075607872482  0.8087177803634175  0.1959105704074151
  0.1765435587919592  0.8073158480544635  0.3868648211296415
  0.1948442358015600  0.7989284458714174  0.8036954420990623
  0.3948628192787435  0.0056801114710683  0.0013758684665746
  0.3855379065528933  0.0049813937713442  0.1897697758506701
  0.3823587504462831  0.0131275495161889  0.3808752887294513
  0.3964844729321276  0.0190087524615665  0.6123768901786407
  0.4029659683646695  0.0125783260532503  0.8075685257332189
  0.3984121355861455  0.2071112884272574  0.9992041414388977
  0.3893648404631007  0.1950190397015541  0.1907834551169018
  0.3974145057613191  0.2017767169530637  0.3969457792138137
  0.3975946655734676  0.2044825314742522  0.6031728045134285
  0.3924319632530406  0.2040578656863124  0.7959126778982241
  0.3811079870095805  0.3925482745107404  0.9876029865416552
  0.3908637686086140  0.3816873122082691  0.3941233174326979
  0.3961120829465639  0.3960819897271564  0.6006872084036813
  0.4045820005528647  0.4053549595634838  0.8031632879484509
  0.3995668954036797  0.6021948658879220  0.9892390353473292
  0.4029063431920499  0.5931273840087936  0.1640802121976619
  0.3942839901355231  0.5957004135096139  0.6112524056996046
  0.3970592412490910  0.5994504988411015  0.7991925501954836
  0.3881911427657387  0.8008597508313351  0.9903640030715757
  0.4163932594952396  0.8048391629790674  0.6238063352618262
  0.3950619166905674  0.7998277408308642  0.8029327722107846
  0.5865601589181042  0.9990454106951239  0.9868536224060502
  0.6078548458775099  0.0220959949981823  0.4101138122013490
  0.5932303390092770  0.0043150983987197  0.8073032940183316
  0.5890821334621353  0.2010705640162635  0.9983277187260398
  0.5921239545353872  0.1975224873331948  0.3875379050520849
  0.5910454544896627  0.2027916899557737  0.8060429901788070
  0.5870316559159217  0.3967710696219882  0.3890879124717350
  0.5987028956020422  0.3980027105447007  0.5919710522093340
  0.5864616028829882  0.3939744168200923  0.7881471950314572
  0.6037729519011330  0.5978281494380314  0.1956985359546778
  0.6153646626425461  0.5977549898450847  0.4029853813684831
  0.5935801892602709  0.5875520524049820  0.5952000551753911
  0.5861692801701548  0.8294071176858835  0.0113935690907191
  0.6042116033886491  0.8005358790986605  0.1957271945101110
  0.6030373892951142  0.7936147504707830  0.6164017018394417
  0.5909228122079796  0.7941159664056827  0.8012569446819052
  0.8000443782093437  0.9825274519071102  0.0050695418642141
  0.8060834447060121  0.9932512422601796  0.2120755649463575
  0.8030775110608068  0.0030901736738590  0.4057328869593210
  0.8218369790539686  0.0086070587550817  0.6077251823345121
  0.7882964948275476  0.2033815817136545  0.9907476569106497
  0.8164168572081221  0.1977407632364595  0.4240412527264737
  0.8100646998867598  0.2017785537903878  0.6072950342415242
  0.8159276539726709  0.2076366429776073  0.8170035717813899
  0.7994989956616561  0.3999670658403991  0.0104404723034285
  0.7876909604593173  0.4077297511562254  0.1936444941423414
  0.8121036713324871  0.4035137283355742  0.5995753123636709
  0.8140010468648845  0.5789320165971013  0.0040209254578270
  0.8023032190652054  0.6042426956949146  0.2060604024408709
  0.8014462672930549  0.6013891729663733  0.3982485038856617
  0.8022270440341870  0.5967640585373524  0.5975699897686890
  0.7880622351932887  0.5846418971097571  0.7765005387182673
  0.8174841841353341  0.8142199389931151  0.2312127765817028
  0.8086035453251361  0.8047038307531225  0.4059361960989327
  0.0084958483097700  0.0066416174979611  0.6026025922769139
  0.0045036768126567  0.4002596451689548  0.6101687036849482
  0.0102293990819978  0.4008700020725171  0.7944768932274721
  0.9898393586907021  0.5963687923499417  0.3964809770862640
  0.1981204228825191  0.0078597283105338  0.6041848418270166
  0.1953068438134397  0.1940539208700444  0.2029520099937112
  0.1988274942391724  0.4002590413531024  0.9880829527017505
  0.5703812195226183  0.1964647783076632  0.1789429833880629
  0.5977255534910324  0.3987816106823510  0.1965107132838699
  0.5793270453465765  0.5739727643728829  0.7583027334269907
  0.2016547162035068  0.0033099923205956  0.8003203204179831
  0.7999197752856965  0.7963989870949866  0.5975437815602254
