Ti V  Cr W 
 1.0000000000000000
    15.4557498811443548    0.0004941212289126    0.0018267395804492
     0.0004939353714327   15.4692164812837163    0.0004600942864290
     0.0018268799168668    0.0004596930157856   15.4533924520731851
 Ti  V   Cr  W  
   3 114   3   4
Direct
  0.0062760932933207  0.7941871156546305  0.5992363871690269
  0.5974895401974363  0.7936146512548616  0.1993943267936011
  0.7991919336588389  0.4053489541956801  0.8006363153872131
  0.9999473702602701  0.9984251303171062  0.0000722044393708
  0.0003330629728854  0.0008988436885056  0.1980570295237092
  0.9997876723963015  0.9998968409860426  0.4002993078766359
  0.0008852640751389  0.0018398798695050  0.6001540651044711
  0.9955220473061619  0.0006154189884815  0.8009633147618732
  0.9993494130370481  0.2007042283919898  0.2006149143877566
  0.9988325686264328  0.1997155673422826  0.4001123184899231
  0.9995990856892568  0.2005998551078932  0.5995527006726499
  0.0001153795725894  0.2015176452244281  0.7995957838158417
  0.9994085516873366  0.2999868587912427  0.9994525787150382
  0.9995419086128361  0.3995131831310798  0.2007870784195719
  0.9995731045773271  0.4002160126819025  0.4000595894351182
  0.0000897436035089  0.3992395388379579  0.6003427267350501
  0.0020594911571361  0.3990748373248106  0.7993331228075624
  0.9988757499016261  0.6006676104793057  0.0003419935369395
  0.9990472487142888  0.5978215871481765  0.1987391660162928
  0.9993032989230979  0.5990584703255526  0.3992951955237351
  0.9998493607900496  0.5964700211258367  0.6002082596513481
  0.9994893925601257  0.5987714139183170  0.8010208168274806
  0.0000629974156079  0.7993084044723326  0.0005096367773116
  0.0006442017773893  0.7991463700430411  0.1994493495284206
  0.9964199724088314  0.7994106084165907  0.3977602572872239
  0.0009929592923446  0.7986416319062867  0.8009421871387685
  0.1999156704992776  0.9996457141919534  0.2000925468857082
  0.1996673600277324  0.9988624722612542  0.4001848681030311
  0.2004333515277695  0.9998255396471273  0.6007192756174348
  0.1992251733226106  0.9998314877846108  0.7998044790597005
  0.1999448211776023  0.1996909585470047  0.0002510976842330
  0.1990101279780088  0.1997061176779387  0.1993972364639617
  0.1995487738431900  0.1990643995914672  0.3997897802995423
  0.1999466625117649  0.1995766867891632  0.5994312046456939
  0.1986618259234693  0.1980847157514877  0.8008278564334708
  0.1996952606118748  0.3995133478137885  0.0003884534409675
  0.2001240873847770  0.4004224305516780  0.1995264501167160
  0.2001157233600325  0.4002248866812896  0.4006027153197227
  0.1999879329089848  0.3999536004326246  0.5993539484969873
  0.2030268211123541  0.4003239755112195  0.8001279101068314
  0.1988956065586806  0.6002032538961714  0.0008117717143393
  0.2007401712639021  0.5999036194565829  0.2003207367159918
  0.1999067651717419  0.6008317032240978  0.3993901910902282
  0.1995118746873941  0.6002165973116694  0.5995156047719812
  0.1997122235204964  0.6007787975577561  0.8000771915597151
  0.2000092424447879  0.7999521129258669  0.0001723086644931
  0.1997628192673295  0.7994775224822016  0.2003830095487368
  0.1986211461520508  0.8002698747151274  0.4000610477269406
  0.2029551183532750  0.7998405414293346  0.5996351654423767
  0.2004795483244300  0.8007617100316341  0.8001720316588624
  0.4001170954115992  0.9995282992177629  0.9995455389528131
  0.3996340791472447  0.0000074675741186  0.1999443668804194
  0.4002434933928221  0.9989990349255009  0.4001776392048254
  0.4001286504085289  0.9998620209000862  0.6007704214906208
  0.4000192908600678  0.1982061148591516  0.9999977959412242
  0.3997254781058139  0.2002276807962185  0.2000862760491231
  0.4001065639956736  0.1994227048394915  0.4003439562730912
  0.3999277534104436  0.1991414786029316  0.6000671423530824
  0.3997893684288364  0.2023498722287685  0.7998677857829704
  0.3991258500400913  0.4000980744718146  0.9959308082575618
  0.3991378507723350  0.3989739088465016  0.1994980824873882
  0.3996067199408070  0.3997646276394515  0.4018514844382801
  0.3994550496826468  0.3999926185577782  0.6036881059920788
  0.3995888758870999  0.6007134093918350  0.9998142572266194
  0.4031739950791021  0.5994525711715061  0.1998670943810803
  0.3997111885357542  0.6005724479573931  0.4006932266853083
  0.4006912207854604  0.6000712055293167  0.5994203022498182
  0.4000562608493243  0.5968912621433460  0.8002501131469100
  0.3990213473108337  0.8006777748347673  0.9987737927497697
  0.3974085372067642  0.7998259973130976  0.2002075330275032
  0.4005874702471047  0.8003683766441362  0.4007185070188915
  0.4004792460861954  0.7996637301074639  0.6004891736883898
  0.3999912164613481  0.7993883633915442  0.7997840129336552
  0.5990053256083677  0.9998633547529368  0.9999548300770121
  0.5993022905754002  0.0008679130902443  0.1993902471177392
  0.5997061630588004  0.9996717189906191  0.4002953272999462
  0.5982313691552691  0.0007275109995700  0.6010349922827204
  0.6028559869076557  0.9995124374435932  0.8001926395109115
  0.5997631552411243  0.1996920492141589  0.0008474216107721
  0.5998628071177581  0.2008560261436053  0.2007611255793784
  0.6005877765734302  0.1999010028619118  0.3998348143565548
  0.6001021146409450  0.1998299252461639  0.5992567804864576
  0.5996067114483067  0.1994323695607352  0.7999736643459253
  0.5996978187461245  0.3989747777926504  0.9999712588515708
  0.5988754398544748  0.4007819611403502  0.2003764647271158
  0.5996247686872417  0.3995493703726818  0.4006667798231529
  0.6003337409432714  0.3996544955061362  0.5996929423644110
  0.5950572698022973  0.4000237883194639  0.8005150181373907
  0.6002941400299434  0.6001860138061037  0.0041325025367061
  0.5996971437480164  0.5993490797734488  0.3962422749341509
  0.5997500377574515  0.5987584241925105  0.5992096279986951
  0.6003721472075876  0.6005616208177940  0.8010086685480908
  0.5995319233292608  0.7994440274856642  0.9981613205722404
  0.6038253613565270  0.7995481413096560  0.4021176858692063
  0.5985790147477204  0.7986888443822817  0.6005329639587780
  0.5982391154398837  0.7984323832890423  0.7997329813299245
  0.8000072717478052  0.9995226940333356  0.9962042512462571
  0.7992386882968181  0.0001448241501349  0.1986736140349838
  0.7996362350753798  0.9958614013070733  0.4011815628993073
  0.7999041481322259  0.9994045118594438  0.6047991918461345
  0.7987401951163994  0.2004746226840438  0.0005223964492624
  0.8000949941072631  0.1995195846058211  0.1998280958568852
  0.7995730716467918  0.1973467228666034  0.4001372362863199
  0.7996294331706126  0.1997324072912468  0.5995666267027316
  0.7988741323633157  0.3992622673604861  0.0001953968595665
  0.8004650358992949  0.3993439993678697  0.2003095066908670
  0.7997497325262746  0.4007476446056970  0.4010901341625556
  0.7994145759906713  0.3999244463598476  0.5990070167964068
  0.8002519282056842  0.6010330796198395  0.9999378240891478
  0.7955857947220630  0.5996059896533664  0.1999710338153518
  0.8002562744210705  0.6045264540000940  0.4002274569714366
  0.7990862380275553  0.5999573096240052  0.6001459773405421
  0.7991840834884864  0.6044646970233134  0.8000763643603404
  0.7997426184102406  0.7999638788463939  0.0019326195844536
  0.8017870644334606  0.8001107925912132  0.2039887657455927
  0.7981192887077316  0.7989283063822405  0.5954412128299519
  0.7999541795214076  0.8023318805989512  0.7981937008931391
  0.1998434516734006  0.9994378396208501  0.9995844322840105
  0.4003676714410953  0.0004138774401801  0.8002181942516164
  0.7995342690842303  0.1983252208230972  0.7998606574597664
  0.3996550305300937  0.3999307031254518  0.7996087090713689
  0.5993684250879139  0.5941972353171562  0.1996831530147025
  0.7991045872873238  0.9957006765874710  0.8005055112532405
  0.8004720770193451  0.8010714920824280  0.4008785690884374
