Zr Ti V  Cr W 
 1.0000000000000000
    14.9535298968664616    0.0809317389895878    0.0039048189734267
     0.0822183332822038   14.6518416166595067    0.0535965286023386
     0.0038721557838757    0.0538016709974971   14.9242904658405564
 Zr  Ti  V   Cr  W  
   4   2 110   6   2
Selective dynamics
Cartesian
  0.0348583487379828 14.4578622831819512 14.3593388573141887   F   F   F
  3.0841793520767697 11.4719330769509629  3.0298596469876999   F   F   F
  5.8959938654620041  8.7014760322579843  3.3530591264587741   F   F   F
  9.5512068425344268  9.3824467096204227  3.1701473347728766   F   F   F
  6.0599541308066325  6.5712599700481187 12.5699247355092165   F   F   F
  5.8406746487112633  8.5713933693499094  9.2922301805969507   F   F   F
 14.0501490096489334  0.9052928396512836  2.9080631704080564   F   F   F
  0.3843127209109851 14.3234159540889898  8.9518845745165745   F   F   F
 14.1829212932836342 -1.0378240095040672 11.5916874922437927   F   F   F
 14.4288166693957205  3.4990966242929926  0.0583200690774309   F   F   F
  0.9984369835665344  3.9503119581358592  3.0698763014420698   F   F   F
 15.3089530473919844  2.5202146037542743  6.3607754380660406   F   F   F
 -0.3388692035341572  3.3652689133020139  8.0955897530809580   F   F   F
  0.3951855771325870  2.3013433695637415 11.5387587456117533   F   F   F
  0.7827480744735003  6.2396046287099711  0.3047094248381665   F   F   F
 -0.6923579159982859  5.3855663171838959  2.8629027325032168   F   F   F
 15.3197971841631944  6.2196085680745128  5.6749454618157138   F   F   F
  0.6432143700244892  5.1756927819895440  9.1322468802065124   F   F   F
 14.3877998464863364  5.9717697489040882 11.7757568173878724   F   F   F
 14.5125610411101142  9.0915368525985656 14.2916694436144809   F   F   F
  0.6084190930240156  8.7529612787530038  3.0197365465430632   F   F   F
 14.2541503214651168  9.5665655041044939  6.3725554908360706   F   F   F
 14.3841382362580408  8.8905954568999626  9.1380083924228614   F   F   F
 16.0725429538518370  8.9853173813473592 12.5375338506376988   F   F   F
 15.6286692639427081 11.1687861558076840 15.2186911371381388   F   F   F
 -0.4178838135483426 12.5716653244820069  2.8137482376730731   F   F   F
 15.4736809388619463 11.5174426136819203  5.5055081097548975   F   F   F
 14.5661319143262045 11.5563924826548252  8.0726880897489082   F   F   F
 14.9697309828384135 11.7267359204880126 11.6256952387443970   F   F   F
  2.5597026692240710 -0.6249887851003284  0.4909496023733743   F   F   F
  1.1551193114284743  0.1893906218369301  3.0162906859028986   F   F   F
  2.7623103127395519 -0.2695978701461289  6.1556930450656262   F   F   F
  2.7388110314964988 -0.4872992380438645 11.6179813799368166   F   F   F
  2.3906739521443114  2.8076900010342860 -0.2285613226991459   F   F   F
  2.8232089410261141  2.3903884892969356  3.5300823786109561   F   F   F
  3.7673258669786298  3.3732427055161258  5.5665892654641658   F   F   F
  3.0037646922361128  2.2052689917735360  8.9464706055737775   F   F   F
  2.6008820837918112  5.5330195719849069 -1.0264751313659297   F   F   F
  3.1394059447229505  6.1672197039167553  3.2472339947638105   F   F   F
  2.3927266999202965  5.3804346195397805  6.7509485439870032   F   F   F
  3.3307778942823001  5.9006788580411271  8.9321877043657274   F   F   F
  2.8872396763332837  4.8294897973328466 11.6709913720249325   F   F   F
  3.4813861769387735  8.7538491891420840 15.5043461566327849   F   F   F
  2.8503166438063672  8.4462097593625654  2.5378749714110644   F   F   F
  3.1319790819267652  8.8349431432916834  5.7106815937045816   F   F   F
  2.0471116018571984  9.6492815596396468  9.1449437216482234   F   F   F
  2.9103235948737365  8.4523539715227418 11.6074491273991551   F   F   F
  2.6996052046982513 11.9142671369537716 14.1388622989798929   F   F   F
  2.3796355352354879 12.4293672829738888  6.4230146900945773   F   F   F
  2.7739459939021929 11.6119676630692670  9.1186599159753836   F   F   F
  4.9239178905015022 15.0324237616183645 -0.5055919919967249   F   F   F
  5.0412078247617371 -0.1280771343875244  3.2003000085475541   F   F   F
  6.4591937219456472  0.0201086909309877  5.2577220539410598   F   F   F
  5.4077572555174402 14.0885247869846850  8.7669074431712648   F   F   F
  6.4156493528536878  0.4430054910313365 12.1441301328662856   F   F   F
  6.6786069167588975  2.3096864488818012 15.2457763249125033   F   F   F
  5.7427625078225528  3.5648714106252606  3.7229127818252019   F   F   F
  5.7630558952095887  2.2891750658105310  6.3918476572894951   F   F   F
  6.4903345390455360  2.0296479174901787  9.8742773634071348   F   F   F
  7.0534964203380541  4.0289654726435611 12.9621808575991402   F   F   F
  5.9438180142409678  6.0135612383258161 15.8028493865371527   F   F   F
  5.8736038502599817  6.3427651456900760  6.1600093356554240   F   F   F
  5.8300726738829827  4.6858199599350323  9.3808033506499164   F   F   F
  7.0874075588776622  9.3227018134705855 15.1359338053418657   F   F   F
  5.1722172801021742  8.2507631941669555  6.8823282365193235   F   F   F
  5.7810570441032150  9.9038752216799111 12.8579204717944950   F   F   F
  5.8496000772613934 11.6710658039118762  0.8931058726012980   F   F   F
  6.9049269052599334 11.9920662855481268  2.9428531957012338   F   F   F
  5.4012526059703090 11.7797368955786492  5.6304556191261499   F   F   F
  5.9410162349338211 12.0012271303645353  7.7087939194050099   F   F   F
  5.8282432146593308 11.7918155428230822 11.4843131920703385   F   F   F
  8.4490437869530357 14.0650941442820017  0.2448048907826896   F   F   F
  8.4372412930009606  0.8863994895796828  2.1045392780709631   F   F   F
  9.4212660231211878 -0.0098838426351032  7.4752976362870784   F   F   F
  8.8813553432571695 13.8152839995154171 10.4054877547255984   F   F   F
  9.0764566594963796 -0.5446973683523177 12.7474641921435197   F   F   F
  9.1284753126793259  3.7677900899907297 -0.0249198947805132   F   F   F
  9.2950524689814689  2.5739079671359448  4.5661569813038865   F   F   F
  9.1789729497032422  3.7402222455698482  8.1080417429736915   F   F   F
 10.1901996235888745  2.7929627406308830 10.1958532409696456   F   F   F
  9.0031459922691681  6.0681643798697920 14.7438015888223077   F   F   F
  8.4900715906808539  5.9305974058817359  3.5382503598912067   F   F   F
  9.5439124142770186  7.0243158238781884  6.2148115235808508   F   F   F
  8.5113921032707207  6.0122363037726236  9.9686332349876974   F   F   F
  9.9002101556679740  6.0563927756736309 11.9238547369982619   F   F   F
  9.8994630605025193  9.0838644013700414 14.3589758957086993   F   F   F
  8.0179457623707489  9.2823544495335408  6.3002354950492325   F   F   F
  9.6220458136132070  8.8935979770126057  9.5404595595214108   F   F   F
  8.5536359101131403  9.3458041798612950 11.6122877708816468   F   F   F
  8.6641814552989569 11.1039474992985330 14.9276012981399795   F   F   F
 10.5676113738813573 12.8397586620234705  2.3936344670706045   F   F   F
  9.1715358444477442 12.0536710777387732  5.9918593123602646   F   F   F
  8.1563300769282066 11.4076428080716390  8.5626032256069298   F   F   F
  9.1269023860205465 11.6204025323894751 12.0613747398044282   F   F   F
 11.5553642733326409 15.5715279924777779 15.0877488949108063   F   F   F
 12.1245612466863353 14.5475914305530853  1.9541213974563854   F   F   F
 12.4725290516303087 15.3774206486385445  5.3886688635766493   F   F   F
 13.1432458374170018  0.1440250308799646  8.1011837418621848   F   F   F
 12.4813521219020078  0.0186393160026097 11.5608184731570311   F   F   F
 12.6706542355847649  2.7260683491383650 -0.8523218412305118   F   F   F
 11.5843931400447904  3.6472365264183240  2.5947887326023538   F   F   F
 11.5112893959541367  3.2145808472546888  6.1964030921367410   F   F   F
 12.5186754642014986  2.3649517375208200  8.7919141347453316   F   F   F
 11.7794531746942166  3.5733537076786805 12.0545897593967162   F   F   F
 12.0867334092040384  6.3289246767116669 14.8211642598722495   F   F   F
 12.3666052104935673  7.0916541415305918  3.5080226428064254   F   F   F
 13.0449057512640643  5.4183692767453380  5.4609876334658267   F   F   F
 12.0155990164781858  6.0135717179121402  8.8753838781047545   F   F   F
 12.1107315631526458  6.2641069939523684 10.9151294368469092   F   F   F
 12.7880021107713056  9.4357932140407357  3.8911984726704585   F   F   F
 11.6348603213898869  8.7011011072792162  6.4199626622502315   F   F   F
 12.2867619883565453  8.9647258936650722 12.1517010701937735   F   F   F
 12.1589591664655696 12.0069014542276697 14.1272134296657335   F   F   F
 11.8795262064647531 12.5885031187109693  5.7453867760666490   F   F   F
 11.8942693740923993 11.6905756865717176  9.5803540170164734   F   F   F
 11.5163623657656355 11.1467650863273953 11.9806894761966358   F   F   F
  2.8379506061032318 14.4034041983338916  9.2966541945603183   F   F   F
  2.6316158745274776  1.8139202402346859 12.5921143844171723   F   F   F
  6.1621193305349014  5.9800207057024481  3.2085225415764609   F   F   F
  9.1901325576463311  4.6315019581874672  5.9546860232459622   F   F   F
 12.2676936506124044  9.5998830671000412  8.4525032349133600   F   F   F
 12.5641451682836838  8.6377132855309160  0.8603311495383748   F   F   F
 -0.3153742795341640 -0.7609005070487301  5.5544574955512491   F   F   F
  3.3617716098127688 10.9620502668024251 11.5528655344586983   F   F   F
