Ti V  Cr W 
 1.0000000000000000
    15.3947628529237015   -0.0004726939770559    0.0021267196503963
    -0.0004726263884090   15.4017912768726095   -0.0008921615345846
     0.0021270963932924   -0.0008941263393480   15.4191178141427301
 Ti  V   Cr  W  
  13 101   9   1
Direct
  0.9937190683796053  0.1905624955307469  0.4000064396361293
  0.9992959382497596  0.4027842352427529  0.4006300787080864
  0.2115562256830870  0.0055614186269693  0.3943874127496041
  0.1985591312009034  0.1975261749249827  0.0061294635154643
  0.1972574460830770  0.1969897044252454  0.7953916761046055
  0.3978035541478446  0.0013856151385168  0.1760113314164468
  0.3905102583827298  0.1940931519139550  0.3990380169493332
  0.3968843043229539  0.8074506413347273  0.3963297552021363
  0.6015882585765362  0.1954414418291272  0.4000486664013603
  0.8009907207975502  0.0095174507499207  0.9972490094337094
  0.8045471176375816  0.0070881814225741  0.4005613884860365
  0.8008947383558322  0.1916051628182292  0.8039195767666761
  0.8001212315410122  0.4019383388092649  0.8011778433838473
  0.0010759447295228  0.0009880545206820  0.9988113507872938
  0.0001263535473750  0.9999440809376307  0.1996302750328542
  0.0033892806548061  0.9970313572031785  0.4008465021758716
  0.0018327366115360  0.9999076088672404  0.6003484262629060
  0.9998607452408291  0.9992080933453517  0.8003692282507141
  0.9983746659846883  0.2007629148725112  0.0008805342569798
  0.0010643966715735  0.1996878679372825  0.1987346585149605
  0.0013908209814331  0.1990663057143396  0.6022516427228730
  0.0002471449537224  0.1989170946474059  0.8002292116158894
  0.0013360559868819  0.3997627924560985  0.9999189442768656
  0.0006210419065820  0.3987212149406208  0.1985073447038895
  0.0006041616241774  0.3979453364060189  0.6029259013546963
  0.0027054823499121  0.3986169819348873  0.8014482584967920
  0.0003734067262581  0.5988142039316496  0.0001088300082395
  0.0004233096233287  0.6007628828826677  0.2003934782612435
  0.0003476949487329  0.6013849702930367  0.4008290544636801
  0.0007929732752344  0.5993446549882162  0.6005856980992672
  0.0003212557185750  0.5999483025444311  0.8008862356028926
  0.9994661318625105  0.7998964913101145  0.0008970638355510
  0.9997857084201004  0.8016649878037241  0.1997932439022992
  0.0007977018421401  0.8006485696834558  0.4004554794465726
  0.9999839659674837  0.8007550562079297  0.6008307732560505
  0.0000528662968158  0.8003305226646764  0.8003024912298153
  0.1990385264845916  0.9986815440069488  0.0000168392001038
  0.1980793503005291  0.0016498655641246  0.1967381691339649
  0.2001529739900196  0.9978354622792662  0.7999555490530414
  0.1949437178926994  0.2036086927875063  0.4004483430054893
  0.2037730512105067  0.4001889806822991  0.0016411401925551
  0.1999456928918964  0.3987531046067119  0.2026306714359375
  0.2021162973120507  0.3997584464563033  0.4004402649880295
  0.2011757094392920  0.3985104079797493  0.5991284855903206
  0.2004323498896594  0.4005563966362082  0.7999584644901933
  0.2002675602970804  0.6008095515704761  0.0019701829843291
  0.1995641076509190  0.5997867163609872  0.2021517112338141
  0.2009043160525155  0.5997056385339594  0.4008840905629024
  0.2005029693423435  0.5989802235222105  0.5994239392337124
  0.1997747928572716  0.6005995312376394  0.7985037994025955
  0.2003037644184562  0.8005635166771772  0.0006832464812059
  0.1997761089595682  0.8007103444164844  0.2009212449645951
  0.1995592211879179  0.7992543547815213  0.4003680812306342
  0.2005494618602111  0.8007614808189039  0.5989450791918246
  0.2008713726810227  0.8001134046316067  0.8016853956956976
  0.4000504555731461  0.9006497456182760  0.9987015960461726
  0.4055384373237136  0.0023256570171930  0.4032879473014007
  0.4009653312133382  0.2062797381506491  0.9984504049102473
  0.3992225041836626  0.2022184364649940  0.1968006447564981
  0.3983452185782725  0.2004174146973967  0.6038654610837949
  0.4002127556186552  0.1990592449714232  0.8008682188813832
  0.4005604234091494  0.3994432298837640  0.1984399923303450
  0.4010889021874172  0.3995872496311372  0.4006709595726741
  0.4003558862983927  0.3981837577406748  0.6018178547842442
  0.4000956301098711  0.3999619998044497  0.8040193010712429
  0.4004232471521560  0.5948727657671508  0.0002672204629062
  0.4000285569239873  0.6001738834273378  0.2016473027674042
  0.4002899770345344  0.5992715051095793  0.6004329551575505
  0.4001823242261737  0.6001168102123692  0.8007360005695260
  0.3999088297265366  0.7994707907231678  0.1964284506664362
  0.4004568413679404  0.7996646446587188  0.8014807066097311
  0.5982125700453569  0.0006436835858472  0.0003003152806167
  0.6023930163814653  0.0000453334732395  0.2002141813458326
  0.5994619698367480  0.9977244694605364  0.4011204866421675
  0.6007792067537125  0.0003400950511920  0.6011632141070078
  0.5996818446440532  0.9985635252452472  0.8009545886917693
  0.6005399391400930  0.2001556214131711  0.0009660467494650
  0.6003957917143987  0.1988025354942710  0.2010386777199009
  0.6001389071047760  0.1992685088579380  0.6023628771129804
  0.5993734266156198  0.1981805965292493  0.8003369729919999
  0.5975107143078988  0.3994908081136115  0.0017847029258160
  0.6004448323777852  0.3995049361808776  0.2026240466665816
  0.5993382044209222  0.3986043710302094  0.6000904686334727
  0.5998036313128596  0.3986777287104746  0.8006685883535863
  0.6002985730611547  0.6000463494241535  0.0015176334192939
  0.6013673473343349  0.6013325819510036  0.2018918093524397
  0.5991726687400923  0.6009601553264560  0.4013949135870680
  0.6001769236656895  0.5997458011230269  0.6001366418684796
  0.6010301154508966  0.6006453670680394  0.7996482395858260
  0.6001027286458106  0.8011213900264573  0.0008719691745888
  0.5999152154984414  0.8012525950060575  0.2008523397675598
  0.6020138505062314  0.8004477760286685  0.4004286793384417
  0.6005030965160763  0.8005701367186477  0.6001418555819472
  0.5998883260751396  0.8007622921871962  0.8018255184530985
  0.8007258279629722  0.0023194468563352  0.1990811364790863
  0.8005658119564039  0.0012681622733279  0.6014008182168602
  0.8004614837232361  0.9962374091836756  0.7973117178056113
  0.7996125247472385  0.2060068837122951  0.0041042499570660
  0.8014187245729890  0.2017999175116724  0.2026021019860191
  0.7993653330395452  0.2059006774692776  0.4005450276745172
  0.8012783419773325  0.2001219021297498  0.5983334199368227
  0.7992066888626698  0.4011721361913852  0.0033837432963689
  0.8005956721942837  0.3997605815896556  0.2020761891459059
  0.7967259967193414  0.4026841515336925  0.4007759800825862
  0.8005104484996115  0.3981072256611688  0.5989235180066019
  0.8002650504275811  0.5996782126335236  0.0015411585476857
  0.8004967155395375  0.5994981634898202  0.2017311640324801
  0.8009611277167936  0.6015212227366432  0.4006262217817378
  0.8004802694173572  0.5990900303991169  0.5997209501223240
  0.8008500486372297  0.6011252093504970  0.8000095770993234
  0.8011843570617193  0.8018586163503312  0.2001585389594255
  0.8005645235861097  0.7999484173931006  0.4001749224848043
  0.8011324837184931  0.8009825364687594  0.5991985121404210
  0.8002044690594904  0.7991327838972266  0.8009079816411094
  0.2012863394290971  0.0003025284549267  0.6015725047152958
  0.1989503321909663  0.1998899534755096  0.2040884137845930
  0.1993596461490295  0.1990366927215181  0.5964039555834999
  0.4005158298151520  0.9999821231717142  0.6021772659620717
  0.3993858036360090  0.9997828825122708  0.8016663807745766
  0.4002825438919989  0.5988520417325722  0.4008029527998360
  0.4003842237106529  0.8005131312056432  0.6025168808577152
  0.5992214906225993  0.4020508241507959  0.4009050768613389
  0.7998566178131051  0.7985902124933041  0.0007277591761723
  0.4008964975331782  0.4007773336985184  0.0014017179180816
