Zr Ti V  Cr
 1.0000000000000000
    15.5054759955686290   -0.0026938295988576    0.0222345561511436
    -0.0026911951043345   15.4937529874400166   -0.0133710719798359
     0.0222461462953622   -0.0133733789628594   15.4975574155639322
 Zr  Ti  V   Cr 
   5   5 111   3
Direct
  0.0065296486880379  0.6395968565503699  0.1861768378739290
  0.3995335525764674  0.3992750896049446  0.6002313413737399
  0.6004078587479503  0.1993522677017029  0.2003286377922541
  0.6101087852007769  0.7981587578621266  0.9912751715866173
  0.7920998862748543  0.7965807539305670  0.8111272045175045
  0.9993720655802719  0.7950486151171091  0.3721153118912671
  0.1875323432862083  0.6007602702174309  0.0129965995393900
  0.2069057955158142  0.7976961346870943  0.3990699923315950
  0.5966898994320807  0.2018034232017456  0.7981198102356529
  0.8217339642171962  0.8030301755675864  0.0227401150882790
  0.9993275519387697  0.0011065406908777  0.9942793300726134
  0.9995892554219601  0.0007976747116545  0.4027972188678074
  0.9988256606121136  0.9972201838645365  0.5989556787826010
  0.9985419444654222  0.9984813814495669  0.7987986659654750
  0.0009591287514949  0.1972159410399898  0.9996647561506592
  0.0016072911079892  0.1991498725739926  0.1985875479906829
  0.0002436381127632  0.1974728690239360  0.3986732231043170
  0.9993510315048437  0.1990541785784056  0.5996808967943489
  0.0001487948036021  0.2001968210175733  0.7986883608744191
  0.9997858743087380  0.3995960289581559  0.9990280887323053
  0.0007566810734840  0.4001282712331783  0.1986705474196957
  0.9997768974235725  0.3993388833146625  0.3978302719401444
  0.9982947114938070  0.3991512974279565  0.6002654179335387
  0.9995892991319476  0.4002143738069080  0.8000665608642540
  0.9928310067900540  0.5985008831000161  0.9901048372826462
  0.0000590435866528  0.5960386888132529  0.4003117794855955
  0.9980362158263258  0.6007625439288925  0.5984506182136313
  0.9973706012662121  0.5993576915980485  0.7969844300462697
  0.0092491599196449  0.7988544738772406  0.9958132028640282
  0.0028614029052673  0.8670045038447175  0.1918735433504584
  0.9985842641243889  0.7992247880091682  0.6054374329103628
  0.0016307631099342  0.7987821175474837  0.7997246593809245
  0.1998682964596884  0.0009144591962483  0.0004523210108350
  0.2058273176037167  0.0009361498735767  0.1999083640585001
  0.1996894629425492  0.0011246324280385  0.4000346602836911
  0.1990462870110571  0.9989297761448872  0.6005569066036431
  0.1994759661156729  0.9992522611487358  0.7994180179614775
  0.1996038678009906  0.2002720657142378  0.9996696651067195
  0.1988831815394800  0.1972521121311431  0.2004957494647348
  0.2002407716104326  0.2003060916230124  0.4005073090428214
  0.1984544118500930  0.1984080304593569  0.6002754977899905
  0.1986813634428655  0.1996499801754364  0.7996148123680158
  0.1992397501368948  0.3972464547120219  0.0009445186456408
  0.1998536992329121  0.4002845206598475  0.2002705328537754
  0.1996986897703573  0.3977348875842370  0.3999767449574614
  0.1948562390959799  0.3991374457951228  0.6002303686515028
  0.1984295178799099  0.4007044263859815  0.8013998548994115
  0.2066913414790389  0.5976650937720767  0.2061387355642105
  0.2011356407556189  0.5955380188309203  0.4028227017832551
  0.1980922500656842  0.5999506579838295  0.6008823519510527
  0.1979959962954619  0.5996146764211203  0.7993327257187165
  0.2020888543471558  0.8019076948509863  0.0005307431654067
  0.1991504672659080  0.7972181656173850  0.2008693846899111
  0.1977870274640993  0.7997330061597928  0.5990811002339950
  0.2002179282357311  0.7987408257513015  0.8007546232907059
  0.4015558101568741  0.9996870763750110  0.9986645377959799
  0.4012487565080897  0.9971880762415252  0.1988404845329838
  0.4017579872530107  0.9993020251677976  0.3996452277728834
  0.3993982374618097  0.9979025135477116  0.5991650542269285
  0.3990625587956859  0.9992589538820519  0.7998590456931314
  0.3990417530959360  0.1990662045886822  0.9995411518905200
  0.3960460029684685  0.1995465828166345  0.1989973229769238
  0.3997143619191677  0.1984495125757379  0.3995126315037815
  0.3989892784710740  0.1943843760140507  0.6002102934936664
  0.3961698451891780  0.1991407564351595  0.8002162162205123
  0.3996923359812012  0.3996341419223688  0.0006495298342852
  0.3994774510964091  0.4002923345045802  0.1980833538364037
  0.4004594924100143  0.3987488051053893  0.3954220403122571
  0.3981252140234394  0.4001102614204179  0.8049187516446782
  0.4018541695578859  0.5997168039319556  0.0012081294002340
  0.4023384718678574  0.6001556931950665  0.1997106218855949
  0.4014220161768773  0.5989077955340523  0.3994875793722023
  0.3992116139132456  0.6040272202460845  0.5999402896423774
  0.3963925756269309  0.5998479045172425  0.8028431011977853
  0.3985807658629850  0.7992569730140410  0.9996388328614459
  0.4010829126951698  0.7980778929374457  0.1984503047210327
  0.4023063513417167  0.7992135465070416  0.3989909368691960
  0.3988466243066165  0.8003667077022026  0.5996662608876127
  0.3955246506569191  0.7992083506523358  0.7991866907127299
  0.6005523024356925  0.0031784610233377  0.9968955987322644
  0.5994874824648391  0.9935153814246941  0.1978282666145684
  0.6000696479258344  0.9981700221349987  0.3992691314995588
  0.5977214141755498  0.9982129154007666  0.7966935449776963
  0.5999265020573619  0.2002357278215015  0.9957056281796407
  0.5998980963689766  0.1986225715248094  0.4041749747822851
  0.6001535791458503  0.1976286273504216  0.5988541124181677
  0.6010652563648260  0.3990112643413741  0.9995739214881999
  0.5999476223377621  0.4036504604912645  0.1995057925905453
  0.6005969204893790  0.3991478154796670  0.3990800801537638
  0.6040486545608450  0.3995659452566834  0.5995609907012264
  0.5987970971391100  0.4018793258642185  0.7995112818353314
  0.5996347699941372  0.5946138585655977  0.9982364176479002
  0.5995100842177102  0.5982067203796361  0.4002829106682289
  0.5995816403046125  0.5999490642212931  0.5992587791764464
  0.5970178307682725  0.5987323501434171  0.7976190153484382
  0.5997302549530088  0.7980020595131831  0.2003439667029735
  0.5984704934568935  0.7990318098785839  0.5959396140913177
  0.5893730642500715  0.7987216567251514  0.7890742361247982
  0.8012240696162521  0.0046476407460353  0.0011479281322404
  0.8285638277412982  0.9999200204116285  0.2000765427968877
  0.7999524519239346  0.9988833551663677  0.4000783513569945
  0.7984462994643114  0.9983365523238481  0.6001197282579465
  0.7974874402990302  0.0030491905980698  0.7990475734109138
  0.8017219990967023  0.2008465359244600  0.0003514289701032
  0.8061422820663613  0.1967887198663089  0.2004690167618710
  0.8002601675958687  0.1993019541422064  0.4002252602295775
  0.8000033135033059  0.1979398899636063  0.6001857170254213
  0.8013433198288830  0.2000169104580975  0.7996183274706599
  0.8001043595211383  0.3972037008684099  0.0007041670320935
  0.8021434638309876  0.4007071776186588  0.2000069727303580
  0.7999352627477329  0.3978042255186681  0.3995094568298108
  0.8004796143714129  0.3984268849263025  0.5999212594617875
  0.7992189113533817  0.3977976121029127  0.8006239113429326
  0.7991604477083748  0.5946300635650836  0.0026844893804787
  0.7979276253548442  0.5987165504158038  0.1998902920792858
  0.7990551360901866  0.5968989778572630  0.4001535806498023
  0.7985900338845884  0.5994754122908422  0.5999771586022679
  0.7969710508007705  0.5936784016440239  0.7991567139954545
  0.8047161734470938  0.7963029006338825  0.2090390416879917
  0.7974222080201667  0.7984947399137405  0.4021390696357245
  0.7999395606495030  0.7995548861077242  0.5985406686134935
  0.5994095076727374  0.9978989268170303  0.5978411834785886
  0.6006887189071277  0.6002346208736742  0.1997163824440731
  0.5999971642219522  0.7982779190686354  0.3987462164866275
