Zr Ti V  Cr
 1.0000000000000000
    15.3990340272275770   -0.0170018773457157   -0.0022529018582575
    -0.0170107766548915   15.3787801482628375    0.0165544931564424
    -0.0022517709109467    0.0165430754876648   15.4057927644380346
 Zr  Ti  V   Cr 
   3  13 107   1
Direct
  0.1932284618929929  0.1986430291335343  0.3727138294886703
  0.2000445560056571  0.6266614182779928  0.3927397222200377
  0.3764071598853342  0.7980088214763391  0.3956972896320351
  0.0018814107300822  0.0060956096617678  0.9960096764705050
  0.0006431142332479  0.1945461803612866  0.8089640005184385
  0.2031756813859103  0.1989520828892122  0.1750756760263649
  0.2012248170729068  0.5840288633223452  0.1881980561386416
  0.2046937060165473  0.8028180987399558  0.2200174725093471
  0.3927736624402871  0.2049025993211102  0.6043664235035516
  0.6104383051210678  0.0147571550336985  0.5925785019560750
  0.6056067613996530  0.1924067682675134  0.4127718537667603
  0.5905497147406430  0.2029269381435495  0.8127656418410332
  0.7952338101632630  0.1972704881419537  0.1957918987417577
  0.7851660518014988  0.1956072105540449  0.5934809884296027
  0.7978973238490263  0.1988348451794820  0.8024909160025246
  0.7997330908812902  0.8026860503375511  0.1973584159403927
  0.0035744735806156  0.9991942385690910  0.2041263884602929
  0.0023398600819353  0.0007913436582014  0.6002089513449271
  0.0020198190854551  0.9970666759180226  0.7972492757732894
  0.0007866156150251  0.2029200191341788  0.0066681655040901
  0.0015033787258336  0.1980861266951553  0.2022981729433281
  0.9931684834377134  0.2022823531228017  0.4010289724263795
  0.9987495835046161  0.1986485240748173  0.5972146569016280
  0.0004589071286549  0.3998294455275258  0.0014887822206105
  0.9997047873409105  0.3981529005789110  0.2013944424497340
  0.0005342205138257  0.3999825982943598  0.4007197132837677
  0.9993892880204160  0.3985210827008495  0.6009873688177706
  0.0008659234593789  0.3999767370913597  0.8005410172180879
  0.0009470358622083  0.6000614198872789  0.0012593795375591
  0.9991079599570389  0.5978992766891601  0.1989535967549825
  0.9945875640519090  0.5986510978142419  0.3989322439013254
  0.0017642298412405  0.5992434477277103  0.5985751423215142
  0.0000022984983205  0.5992882744437037  0.8009784552670166
  0.0021088146005717  0.7989787489637716  0.0016112027832229
  0.0005559835713582  0.8006313896934444  0.2002183410862868
  0.9950982603015498  0.7953909441912986  0.3991170350463013
  0.0012294429876203  0.8010239556619156  0.5985320041753716
  0.0002949867624398  0.7983863817497512  0.7996461795711324
  0.2033855949807227  0.9996969848501324  0.9989350293081904
  0.2017664005478867  0.0039906661395503  0.2002458930409867
  0.2030126406490368  0.9979392274246021  0.4013110510143280
  0.2013083230946693  0.0022845685886562  0.5986900324509110
  0.2027625357466254  0.0002399544992921  0.7976725531090745
  0.1992410675522135  0.1993424685057900  0.9871314856685383
  0.1963676143033877  0.2005762300091030  0.5954946084032330
  0.2015535267364643  0.1991201193380993  0.7951789576904944
  0.1999465164278985  0.3977193563766498  0.9983632861802996
  0.2010059896494051  0.3919333943899916  0.2000394242672345
  0.1999108518434300  0.4067745967787103  0.4006719024171161
  0.1999875384354056  0.4011566170534983  0.5984254852844477
  0.2001545538360873  0.3992188747804376  0.7994228428032035
  0.2004817432632919  0.5993738462337402  0.9955061705062140
  0.2004421732298647  0.6008731526628065  0.6031175503720237
  0.2009704872499515  0.5993063225877648  0.7996031931820176
  0.2003585475037556  0.8002466143056418  0.9981784187934615
  0.1231294235678328  0.8791485165978744  0.4051157076241107
  0.2010395331450221  0.8016315629083820  0.6027393782508332
  0.2005477009612633  0.8017263808190850  0.8007716096075324
  0.4016428804606440  0.0001775839714486  0.0019956507597082
  0.4025485568842022  0.9988099065641801  0.2009624832143022
  0.4008673451874291  0.0058096842247109  0.4006325837731120
  0.4027139885753449  0.0005386379963279  0.7986582555479241
  0.3994660904479569  0.1988684073916652  0.0020430327854370
  0.4015731914846011  0.1990957522981907  0.2018649434202712
  0.4002617981588374  0.2003838409718292  0.4008853226356168
  0.3963310210726540  0.1995109446415303  0.8057510372835806
  0.4003569651429700  0.3988696976362495  0.0019721302582500
  0.4013812157626762  0.3981261689933737  0.2016530127664231
  0.4001454307520774  0.3966840625230972  0.4014427940901243
  0.3997705086864631  0.4019140848814150  0.6011425690626326
  0.4008586519395317  0.3992408557464303  0.8005629744377500
  0.4002208921714344  0.5993974162350687  0.0012635515458379
  0.4029265300674023  0.5974557855847128  0.2002104900004553
  0.4065833803639426  0.5928320868700655  0.4009736992918561
  0.4009304622345210  0.5992073026224376  0.6005634728228383
  0.4012602503049276  0.5999451860262941  0.8019771481363465
  0.3992099748534745  0.8001278546457141  0.9990351368825490
  0.4043315633881422  0.8004165161678505  0.1935172912884233
  0.4014857076365317  0.8011957729732212  0.6043143941345585
  0.4010784065800063  0.8002662269097837  0.8008846774597007
  0.6017563947286277  0.0005599265752791  0.0003299528941307
  0.6030915231592396  0.0001817626776148  0.2026599180072380
  0.5965858363193348  0.9951144151693483  0.3984053436891229
  0.6013507466098338  0.0006776612654524  0.8011803786944316
  0.6000692710805557  0.1999888633619665  0.0075123334750627
  0.5980381322147378  0.1986001089803377  0.2019990325971056
  0.5925313916199960  0.2065781038413509  0.6091703275758773
  0.6013183411920362  0.3996531338987394  0.0013316447832597
  0.6004314298335991  0.3977721061203414  0.2028507051062662
  0.6012686094661106  0.3995069832627869  0.4021047823893933
  0.5999346558901362  0.4025845203657982  0.6020886984929408
  0.6007152305583746  0.4023410574052937  0.8020261995345900
  0.6009885164519568  0.5999504109171117  0.0014014664400049
  0.6018834334150828  0.5995530163079134  0.2004299298616908
  0.6010905249456777  0.5995480988082398  0.4003000144236702
  0.6007164550411288  0.6025518481745916  0.6009600283292755
  0.6009564591040381  0.6006472397231840  0.8011311811251454
  0.6011716345051770  0.8006099063430238  0.0007513665699723
  0.5985861911811132  0.7991566141380764  0.2001962554850910
  0.5990748508126684  0.8005726531728697  0.4000554088696136
  0.5993432121462181  0.8016909120042714  0.5994084360531011
  0.6004253662490652  0.8022026170984647  0.8005449546335538
  0.8002012371248662  0.0002063679153734  0.9999859514724472
  0.8026663608344428  0.0000022304405605  0.1997896421095919
  0.8250055590818411  0.9970625652857233  0.3969899314204051
  0.8066167231452561  0.9967507221126246  0.5981992285066164
  0.8011119029002389  0.9979495990990328  0.7979757227692779
  0.8009666734310982  0.1995575402895200  0.9979445845059950
  0.8017738863045319  0.1973357987876176  0.3962827555062161
  0.8011273449250940  0.3984545448444798  0.0001424148592712
  0.8007530712254435  0.3988211442356661  0.2001847404515784
  0.7997589672084670  0.3981699129894861  0.3999069506908007
  0.8000029760932611  0.4007473119087824  0.5996993343654108
  0.8006218752679434  0.3996347765075011  0.7985531617044345
  0.8011724523665709  0.5987756218563282  0.9993785946845276
  0.7997558828806446  0.5967763618869724  0.1990585945413501
  0.7985788871379585  0.5999932389911138  0.3991256147059040
  0.8004150624793080  0.5992633163199729  0.5999588439576334
  0.8006509329397726  0.5999638487206372  0.8002363360294763
  0.8012022354470121  0.8001756935338362  0.9966228001270114
  0.7981939175730297  0.8005899703339163  0.4019398544692515
  0.7999357579078203  0.7992129674651129  0.6007491280031082
  0.8007668706989788  0.8000477925789403  0.7994056921792870
  0.3999650582008889  0.9988587506128962  0.5993967865066450
