Zr Ti V  Cr W 
 1.0000000000000000
    12.2882735461728885    0.0000000000000000   -4.3445607757035454
    -6.1441367710433559   10.6419570608175889   -4.3445607757035454
     0.0000000000000000    0.0000000000000000   13.0336823299999995
 Zr  Ti  V   Cr  W  
  11  14  87  10   2
Direct
  0.0011647352042730  0.3853272481435333  0.2052788521454950
  0.9938244820371098  0.7949179447521666  0.3998270132653111
  0.1883687855844735  0.1990270845750987  0.0018107546215081
  0.3277803981590247  0.2102577757816244  0.2061219440134571
  0.1885903903521005  0.3856507462656741  0.7909040127369695
  0.2031599161631968  0.6029148479996377  0.6099880888620325
  0.4000775654041506  0.5874967819313108  0.8119767995862458
  0.4211279097589506  0.8212619397907880  0.1638464509418451
  0.4023987079907699  0.8062807493653874  0.3882490166123617
  0.3976264415288142  0.8130152076803974  0.8500607074368919
  0.5965491108161268  0.1950742327746519  0.6009635297172654
  0.0579803437408057  0.1855600532939611  0.1932253620442545
  0.0007505050500508  0.2115848912786552  0.3938232476847789
  0.9863206897243462  0.3922410322809009  0.5847596192373125
  0.9750113208839073  0.3916573360536972  0.7930540138706171
  0.1849935828651069  0.0021585258645430  0.1948911059501307
  0.1973218017589564  0.1910494200586279  0.5936718166286705
  0.1985646259950495  0.8006508754032369  0.1883372066699934
  0.4066490561690563  0.2034304503933408  0.4113789540317881
  0.6038763644788093  0.5925755404223124  0.9993462776907724
  0.6008943560117148  0.5952476842632000  0.2025272752138125
  0.6187790202247401  0.8094446919242960  0.0136304287172950
  0.8021336622339377  0.0016317831837152  0.4039533842423313
  0.7913984452748337  0.4021777345158674  0.3947152185047894
  0.8018135942961018  0.7948172096537153  0.9935544886823034
  0.9865929625202016  0.9885265456794473  0.9907656085658555
  0.9970185508338314  0.9946619359346588  0.2073920059473063
  0.0073694621265671  0.0025286384682980  0.3999658072354417
  0.9972050744937440  0.9993075296250308  0.6017154594071319
  0.9856012718095776  0.9903090270130457  0.7918918163441819
  0.9788916277130263  0.1943060665586901  0.9847981590949425
  0.9854603654411617  0.1840226794710329  0.5986449414549868
  0.9901998063959294  0.1920652778235767  0.7977910864927195
  0.9885041895329691  0.3996203745983337  0.9991489213139454
  0.9913619791782718  0.5961078264085758  0.9962492238509466
  0.0000959390564795  0.6003667147130316  0.1978028054447563
  0.9986000896466046  0.5939102115553777  0.3997144526056005
  0.9887428158088349  0.6026279681872838  0.7982881577507884
  0.9956861366461081  0.7932469193378613  0.9920897451688425
  0.9979677943346481  0.7983502082122202  0.1950935919297980
  0.9950457909773754  0.8031578580901226  0.6096625769871556
  0.1798653449053002  0.9805202207411815  0.9832438597659974
  0.2047640302396505  0.9960255581629444  0.4007030007187834
  0.2044874821924383  0.9990231665914683  0.6056020122168260
  0.1980789319844294  0.0038598134299763  0.8005028707517994
  0.2067602613926083  0.2021608986823464  0.3992331862083280
  0.1919280495947096  0.1851878285546862  0.7931639500380395
  0.1912867540206081  0.4027848629752402  0.0038878787165444
  0.2155689967367471  0.4075831407407191  0.2075357234755913
  0.2116019268424883  0.4141706082449626  0.4098767033217857
  0.2085615625415016  0.3902036977753126  0.5818493433777989
  0.1861825976049988  0.5947263704369692  0.9918374521140368
  0.1873341679088048  0.5891349258737552  0.1857886838239649
  0.2148990888921419  0.6175552088950799  0.4050757238585258
  0.1727593653106951  0.5923582705282903  0.8062969904574513
  0.2015833985255137  0.7986843548239327  0.4057793113143952
  0.2033132198885255  0.8139250063481878  0.6125951671717255
  0.1836754738059830  0.8067183671220614  0.8104000430906855
  0.3955353999587935  0.0246703207305875  0.0073849866875873
  0.3925782873944017  0.0125484002634436  0.2013542706293055
  0.3982129744103600  0.9965801166046512  0.6052602774782500
  0.5620067245838533  0.2069442730250451  0.1968944366476951
  0.3969597577531240  0.1923701723407064  0.6077683667278970
  0.3953250867798048  0.3880943746671962  0.9941419790594566
  0.4123536399692008  0.4191706757905012  0.2075632769523711
  0.4039934653486326  0.4138391300596279  0.4092945018383892
  0.4037464324612809  0.3971114651563873  0.6003943101015150
  0.4082792535434263  0.3775619332636042  0.7982405253170157
  0.3998645929862267  0.5888945514897610  0.0152660346086920
  0.3949584877274982  0.5970506648844237  0.1948900712622360
  0.4033692534437427  0.6043706607743158  0.4009438806124417
  0.4145417985544758  0.6045735438505949  0.6027449102250025
  0.4034495165753146  0.8084079473933052  0.0035449403375314
  0.4019973967671612  0.8051406318493591  0.6115641546831294
  0.6092041413987650  0.0229170448764187  0.0132190999083020
  0.6092225862755113  0.0526463517107396  0.2052076347309498
  0.6010179722270088  0.0099086050390107  0.4028312685013845
  0.6009610517112527  0.9942664197366368  0.6085688200212584
  0.5933328427753599  0.0014025516690306  0.8027968215950463
  0.5883921137993913  0.1991875199781879  0.9920599265039943
  0.5966130943647546  0.2063332698962428  0.3915643931111721
  0.6009374508100839  0.3923517885804709  0.9971485447097970
  0.5917878286913657  0.3929484320369769  0.1942838226430345
  0.5945828101212004  0.4058542735180368  0.4004790298688608
  0.6038401729127688  0.4152414142209284  0.6055647824417367
  0.5997359408707301  0.3966930139620855  0.8023069639183401
  0.6000404286312856  0.6031723215168537  0.4089436338995929
  0.6026835095810097  0.5973148992469396  0.7926072264606383
  0.6165962676244940  0.8001036868320283  0.2088523025648939
  0.6105448931694866  0.8019926468789208  0.4026787639787514
  0.5985217875167370  0.8004925174167903  0.6053522412865654
  0.6010884087904506  0.8013423092822848  0.8028367036323325
  0.7972649734483870  0.0055440116672883  0.9973885494591772
  0.7936458484876445  0.9972870456926282  0.6049233139842460
  0.7923109019126803  0.9961273756882139  0.8005319051747140
  0.7846874641170842  0.1954257171359851  0.9861008361308879
  0.7956542599577401  0.2078052254013752  0.1991995832919071
  0.7817838553283839  0.1984349047145933  0.3940245930627395
  0.7922123746304925  0.1878710475691540  0.5905763788482483
  0.7916999162480942  0.1964700822131308  0.8000517911332663
  0.7900943100005698  0.4001399120050962  0.1881374952678194
  0.7855639526006259  0.3983865362769119  0.5977512914722964
  0.7912472960922384  0.4039423550348644  0.8107810233751517
  0.8055391549416029  0.5933612604864413  0.0028554533208866
  0.7984832550644723  0.5911729031219934  0.1949994014616893
  0.7921312332503666  0.5996123321120659  0.3976503304314203
  0.7924651111077958  0.6033807566480286  0.6010567264898516
  0.7963656297661943  0.5992311673511336  0.8004278667517943
  0.8030014196389728  0.8023450326743311  0.2037684004521071
  0.7926625025835262  0.7988927769411079  0.4069212560924331
  0.7947129164985752  0.8013268613677846  0.6015020706147709
  0.7945235451408320  0.7966369708740807  0.7930808725395627
  0.9939083189524779  0.4070478740647205  0.3991350531067849
  0.9884547053515302  0.8012683226390757  0.7964226281703395
  0.1849945800640923  0.8038201088865435  0.9912843114573169
  0.3917422406062158  0.0012025846497639  0.3905571230871233
  0.3955447094501522  0.0075565227504493  0.8041812187214313
  0.3975016556656647  0.2029482112722505  0.9934855523632280
  0.3984990155875192  0.1915525559344811  0.7982444295047281
  0.5928594000051309  0.1952561261345933  0.8041064834611453
  0.6004066968457300  0.6037422831795947  0.6024067132828462
  0.7956078135613807  0.3956621492834243  0.9985936490873563
  0.9901200735099068  0.6057219521541242  0.6012019955032555
  0.8038851794460837  0.0094725696118906  0.1998169708293641
