Zr Ti V  Cr W 
 1.0000000000000000
    15.3205282173675101    0.0002014824685806   -0.0032720455521328
     0.0002023707323046   15.3277042438828079    0.0007193262014022
    -0.0032728540049734    0.0007198926617368   15.3420216939870571
 Zr  Ti  V   Cr  W  
   1   2 101   1  19
Direct
  0.3932274682195897  0.4176951894684743  0.8176654065525659
  0.6106033782025641  0.6047695820636139  0.0051609254523369
  0.7987893958784401  0.9690552037384732  0.1722927484573229
  0.9984502408253880  0.9976334994451015  0.9958204953937766
  0.0023472797169127  0.9996623956369478  0.1988860817441487
  0.0007925380800509  0.9976774851720634  0.3999101765706165
  0.9999455406163970  0.9957719329326248  0.6063859702858736
  0.0015429769973828  0.1998911362476561  0.9987903610770543
  0.9994673223531270  0.2003180053347599  0.2005416700542079
  0.9994543177572393  0.1989284041494354  0.4031032525359396
  0.9998428092820041  0.1994456973089826  0.6018775947460457
  0.9958324142375753  0.2166491817269416  0.7999622136849749
  0.0036593426142355  0.4000567167349945  0.9991249296271496
  0.0004229851325657  0.4000049963666721  0.1976110924008852
  0.0009016668064412  0.4010095683978298  0.3992899175485634
  0.0017984406249909  0.4039079538614098  0.6049774065181954
  0.0004307331423368  0.6012277942642701  0.9971433314854702
  0.9987939608807173  0.5973034649568632  0.2000217400776423
  0.9951769098852744  0.5988142744382998  0.4058014408717943
  0.0064253562021670  0.7981157253604451  0.9998453140478432
  0.9967823574851224  0.7983357977441573  0.1975523239650389
  0.0030139893284565  0.7995257486071524  0.4042651086208927
  0.0007673540774345  0.7935713166492400  0.7978452731038399
  0.2008018582444520  0.0021432146930431  0.0006779502675015
  0.1996176411733080  0.0002794252126690  0.1993656415661661
  0.2043773465438480  0.9960409112226727  0.3992226417905555
  0.2000205934922296  0.0059204586202808  0.6001080858786054
  0.1945056438915453  0.0004862605363887  0.8003253743105095
  0.2005764259651819  0.1981725582921885  0.9998764583496025
  0.1995177819423890  0.2008568577689296  0.2020151123646998
  0.1993397339465056  0.1996525221142034  0.4051557674791131
  0.1986879503231238  0.2006996042909567  0.7956330908781735
  0.2057268966057707  0.3978136540027625  0.9997750195617493
  0.2009813234544876  0.3993023381272518  0.2011577679317651
  0.2009917000959291  0.4001488834981898  0.3987245329040365
  0.2007217595779384  0.3948402646239408  0.6003023725977845
  0.1910049236738917  0.4003082147147947  0.8004659136392387
  0.1977529474576201  0.6002640293674268  0.0008886118568368
  0.1990217864909800  0.5985259518003812  0.2009691394174385
  0.2010890490179459  0.6029693428299445  0.4014799689853409
  0.1959138287192266  0.5974604624365054  0.5994880019637728
  0.2130012894026566  0.5975863483280135  0.7995289086870621
  0.2005054223772890  0.7999331200628198  0.0020798806527276
  0.2005472269716117  0.7987905952767348  0.2037990081403990
  0.1969446690972044  0.8005247154282558  0.5950217048284716
  0.2030222378068819  0.7992233263215665  0.7986101194223447
  0.3996338735200235  0.0012679881074615  0.0009912409698888
  0.4009208523558347  0.9998794350646590  0.2012041320638493
  0.3995502546935898  0.9997360614269942  0.5964729138511550
  0.4000530605500546  0.9964175512148434  0.8016071167220614
  0.4003391332633112  0.2028031315468267  0.9973861102895700
  0.4001453109072923  0.2000266057726093  0.2015812001999100
  0.3999665325308505  0.1958388645440909  0.4016654901888805
  0.4007108473673061  0.2007222474108853  0.6022904723667876
  0.4005184371569238  0.1985495653519659  0.7989380769348210
  0.4036060345977780  0.4007308090754689  0.2025577304601365
  0.3991486607180162  0.4021090442111948  0.4004509808457870
  0.3992875273971406  0.3994050795125781  0.6013729400560370
  0.3991434440840412  0.5971712349660079  0.9959108735302609
  0.4015441288176091  0.6007652766458785  0.2001497176594356
  0.4005244508673291  0.6006605861710591  0.4035098290827846
  0.4004369689659844  0.5985646098170958  0.6043974469768725
  0.3994013214446569  0.8008689342885660  0.9974919459379799
  0.4014445453321325  0.7976353824086081  0.1967277193234821
  0.3993538981203300  0.8008727228698997  0.6022820127318773
  0.6020754493679534  0.0008633413798538  0.0006723244130642
  0.5980113276146229  0.0010607329454204  0.1998829975662049
  0.5954661490532401  0.9981293447833511  0.3989956173150807
  0.5998172711547926  0.0040465744212640  0.6001147264206378
  0.6003989312638079  0.9999748692913742  0.7996963636119665
  0.6001742000938356  0.1986124179894561  0.9987755052131581
  0.6017816746048413  0.2025460261148936  0.2014546101375751
  0.6003651639938853  0.1999458029768967  0.4049862088162305
  0.6034748880029634  0.2007669151784708  0.7962182617315124
  0.5956011234562301  0.3960557855602515  0.0052992010791951
  0.5980815357713115  0.3989285752873552  0.3959867848169754
  0.5968622991577490  0.3947130980415883  0.5997979066010770
  0.6009965266937186  0.4002978457880450  0.8022725549817971
  0.6003985401395504  0.5942259638845062  0.2047273277823950
  0.6027017166515054  0.5998501537259635  0.4036302122796975
  0.6013678727773711  0.5978877326483781  0.5984682860198589
  0.6009982970671666  0.5987015462951437  0.7956287535212672
  0.5951854415576160  0.8017871151794882  0.9994824037972865
  0.6024157376229756  0.7985993918655768  0.1978294832678900
  0.5997132419015272  0.7993905502184532  0.3997095490195515
  0.6011220222158323  0.8025154579240628  0.5973825746324291
  0.5998002501805095  0.8023513485089002  0.7987962365036488
  0.7994153392212836  0.9983869714817964  0.4020971553499140
  0.8009970706595065  0.0031147212740721  0.5986669550549707
  0.8035125693685614  0.0011617125878508  0.8018057681711008
  0.7998545543873051  0.1947084863396220  0.9948045525700078
  0.8010299757651761  0.2023921971102715  0.2017209649541962
  0.8010272959346547  0.1995285925301934  0.4054764971464522
  0.7992280504023350  0.3974866340726063  0.0024517355374738
  0.7967551916038401  0.3982495653038363  0.1993856650581556
  0.8003759655217930  0.4025573344541878  0.4000065526524293
  0.7992638302990513  0.3956456775750693  0.5991557235196658
  0.7991824378842153  0.3994251172572402  0.8033589047363864
  0.8004444921719926  0.5949850675006971  0.9967432734266135
  0.8004341493927972  0.5989565491700193  0.2038261612582072
  0.8004671478093176  0.5968983214135536  0.5984575355846962
  0.7996237615277615  0.7959983651448946  0.3945922740022541
  0.8027951405861377  0.8029585596617621  0.5972094835480489
  0.7961016974604525  0.7958995998716420  0.7937909156506913
  0.3999665057477622  0.7990851126889696  0.3997082809997581
  0.9983598456333143  0.9816597708844436  0.8014224940713393
  0.9968481441124390  0.4102953738716352  0.8036906593263480
  0.9992350304540767  0.6026282917465159  0.6043169793344588
  0.9835115727848023  0.5978950393860227  0.7964150907556472
  0.0012649573525225  0.7961913544903300  0.5997436342826301
  0.1987448155191280  0.1996121114139166  0.5996640679988053
  0.1977645324855537  0.7999644320819680  0.3992494593300812
  0.3997379429809280  0.9997092615845279  0.3983981234567907
  0.4014887427150589  0.4003414071404406  0.0127183700436950
  0.4063017329491188  0.6155578589821271  0.7997099942115441
  0.3997128488865908  0.8018280552326600  0.7992009374195573
  0.6026853260945008  0.2003252515255710  0.6006169957734689
  0.6000138591964405  0.3977299736702946  0.2013068434097369
  0.8006914825919885  0.0037586873674071  0.9955742392602114
  0.7981415305594379  0.1997402157865392  0.6030036526354742
  0.8016930708744280  0.2004822409997880  0.7954166770910055
  0.7997088967549912  0.5987277617181225  0.4028800786942738
  0.7949246568848375  0.5995988526449250  0.7989481535117086
  0.8001611854700762  0.7940379498923199  0.2039742034101901
