Zr Ti V  Cr W 
 1.0000000000000000
    12.5911167094248988    0.0340321349657384   -4.4651127512690021
    -6.2606958638130132   10.9008704492667636   -4.4499898086669072
     0.0017762997224301    0.0219469782085256   13.4007816977248968
 Zr  Ti  V   Cr  W  
   9  17  87   2   9
Direct
  0.9913542539595263  0.1949474797033035  0.0002173787132917
  0.1672605491079062  0.3944388336500722  0.9767578238348635
  0.4061154546877333  0.6008023953187780  0.1945184493413630
  0.5886360693494981  0.4173968317507498  0.9847390594252499
  0.6014977629311687  0.4000854543633875  0.4015710636966450
  0.5894376298377575  0.5894605063199336  0.8172978015326000
  0.7938496089071150  0.9952323158618374  0.2014912463255723
  0.8463696813649310  0.2545495630290539  0.4506919154484447
  0.8027843821551213  0.2028554424985862  0.8024361977007687
  0.9947234888942463  0.9913428226126479  0.5971032550024029
  0.9866899486560180  0.9880319909909222  0.7982593638493038
  0.9979424349379725  0.4024826380245115  0.1911733197969057
  0.9917372402047822  0.4034177308370088  0.7612836353734507
  0.9941990824235507  0.5642813361968059  0.5945494248113465
  0.2024201936929207  0.9894968593325568  0.5939716283740782
  0.1955243514518177  0.9866681245585106  0.7966995460186903
  0.2099147304198682  0.1963905981390671  0.0027311214228268
  0.2000263372806488  0.1989460693863393  0.3918268269808626
  0.2204481180691395  0.4049450559590332  0.2175273243258455
  0.4092504460622988  0.1948306316077380  0.9921430999665503
  0.4252480267486471  0.5926413932147238  0.9761673823216368
  0.3984084714368350  0.8016574377954544  0.9983986579515032
  0.5976151553165160  0.0343746830454576  0.2075404712147267
  0.5975079747631897  0.4012476802721042  0.6061619389020170
  0.6052653765854795  0.8145714270348169  0.2154015946725220
  0.8163120797293362  0.6068283071424045  0.2067052494825965
  0.0031779566448643  0.9932766113424212  0.1938941523495145
  0.0202850584357500  0.0133508161218292  0.4121807388853860
  0.9949180475171380  0.1951150688250922  0.2038545615784694
  0.0125473994855881  0.2139355335744291  0.3921362457562231
  0.9969392560826108  0.1979226694390845  0.5992348700317531
  0.9924844035050662  0.1786624474889913  0.7691719235907399
  0.9896496082163990  0.4308230579700708  0.9954436793250048
  0.0023562614958333  0.4043545480216480  0.3930329549487000
  0.0045784847573373  0.6125826124118594  0.9996119930570455
  0.0116611953728577  0.6110932929726585  0.2009547701678282
  0.0022243245866776  0.5937198015017027  0.3928811288475877
  0.9959374015029921  0.6116917685424074  0.8041559953346311
  0.0012224163913805  0.7990925047133689  0.0008731268469853
  0.0115396478076319  0.8032810483601625  0.2038092096693459
  0.0072044405148362  0.7961683818111774  0.4041785220680867
  0.9976139411732985  0.7864988665098362  0.5964565804299164
  0.9992851990800403  0.7920972042588746  0.7960760607356896
  0.2014946816613299  0.9905308364870271  0.0008570685568200
  0.2041745521775715  0.9978031431830436  0.1974543259444540
  0.1988930328385261  0.1874876178353685  0.1929762881159278
  0.1954972570137214  0.1964273606561615  0.5928766934061444
  0.2004690480899841  0.2006969827979527  0.7931192159965774
  0.1954273135900486  0.4023771222081086  0.4007354129496488
  0.1801258043473948  0.3954448640905686  0.5880720427375220
  0.1969245327343953  0.3892939606474081  0.7822874682596855
  0.2020431162076931  0.6012187766284492  0.3960202835701927
  0.2013630517210480  0.6006975062648129  0.5909082102163605
  0.1870589849683776  0.5995783168859399  0.7945610747416185
  0.1975678509646453  0.7953890940162108  0.9957180223745652
  0.2052789239356166  0.8046392614173393  0.2012302031211282
  0.2047522251861104  0.7987996952264289  0.4003855793048941
  0.1979257870633171  0.7916213571859475  0.7983796000239541
  0.3998269149130776  0.9973952736312255  0.9967053873979067
  0.3947404937548533  0.9985593691830228  0.1980777244260434
  0.4034244177707341  0.9998969809334924  0.4034140368465519
  0.4033390708961877  0.9943403299600994  0.5962280955087577
  0.4001549150124625  0.9950237792729502  0.7929931742022832
  0.3949391317592020  0.1890619774548663  0.1912912556120427
  0.3946940821429893  0.1919369601006756  0.5920827656557553
  0.3929379836643744  0.1861532890762789  0.7829070686331260
  0.3771838193968946  0.3815254830408714  0.9894337592852513
  0.4166724329283632  0.3939901975183075  0.2042592757072465
  0.3932006237844823  0.3998981963633357  0.4013192613744263
  0.3898226039347623  0.3971138406711582  0.5870160692863955
  0.3694013525993347  0.3766456180609561  0.7660644141513443
  0.4071861333640152  0.6079808764227953  0.4142798781791181
  0.3967580876299050  0.5974480619012227  0.5935916787812769
  0.3713010422057072  0.5905081154103650  0.7703592299198866
  0.3997575195377301  0.8002927969898425  0.4010946190697574
  0.3969021722088394  0.7977897686120011  0.5938904633476225
  0.5967377030344789  0.9993382053177109  0.9942385087821918
  0.5972143788100550  0.0016518616439439  0.4065350594058490
  0.5904002105853149  0.9918605001673857  0.5949724760757537
  0.5943190374208943  0.9964316985095004  0.7936214911165319
  0.6028578784199865  0.1936264818370706  0.9927054433960257
  0.5962732798694350  0.1946428489177600  0.4051559043623558
  0.5951176956240947  0.1945126467550240  0.5982397262740021
  0.5884045018244435  0.1898780158086463  0.7910339253085475
  0.6093444931902311  0.3977240452680947  0.1967163218183273
  0.5934221982411775  0.3702776437967840  0.7797045965757585
  0.6654542190715853  0.6873147202133318  0.0757154891812127
  0.6083524580958181  0.5990157564065887  0.2069838368648439
  0.6028814772610412  0.6064124126624780  0.4047382020991160
  0.5967591617736248  0.6036396672420469  0.5975261957048404
  0.5916946846928592  0.7995175820922888  0.9838987979286540
  0.6075475037860952  0.8063314137318186  0.4128953676947824
  0.5957788369371322  0.7965649333639567  0.5982017246228026
  0.7905713534375970  0.9897504820600536  0.9926124632234997
  0.8074168095586998  0.0062086941325019  0.4251121893307593
  0.7918828753399260  0.9922407353395862  0.5988198629442761
  0.7804389037749727  0.9764686311369585  0.7860368555292376
  0.7768735607871994  0.1939244337736518  0.9980903811150789
  0.7962803299527982  0.2110113840930122  0.1923601027714996
  0.7816343405764478  0.1902099036770813  0.5916602390354445
  0.8042986618959185  0.4113963958650869  0.9990536545897243
  0.8020389850849595  0.3979534449135242  0.1933574651906296
  0.7968584854626989  0.3979236430852791  0.3768282560285869
  0.7973118992553749  0.4084821777655096  0.6067316921105818
  0.7976165939221365  0.4099633049914829  0.7961952772516073
  0.8128666884046587  0.6098551917674967  0.0041358530556563
  0.8040617965189681  0.6080792330890143  0.6111872984143510
  0.8047995252519808  0.6052716156360091  0.8053279822489189
  0.8082129783808714  0.8041573789248818  0.0073475428391548
  0.8501149705238937  0.8305702762519009  0.2492870696441666
  0.7978667965852557  0.7929461032534604  0.4073314038101079
  0.7937258855325438  0.7898055290410411  0.5967875004902321
  0.7966266427896574  0.7932317183796485  0.7977016154962100
  0.1954777649883700  0.6187589886740656  0.9957383598321362
  0.5981623018168106  0.2070221129174187  0.1898243390208413
  0.9976470874015968  0.9892748234905626  0.0004409307278836
  0.2053831347737019  0.9951279050627218  0.3968305994323901
  0.1983318425127169  0.6063634695015950  0.1976381182306081
  0.1948976914268925  0.7897562691402896  0.5938880640922672
  0.4003107634404773  0.1955701106447283  0.3953700323813905
  0.3975907945108245  0.8095971780716519  0.2024691347234012
  0.3956398194389843  0.7993342664882626  0.7941023163153349
  0.5950019724509734  0.7967584896394054  0.7934181008465623
  0.8051834124065123  0.5998282668827849  0.4052093381882375
