Zr Ti V  W 
 1.0000000000000000
    14.6853827578748088    0.0297835820478323    0.1122213727717476
     0.0298206486797816   14.5407478417437535    0.0151358330274621
     0.1127576065006712    0.0156506682204352   14.6102625195228804
 Zr  Ti  V   W  
   2   2 106  14
Selective dynamics
Cartesian
  0.1224483901141906  0.7719597245358949  5.8287441267298137   T   T   T
 12.1285966715609170  3.0756998349311253  0.2976559691748631   T   T   T
  6.3610376533459725 11.9241581564344639 11.3715422257326413   T   T   T
  9.0574956449632342  9.9883722778850679 11.1723622611845137   T   T   T
 -0.0341580498588877  0.2611110561804684 -0.4645052087650933   T   T   T
 -0.8534726598311122  0.9633793857312939  9.4112011857287072   T   T   T
  1.6640803563337487 -0.2898354531568126 11.4030792852353446   T   T   T
  0.4649686544468460  2.8669424089762869  1.1325802117135444   T   T   T
 -0.9156394665531666  2.5048818054798550  3.2581517346026470   T   T   T
  0.4971143012182302  3.6602324896102463  6.1076515286837170   T   T   T
  1.2181887806194573  2.4988401967849803  8.6543173497826515   T   T   T
 -0.2323376243633873  1.8474649645647057 11.9868454029116407   T   T   T
 -0.1005640074301110  5.5741668556034769  0.1133623763659118   T   T   T
  0.5016329757302608  5.8991332598495214  2.6519639815994092   T   T   T
 -0.7007228088783383  5.3213686181119106  4.6893244321662859   T   T   T
  0.6265921318101273  5.4560314240209893  8.6303527699740510   T   T   T
  0.4223170869740219  4.4049145543218353 11.2681665848717696   T   T   T
  0.4206922515821610  8.3500307436973422 -0.1658800193492923   T   T   T
 -0.9065971830615562  7.8492294455876541  3.6848005737154708   T   T   T
 -0.2803696843809131  8.5831053723636739  6.3742265639671487   T   T   T
 -0.3260246122159715 10.3101197303297276  8.4173445273354766   T   T   T
  0.2914006675046916  8.6610320969989569 10.5934552171011713   T   T   T
  0.3636155526303990 11.5282815284032463  0.9380504780198928   T   T   T
  0.4298351877632145 12.1639932291080513  3.5486734127189812   T   T   T
  0.5472786901282513 11.2232557318139481  6.1812989041882602   T   T   T
  0.0718181263420652 12.7635827789794227 12.3368165392140448   T   T   T
  2.2989141693454966  1.0315004264386540  0.6962848000679183   T   T   T
  2.2899188214067694 -0.5492072758849381  2.7381984272600013   T   T   T
  3.4007253933993349  0.0158871738094071  5.7527240360042367   T   T   T
  1.7317526218575960 -0.9226204564525826  7.7730171857606756   T   T   T
  4.2139082662028393 -0.2079305495183354 11.8655686886736991   T   T   T
  3.2729691655436128  3.6137125449790140  0.8568472096787021   T   T   T
  2.0740512200016568  3.4288051228437144  3.4032428222043238   T   T   T
  3.0518663280575549  2.6651812510686352  5.8654353012627869   T   T   T
  3.8616512312549407  2.4473586903725995  8.8617325375524967   T   T   T
  2.9970955892168512  2.3406976499000511 11.9349948061815105   T   T   T
  3.6934936924618875  5.4115961368566001 -0.7547017048763770   T   T   T
  2.6202850096763570  5.3858665244330917  4.6179530370894755   T   T   T
  2.9707826535865496  4.4555786951252561 10.2254328318397363   T   T   T
  2.4669307211731248  9.8665051318535362 -0.0381903434503916   T   T   T
  1.3893542664034089  8.8148228922080012  2.3382202476952596   T   T   T
  2.4683639376012678  8.8141700212276444  6.0586427111749295   T   T   T
  3.2144952280018178  7.1185678235437431  8.7817872427839010   T   T   T
  4.0988123584953486  9.0057658442602033 12.4325551578492632   T   T   T
  2.8412248194028851 12.4499687814000204  4.9556583248344985   T   T   T
  2.0606551599291647 10.6496209414082852  9.5295240827725216   T   T   T
  3.6807685144299649 11.5946365475039386 12.4761253287169271   T   T   T
  5.1737814239838205  0.0970106227672375 -0.1627417839459454   T   T   T
  5.7561250161770658  1.2072370129019985  2.7333304209159088   T   T   T
  5.4304227133310574 -1.7079737259397183  5.8046883615707445   T   T   T
  6.4392438714597224 -0.4080367147439469  8.4448364476190800   T   T   T
  6.8444564691812513  0.4882926196135883 12.0650994364205868   T   T   T
  5.9440162745424523  2.4926168407233060  0.5239810796969788   T   T   T
  6.8531907213643359  3.0435508099552813  4.9120574471188654   T   T   T
  7.7750661295620489  3.5418708730883086  9.5046825673286079   T   T   T
  5.4590581791184603  3.7746313345681175 11.2597177835627562   T   T   T
  5.7346398674374441  6.6857686258197662  2.8476973515570925   T   T   T
  5.1826042183953955  5.0349322267841590  5.5425591400783478   T   T   T
  5.3439337141043941  5.4279185644614341  9.3008455596324886   T   T   T
  5.6935580961004097  6.5477553675720541 12.5664341630439136   T   T   T
  7.0764167575687669  7.9313329393725907  0.1863096610933774   T   T   T
  3.9428885480019678  8.7527155706673021  2.4362623753857737   T   T   T
  4.9854817206302693  7.8453844466811864  6.1188587074974254   T   T   T
  7.4664740796909603  9.2537562273482585  8.7937671357540612   T   T   T
  5.6546154110464339  8.2709640061331164 10.4386619690123474   T   T   T
  5.4653202411690032 12.3018074558285946  0.4335825491972555   T   T   T
  5.5726228501094166 11.0819851586367122  2.7726157756219099   T   T   T
  6.3702826610208945 10.5899243689236382  5.7893333204534683   T   T   T
  4.4476536294396389 11.6380960639417914  8.9381494568195734   T   T   T
  9.5091425596011820  0.7906412099505468  0.2131174461728227   T   T   T
  9.1484301986605132  0.1507259240429101  3.8522581158225027   T   T   T
  7.9679517604881056 -1.4377294530605456  6.0642180246637691   T   T   T
  9.0670633798554761 -0.6513774046664319  8.4666452733810758   T   T   T
  9.4048612123756712  0.7868448208796417 11.6791438472840294   T   T   T
  8.6372636264958373  3.1972961304923957  0.5199655678092464   T   T   T
  8.2416258823955619  4.3114202466384670  2.6676981750818762   T   T   T
  9.5705745210191360  3.7529516120000301  4.8955091132843798   T   T   T
  9.3131033934622955  2.0702445765726805  8.2004935561575589   T   T   T
  9.2667541626974117  3.3068733590374437 12.4190539415585963   T   T   T
  8.9135081285475248  5.6846854564975171  0.3156958595832251   T   T   T
  9.5097008372947514  6.4162472327281428  3.9171861743204270   T   T   T
  7.9401872999217984  4.2458898778234042  6.8567641882225363   T   T   T
 10.6736961109629949  6.6289083126962725  9.7159164180209814   T   T   T
 10.7065849619245483  5.4723609152601806 11.9489663711010330   T   T   T
  9.2440468279974475  9.2470054409441822  0.3889348542549066   T   T   T
  8.1224610001450070  8.3106407160777209  2.9782160629706094   T   T   T
  9.4502665619090500  8.3648327321136051  5.6073810310298482   T   T   T
  8.0542121796274824 11.7414035315306720 -1.1300268068248585   T   T   T
  7.9707823126311297 11.8354208733118025  1.4630431946368823   T   T   T
 10.0043705162396215 11.0163333468567934  6.2248192898528183   T   T   T
  8.8449986623763515 11.2740615265213897  8.7059064589168145   T   T   T
 11.8278733726456782 -0.1285673970758173  1.1435699145221720   T   T   T
 11.9894396750240286  0.5254899707416856  3.9594544496808668   T   T   T
 11.2971984468787259  0.5844604591501058  6.8393464422061889   T   T   T
 11.3926005707664597 -0.1873746105217208 12.8006468999784264   T   T   T
 12.0974152995149851  2.4887120317397318  8.1562791013420366   T   T   T
 11.7887551127680119  2.1971588213990381 11.1482550024502611   T   T   T
 11.5849019066813756  6.1412184853156297 -0.6505986173949698   T   T   T
 11.2861714818101291  5.7477017713676100  1.8449337438913036   T   T   T
 11.0099704090250849  5.7192679267161948  5.9880010777441264   T   T   T
 12.6849756446521322  4.9685230081763585  8.5043316592504237   T   T   T
 11.7404139861212240  8.8063627600852765  0.1539755562754990   T   T   T
 11.9738423107161616  9.0612998655278805  5.7365688261946008   T   T   T
 12.3858212221077526  8.7469271905551338  9.8425654552425037   T   T   T
 12.5895496771420845  9.7254892260342913 12.1679818647095779   T   T   T
 12.3838469443298163 10.7170234235517636  1.7817304337360260   T   T   T
 11.1764615051904723 11.3386914811167667  3.9833971051177532   T   T   T
 11.8408616052360589 12.8202757373854759  5.9931699862744470   T   T   T
 11.7248130424841843 11.4819870950963807  9.6219605501626013   T   T   T
 11.9651554651618710 12.3014617484809090 11.8619783345281711   T   T   T
 -0.1575646147893108  0.1821977619933090  2.3931306160697696   T   T   T
 -0.3170022046791916 12.9119817286669960  9.5394372951112683   T   T   T
  3.1659730822168735  6.0937522190809306  1.9312513563438820   T   T   T
  3.0880066477446779  4.7022916237361887  7.4874687718437576   T   T   T
  2.6097237707732743 13.0064016920804431 -0.2217606132129826   T   T   T
  2.9891030859970913 11.4112548505600699  2.1334872468430652   T   T   T
  4.9348233767334362  3.9617635949080801  3.0932443161883070   T   T   T
  5.9459130353331071  5.2480352674911819  0.7512738493419754   T   T   T
 10.2760759695667669  9.2026200998871186  8.2535858351268505   T   T   T
  9.2773804290400381 12.7906179127321327 11.1560184226963859   T   T   T
 11.2423170464970923  0.0726081079727897  9.8516339661265011   T   T   T
 10.7349213013940599  2.4554937255538438  2.7373376290815243   T   T   T
 12.3225026035745522  3.1091453756698426  5.3560399018312612   T   T   T
 11.2456872039541551  8.4186792562282751  3.1181513225085475   T   T   T
