Zr Ti V  Cr W 
 1.0000000000000000
    15.3904450603896628    0.0026184067791538   -0.0182378713251041
     0.0026124996044923   15.3940554216993455    0.0121662293810218
    -0.0182403817796753    0.0121741196639447   15.3895487302281460
 Zr  Ti  V   Cr  W  
   3   8 100   6   7
Direct
  0.2017216640188785  0.2070388819196891  0.7928612242576248
  0.2055275580054698  0.3884840795385763  0.6084429067018551
  0.6150910224209798  0.5835312657332662  0.4118051478856641
  0.4003959076791376  0.2056521745487490  0.1924755271976193
  0.3910171587027625  0.3904686902620789  0.0043902706654446
  0.4071867554534150  0.5941000958682425  0.7995558336591791
  0.6065560019430536  0.0028959603521292  0.8013735991309023
  0.6019397402969893  0.2120029812062435  0.8042775793374202
  0.6009178776354385  0.3936808146616045  0.9987656940880263
  0.5934935054207663  0.4141188242571160  0.7938303166087233
  0.7996838777998154  0.8017141152259823  0.9923257794000998
  0.0000631343858546  0.0051688851392744  0.0003083476147591
  0.9985356880096623  0.9999460324610876  0.1992372962798561
  0.9972571881409082  0.0011587447903827  0.4309136860445026
  0.0007439902074542  0.2009750884317553  0.1952387189023582
  0.9991798537631106  0.2016113657323888  0.3997208076593929
  0.0012932551444240  0.2042416373310830  0.6023574580310826
  0.9960600888019729  0.2029268742583395  0.8036880895833095
  0.9975887494722131  0.3970317888910180  0.0007740615967602
  0.9981106137401262  0.4000717947855765  0.2000131060090680
  0.9948421917181179  0.4010840138336796  0.4006103918770276
  0.9958720561726279  0.4002363672990280  0.6022909731750803
  0.9981893280288496  0.5987489381479359  0.0017650126916360
  0.0005976183096745  0.5999329193482263  0.2025715090503760
  0.0015650982481595  0.5990704100848105  0.5970499825573156
  0.9974713473657948  0.6010021294891709  0.8003035279280750
  0.0047252312908057  0.8010720982131613  0.9987822739063844
  0.0000068488763074  0.8009725293106413  0.1978600683277734
  0.0015597721647994  0.7962271902468906  0.6010403291716372
  0.9947872324800299  0.8004319617680780  0.7994988698679344
  0.2001212196183606  0.9979002384742185  0.9976958810320058
  0.1990935359395773  0.9976622488907354  0.3987050925805967
  0.2017857867563426  0.9944851149560491  0.5982294133724011
  0.1997212427951053  0.9980328083678490  0.7975276503404505
  0.1974554189623809  0.1985992336294275  0.0016452131737366
  0.1991830727279987  0.1994108011756377  0.1990701160583076
  0.1991694888464633  0.1979505659487714  0.3951833140444253
  0.1975363310123728  0.1853140807618406  0.5908729876659873
  0.1952419796664994  0.4010801247310345  0.0037752740084362
  0.2002694584246525  0.4018505533681841  0.2012327346379587
  0.1998104036151110  0.3977971813501781  0.3993855180350150
  0.1982428567670896  0.4131656471226368  0.8118328858855491
  0.1995943583909646  0.6039591428072933  0.0015733001030723
  0.2008880472602063  0.6005813970292398  0.2000827839087624
  0.1975959160449560  0.5991928605177040  0.4001040790643997
  0.2019188737828701  0.5997240433478360  0.6022129069466304
  0.1977525547254301  0.6032724136925346  0.8010612128027615
  0.2011867368230277  0.7997261842342551  0.1953445335880722
  0.2010466447135478  0.8003772122192538  0.3984700816313980
  0.2002798188398675  0.7991475771555860  0.6017068147833607
  0.1985281120837181  0.8013941474926189  0.8034850278446267
  0.3999286618766698  0.9997314952190836  0.9982689537200182
  0.4014732515205152  0.9988070840334644  0.1989756741800039
  0.4015439530875739  0.0002722473485446  0.3983078238733334
  0.4012763110390919  0.9991399837394472  0.5993788679055685
  0.4017439377280287  0.0011165906477315  0.7985476978477567
  0.3980544361012486  0.1945325600985041  0.9945316890059146
  0.4004278556161469  0.1998030900645228  0.3997728989852637
  0.4011291721961208  0.1984693207140576  0.5987120957688542
  0.4056465112406512  0.1994984430721671  0.7985625264065950
  0.4000094080896079  0.4034793852755176  0.2034284468649362
  0.4008383514235970  0.3989533607560054  0.4018543241615948
  0.4064875614697255  0.3974680290021255  0.6007843829859539
  0.3973628970241949  0.3969466934565286  0.7993744275087681
  0.3998744187725558  0.5984539747588146  0.0020005990459541
  0.4016961208568608  0.5998398221641074  0.2013511021324360
  0.4009804865205815  0.5977875658088659  0.4010771636955834
  0.4002436425651714  0.5981219489786729  0.5982567790694144
  0.3954986139594123  0.7992828346575420  0.9977009364019341
  0.4005336890821755  0.7998337534429528  0.1992836088465161
  0.4012604849156731  0.7975429795540498  0.3992061979169530
  0.4000937664161058  0.7991584575621826  0.6014748155443878
  0.4022404197583762  0.8014728932847159  0.7993934585273156
  0.5994625047258727  0.9988074767695535  0.0035061010725448
  0.6002032686215826  0.9993800259419832  0.1992177779023249
  0.6050161006851377  0.9984724296470752  0.3983902169626364
  0.5979260062824054  0.0014898214683685  0.5976137961583369
  0.6000160136212975  0.1965318273293327  0.0014679397248851
  0.6010081534744848  0.1996932026452068  0.1961865425048402
  0.5992648232977794  0.1967594479159684  0.3974081829097625
  0.5975616287271145  0.2022481039241395  0.5989203286633011
  0.5977204568044509  0.3991355282762048  0.1997838680411195
  0.6017737403827226  0.3881186769066747  0.3970336747291269
  0.5989832620430833  0.4024595062189364  0.5941871138602631
  0.5989986172280303  0.6003598869837694  0.0017977645550256
  0.5977412524990242  0.6009443872723668  0.6116449623640883
  0.6044519744879786  0.6044911842654863  0.8047161927627545
  0.5949156602080438  0.7995760239151448  0.9999341934770957
  0.5990207782664093  0.7980181584486761  0.1987212724201026
  0.6010442440360966  0.7966809436247143  0.4015492372586185
  0.5971851708550330  0.7981709811362994  0.6009417782102585
  0.6036861679629533  0.7983983837335463  0.8017944463835404
  0.7992509480602321  0.0032066882991919  0.9951762131474574
  0.7988469378784000  0.9993550871828203  0.2042674622916405
  0.7959429959185849  0.0018975583051477  0.5995701347478002
  0.8040366952288920  0.1999331921982488  0.9997849080046936
  0.7993165880572991  0.2007461987919673  0.1981067460278334
  0.8006519780982971  0.2026464584163786  0.3998677996508572
  0.7995692643459186  0.2004601981277802  0.6005248684977055
  0.8018976032916565  0.1975969946435785  0.7991334731077981
  0.7986967971636937  0.3997961859173413  0.9993033681302365
  0.7975436983922956  0.4007295327350046  0.2042719973516287
  0.7970335593961605  0.4002365780269513  0.5977116682193480
  0.7952199752047873  0.4020819953275714  0.7969995996506105
  0.7994399122163094  0.5973050235201475  0.0008182408531059
  0.8000029554092419  0.6018797509366900  0.1992708314709631
  0.8126995677629980  0.5992460054762345  0.4000447003379490
  0.7967089913684214  0.6019162309956012  0.5991811164320667
  0.7991327629956539  0.7999103866966965  0.1995144447971973
  0.8002121314401287  0.8036691822254382  0.4009354008505609
  0.8005236233814534  0.8013387547175455  0.6023327364926545
  0.9981229610830865  0.0018792384492899  0.7961432460077529
  0.9952422869356142  0.4034650322072427  0.8016737302503223
  0.0011131107542911  0.8019089060826112  0.3997812165754490
  0.2000939122670833  0.9993766789425423  0.1994807187262219
  0.6008737528621253  0.5989793315167576  0.1993382953247009
  0.8007455340946658  0.6032459818523330  0.8000321731151583
  0.0024125019245963  0.2010048778225682  0.9998742879022235
  0.0025812743373715  0.5963372659094807  0.3994638364502097
  0.1991823975163897  0.8015124512950492  0.9982523725129253
  0.8000084613385379  0.0031678314746217  0.4032496264097981
  0.7964422117792749  0.9987118372008781  0.7979782075675022
  0.7945651579643517  0.4034231103984298  0.3993206834130862
  0.7997086423633428  0.8062031506929036  0.7961703961607888
