Zr Ti V  W 
 1.0000000000000000
    15.3704372863088707    0.0041087699184726    0.0045828320708022
     0.0041071823098185   15.3593176205705255    0.0049868964281650
     0.0045832368054306    0.0049883200619353   15.3853693029952101
 Zr  Ti  V   W  
   1   2 107  14
Direct
  0.7917967763093778  0.4015918283531179  0.8102015945733767
  0.4079654160237372  0.7997956541037351  0.8065605139358463
  0.6136091292812903  0.4016478027423403  0.9889354068614395
  0.9994938701623212  0.9976673672113026  0.0012070746575286
  0.9946003092663043  0.0020337276624851  0.2005498430865152
  0.0007526926811265  0.9968260043415548  0.3989706378090117
  0.9946240229231857  0.0000198113698393  0.6016213027334223
  0.0023117504564136  0.9984439839716489  0.8008576944434666
  0.9996637668305943  0.1993122859697264  0.0005774542348338
  0.0016299958228027  0.2022027828197261  0.2019550152291495
  0.0006888344479670  0.1999643314761077  0.4005185099667870
  0.0027112034594370  0.2008126210014574  0.5989937488829803
  0.9990550934455799  0.2011916663886368  0.8013203982005931
  0.0039179654286641  0.3992102909805548  0.0059834157467159
  0.9986295757147426  0.4011442344550806  0.3968854368119235
  0.9975602530767028  0.4001117574930307  0.5999148888680381
  0.9994267556822870  0.4010972275477226  0.8025890744310928
  0.9983121155287018  0.6048678709915478  0.0000458629090878
  0.0032982151819900  0.5963903663791541  0.2005314034522955
  0.9997710961832710  0.6028707235496933  0.4020495577091068
  0.9995125912421581  0.5996155629099049  0.6012734677482287
  0.0026173548075952  0.6006221092228957  0.8001046135911074
  0.0042084817009007  0.7994731912977254  0.2009157836519276
  0.9990523717635366  0.7995941468242549  0.5944600897538199
  0.9992014499020737  0.7990003681656275  0.8060373065562566
  0.1980213822618147  0.0013933738026985  0.9936662260744258
  0.1983023043059958  0.9989901170428134  0.4046907260172097
  0.1981176114812400  0.0029038492136986  0.6055827700719849
  0.2005069227621928  0.2019513589336613  0.9997542392126331
  0.2006986959784413  0.2001599304479915  0.2006789037877828
  0.2025199504819007  0.1985853312358115  0.4030244847288080
  0.2004735174150150  0.1963606627206558  0.7954181448327090
  0.1964046444058392  0.4042237096931919  0.1954166003533427
  0.1994069987336837  0.4015567482215430  0.3996391093512731
  0.1977589364856346  0.3966971266637777  0.6008195865226007
  0.1977584326355613  0.4041216035517686  0.8047240288674685
  0.2001204058466018  0.5958840172695858  0.9964114538591035
  0.2009306765555590  0.5993970148520762  0.3995121174405443
  0.1996177876407054  0.5989473210757066  0.6049017728245331
  0.1963171165767395  0.8007765330903460  0.0026610996453229
  0.1961291945256418  0.8007370773786842  0.3982013641410783
  0.1993477377367921  0.8001747823357324  0.5996579920006557
  0.1979059905698567  0.7989431980798357  0.7997367246266467
  0.3001826480041539  0.9991887410498905  0.0980216293341884
  0.4034573913593575  0.9963246991276958  0.2006339271299667
  0.4002918259620378  0.0025298989875187  0.3990946916355558
  0.4008500973920577  0.9988673457250183  0.5996950090013768
  0.3966553470088834  0.0004134204662621  0.7986541311780901
  0.4008327271495192  0.2007216275139412  0.0020635222237298
  0.3986019350502183  0.1964727820908694  0.2033081595442178
  0.3961674200475225  0.2004130961087389  0.5947394024976298
  0.3995404497919007  0.1996804697787997  0.7998708604203685
  0.3958081487840488  0.3977213235326003  0.0003959666562315
  0.4024304809260806  0.4009672708000400  0.1983730070764850
  0.4001115637806890  0.3969437176258649  0.3977866728739106
  0.3991985154220982  0.3998340532691813  0.5983527379159846
  0.3965817774199036  0.3992360797099739  0.7995286683192366
  0.4013358812112644  0.5991007987560655  0.9992527781446374
  0.3979655286970401  0.6026352010267819  0.2006472135162380
  0.4002784460255653  0.5989182006206448  0.4008911681605556
  0.3985534260342213  0.6001410938539076  0.5990221134330137
  0.3957025262855126  0.5992861449749909  0.7998422554415906
  0.4012158559876754  0.7991491616649979  0.0072516313656212
  0.4013646500749596  0.8012887499763424  0.3963473232023736
  0.4001679272367843  0.8009636620584801  0.5937662922992789
  0.6022669495329708  0.0001943870113250  0.9978322137697281
  0.6027723375944295  0.0000090219722959  0.1977428600250972
  0.5997947003358163  0.0003789804929279  0.4018475544021212
  0.6022524806503918  0.0008543656920347  0.6025638519594188
  0.5966138044458166  0.9991166513526406  0.8015867614945864
  0.5986115828791989  0.1982934893681886  0.9990071131778778
  0.5986551556658785  0.2024635271557033  0.1989283023397888
  0.5949493886635886  0.2014170504767034  0.4009813194309301
  0.5978998698096389  0.2009853579370182  0.6010424773176256
  0.5964863142666532  0.2013496029401844  0.7998279225706211
  0.6025324189909834  0.4011399015769020  0.1992143272117831
  0.6012600354992751  0.4012776858905013  0.3985990328560321
  0.5998677762993266  0.4006963798934747  0.5990755457827383
  0.5898537004845934  0.4008969006871813  0.7943680733742414
  0.6003385535368910  0.6013873409927075  0.9984007699655977
  0.5984910212919510  0.5986312134069626  0.1979451240483890
  0.5994290267932598  0.5993204950631693  0.4018405779280578
  0.5984717576890143  0.6000813726718790  0.6019985180193782
  0.5958371927985672  0.6005236846303583  0.7999671036039968
  0.6006857770056859  0.8000308824909594  0.9995881535591572
  0.5963244226540310  0.7989545066287714  0.1998610951180959
  0.6036399902093038  0.7985956880687851  0.3991627501402720
  0.5998420418077004  0.7995492683715513  0.5998903987556379
  0.6028181774648016  0.7992622214055082  0.8005049046215427
  0.7991349210134046  0.0002719799728113  0.0043443057079974
  0.7985781208761815  0.9972760573541662  0.4013032420693952
  0.7994564131404711  0.9995397033256830  0.7968565112330680
  0.7997345099171365  0.2000832384564869  0.0010492650634479
  0.7982604990496751  0.1968947361791919  0.2028063122490301
  0.7984139232903346  0.1989330003172896  0.4017001385839428
  0.7993240123783142  0.1966122098220378  0.6001073341282452
  0.7993092036409073  0.1955267116962393  0.8005290829719097
  0.8082931531691411  0.4000880322079555  0.0109649245033916
  0.8045084411230361  0.4001045772037369  0.2047477063511413
  0.7998754253691098  0.4003554291693026  0.4017933945255727
  0.7993796899216898  0.3988620841152269  0.5993166259572403
  0.7997417907890624  0.6013949953151332  0.0012630052936842
  0.7981767406790398  0.6008609513115301  0.2011795293917261
  0.7985065220193973  0.6049280063429288  0.4016529838092559
  0.7987500300729204  0.6002078653645780  0.6028145124708795
  0.7993780405792527  0.6064337089228244  0.7994101977186492
  0.8037050505478619  0.8011450759975851  0.0031788371136865
  0.7980103634137803  0.8038278598869499  0.2049294411835422
  0.8001000389153992  0.8049507822949457  0.5960553528285878
  0.8005213824362617  0.8016798382100799  0.8001243489848054
  0.0008929069305856  0.4012382144010137  0.2018457842558347
  0.9982212369474442  0.7998377796151021  0.0040860934114430
  0.9981309277329965  0.7988763294427635  0.3980427167556846
  0.1999359982493782  0.9983148601038022  0.8000144892661951
  0.1993379698897485  0.2005499397114014  0.6007633735011100
  0.1995805752058560  0.4002427650500163  0.9995969947267734
  0.2021700573940041  0.6020660839244429  0.1976742861172000
  0.2004951593809228  0.6009943574624736  0.7998864206903077
  0.2026871649768929  0.7917620001521422  0.1997450826641914
  0.3988518294608135  0.1996976738876997  0.3986599985461755
  0.3976635251002440  0.8003814791317639  0.2020979641778562
  0.7989263494783421  0.0016720961898858  0.2020073263174266
  0.7987510572193770  0.0009236525647612  0.6005964268087720
  0.8035975297182616  0.8009827957008924  0.3996453705722444
