Zr Ti V  W 
 1.0000000000000000
    15.3687751858679373   -0.0034047973547748   -0.0004629384474201
    -0.0034058626285429   15.3762737440467472   -0.0028872120149207
    -0.0004620936853672   -0.0028876454386987   15.3933118945991367
 Zr  Ti  V   W  
   2   2 106  14
Direct
  0.8018073308703174  0.9922320331999993  0.7962503932278693
  0.8147681115457599  0.3859755800872339  0.0150758727219478
  0.1962007209453393  0.4028135791212841  0.3920577109701356
  0.1987162783620730  0.7988587611571734  0.4010034467698116
  0.0003577486436638  0.0021838440752409  0.0026190404449420
  0.9999296217553701  0.0007578595936957  0.2007043176140092
  0.9983944761452401  0.9997316581545345  0.3982912223346856
  0.0011941121907451  0.0022834558568873  0.5969959886801461
  0.0048589822528106  0.0014143280955980  0.7989888608366383
  0.9963973526716533  0.2020537869528768  0.9990176394636824
  0.0000864493258750  0.1995984709837114  0.2001002913015215
  0.9985270560050947  0.1992297557101934  0.3997591022882372
  0.9999089937278217  0.2004420509961117  0.5994819305596963
  0.9984447630308380  0.1994233525578997  0.7993374988188497
  0.0117724163064125  0.3999929353845239  0.9974850640862155
  0.9948276932805994  0.4005082510403286  0.1983466640775364
  0.9969334916633539  0.3986262534110870  0.4007725499391071
  0.0037011149619552  0.3994045078664493  0.6007470631357468
  0.9968063530538989  0.4015163156964872  0.8014139692210991
  0.0001975758499757  0.6009295878047288  0.0016767184438289
  0.0040573086081525  0.6009687928072349  0.2008877404574507
  0.0016849719848742  0.6022638263025651  0.3996152873225455
  0.9985489173768750  0.5990128552274333  0.5979609095244589
  0.9992890932023711  0.6006716851161261  0.7978352627475265
  0.0003348471508003  0.8014961786522221  0.0001184073810001
  0.9962993756233973  0.8021050224704671  0.4026184265418631
  0.9992677796442238  0.8003809868526658  0.5999567584392698
  0.9995426161067437  0.8007598843842202  0.8006923332869167
  0.1994538306402079  0.0026686527084385  0.0004161171496005
  0.1989228191471283  0.9978315607605078  0.1999729073553751
  0.1993487797578096  0.0012203369065142  0.3995934616612217
  0.1997982107151696  0.0013727502198534  0.5984989857777131
  0.2004049639719191  0.9960694060560564  0.7995277870088366
  0.2006872387671280  0.2039183788239370  0.9991496002094394
  0.1995495243268123  0.2019327387113575  0.1997302645727302
  0.1992665249763832  0.1995009230298241  0.3989921645010202
  0.2025503992964125  0.2056747036981262  0.6005634650738702
  0.1990378089288230  0.1989219913470529  0.8012952733940145
  0.1993871141957258  0.4048935727423843  0.1918841195289647
  0.1999567273350431  0.4035821178130923  0.8022324220648781
  0.2004629471903711  0.5967688013555044  0.0040305784684912
  0.2009661734714852  0.5951435299501353  0.5944176359815699
  0.1994590300351660  0.6048067409774897  0.7990459916955150
  0.1989411781435131  0.7999151020917953  0.9955452787554191
  0.1361926779880445  0.7965507400131476  0.1963220370458538
  0.1995670940113078  0.7989806894914488  0.6050274960974992
  0.3988056981717498  0.0021137348234797  0.9999614799388294
  0.3974616775988056  0.9966180572696960  0.2008959460530667
  0.4035129017242399  0.0007442336707608  0.3996057198378111
  0.3987598626384211  0.0038863454321505  0.5980204879456822
  0.3997447109837875  0.9986043029239700  0.7985401808514568
  0.4027242505244870  0.1981821077051275  0.0004991629518826
  0.3982795434784046  0.2002220025648819  0.2019125281455592
  0.3999459643392581  0.1996973002629089  0.4029529024937636
  0.3989776294258087  0.1975100238071978  0.7954553219463285
  0.3978600273384700  0.3984961269210377  0.9996569011669799
  0.4021211700740569  0.4004838116153155  0.2009766327831461
  0.4023186210059871  0.3988012982949973  0.3989661085092730
  0.3949792064094723  0.3959214259712720  0.6000068591591956
  0.4034451742916259  0.4012145007242590  0.8003741608250742
  0.4003617525332490  0.5993692234183474  0.9988980176662791
  0.3971853017319409  0.6019378452666068  0.2008592496645581
  0.3962961936927675  0.6007025003677565  0.4007369680727841
  0.4024325951659397  0.6003362844522029  0.5969956352115078
  0.3996715550457043  0.6021254456579871  0.7986773177458897
  0.4011547783005592  0.8013618390582398  0.0007171623429820
  0.4015982721993835  0.8020319368183877  0.3964797934008185
  0.3994509787849851  0.8015048522717830  0.5996005587838276
  0.3966716457388152  0.8009080332749756  0.8006741514913733
  0.5994509558355449  0.0062556762318566  0.9999967822451187
  0.5997252847625785  0.9973614755220762  0.2039271176566473
  0.5982852280864035  0.9997973929419803  0.5954240380747208
  0.5962518845954576  0.9990364728407265  0.7983835978938801
  0.5975878216392193  0.1990425925304568  0.1956166479122608
  0.6000568850050831  0.1969674970534040  0.3986760084636715
  0.5950960735267010  0.2016379118668327  0.6009023534739569
  0.5993953426059765  0.2050825256598545  0.8042962777593206
  0.5980419508877238  0.3963281449045253  0.9954627319425244
  0.6023885745300789  0.4026376923547786  0.1989516328092301
  0.5993344891805029  0.3991690425410162  0.4000939336369294
  0.5988633825627164  0.4028739942880834  0.6041215446407190
  0.5994473826786892  0.5972163861198153  0.9993059624053383
  0.5974154384083517  0.6025116342586317  0.2014200169039820
  0.5994585837225209  0.5996852435154937  0.4035866675256088
  0.5991117136424090  0.5971828860314042  0.7949089519820890
  0.5991560292062915  0.8006531541140263  0.0016464550953290
  0.6006281650359797  0.8037755068374216  0.3970270669893294
  0.5983137493123269  0.7961114678439410  0.5996100371144074
  0.6021645020337234  0.7992376280927652  0.8017512393617892
  0.8004155055411164  0.9968870181720808  0.0042449217097729
  0.8008221366349551  0.9971634435944484  0.2008723001286484
  0.7966179061786647  0.0003524814244664  0.3982193753708942
  0.7993157213800256  0.0000671040547702  0.5938027520940832
  0.7937733647882248  0.1885521003302659  0.9989656785334530
  0.7990558917913516  0.2042207495287644  0.1986322692730785
  0.7986097729614776  0.1993284976385811  0.3999630321031048
  0.7987069251773825  0.2005962672956156  0.6001097738058524
  0.7990718861510535  0.2011866978170069  0.8001462263208501
  0.7995779936888553  0.3991741572990143  0.4022428056477516
  0.8007826229826531  0.3992599779200389  0.6004210628600534
  0.7973319897427468  0.4010644375106496  0.8014355786025619
  0.8008001883042667  0.5978540241529723  0.0004027684953323
  0.8005943752080092  0.5973459419545344  0.2007616254026338
  0.8010893846528160  0.6007434742401115  0.3998171369796051
  0.7965220960082754  0.5987708579223507  0.5969277338186729
  0.8004964705877752  0.6002146999456299  0.8001475465679978
  0.7995131106960663  0.7980418866556779  0.9982855884886590
  0.7928244042883186  0.7966566223237297  0.1977991396931464
  0.8004507430259431  0.7992878400285648  0.3982412856134491
  0.7992021883251840  0.7990085641552584  0.6039042441037314
  0.2039246452164331  0.4001096965520293  0.9974779215734344
  0.2002185655002769  0.4008564199482640  0.6079657222853053
  0.2004359602006674  0.5974703274745209  0.2037392523635520
  0.1992310196297980  0.6006291377903221  0.3976334984200151
  0.1990324886723649  0.7989381998386337  0.8002589178915787
  0.3988689262220428  0.1995896742115811  0.5997767777636981
  0.4048659066842685  0.7990022053846391  0.1977908273419638
  0.6009707183688162  0.0002825579905086  0.3994311971240657
  0.5990008605100334  0.2026403113081590  0.0002739291465365
  0.6007446489609767  0.4021451502340285  0.8008711121089085
  0.5978280837951628  0.5991258250288416  0.5980153559414635
  0.5967877819939684  0.7988810951560670  0.1981759868967287
  0.7980356811372367  0.4014342091453381  0.2117176563432030
  0.8002377953404430  0.7928877572162295  0.8008805966022325
