Zr Ti V  Cr W 
 1.0000000000000000
    15.3161674756862691   -0.0038639056753981   -0.0081742366427040
    -0.0038625530149281   15.3180417040563182   -0.0084288121243241
    -0.0081714294601317   -0.0084252347079361   15.3251398317997438
 Zr  Ti  V   Cr  W  
   1   2 101   1  19
Direct
  0.0002960176893259  0.4050872126378217  0.6024921219835755
  0.4076178313580957  0.9909709116599058  0.3972335608165953
  0.3960970077613685  0.8039894331280323  0.6136188103474157
  0.9998730450348984  0.0009476190202039  0.9989117219344507
  0.9999951977402073  0.0012144177493612  0.2004407219206959
  0.9968605377504497  0.0060850656040624  0.3992538517583326
  0.0017145871897149  0.9984076405301680  0.5994857467506133
  0.0001815124965263  0.0021862961635193  0.7996864605446981
  0.9988368470717909  0.2037570909171416  0.9991003031010048
  0.0035173960615515  0.2025327113851870  0.2036494282182642
  0.9975054866100206  0.1975544003983278  0.5949221536142815
  0.9973957004290995  0.2033109750331110  0.7974031087917942
  0.9973548610353701  0.4025923919387071  0.1950155417427780
  0.9978617104228772  0.3971190183115302  0.3949150744150272
  0.9991071329240415  0.4053322616153465  0.8080500897823736
  0.0004996304283527  0.5986463760644988  0.9966683677787292
  0.0053272847208476  0.6001343059752018  0.2019662915003825
  0.0010615144277670  0.5986473905175830  0.4023065101658828
  0.0049172429959564  0.6089262807490960  0.6018682688188776
  0.9976041602565084  0.8006140236782924  0.9985238825904960
  0.9994564433448005  0.8001876379856391  0.2004198192606680
  0.9967134151190417  0.8014693160840968  0.4034683954078751
  0.1983623540277479  0.9989421377482841  0.9976792936859252
  0.2009071835761446  0.0053304021058691  0.2027906812804880
  0.2002534781427055  0.9995106483206352  0.4028883477309126
  0.1988173808155951  0.0052846337326093  0.7968008098113658
  0.1996929331409283  0.1988644301622697  0.0040025651636733
  0.1979221362175417  0.1995453250495470  0.3967263180519843
  0.2022942793920284  0.1951314402359875  0.5988690438748956
  0.2013643279085083  0.2009447759533570  0.7992785077870699
  0.1966002386762374  0.3989557200619681  0.0013733415892900
  0.2022744041881618  0.4006449310982620  0.1993521276772567
  0.1984637568139033  0.3997208249051176  0.3998997381630103
  0.2058164030024630  0.3955541131644418  0.5998512264573407
  0.2009024651918277  0.3996314315126842  0.8014750574547326
  0.2011865546354715  0.6016600925133577  0.0048448581655480
  0.2041975076443383  0.5995070481673904  0.3975072057698993
  0.2079095924225561  0.6055651984921950  0.5992692971178263
  0.1981821577299867  0.5981875223489387  0.8000287869664549
  0.2008583037899257  0.8015083406438036  0.0031516820311590
  0.1993090754411767  0.7975913390941679  0.1987343778341880
  0.1980368801944804  0.8018986126212454  0.3979695340243817
  0.1939953209527125  0.8051994445818784  0.5962870464630317
  0.0273907720704511  0.7971899213380214  0.7984110600768882
  0.3998247831478358  0.9956862831037694  0.0000132698380872
  0.3996509409736461  0.9994318348664863  0.1972523833746254
  0.3951834982298661  0.0018627300525771  0.6021127515530795
  0.3994353762334397  0.9960259039338709  0.8003152608104851
  0.3993878199047226  0.1978973536289999  0.9991096338597307
  0.3967656844156268  0.2018624132868076  0.1997864296585210
  0.3986159427741940  0.2038089813874504  0.4007783029233044
  0.4022241580589799  0.2008489494946687  0.5995430156257054
  0.4036587661909378  0.2011075818352533  0.8014690238196478
  0.3991108291292208  0.4028129012170236  0.9987276596930635
  0.4041362570082579  0.4016635080832691  0.1986026320505761
  0.3999939814275313  0.4031359907946332  0.4005684450161786
  0.4005323507064992  0.4008144756959167  0.6019126159396945
  0.4001216448668002  0.4018748783337858  0.8031545830203376
  0.4002832390339643  0.6040170261879222  0.9995876428699256
  0.4001511583912933  0.6004632015812508  0.2061176362219018
  0.3993685982160867  0.6024589301155756  0.7982199202982440
  0.4002840221835830  0.7999326332920077  0.1943774077170096
  0.3992577402600022  0.7947164424447855  0.3982408303624861
  0.5990864026435228  0.0018483752227358  0.0024434721989557
  0.5975118746840798  0.0038935306948489  0.2059554674516794
  0.5959322752792089  0.0051579889659448  0.5940184317996690
  0.5985403151558445  0.0045344769115881  0.7977250904273869
  0.5994969479157934  0.1995764323503194  0.9974218839384795
  0.5983609239585146  0.2043011953168470  0.2016219699489141
  0.5983540175879620  0.1971596419623274  0.4038566426971837
  0.6014036836305515  0.3993465315321170  0.0033913594040700
  0.6025646289119916  0.3959239760300840  0.3961890010342511
  0.5991475070906650  0.3975266974586106  0.5981092291699084
  0.6015389301198165  0.3969497405080348  0.8034563409014004
  0.5990204667288658  0.5983278035343421  0.0055332724903705
  0.5953798144943960  0.5990698675742299  0.4004132721113522
  0.6008047036814806  0.5958116572991253  0.7939317840513477
  0.6004058294482786  0.8006055139906910  0.0007236835271356
  0.5996509651416494  0.7945659033742543  0.1990362862055663
  0.6008283793421465  0.8028029295221468  0.4001556776131507
  0.6024763021215811  0.7952333206398622  0.6008177285913096
  0.6013310617317748  0.8008661285059681  0.8001862808167107
  0.7993537285819788  0.9967546579909869  0.0012766806910252
  0.7989449101108863  0.0001952767101429  0.1991202837630245
  0.7974917395577321  0.9981313382966424  0.3985332836986340
  0.7989513562564934  0.9998500837976785  0.5991928925044236
  0.7980493253728044  0.9973011038547731  0.7990604562322655
  0.8001421417200298  0.1974211657530038  0.9990651119234102
  0.7986020378422560  0.1997558925772447  0.1978725872768736
  0.7958365708334753  0.1997221712281257  0.6002405038238039
  0.7962913799092235  0.1993054540836501  0.7997070870126205
  0.8035070262787779  0.4010415372515455  0.0004107364858372
  0.7972133024633810  0.4013442429651816  0.1981724856168771
  0.8016052298414469  0.4014792781643924  0.3980671345008776
  0.7947125931902109  0.4015233758457945  0.5994239799534991
  0.8005177978503222  0.4023217224567853  0.8020457405249921
  0.7987214407707974  0.6052936604463964  0.0014626743032900
  0.7946498813680895  0.6019150952369120  0.2019716612049099
  0.7998586690102146  0.6018601069947308  0.4003960171485348
  0.7908983751299462  0.6010472181618653  0.5980943676830180
  0.8012343712380099  0.6036976014446680  0.7991873205425829
  0.7991154873163561  0.8000357413096432  0.1955970970781136
  0.8014761867242829  0.8005310900921877  0.3989999005710055
  0.8005820898501027  0.8017029916500829  0.6043774743145769
  0.8002121957555905  0.1998534820639708  0.3991977902544706
  0.0014401275839708  0.2025268393462531  0.3997225265756112
  0.9985344363463878  0.4013189704883669  0.0006090737760852
  0.0013411085900885  0.5988781880940641  0.7967297036589596
  0.9981343637176365  0.8027343839633330  0.6008562043341827
  0.1994750141936708  0.9994587887638228  0.5998231971601488
  0.2010866064708357  0.2025567820124292  0.2007588010470759
  0.2028723414888893  0.5984967869838272  0.2033604496496590
  0.3989799025048516  0.6006735268973916  0.4048428983998889
  0.4045590753574430  0.5949194908675052  0.5987604996435500
  0.4003468537973148  0.8002525858135899  0.9965106932399516
  0.4059371483100426  0.7985906285643005  0.8072910924046849
  0.6034250120100919  0.9998916274764266  0.4004140195131946
  0.5984061850252007  0.2019444863148679  0.6027069177692815
  0.5999405744109017  0.2007813670193425  0.7970367097258032
  0.6011007731469313  0.4007742224334064  0.2004733320856292
  0.5970290247304270  0.5954783177487556  0.2048302393667970
  0.5941827872142292  0.5969756272240941  0.5966074857337397
  0.7987191238864920  0.8013907917973451  0.9980258060336470
  0.7976137206000283  0.8010931553169475  0.8045399384580747
