Zr Ti V  Cr W 
 1.0000000000000000
    15.3185418189025757   -0.0058579337440910    0.0011531853961578
    -0.0058580518235424   15.3152820885503385    0.0003427542276612
     0.0011540796390519    0.0003423374486165   15.3446139054441577
 Zr  Ti  V   Cr  W  
   1   2 101   1  19
Direct
  0.6022441213929846  0.9993298999114080  0.8006586587582502
  0.2010323232693948  0.7909782910659839  0.2095694923375336
  0.3992679718402929  0.7994747173447331  0.6102047154717809
  0.9997904208766059  0.0003301266364832  0.3932900509096510
  0.0010868320785566  0.0016031265644162  0.8066904493556623
  0.0045228470103863  0.1985206248146056  0.9983903448994099
  0.9987964007865164  0.1988017247962283  0.2006680033483263
  0.0003015532805590  0.2027523108261217  0.4014357143390864
  0.0039951042215161  0.2050514307850715  0.6007633333364740
  0.0009240789890935  0.2053188772467040  0.7986945045970180
  0.9999148186252282  0.3985845559823488  0.9939618426445560
  0.0025428720339957  0.3986757221752404  0.2056021100194352
  0.0034474216427525  0.6030354175500257  0.0003648425731814
  0.9963722667165251  0.6008571505053119  0.1988073502014993
  0.0002645337442706  0.5971744794250248  0.3991742756560671
  0.9995256510097427  0.5975136016905562  0.5987405877070373
  0.0005749954699272  0.5982971089707756  0.8004494645909204
  0.0001273017567776  0.8044603434074816  0.9983854017527330
  0.9994002167346513  0.8017410284280723  0.2009798459933473
  0.0020465181711680  0.8011584461053076  0.4024390161146777
  0.9994231393093257  0.7975022985438622  0.6007439279887704
  0.0012893059161805  0.8009737632620770  0.7983186633527165
  0.1957743445251780  0.0028078317395102  0.0029405504931135
  0.1959636397982439  0.0014045621905689  0.2023026321993659
  0.1979927676130716  0.9999928104069149  0.4003923228965027
  0.1945699563041430  0.0029720784204055  0.5998429565386674
  0.1962109522587330  0.0006863021408803  0.7999752818323388
  0.2008887811650976  0.2036034171598650  0.1955776214865174
  0.2035436089418269  0.1995892131792637  0.4056658104348563
  0.2049982619266338  0.2045614548118424  0.8019021354502838
  0.2035462661134196  0.3989620546049888  0.0011908646798911
  0.1987678984282422  0.4000564568833121  0.3945141014381966
  0.1976834196943336  0.3964281965068027  0.6052538665678714
  0.1982865722956441  0.5920260225773339  0.1952373562056962
  0.2005304688790124  0.6000059272831074  0.3982882225355842
  0.1986600672704157  0.5998514643923799  0.5974792422819045
  0.2001967755949041  0.5980635038061498  0.8066877293632516
  0.2056393223305231  0.7987591470946039  0.4054841518848429
  0.1952539296337557  0.8009734678443360  0.6018746310204439
  0.2050877081480748  0.7998261677935723  0.7995774025906709
  0.3966696359703543  0.0001311629181193  0.0014485526022479
  0.3972152000144578  0.0003780890162060  0.1986620979267422
  0.3996245116993590  0.9948756508719877  0.3998318594095429
  0.3979035721146376  0.0013302733955447  0.5996825317649849
  0.3938940483284069  0.0016068940320662  0.8005337802751478
  0.3962554290899281  0.2005219276768799  0.9928828466348824
  0.4000189503563950  0.1984917027371319  0.2000658809888574
  0.4002281374645012  0.1978887205149119  0.4015218130253448
  0.3955610711317006  0.1982282758078577  0.6052172491526536
  0.4008266856862023  0.4002686486562784  0.1948642977761003
  0.4027337341849296  0.4013582682946547  0.4021970322888533
  0.3985748359394753  0.3995360160467368  0.6026492679514551
  0.3946189315786431  0.5990227144548574  0.9993412977923219
  0.3986368833985803  0.6009745563401508  0.1978727181881693
  0.3998278566862478  0.6034528389564546  0.4006370059879626
  0.3985207313902137  0.5969881008626667  0.6002064867591698
  0.3998845349315147  0.6030852548515887  0.7976291532716890
  0.4026677093464476  0.8015256368077962  0.9968601257598751
  0.4023103515442940  0.7990812677829768  0.2001903456213868
  0.6010404634301421  0.9968851869858800  0.0082237953124671
  0.6026901177056040  0.0019766512612364  0.2023223129977555
  0.6003352215655747  0.0003870560404057  0.3972311840145366
  0.6010516746995843  0.0006583679687744  0.5932366645944578
  0.5994355216419653  0.1981065073578618  0.0002080005594398
  0.5996078230107906  0.2036367998353494  0.1995793072119766
  0.5986137145825075  0.2035357010461659  0.4003464742059459
  0.6008362329820253  0.2000522780504383  0.5988643165164366
  0.5953933291238452  0.2055242107879140  0.7991255809879333
  0.5951663189611619  0.4017865613226458  0.0041764095539956
  0.6014299418779334  0.3994273680653315  0.5957433361076284
  0.5972786777991284  0.4024521093564390  0.7993888808124088
  0.6012350436042064  0.6048993959231966  0.0014886660514524
  0.6043710244138772  0.5954069342097147  0.1998977840989105
  0.5993608284610545  0.5958135158494068  0.3988159138463996
  0.6024771037459892  0.5981279770719711  0.5976087291532920
  0.5999608344892532  0.5966333084431898  0.7998727048757334
  0.6002322004856567  0.7988718957875391  0.1952789741469147
  0.5944133028028752  0.7983961651237089  0.3997638300414948
  0.6023396323899344  0.7987055085611207  0.5994813594007650
  0.5956996637167590  0.7928619673616414  0.8037761539793525
  0.8032203713380542  0.0001443249897941  0.0009476742249715
  0.8041314729969574  0.0003509152749437  0.2009340294167893
  0.8012849760870615  0.9993157008484687  0.3994102904808082
  0.8341853020715134  0.0002121811543565  0.5992583273476042
  0.8069867289639086  0.0016902708921001  0.7989421931756939
  0.7985094682161238  0.2004432097860204  0.9983329762489855
  0.7998950474077517  0.2010953380011893  0.1980186596272291
  0.7991157195729359  0.1990166871173984  0.4008214507906678
  0.8022879709745422  0.1964201469015928  0.6012954551119036
  0.7984058385975012  0.2028624655249506  0.7998557921693255
  0.8011163016488387  0.4005222284776018  0.9991041274861324
  0.7979915940769546  0.4032987043999385  0.1987225509460137
  0.8008992267432314  0.3999450941167979  0.4007388246883258
  0.8028951886083187  0.4006378927512768  0.5998008533927425
  0.8030217197867454  0.4017571467197222  0.7999541512910832
  0.8026993244621049  0.6023320799956192  0.0027130447862448
  0.7998472298158087  0.6027697796127421  0.3946369976394611
  0.8002374016123481  0.6027965968800478  0.6001406425014826
  0.8001404732202869  0.6000521325941188  0.8014131190611891
  0.7947710212158767  0.8010805152389052  0.9978924715899662
  0.7991827907812010  0.7960833606570799  0.2012163649268506
  0.7967157212294208  0.7999809996852361  0.4013639504751856
  0.8009774779432793  0.8011647420231399  0.6005261886083639
  0.7988015814186012  0.7989781957415383  0.7991577977328075
  0.2010076102044576  0.8000383983561701  0.9989602458923489
  0.9988708537088536  0.0022446505771962  0.0033905774974129
  0.9998864937345330  0.0000173494052260  0.1975750028228013
  0.0004274150673107  0.4009240954725506  0.4032205481770478
  0.0011858220117422  0.3999513282409859  0.5999133818330187
  0.0047059534025812  0.4025998598458829  0.7959164002869989
  0.2007772512251479  0.1994417597054008  0.9997979802258055
  0.1995790903184479  0.1972525310312568  0.6017403657510583
  0.2001268884466487  0.3972052984074419  0.1990895272356923
  0.2015175890313074  0.4015883586028026  0.8009298124367904
  0.1986056881989233  0.5985599220596113  0.0023790802858570
  0.4000241575098031  0.2035778070458659  0.7991653456633306
  0.4002766766801786  0.4013676672223795  0.9948083861904162
  0.3969380106615127  0.3996297668861128  0.8024235658248763
  0.4007867572157875  0.7994852847224410  0.3952677704434208
  0.4021202229518994  0.8034742255204712  0.8030865154780267
  0.5995110234936140  0.4001286737566476  0.2026684232852960
  0.5992165315696842  0.3996069278529639  0.3974193083811828
  0.5984007470130592  0.8010694905277500  0.9995338553811599
  0.8012765760617687  0.6000827278852494  0.1979163064022292
