Zr Ti V  Cr
 1.0000000000000000
    15.4889002550493640   -0.0195313770937778   -0.0155534076795571
    -0.0195267745976093   15.5102089440028070    0.0059105293967036
    -0.0155475950656657    0.0058984254639578   15.5083315327291498
 Zr  Ti  V   Cr 
   4   5 112   3
Direct
  0.2111533425061830  0.8008598758687887  0.1919728895091933
  0.2261145262437101  0.8022495858708699  0.7940794637452202
  0.3865645807269464  0.9662546603774967  0.8376390237038813
  0.3869049884521048  0.7958536388521129  0.9995142409293157
  0.1995727421003110  0.4014025893792369  0.0002367425854237
  0.2107427141437818  0.8123092738016070  0.5917004774246539
  0.3982841825660706  0.0141922336160530  0.0266427168461544
  0.3895371834524159  0.9901695770343473  0.5982201276686399
  0.8014437631638492  0.8001915501339586  0.2026040723676676
  0.9960287289493065  0.9997763227225080  0.0010763997280299
  0.9985841960241165  0.0011274932173380  0.2000325967318548
  0.9986729266213621  0.0001546931670497  0.3986687959246643
  0.9972477680329825  0.9997112147850985  0.5987094506264490
  0.9979912863853303  0.2008733160837817  0.9997379735146323
  0.9992706479566750  0.2008111042757174  0.1991569117272918
  0.9991128048342346  0.2001771494769976  0.3990189463290060
  0.9983497900331504  0.2016051894076964  0.5993731058658111
  0.9985234108912192  0.2027905073920888  0.7997414380234563
  0.9971548744470683  0.4012198371796209  0.0006337557455356
  0.9990857311855150  0.3995143776445713  0.1998395464446569
  0.9995189181080780  0.4009571156416749  0.3993978611124527
  0.9999124414577609  0.4007764263215256  0.5983679279453378
  0.9997509839681172  0.4004084379380679  0.7995994981829216
  0.9988626761673913  0.6014063013523773  0.9992417471409356
  0.0009590492544375  0.5998562447402664  0.1993421026282467
  0.0004899287052221  0.6005018345874934  0.3990574389915637
  0.0026880362349001  0.6031353353847548  0.6012901461659403
  0.0017784141740092  0.5990985307973729  0.8006419972502918
  0.9947635050396380  0.8008209235149136  0.0005231108099267
  0.0008731307357958  0.7999163653640526  0.2006151571007854
  0.0009573468912210  0.7996572247429076  0.3989789276478294
  0.0023245903133990  0.8016302152099396  0.5969632288139417
  0.9980149343465013  0.9686268790251069  0.8005603449114193
  0.1939526588294655  0.0038202049578744  0.0019976407418443
  0.1989716503173295  0.0040842254063475  0.1999987347561079
  0.1972880777886293  0.0018400221287160  0.3983798915479725
  0.1930871190498608  0.0080532364529005  0.5985551207054400
  0.1806729571576760  0.0083142138133230  0.7999930749774541
  0.1992402046247505  0.2002756863437490  0.9989160938162330
  0.1997828901217158  0.2014232515000506  0.1997867099435390
  0.2000156324090308  0.2003737551634214  0.3997442515287182
  0.1994197835088908  0.2021446577994098  0.5990766297336237
  0.2001787475384814  0.2015222187949729  0.7993311843926538
  0.2001844710939044  0.3996081998477259  0.2015867067737641
  0.1997323558263429  0.3990140695338723  0.3994080274929960
  0.2001821682120404  0.4003632516818411  0.5985691847713401
  0.2000046090901517  0.3995895082361092  0.7976578017677072
  0.1985780129582211  0.6026065641990608  0.9994576745460825
  0.2004955681396558  0.5956945125763753  0.1995444316509555
  0.1995765121346114  0.6004876111984611  0.3996708222652061
  0.2015657076602821  0.5995604760325995  0.5995062656107845
  0.2004789663138647  0.5958926984325322  0.7998811119433670
  0.1841004843261895  0.8012665593302445  0.9947739176960959
  0.2006503308788708  0.8009479274094948  0.3973789418746275
  0.3990554977005108  0.9994029048379954  0.2098433010622513
  0.3981989279915479  0.9987245117612399  0.4007333319957612
  0.3987253008370020  0.2036657917266555  0.9985658505349866
  0.3995965898514231  0.2014824159775216  0.2012981905237604
  0.3995115126110894  0.1988350682974196  0.4006681318761935
  0.3991889526369004  0.1976892208103616  0.6013855129042304
  0.3997683341275142  0.2027234253995633  0.7987970328103067
  0.4017769154199567  0.3989038988588846  0.0010399709694153
  0.4003694845015162  0.3990816344291170  0.2009754601076796
  0.3997732208337124  0.3993354162504276  0.3997456296180436
  0.4008007842285193  0.3981687200415122  0.5983624780613623
  0.4009502933459321  0.3976492054254110  0.7983653560063851
  0.3984134110780553  0.5917994680439471  0.0004800629373214
  0.4001854558248538  0.5979811788668482  0.1997802662872454
  0.3992513264706757  0.5986359067327593  0.3994154913208351
  0.3999621007657129  0.5957509728813830  0.5983200212267559
  0.4010678292372845  0.5912411082938083  0.8005395648603589
  0.4102076067450502  0.7974966763654955  0.2065642282974759
  0.4019654101986234  0.7971413377555208  0.4013393768796333
  0.4092601812975087  0.7922306972078957  0.5955552510774276
  0.4181253428663791  0.7780116365631355  0.7906407712264193
  0.5973041438088117  0.9992596624432497  0.9993039946352774
  0.5985679531125717  0.9997930411246237  0.1987194980449263
  0.5990855703508856  0.9995137936747336  0.3994689978193304
  0.5995751421199298  0.9983145234703569  0.5994844142110212
  0.5993735442806131  0.9995811847047341  0.7989263813946016
  0.5985403081131335  0.1987744273318205  0.9981895853483849
  0.5989311831376481  0.1995849016265892  0.1993855499700430
  0.5986671952088661  0.1982101250586190  0.3994338237297546
  0.5992345306668928  0.1978777963015182  0.5993139138615430
  0.5999576762678479  0.3987221590275906  0.9992213613025974
  0.5998510784424751  0.3985724030151499  0.1988983033608162
  0.5999343288020766  0.3990882900772605  0.3989870427462502
  0.5997987230825703  0.3982126650403600  0.5988144504853773
  0.6011699478317212  0.3984541649993926  0.7995133133978906
  0.5986722397818833  0.6002731203538366  0.9988999512365744
  0.5991854404861939  0.5992727583089419  0.1982700060368976
  0.6000052109089846  0.5996562543083223  0.3987063107855832
  0.6012569934627403  0.5984989162849984  0.5996716145365701
  0.6020079521949654  0.5968895576817598  0.7998349814296343
  0.6006671277479607  0.7991750581326043  0.9988113004217470
  0.6002923286054002  0.8002187430205076  0.1977562771397729
  0.6010556883483732  0.7999129884465043  0.3994557741484610
  0.6047014042866079  0.7989932463302774  0.5981187455483860
  0.6050014208492975  0.7987183825188822  0.7984893934665827
  0.7984006168115244  0.0010384645440045  0.9999973357722789
  0.7980304913956366  0.0029887135254880  0.1998101416553201
  0.7992887638150933  0.0002565533819101  0.3993773565124522
  0.7993818698697117  0.0007557110763423  0.5998433952700437
  0.7993187545745866  0.0000031935425833  0.7999693444619745
  0.7984254907975878  0.2002732118919891  0.1991560417264265
  0.7988150513841146  0.1996965290624810  0.5992133401295523
  0.7991459231762362  0.2002477620230557  0.7998526676056449
  0.7985752865962912  0.3992758999766559  0.9994854033253974
  0.7992450859570016  0.3990646553815957  0.1998969021670643
  0.7994857541476372  0.3993253484428751  0.3992414163260579
  0.7998268166245156  0.3994821977143422  0.5991029396723979
  0.8000370468763404  0.3999396464686032  0.7995179591237407
  0.7994572726308115  0.5998311328227376  0.9998245433341927
  0.7994451640840518  0.5971068787106990  0.1992020515293628
  0.8004801457940173  0.5994865789444921  0.3996015589639744
  0.8013000161449526  0.5994967669162599  0.5995542064749291
  0.8021719198885191  0.6001074532544832  0.7992790708132810
  0.7987472971719143  0.7999706431426410  0.9962146681815228
  0.7997249280119668  0.7996847232751902  0.4017506405510318
  0.8035323802768954  0.7995427062900949  0.6002823581986553
  0.8014700883320901  0.8000786939843629  0.7992716141053605
  0.5993667983003590  0.1986266758660422  0.7991883376561457
  0.7979959521890435  0.2002436961206084  0.9993597410053622
  0.7988730311133787  0.2000636958506417  0.3995387405231720
