Zr Ti V  Cr W 
 1.0000000000000000
    15.4119853477336850    0.0092002105036784    0.0075686985216924
     0.0091978282521091   15.4168317070722267    0.0033033723005877
     0.0075647771218920    0.0033039266611125   15.4231482065347798
 Zr  Ti  V   Cr  W  
   1   3 110   3   7
Direct
  0.3989984911329900  0.2010767528762798  0.5982285043718394
  0.9974326887618642  0.1977012568082681  0.0016472187594115
  0.1966348721337674  0.3962467042954013  0.1928228971222158
  0.3968855586766732  0.0007070080942103  0.0081274859592942
  0.0014237408825764  0.9983788232794829  0.0005204845981936
  0.9983524520268653  0.9989451446059711  0.1986995158009022
  0.0006495822335975  0.9985961916332537  0.3999587363959990
  0.9986660864564751  0.9994641027153839  0.5992603678305826
  0.9985049311638915  0.9997346393022757  0.8011501763866286
  0.0005805968791812  0.1997075732621540  0.2021018574498418
  0.0046026342438369  0.1990753635924999  0.3989396630015475
  0.9971876664992509  0.2001640058850264  0.5998181521988772
  0.0004642340645271  0.1992501786973919  0.7991953694678571
  0.0006894548710643  0.4016693434921906  0.9991086819240184
  0.9983763941837989  0.4003291181194180  0.1991810600600950
  0.0008451380727879  0.4010534448371004  0.3993715809293192
  0.0024658280168348  0.4012938424375483  0.6009810809576341
  0.0000942525986294  0.4000912950172402  0.8004505341779673
  0.9999280119008273  0.5990082951454176  0.0006498468218346
  0.0006049890162123  0.6004941145996173  0.2006791579782111
  0.0015408966487606  0.6004387339889486  0.3988947517578054
  0.9982206547705144  0.5994461795292898  0.5985125391006574
  0.9989225441528605  0.6001369547596636  0.8001664854069491
  0.0002560833138769  0.7995470076356825  0.0004185441474813
  0.0011432564896341  0.7997010876201139  0.1996731333406896
  0.0029798356828164  0.7995988241523091  0.3995571536678179
  0.9998062609503032  0.7987396258720608  0.5987557465711250
  0.0043668541187345  0.7993035167597193  0.8000207463785149
  0.1985853564062473  0.0011415584769698  0.9995825298348060
  0.1993781711660003  0.9997559381311570  0.1989320018608413
  0.2005914885675611  0.0044617924367587  0.4006667119116151
  0.1982197639449644  0.0015190813665193  0.6001964180716761
  0.2001271496966460  0.9974419249282624  0.7987002997518010
  0.2045707086850695  0.2001173659500050  0.0004636205522419
  0.2008158952870610  0.1978045917727492  0.2033984687158003
  0.1942536818543470  0.2034219154687911  0.5962580473687217
  0.1997456713686547  0.1978491206925092  0.8008900442017546
  0.2001938164340538  0.3989373461972731  0.9941442893885728
  0.2002605319940930  0.3949699955113999  0.4060066962608856
  0.1998049156082670  0.3990589802206949  0.7955176233049077
  0.2012909969915005  0.5984585592473682  0.0001140081103652
  0.1997851977701879  0.6006160338420798  0.1992655637473444
  0.2040914598243635  0.5985769711875327  0.3997607200573000
  0.1997650384401944  0.5946177069287029  0.5997347276696803
  0.2008176015251923  0.6032455757692735  0.7990534613895351
  0.2014066643871691  0.7995345219648061  0.9952214987382435
  0.1994136106641893  0.8007527416052928  0.1981192343082538
  0.2032601824497818  0.8019551198931913  0.4011052809963980
  0.1995846886543268  0.7986562687629449  0.6033929981276853
  0.4003456860549133  0.9986647534439889  0.2025056287754503
  0.4007064232035771  0.9951423506061744  0.3993415776132438
  0.4016668086374865  0.9954644964468108  0.5990925163068951
  0.3999333674950125  0.9990391880269248  0.7980614773762227
  0.4040762362124521  0.2031713343791478  0.0021638884621801
  0.4008210594093372  0.2006190272936877  0.1993814931101763
  0.3968757780362997  0.1994627072065478  0.3931303517549479
  0.4000562028535367  0.1989519164935988  0.8042903560861931
  0.3993573814658311  0.4022126860450211  0.0006289741472564
  0.4009770266846091  0.4019359851606573  0.1998062023867085
  0.3994141089669931  0.4054272240507598  0.3976961491615563
  0.3955861280958808  0.4058712175482996  0.6010056524209315
  0.3984176752430197  0.4019254662731818  0.8007960327273914
  0.4012200537857057  0.5995058349752448  0.0023210772623508
  0.4006170497018404  0.5999872680905445  0.2041994309160282
  0.4050334666363393  0.6011139483934624  0.5954826851261247
  0.4003872320165165  0.6012595065726403  0.8005257015347363
  0.4003254276557073  0.7972292949572140  0.0023722817481133
  0.3996426575580851  0.8000160780127965  0.2027685197578539
  0.3993288467520018  0.7988279479440812  0.5957575480845114
  0.3956310616652738  0.8000878487851814  0.7999264283045419
  0.6025366741097794  0.0047062644551066  0.9996642846211578
  0.6026273721437476  0.0008422071554678  0.1992076349296675
  0.5995550458025254  0.0008542484029383  0.4011647752032713
  0.6020271988028338  0.9991904410277853  0.6002627796660863
  0.6003522521224522  0.0001549107334356  0.8003583062974734
  0.6004327301039488  0.2002706523873932  0.1970666940715285
  0.5989678202057130  0.1999834764753055  0.3984223004178454
  0.6009214468534524  0.2004127748584877  0.8037349392965677
  0.5998977839094305  0.3970430984079756  0.9986634464638066
  0.6012651701921792  0.3998375306210010  0.2004053238251402
  0.5991230971702552  0.3985207552037761  0.4008177677805649
  0.6009343900548911  0.4028044191729125  0.6011756658545004
  0.5988941789219442  0.3995527461533906  0.7991670592558269
  0.5996859029777463  0.5981591868343241  0.9993776218173017
  0.6012334764239405  0.5997376164421936  0.1996230542508858
  0.5966197658788005  0.5992874203515157  0.4039859210153070
  0.5994227233057178  0.6006600789180507  0.7971259656061992
  0.5996208904177538  0.8027091851027721  0.9990357190982170
  0.6009010071436310  0.8005992135457602  0.1989103811606447
  0.5959993685669371  0.8017086071251034  0.3996389103058207
  0.6005925776895127  0.7962032300715535  0.6016165081767071
  0.5979800261060170  0.8012008104665131  0.8008060658258813
  0.8013231904569862  0.9996735632555341  0.2009481642726472
  0.8000749830323266  0.9998193722636917  0.6000254862208586
  0.8004471589469638  0.9992732871240190  0.7977088821574024
  0.7958121896726431  0.2044882342866535  0.0006439760708370
  0.8013156138522065  0.1991063615027570  0.2001857598214004
  0.8007164898728654  0.2002909475354388  0.4000331773191330
  0.8008754607005363  0.2011749593809679  0.5991291464172497
  0.8011574709646768  0.1987717190664145  0.8009808607627209
  0.8004585320172030  0.4008390437630326  0.9996106263158011
  0.8010816641117189  0.4007194195376104  0.2010457149565558
  0.8009419783772328  0.3990898913414522  0.4000564909801759
  0.8020267253483536  0.3994441887055225  0.5997624363353324
  0.7988694952188122  0.5991026177177419  0.9999945170538689
  0.7994460616471325  0.5999340332987395  0.2011299495285005
  0.7991283340655778  0.6001265463256716  0.3996086990817410
  0.7966315960183364  0.5991433954452026  0.5993766152656624
  0.8003534021804869  0.6007851058319330  0.8001405328094200
  0.8003493615887555  0.8313245450527196  0.9997640510556466
  0.8002263007990540  0.8008606829949244  0.1996977982329244
  0.7995679549861210  0.7997986594337800  0.3997943742274693
  0.8004063542584892  0.7994336689243023  0.5994626859979856
  0.8015136108145016  0.8019734244484443  0.8015751952610677
  0.6038346545569806  0.2009443175152816  0.6011990711420363
  0.7999424111380571  0.0001062275908519  0.4000640602480882
  0.8003431569690336  0.4001846813178669  0.7992900380800100
  0.2020383550556815  0.1997373991645282  0.4007868350679656
  0.1992446784575717  0.3986209280927979  0.6015134341925301
  0.1999315790520274  0.8000413838717874  0.7986116882099925
  0.4009695082948456  0.6042453514627812  0.3993621621528668
  0.3979725004025159  0.7978070398583698  0.3989401941285837
  0.6010756313768835  0.2011918260575443  0.9999264875466682
  0.6012436261875608  0.5987011807181880  0.6012186341946655
