Zr Ti V  W 
 1.0000000000000000
    15.3687751858679373   -0.0034047973547748   -0.0004629384474201
    -0.0034058626285429   15.3762737440467472   -0.0028872120149207
    -0.0004620936853672   -0.0028876454386987   15.3933118945991367
 Zr  Ti  V   W  
   2   2 106  14
Direct
  0.8024704321893612  0.9901261012940427  0.7964635240405963
  0.8141897480872698  0.3914724561514247  0.0138107709876911
  0.1973305111559397  0.4058923984855668  0.3938357143619513
  0.1996690659702925  0.7943174912293411  0.4069950918396250
  0.0001160253937338  0.0026396368924981  0.0014925279954654
  0.9997782564843904  0.9996674551400520  0.2006385275436596
  0.9979580034026871  0.0015678522739282  0.3988636378664804
  0.0014697418807486  0.0019937527029965  0.5970734715317224
  0.0052846647468441  0.0013247670352006  0.7988579321524715
  0.9964207296241404  0.2018954120525538  0.9993247890736729
  0.0003333352712669  0.1992079335779373  0.2009092781445858
  0.0006523882310016  0.2001415832175666  0.3992096421861845
  0.9986326965922855  0.2005711458320565  0.5982907451710753
  0.9987965986254360  0.1993115715918709  0.7994798642884968
  0.0116259429633293  0.3995151387654011  0.9978858109006802
  0.9961045622733703  0.3999334853725706  0.1986908513372899
  0.9955640065169932  0.3980781270609935  0.4011165960429071
  0.0040830272639795  0.3997373282411618  0.6009823615201270
  0.9970841333014232  0.4013912012561296  0.8012272483825772
  0.9996292974905061  0.5996906841760906  0.0002933882051703
  0.0043160871716897  0.6016311339570773  0.2008159149767483
  0.0024659619051798  0.6013377798615355  0.3997263760550291
  0.9987084120760549  0.5995959845170660  0.5980846177534422
  0.9993113608091602  0.6009003461219768  0.7981858529376578
  0.9997567681696322  0.8016669704270402  0.9999072304025408
  0.9984436854300007  0.8003833114006499  0.1983419443910711
  0.9968712306357006  0.8017125180256315  0.4000895595432524
  0.0000932764796857  0.8008256564253053  0.5992433564483773
  0.9997636089356261  0.8007348787239980  0.8002930830123209
  0.1991153954338994  0.0029920802323600  0.9998631926477413
  0.1994297773175811  0.9966160454683974  0.2004590266123681
  0.1993276664882835  0.0001649914993789  0.4003540984619904
  0.1995808723022479  0.0010400658043036  0.5990763866401942
  0.2005911715622222  0.9955716393663311  0.7998885602676298
  0.2006473388941058  0.2036961309988261  0.9994991988141624
  0.1998257819830247  0.2010894229157572  0.1995931932322589
  0.1994319660458723  0.1996949868173139  0.3989572886697653
  0.2026557744039529  0.2059668981771099  0.6006646584084298
  0.1988781674748357  0.1987961517123469  0.8014784747149473
  0.1990852759017043  0.4052882842297763  0.1926038895159906
  0.2001935078188919  0.4037953162356783  0.8025351104377567
  0.1998030379624184  0.5957775277817071  0.0033844788599507
  0.2011645429074246  0.5953109345738186  0.5950867984846512
  0.1992919060298066  0.6047552496774278  0.7992758611379382
  0.1992170127986129  0.7991073466045632  0.9956616837070436
  0.2038278265963973  0.7945092685044587  0.1943852629680941
  0.1998216886339957  0.7985360060003476  0.6065534209270746
  0.3987061879295221  0.0018960455656816  0.9999273150043131
  0.3971076032574675  0.9953271963353096  0.2007446630899184
  0.4032766775804921  0.0003210282997288  0.3992890150563848
  0.3983779602965529  0.0036240195383409  0.5984069624648449
  0.3995902390408367  0.9981876127404394  0.7987983915411189
  0.4023946035699236  0.1981295673351846  0.0007194276010989
  0.3974380265749327  0.1995789791092176  0.2015034770532022
  0.3999691859570576  0.1996745356897139  0.4027061386023322
  0.3986709528937484  0.1973093395289954  0.7954200432559498
  0.3975104068728036  0.3987051022476831  0.9996897750028142
  0.4016468360645416  0.4009984684247588  0.2010429201039495
  0.4024780251974573  0.3995903062728050  0.3989588651152577
  0.3950292372418453  0.3958693862846524  0.5998777279440612
  0.4031559547251795  0.4016264332701125  0.8004849975484798
  0.4002470021820939  0.5994430119391200  0.9992251329702979
  0.3961102886667039  0.6038255675982648  0.2005094815219329
  0.3964461610881599  0.6013833555176306  0.3999119137818158
  0.4021283746605983  0.6007974895263106  0.5969096048339412
  0.3995454337836714  0.6025475897710612  0.7989500666947787
  0.4007506882885641  0.8015405054563911  0.0015406487875405
  0.4016708247330476  0.8023377498425863  0.3955280944202472
  0.3990775692337681  0.8017583768645128  0.5990148177683070
  0.3965915024499750  0.8008602664989245  0.8012647282494103
  0.5993359354622348  0.0057556415687678  0.9997264148920164
  0.6000465110627857  0.9963325804043028  0.2030559828020151
  0.5980874754504518  0.9995908060948679  0.5950569209007227
  0.5964279076691841  0.9989628955890295  0.7979845053010437
  0.5972798445261662  0.1991059954462511  0.1962612830660094
  0.5990880091163064  0.1971981679995703  0.3972589452303501
  0.5959482403860867  0.2018101640758048  0.5988439321647701
  0.5987484832837872  0.2050922164115306  0.8048524130689266
  0.5974499362429359  0.3965099569456665  0.9958004817395001
  0.6017178118765562  0.4029727890181245  0.1986559488425620
  0.6005101993674186  0.3980586456366464  0.4001574745098231
  0.5983131517563102  0.4033304111256116  0.6044757000073084
  0.5993142798373631  0.5974875964452614  0.9993026064175459
  0.5977174928448487  0.6031619385285756  0.2014468269096443
  0.5990105043936260  0.5999411156152615  0.4034759367797886
  0.5990782591653792  0.5971824832646998  0.7952594637573830
  0.5992776033267809  0.8004157529077063  0.0023639085269909
  0.6011357597067226  0.8036209222084212  0.3958311357521977
  0.5979810483709198  0.7961841201210575  0.5997602635584581
  0.6020412098122652  0.7990791374405115  0.8019566044596077
  0.8004002178098608  0.9973409498237189  0.0042423652127446
  0.8005486618457608  0.9990833355185514  0.2016481818460555
  0.7975353586669565  0.9975248795880631  0.3983307496981833
  0.7993731709417758  0.0013945590657838  0.5926680284533566
  0.7937846009237109  0.1901014344761649  0.9980700654592390
  0.7990441408227011  0.2025215225024732  0.2295900092330141
  0.7982877683927628  0.2000276062463155  0.6032548924580606
  0.7989671870689427  0.2002489336075453  0.8000840274826048
  0.7996840310130302  0.4013102757218901  0.4025813055913512
  0.8004458420095505  0.3982177716871250  0.5997128516668507
  0.7972858779228353  0.4012650673216651  0.8010468349991778
  0.8007455970018343  0.5996039860091290  0.0002793347158985
  0.8004001990469237  0.5960308984023767  0.2003388354916255
  0.8015339639356346  0.6006381950467824  0.4003860540379141
  0.7965121497434305  0.5994125448444370  0.5976401200941236
  0.8006099164670832  0.5999790074272867  0.7997180323056509
  0.7993559057675247  0.7987772065711224  0.9976826602041263
  0.7953893120558128  0.7956376338482032  0.1974249407185381
  0.8006267581485687  0.7987421232690818  0.3989355364696013
  0.7995021152524545  0.7992914651053472  0.6040587157729412
  0.2038119603949998  0.3999335093293436  0.9979418258646370
  0.2000004139748338  0.4011248288221689  0.6082167715567089
  0.2004005512089674  0.6001516605355998  0.2021720267118140
  0.1995726877046619  0.6003979753720077  0.3967107080237764
  0.1988973717641279  0.7986846980608058  0.8011049343275334
  0.3985471674078827  0.1994116246853643  0.5999398675379971
  0.4020732037133297  0.7994872459327116  0.1979213581497025
  0.6021459046323971  0.0012436132436460  0.3991279573259907
  0.5984847149115080  0.2019670878259395  0.0003131763828530
  0.6005952826466042  0.4019756332124866  0.8009031764936716
  0.5978086077598767  0.5992187148633358  0.5978743082670828
  0.5973440273024737  0.7989616153993772  0.1980414413486177
  0.7986822341733819  0.4005566852517556  0.2116982111777307
  0.8006586168152862  0.7915578776650768  0.8013022275094525
