Zr Ti V  Cr W 
 1.0000000000000000
    15.4218125631900325   -0.0059686382723848    0.0062585989012477
    -0.0059677460242910   15.4281327699692579    0.0068346148581175
     0.0062604253005019    0.0068382331099848   15.4329886035241781
 Zr  Ti  V   Cr  W  
   1   3 110   3   7
Direct
  0.3975323690102510  0.8041651021891804  0.5983215267331773
  0.2010566606571061  0.6057250316363149  0.1901991702650287
  0.1981826637029297  0.7897207549287211  0.0083253417159239
  0.5997551989652871  0.5981022686574700  0.5817520958970704
  0.0014572859353841  0.9981496849957230  0.9998293269280624
  0.9999477096867397  0.0031953506537459  0.1994531201268683
  0.0025362671061018  0.9952774407628708  0.4016404178897097
  0.0014765918987276  0.9986764930353490  0.7998007904894356
  0.0000904986910075  0.1992867330654761  0.0036943209343661
  0.0000766875863212  0.2000029431296506  0.3968407245147002
  0.0012442837103642  0.1988480050511288  0.5985797158352151
  0.9987256272882310  0.1987506584540129  0.8009992860859804
  0.0048112990320829  0.4004479021966548  0.9999137167947912
  0.0010793147247492  0.3971459856906303  0.2010039765201840
  0.0010744013390134  0.4032891129909293  0.3993564697352416
  0.9997557714373966  0.3993614015334647  0.5989081983948819
  0.9991716730092399  0.4001763977655614  0.8004076594191767
  0.9998255687236633  0.6001001468274189  0.9996778154139094
  0.9980295681075956  0.5989453744995235  0.1995843280500274
  0.0008520034357326  0.6038618938249805  0.3987642611597634
  0.9998316405827606  0.5979845089513951  0.6005471315896425
  0.9989733559373679  0.6009980670779328  0.7991966480287653
  0.9986383513371934  0.7989711560581259  0.0013677298345516
  0.9996665285256886  0.8010662061833874  0.5968120223954437
  0.9998622649122334  0.7991316285899270  0.8002767361763802
  0.2008562709696928  0.0008106684760054  0.9998228302526477
  0.2002587599343102  0.0009701454907791  0.1993693464476248
  0.2011240351525113  0.9993927777878893  0.3978784521901672
  0.9959765847020423  0.0014710722113106  0.6016689319685246
  0.2008297376804159  0.9973837013348932  0.8032898947694450
  0.2001859979581940  0.2025240894552190  0.9995956871154500
  0.1949396473003547  0.2000223634184699  0.2007883354230529
  0.1998616673001342  0.1988680447133040  0.4021003685472493
  0.2000904531305262  0.1973128648955169  0.7961280731410747
  0.2003669736244532  0.3977648993773642  0.1957564957790897
  0.2005776896891593  0.4022460415231088  0.3980400855333958
  0.1998672835539080  0.3947260843566919  0.6001420079955768
  0.2006807076222205  0.3994790534302667  0.8030898906495215
  0.2006701229578021  0.5910973105687054  0.9936581532200979
  0.1995484319041098  0.5951723247173070  0.5998615221669094
  0.2009922868748358  0.5983955749233646  0.7978105793842872
  0.1990635140896660  0.8022620909958108  0.2036952024956955
  0.1946136899991434  0.7994772201590096  0.4008908340466161
  0.1954344599957283  0.7941396717136656  0.6009739551379305
  0.1996402162179994  0.7978300822305291  0.7982966824825530
  0.3991937945777213  0.9990474531046524  0.0005141173387079
  0.4002643526300679  0.0006116111007230  0.1990994063908849
  0.3973546557830562  0.9986430586720100  0.4002291063161542
  0.4031900038761434  0.0048881536198286  0.6006251006177776
  0.3994387312049695  0.9982178563809027  0.8007341829831844
  0.4008268191370006  0.1991754928123757  0.0005888372780036
  0.4013236428672224  0.1986615323365609  0.2007712090172449
  0.3993468932658888  0.2008908603903435  0.3978414854461045
  0.4007277291012991  0.2007088735649623  0.5991828830319134
  0.4013835965145339  0.1992529044624307  0.8009109098061793
  0.3965252281260620  0.3991614029061323  0.0006237152344090
  0.4002441101614063  0.3995207883181148  0.2006163415640823
  0.3992703425015215  0.4014993648862594  0.3981493211330851
  0.3997437592700210  0.3993534653627373  0.6002543592550584
  0.4007887935615261  0.3996737938052494  0.8002212208890498
  0.3997511741366944  0.5993019516851732  0.0008894753799711
  0.4019930330590770  0.6004473276580234  0.1995112793926986
  0.3982510016583043  0.5996825871182063  0.3986187872400104
  0.3978153568717624  0.5954756449591539  0.5999101170284842
  0.4052189769843585  0.5997928562576406  0.7993101876157273
  0.4012061035041710  0.7987469186700891  0.0019904000421855
  0.4007029092215578  0.8009146465596175  0.2004848678752696
  0.3981907254102002  0.7978152858528560  0.3947973830526995
  0.3997275058009203  0.7989933661793793  0.8045277139329993
  0.5992259689294115  0.9991857256022818  0.9985664816923537
  0.5994817213806642  0.0003957110989175  0.2003455528972956
  0.5987886027975934  0.9983547357213028  0.4001669862538545
  0.6008497908058663  0.0049619637470519  0.6010187284429197
  0.6002861634063738  0.9978051489121016  0.8009791863676983
  0.6002631625332874  0.2002010148936679  0.9989187644956457
  0.6046201207953074  0.2001273705412096  0.2013376936648808
  0.5997547702713083  0.2000418133782202  0.4029036882726235
  0.6007675353557974  0.1995319929387293  0.7968580536077338
  0.5982921745566275  0.3984987872250942  0.0004820714339944
  0.6000379491883390  0.3988943601872320  0.1999398598416491
  0.5992295242805763  0.4022578226863893  0.4007800297073510
  0.6003830217570288  0.3937219482196820  0.6003429956024507
  0.6006766671493128  0.4031869292485254  0.7998175978771979
  0.5998407314156297  0.5987541783474294  0.0010224148116611
  0.6008888053410689  0.5994673297687032  0.1991939670233600
  0.5997810232508496  0.6006540226850364  0.3951971387116208
  0.6005111396575114  0.7994464428616763  0.0025714766747421
  0.6019141929337146  0.8008916720800737  0.2007201578970536
  0.6005566726415060  0.7994744456194288  0.4001219181047552
  0.6043979636398792  0.8030963602233891  0.5997135328738454
  0.6012459101016762  0.7953181957935932  0.7998616049720322
  0.7998895821496734  0.9990450419369408  0.9998427133775292
  0.7995175425017871  0.0036462110563853  0.1996312025547522
  0.7986732647593853  0.9986831051554363  0.3999885131536177
  0.8000794990075384  0.0017605806893641  0.6006703689388537
  0.7997864661435637  0.9987908841796151  0.8020804089579173
  0.7999069856564232  0.2000437316354606  0.0028172035584433
  0.8005609608535997  0.2002081789757085  0.3971682253474387
  0.7970829679145179  0.2003741294598133  0.5989019146772853
  0.8016643094314441  0.3998283805415889  0.9994882874606621
  0.7994775986518974  0.3962509306738523  0.1997199486430671
  0.8007674519117114  0.4018555421181247  0.4002024631754830
  0.8013496579729948  0.3982896865950627  0.6009675746757375
  0.8012700438014356  0.3992138698247767  0.8010680660333331
  0.8011347254811174  0.5985901589696897  0.0016599890129472
  0.8005685240935198  0.5980697391424866  0.1994681196806105
  0.7993378163476729  0.5997413488990835  0.3995006535322906
  0.8015554856601006  0.5979470050849275  0.6000546901603617
  0.7963517404727793  0.5996264734725009  0.7996423428952110
  0.8011134801144074  0.7992931647276853  0.0016543071360120
  0.7997586714646389  0.8010407433391561  0.2003615228526720
  0.8036433795628379  0.7991885310637422  0.3993604566419829
  0.8002747941553046  0.8000215040382379  0.6017163742899300
  0.8011510435246491  0.7992734730415006  0.8003358061903147
  0.9987551139778472  0.8016363877486485  0.2017295593585539
  0.1995452753901436  0.5990623247664756  0.4005043475567491
  0.8005123531393268  0.1996582284120332  0.8013352120129453
  0.9964461488373886  0.1988754560377921  0.2014611764988026
  0.9981996871289227  0.8004819016738171  0.4023325728859322
  0.2003165325042266  0.2049058985649151  0.5992752645486255
  0.2009896745540764  0.3974020394618901  0.9984603960311688
  0.5998432825191876  0.2004727077065045  0.5987748869066140
  0.6008846323349359  0.5992022855925896  0.8078672573212317
  0.8024561909179851  0.2001709074809995  0.2006458119575502
