Zr Ti V  Cr W 
 1.0000000000000000
    15.3205282173675101    0.0002014824685806   -0.0032720455521328
     0.0002023707323046   15.3277042438828079    0.0007193262014022
    -0.0032728540049734    0.0007198926617368   15.3420216939870571
 Zr  Ti  V   Cr  W  
   1   2 101   1  19
Direct
  0.3877700753607009  0.4186893435063891  0.8167354893926178
  0.6127220985833369  0.6056757013066301  0.0061954551726389
  0.7893505126531460  0.7827973522422420  0.0105907214452888
  0.9971127034227126  0.9981256632094383  0.9955810696228977
  0.9994941572610652  0.9989136841732944  0.1981394929672428
  0.9997488078253085  0.9978424550695042  0.3988154402131152
  0.9995633327087392  0.9956306254514319  0.6059775163940746
  0.0022403320272803  0.2021746271565092  0.9985963480806638
  0.9983652932367337  0.1993360777919569  0.2001883560471595
  0.9995513684744675  0.1987581204477503  0.4023061830265920
  0.0004152053893692  0.1998417664651338  0.6005656774076811
  0.9958091272458131  0.2013602048285000  0.7992376947552553
  0.0071155014167211  0.3991860219499594  0.9989753261047272
  0.9983686877667917  0.4001145697097309  0.1961639231155972
  0.0014207880975730  0.4010807280892008  0.3992833081302065
  0.0021454290029097  0.4025543927212804  0.6049150810637958
  0.0024008201500956  0.5984039495818192  0.9950556556493863
  0.9990509662360060  0.5987281274020123  0.1991846612350245
  0.9956638772567419  0.5986623767055342  0.4061330357882098
  0.0025272746710721  0.7978530430854321  0.9987915249371777
  0.9951626703701839  0.7985355464773868  0.1985452166876351
  0.0026882626060848  0.7991200922366244  0.4050610366172888
  0.0009838458679072  0.7972427210497017  0.7973404159682548
  0.2003567019471676  0.0013729181172581  0.0007583409242467
  0.1983659990073674  0.9998535808579315  0.1986333662743485
  0.2040668343976469  0.9956634926344929  0.3983099205801104
  0.2001249022754682  0.0050762003342910  0.5995750131969356
  0.1950407711910088  0.9996253537954392  0.8003898851821900
  0.2011880394677638  0.1981447859569825  0.9996034556893696
  0.1987639102204175  0.2000361914837021  0.2019209516234852
  0.1997348161636893  0.1991308502330298  0.4045613862828276
  0.2001273574010839  0.1999923137038440  0.7943813271968002
  0.2066009460827785  0.3978005947603735  0.9999750588639960
  0.2005319804673518  0.3993599016993282  0.2013355353546443
  0.2010274637137342  0.3999978166021641  0.3982995589717610
  0.2015508949020079  0.3942405075156676  0.5994544707420915
  0.1884261318902880  0.3982436521660095  0.7991675249048620
  0.1986103020761583  0.6012964725386799  0.0006353980852293
  0.1985133853865811  0.5990033123597179  0.2005669536950020
  0.2015435491714159  0.6027967360013581  0.4009828435453535
  0.1967968246305671  0.5973086431163542  0.5988780652390971
  0.2040463831672749  0.5977512930714819  0.7990802508591687
  0.2002436762928700  0.8007314906066451  0.0027867281512308
  0.1992256316362722  0.7988124520566231  0.2035443305946370
  0.1972069166000177  0.8009034539949464  0.5939781760973829
  0.2017256145363136  0.7991353484491942  0.7987627921521552
  0.3999610493601463  0.0015343089326791  0.0011392777849783
  0.4012074845714657  0.9992488706051273  0.2010411724206026
  0.3999684580333409  0.9992825091095598  0.5966241602398478
  0.3997910369592867  0.9953321817947590  0.8019820366666122
  0.4002226128305897  0.2027183954443774  0.9979515427093409
  0.4003263537369032  0.1993438435067387  0.2016959930403446
  0.3997867595327571  0.1955432056432106  0.4017428580007279
  0.4010054180816532  0.1999674979207225  0.6021931838005959
  0.4011772713602531  0.1988630935075210  0.7990842148659674
  0.4032268576834240  0.4010993016045089  0.2030651574259504
  0.3994347759914940  0.4019950656051944  0.4006313191841782
  0.4001472200461625  0.3992404625397524  0.6020068403827689
  0.3992788575795482  0.5981471035996749  0.9963759403614912
  0.4014251211073110  0.6012912246628501  0.2000525706420187
  0.4006480109496195  0.6004948925748737  0.4038136028108988
  0.4004009042299894  0.5982501163861650  0.6052064721496951
  0.3983129424493450  0.8009801129467933  0.9979187229051777
  0.4016355478568895  0.7976445929990738  0.1967413847626105
  0.3990618412719387  0.8003033532234053  0.6027948916632598
  0.6012604048548630  0.0040613673989573  0.0000642343123698
  0.6001917072960765  0.0014026040463900  0.1994816248845336
  0.5958047941187705  0.9986352562257642  0.3985033923954425
  0.6002473689251686  0.0039350538145151  0.6005326799628719
  0.6005511987471194  0.9984202508914546  0.8006650391994969
  0.5999657783813160  0.2020065391205405  0.9982677435213687
  0.6026154988859602  0.2025270499230186  0.2016970837019944
  0.5999558981973871  0.2000490912842799  0.4052698080898599
  0.6028570584002083  0.2007729055145119  0.7965988833424675
  0.5926188923809372  0.3984632563726174  0.0049743519291679
  0.5979616377460157  0.3990831907241399  0.3951462897612155
  0.5977552321256083  0.3951911555576091  0.5988643064025826
  0.6035797253895013  0.4017963650101071  0.8045452062762991
  0.6002135305186446  0.5961645867449045  0.2055293188928152
  0.6028840146117513  0.6000184622933142  0.4043848970683314
  0.6018950644874095  0.5976743971952789  0.5994177157521929
  0.6031005215251891  0.6003798952656965  0.7961922732931163
  0.5939387428478786  0.8049105050932440  0.0002556061283444
  0.6019227106939250  0.7994073153384362  0.2007761942253961
  0.5992348344554569  0.7993596653307641  0.4012421105700704
  0.6007422076054368  0.8024371299771123  0.5980708009286126
  0.5979148830798980  0.8014530744227163  0.7975082466265295
  0.7998647634959751  0.9951758523367634  0.1962641480175595
  0.7991054998865162  0.9979883193241902  0.3988037906594172
  0.8005495403721143  0.0023998806291805  0.5999706070472487
  0.8030019178802357  0.9986251900606635  0.8057902961732193
  0.8007662243433019  0.2011992925028371  0.2019444515434674
  0.8008003400313395  0.1976380999139117  0.4048018945718241
  0.7994754917322705  0.2341951421405964  0.9957646686248630
  0.7967308023383307  0.4002531351908021  0.2015675349385098
  0.8005806340452384  0.4034932411705616  0.3993370464250605
  0.7997536264182999  0.3952527480249937  0.5979844229532455
  0.8019786840960924  0.3996226046408191  0.7976360168092287
  0.8033618157048393  0.5925706518242788  0.9942894620036639
  0.8013685509636209  0.6021287303678392  0.2049153965041524
  0.8027917779704397  0.5974015459890841  0.5998536519715240
  0.7987669955472648  0.7964641117862442  0.3985703214960106
  0.8025089128411076  0.8027680654039592  0.5983147727596148
  0.7966643514668640  0.7933691241791904  0.7984199163596420
  0.3996165584080225  0.7988859497101999  0.4000394741925579
  0.9989840853304137  0.9933701086966678  0.8011507522551756
  0.9964090477992834  0.4041983012208384  0.8053518616232108
  0.0008248427941600  0.6028542889134085  0.6050676639468369
  0.9940001321574693  0.5971391228683954  0.7967014453244260
  0.0009168404580431  0.7969644291561893  0.6007492362226152
  0.1996175163532450  0.1993450864544528  0.5986189447643692
  0.1971902409522866  0.7996558081808939  0.3985475385310416
  0.3999248650750419  0.9992255222638531  0.3981867584686317
  0.4009690992423144  0.4008234912436736  0.0123282847482213
  0.4042101243877472  0.6146893932584792  0.8006494515771894
  0.3982616071503081  0.8001664144746278  0.7999079433409607
  0.6021191527125281  0.2006440708347091  0.6010474147123287
  0.6007656617163661  0.3987258109759790  0.1998964006038497
  0.7996551855632151  0.0101330323643090  0.0003180571744800
  0.7978214670666471  0.1991132392307266  0.6025610600348247
  0.8012893064248774  0.2029064338663068  0.7941245135624571
  0.8000486852515377  0.6002994365569908  0.4042335601931877
  0.8015143641415308  0.5962903636703144  0.7962388380773765
  0.7994632428334353  0.8001462272016752  0.2060594612047875
