Zr Ti V  Cr W 
 1.0000000000000000
    12.4966892740713664   -0.0127905507363100   -4.4000742921243257
    -6.2543589739800716   10.8221124976081224   -4.3856040098718241
     0.0018392309309037    0.0207838815801528   13.2053074102526420
 Zr  Ti  V   Cr  W  
   3  14  93   2  12
Direct
  0.2014017542761304  0.7969703589534577  0.8025916019611806
  0.4021396241539456  0.4000391212333381  0.0014943305713873
  0.8016025695634833  0.1845425166856702  0.6013346864677651
  0.9967904746659766  0.1935372933906009  0.1956710094668362
  0.9960665465165571  0.2025439735975277  0.4048351037929506
  0.0014877641009048  0.4015589038696815  0.5981400927110406
  0.1993941276236349  0.7992445763639300  0.3947122705595941
  0.4032787281254637  0.9988976740452051  0.7948766475941129
  0.3986827628304487  0.1944903395193411  0.1916915797491671
  0.3951593283679817  0.1971286526781442  0.4003425290837013
  0.4024204025748310  0.4063053030949950  0.2192780642224077
  0.6036990700322451  0.2024056705171690  0.7943538209744189
  0.6116630346200363  0.3991981979404801  0.9916148188080635
  0.6081850216927368  0.4057450052619761  0.2096786279324178
  0.6053802410041497  0.4090467399256502  0.6047495480029967
  0.6032532895310717  0.8029100267386453  0.9955435438501262
  0.7986401520791098  0.3965297543884571  0.4019157215372472
  0.9869073490742468  0.9897226429543980  0.9877632896847756
  0.9983147318987077  0.9966223711702685  0.1947462538664602
  0.9963846186910102  0.9969935810403138  0.3976449080944278
  0.9893984521135138  0.9955425893146373  0.5959475649598589
  0.9978797348618893  0.9979447864309923  0.8005877492443381
  0.9944992799932630  0.1917809140822220  0.9917287413340470
  0.0097768866930088  0.1921313270380154  0.6076915752873826
  0.0012449611188214  0.1986255358721351  0.8050878894856314
  0.9985442460896222  0.3991978462168385  0.9974986215106435
  0.0028032991191224  0.4057263849560751  0.8078664429362402
  0.9956027814924675  0.6006986772947245  0.9955083875595904
  0.9962040398781224  0.5991866453233081  0.1945608799200790
  0.9941042748610346  0.6009354879202378  0.5983055488395470
  0.9967237164013264  0.6028974679030255  0.8000125926745645
  0.0009035817502545  0.8012452943639817  0.9966649215061120
  0.9952353417967528  0.8000164568782241  0.3993990909806132
  0.9952969354778287  0.8003633553648158  0.6028395988174999
  0.1882402092338015  0.9955964107432587  0.9943918800013313
  0.1924301374152681  0.9989578937334405  0.1925566746638172
  0.1974005658322814  0.0044557738067170  0.3959070855316947
  0.1906283464482866  0.1929353362535291  0.9990232609712286
  0.1966639569217506  0.1973537137785617  0.1976032247793048
  0.1926020395117670  0.1981336145481718  0.3928464788718385
  0.1955579029009763  0.1984272440691532  0.5946761599895493
  0.1894604154844580  0.1949357318528767  0.7928484048318307
  0.1931353958418610  0.3995684975798959  0.0018281060940244
  0.1972322369399760  0.4028004205102074  0.4045803814899822
  0.2049037247331228  0.4035428582430243  0.6013383834187020
  0.1958529306399403  0.3979051895720777  0.7978761917409983
  0.1981691791566979  0.6020467544949196  0.2018752965113350
  0.2036561593076978  0.6019877977131027  0.4035987617130582
  0.1961902177705501  0.5953616982199779  0.5939353061332691
  0.2018598040101325  0.5932687320302177  0.8017393257969925
  0.1951377175155554  0.8017222310071501  0.0074360339147005
  0.1977599302292831  0.8023145474802478  0.1961227575308475
  0.1962880492903784  0.7926722732796643  0.5907226842045880
  0.4063017928404434  0.0087253547337961  0.0129009587667827
  0.3974950770777003  0.9996314548737484  0.2026140328492682
  0.3972893974044243  0.9970979509205399  0.4000640910918984
  0.4003974130134841  0.0004514722837325  0.5918711148359767
  0.3955178013273363  0.1841531296347122  0.9857022983121377
  0.3978003656417874  0.2002735119751887  0.6012019267021689
  0.3908805569996967  0.1977414791378996  0.7871775845337409
  0.4009354185342965  0.4101660510074974  0.4155222122157006
  0.3944637156300471  0.3988665699515064  0.5957792747593298
  0.4004331872257902  0.4005552893668824  0.7901568589472794
  0.4037772566768938  0.6080884390012938  0.0010030104549262
  0.4008107995985979  0.6042164716632945  0.4055461796958154
  0.4009869698798383  0.6029456908079479  0.5991733240398986
  0.4020181629655257  0.8041599265519708  0.0021612066221683
  0.4040065378000353  0.8029267460824011  0.4042054776804503
  0.3984931804365073  0.8008488748825268  0.5983773064290208
  0.4103826890805329  0.7955791152807606  0.7962910873307655
  0.6022637467934130  0.0029194481833527  0.9961803876541049
  0.5995063477225407  0.9971638126695134  0.1962512236800694
  0.5946695248610404  0.9961646908939954  0.3961508889841303
  0.5975691061061598  0.9983774547818367  0.6005232775666212
  0.6071851884710515  0.9948823416526580  0.7960136047843679
  0.6010753969671931  0.1899194396333562  0.1963444031202610
  0.5999009850225786  0.1991865701097102  0.3984444828197026
  0.5867038563450956  0.1916525668205445  0.5864558328452459
  0.5955317297339157  0.4124700820316896  0.4074579641450857
  0.6017603075825759  0.4098253224222798  0.7981150133641886
  0.6051264251306347  0.6032381373461181  0.0001755218994972
  0.6088310776333885  0.6162344049483538  0.2152676597905846
  0.6076714538056550  0.6125813354057453  0.4145460624149950
  0.6077899612784230  0.6146578561528691  0.6088090602038014
  0.5991284839734637  0.6000479322905289  0.7993234852446219
  0.6022531202159940  0.8028526772076884  0.2026316458620171
  0.6067586803869525  0.8084719703218592  0.4095729106122935
  0.5928759093577316  0.8021225375348874  0.5966885225730038
  0.6115862416155465  0.8005373011051593  0.7940378233746875
  0.7952765471735812  0.9974703281920816  0.9964360527844507
  0.8018136020841514  0.0024569614331650  0.1979120538692672
  0.7983895707100823  0.9948766000716319  0.3965421412232628
  0.7980436432358146  0.9321814773884087  0.6026555206106340
  0.7991510523632067  0.9946493833359045  0.7955704519290165
  0.8012738292782005  0.1964030080054266  0.9964647459468883
  0.8016471124814188  0.2020191345347380  0.2044442955552683
  0.7811093508418839  0.1795964731939568  0.3800310216322404
  0.8087990379933963  0.2020683897007478  0.8108109599162318
  0.8128996096717221  0.4077271825691830  0.9978391497094533
  0.8019367567629823  0.4016246563644736  0.1956497334262529
  0.8087226663965383  0.4166170502490620  0.6167768140181099
  0.8014142283185586  0.4064611080876577  0.8002834892626930
  0.7992974547150630  0.6026030706445237  0.9949171552882511
  0.8011220402357115  0.6036619274443177  0.2028979676798053
  0.8036825897411216  0.6128008412792286  0.4098778921660501
  0.8036496046408198  0.6059557849791162  0.6040001884971954
  0.8037463713941460  0.6192116064491001  0.8026448572006266
  0.8032610101224589  0.8012540822993347  0.9902705157210485
  0.7990338222892959  0.8018192023252045  0.4020267227445672
  0.8009367663929222  0.8007858904824888  0.6772477464986778
  0.0027097014356164  0.4036651816285955  0.3975882907714508
  0.9904682199973753  0.7998592072777644  0.7983932860630294
  0.9980934317415366  0.4012535583451743  0.2007198598591316
  0.9978413020766829  0.6003531070131037  0.4002367495109096
  0.9991516660242312  0.8003932606100066  0.1971032985431848
  0.1951580883832979  0.9964139541264546  0.5924461419122737
  0.1935801759609759  0.0015105201690532  0.7966749310712254
  0.1957771567425587  0.3989427047462526  0.2022116923514545
  0.1976536375981991  0.5997440365612394  0.9994243417554698
  0.4030759642436680  0.6056642064293475  0.2066997522026951
  0.3991521575549942  0.5987383566805757  0.7966912919240269
  0.4008580553078857  0.8036541190404242  0.2021577439151789
  0.6057531678523538  0.1991582713670767  0.0018630134368116
  0.7980854131999959  0.8009940889262530  0.1974693714752319
