Zr Ti V  Cr W 
 1.0000000000000000
    15.4553867420840287    0.0026143812950059   -0.0105005805915079
     0.0026215152151141   15.4868225341161789   -0.0153794539020766
    -0.0104972775696231   -0.0153901058770574   15.4931386040514418
 Zr  Ti  V   Cr  W  
   5   8 106   4   1
Direct
  0.0020732922876190  0.1988818753646365  0.8002488103915680
  0.3996516234146800  0.2396369933739970  0.3990661900933354
  0.5942088225323260  0.6021067089589449  0.6285964173589448
  0.6036514884559304  0.7906602717607933  0.7948763573286213
  0.8247184796931397  0.8288343565343156  0.7884065436589210
  0.9987784165091548  0.9974722915177441  0.4007967188936540
  0.2052735309727646  0.4025461105965138  0.6026275417066549
  0.4027186537195254  0.2042009578611773  0.8019641565004494
  0.4053409719611983  0.4351570527375720  0.3960554895809297
  0.3814747882240963  0.5868608433070659  0.5861607269505484
  0.5978496998290745  0.1962114638556011  0.9977899725259665
  0.5934312513594659  0.5921789277682935  0.4072074604412737
  0.8022790661334626  0.5961106452232847  0.2079417334438649
  0.9997551555215519  0.9980588450981760  0.9989633886048712
  0.0006555453896062  0.0000372803816945  0.6009595488265060
  0.0024675438150190  0.9940253907158704  0.7989727878486365
  0.9999951714625371  0.1992897737984989  0.0041624366153736
  0.0003892431429902  0.1991113527224792  0.2010109327812411
  0.9997694646205543  0.2037233289223989  0.3988978926324010
  0.0003654107698166  0.1999497216980771  0.5958231949141207
  0.0001089050417957  0.3998888673051277  0.0012533289134957
  0.0001015125555475  0.3997299844260974  0.2004045039572912
  0.0007001512915024  0.4022099143753037  0.4004538435809950
  0.9991222117739051  0.4005402011043842  0.5996118033352545
  0.0006180735750819  0.4036355435967058  0.8003806245456380
  0.9998534598807826  0.5987080392241437  0.0011982805403090
  0.0019748647659414  0.5990701764109214  0.2009928640565191
  0.9997062857614090  0.6006714540177798  0.4012679394026194
  0.9985741465557437  0.5997906137450019  0.6010751503120345
  0.9993429753118971  0.6003934516064209  0.8015614035668249
  0.9992538107483474  0.7969421048912489  0.9997879736957862
  0.0000406727043434  0.7996188527237427  0.1997341322896591
  0.0002116245280343  0.7981961449276872  0.3989942135458101
  0.9995486790610852  0.7995350054851523  0.5983888817016888
  0.0120076236498336  0.7969434651899324  0.8002212848860295
  0.1997886400395374  0.9982121472693021  0.9983712638817146
  0.1998817681133224  0.9997669923776443  0.2001942242212294
  0.2019774469776413  0.0002697414420546  0.3998575965568668
  0.2002382359610653  0.9997993692539141  0.6000577659618697
  0.2022752995483358  0.9978576958842397  0.7990172897632380
  0.1987085678698012  0.1988304175019592  0.0011310009243837
  0.1996057136677585  0.1985174526281560  0.2009937467949276
  0.1960096451583838  0.2003902641119484  0.4003232384207012
  0.2004970300991732  0.1971609171738579  0.5989679566938765
  0.2047989065715350  0.1989653539225348  0.7994432466301580
  0.2003520394588155  0.3985493414100308  0.0000917670794929
  0.2002563499569199  0.3988572513785722  0.2001039994933645
  0.1999732859337751  0.4009574965555757  0.3990384004960701
  0.2022155656054667  0.4002516967514623  0.8013508692060944
  0.1997041535973332  0.5989014811584896  0.0008171661996728
  0.1995751578762983  0.5986813445252070  0.2003926210809101
  0.1985752081749314  0.6007809088076821  0.4000446031835773
  0.1914593265258192  0.6023199331763773  0.6012511958833026
  0.1997335582336096  0.5987101455354098  0.8006193489057377
  0.1996520226075760  0.7987314529527271  0.0011387372013178
  0.2005083103294772  0.7997465077509611  0.2006293611018828
  0.2002278878574427  0.7997287389273402  0.3988245399905945
  0.2008146675234926  0.8003525288313043  0.5972655746177555
  0.2042682227857459  0.7968188963818863  0.7979977887628168
  0.3983083119591759  0.9983502553813693  0.9986973445830464
  0.4003252839315081  0.0007629134108069  0.1975140658066971
  0.3983910767310702  0.0068442397389284  0.3986874247732558
  0.3991748072715450  0.9996994057466451  0.5997238248016472
  0.4030709116473450  0.9954680697728386  0.8008570369245220
  0.3970854907779080  0.1993574505623494  0.0010110181028100
  0.3993138235989046  0.1995619288143087  0.1960365217973543
  0.4002421337698595  0.1967637060430357  0.6011159207410526
  0.4001798439366376  0.3995103451675099  0.0012349278102637
  0.4006735069927860  0.3994845695455039  0.1990065392989092
  0.4037955795308969  0.3934945985280030  0.6000548295779390
  0.4014474801846757  0.4016961295312209  0.8000046528037039
  0.3980043903120270  0.5988420198926627  0.0009238176475406
  0.3979572912965457  0.5998678891925151  0.1979484304597058
  0.3941230775042457  0.6148370510791030  0.3930485817268216
  0.3996623435578657  0.5969613617297258  0.8045603568496870
  0.4021820948840251  0.7993167084158748  0.9997767926479476
  0.4036331706231411  0.8053369338393850  0.3980970452660961
  0.3991874563195256  0.7991988062329700  0.5985074251513263
  0.3979125938112967  0.7964011777239194  0.7975438509144779
  0.7315967564530700  0.9990641326832533  0.8667622311751590
  0.5986153787780288  0.0007711353870492  0.1995847748593682
  0.5996257622499144  0.0023507058599196  0.3982766923121000
  0.5993639027940392  0.0023481440511118  0.5992245928926276
  0.5998004040083309  0.0017620633041115  0.7963256728797348
  0.5992591765862817  0.1982080674540395  0.2021805388835738
  0.6036513645475873  0.1995920934782345  0.3998572015536258
  0.6008451957874266  0.1978301787247250  0.5978369222895421
  0.6024498078372278  0.1980400442388386  0.7969825680505609
  0.6005673251652572  0.3964849261723705  0.0021786325231747
  0.6005297076797915  0.3983739543401607  0.2003836426433672
  0.6014341006383354  0.3964535370275053  0.4013677213709461
  0.6022559851267265  0.3961908610069395  0.6016177036634717
  0.5995317458274818  0.3940451395444963  0.8011818202730944
  0.6003299326955114  0.5974156250016097  0.0055209099186806
  0.5981902785790972  0.5984231660742952  0.1968908752423243
  0.6000989678707281  0.5865510017928515  0.8226165820510415
  0.5998655374702589  0.7954301173463525  0.0059066938920136
  0.5995984018955994  0.7993478292722347  0.2045681410548724
  0.5981892327056880  0.8037817374890254  0.5853802367931508
  0.8001807184482680  0.9987267150990946  0.9989642304217434
  0.7990022114092828  0.0000306104121739  0.1971548275756759
  0.8012674857368056  0.0033276708955632  0.3984149436501460
  0.8013084780495781  0.1966424717280544  0.0000364774815854
  0.8000491438803138  0.1990316489351621  0.2003886762404724
  0.8017551113378620  0.2014422974105911  0.3995585464394544
  0.8005280619686261  0.1991237265364088  0.5983040264318131
  0.7979018620629816  0.2000251639921156  0.7981041685435699
  0.8000775837485644  0.3968798799056663  0.0009163068517526
  0.7996391951048685  0.3966994413215086  0.2018008147128525
  0.7996820029616737  0.4010909581929268  0.4008517802476493
  0.7997156125759610  0.3992112457603102  0.5991476192287883
  0.8006481650919360  0.3966105878705006  0.7999194657756987
  0.8002705636406316  0.5992885320191343  0.4049833872590336
  0.8018963309897609  0.5996121084008839  0.6028081991701045
  0.8000401536034680  0.5910169964692283  0.8027348949424007
  0.7981280580123185  0.7990581023251143  0.0042188477668177
  0.8010329465109099  0.7997986739593601  0.2005404003541816
  0.7967318155481302  0.8004851473375917  0.3981671963502416
  0.7999590962880087  0.7986365519379446  0.5942980096478895
  0.0000199952795898  0.9990496837319534  0.1972122147346173
  0.3992725689805546  0.8004224579291529  0.1983347440046525
  0.7997203025774875  0.0005316030136135  0.5976982406649004
  0.8009995431922665  0.5973148575556806  0.0004270368033057
  0.6009972353945062  0.8093281010077430  0.3966007435196928
