Ti V  Cr W 
 1.0000000000000000
    15.3720038313806135    0.0023998420144863    0.0001449001601191
     0.0024007571799185   15.3633006247875361   -0.0006442210894229
     0.0001450310074229   -0.0006449824026597   15.3697544548857330
 Ti  V   Cr  W  
  15 105   1   3
Direct
  0.0062111864282162  0.3929136549379256  0.6014013115938611
  0.9905186168636808  0.7999585316613604  0.2042412976741801
  0.0086839535513136  0.7977519474864723  0.6019249598613697
  0.2012264446487496  0.2055023998578044  0.3923893791348707
  0.1962925933720713  0.2064925769452983  0.6025806730527866
  0.1979177845568972  0.3955460524761554  0.2044831452488686
  0.2012889606642100  0.8003857863623625  0.1979219498364122
  0.4015208824388205  0.9966652826466318  0.8075203443141583
  0.4020900427102905  0.5981319789520666  0.8011392651123990
  0.5925432203714149  0.9967864321673768  0.9962337286088961
  0.7924979218169825  0.1979601710954827  0.7957925192282843
  0.7996474191346407  0.4041587628640644  0.1931388932185059
  0.8021000394424070  0.5932272439461089  0.0028385261948031
  0.8065944007330950  0.7979145332065142  0.3917744405141733
  0.7981027755957486  0.7966193567094777  0.6041911558530308
  0.9986194828542679  0.0004608698276385  0.0013385196622295
  0.9992758988069245  0.0014337090445415  0.2009929372562944
  0.9980189246119336  0.0005479455620148  0.4013948285421588
  0.0000789731863955  0.0005685524285377  0.5991317797138016
  0.0010635501075789  0.9997489163534961  0.8003783178816137
  0.0003249756275898  0.1983205604957625  0.9997882910169632
  0.9984420627761107  0.1993763348113888  0.2011735058123407
  0.9975776050236626  0.1964613158544474  0.5981853577696543
  0.0007392062260935  0.1991152978115061  0.7994343077965006
  0.9961513283748933  0.3993707949296570  0.0004976421080476
  0.9999509587962857  0.3987453824803115  0.2006399170000674
  0.0003387335053975  0.3983767238151670  0.3976892724564441
  0.9998889504452468  0.3983831091513013  0.8017325346782048
  0.0021753084824272  0.5997560030541962  0.0018333323746631
  0.9996684085469608  0.5973234413348024  0.2014447152554301
  0.0000082653170156  0.5987586595869072  0.4006098431103391
  0.0008237750440274  0.5981056602989537  0.5986904058511670
  0.9995454442245884  0.6004203535983870  0.7993159295854809
  0.0010319470879609  0.8003785642878570  0.9997563654702359
  0.0030338343365446  0.7997060577162568  0.4015639163246402
  0.9994111627901942  0.8002429055377295  0.8028354926755562
  0.1990042303793015  0.1690086821601242  0.9995298489003230
  0.1973856889749662  0.9994429141310037  0.2037566506491565
  0.1993405132500387  0.9998063589919618  0.4009596574523687
  0.2003045650000304  0.9998690899677489  0.5999183868385688
  0.1996427100661414  0.0006341407690582  0.7985588366541360
  0.1991355515919447  0.1949062271717026  0.1961638351076604
  0.2007807095456588  0.1984333870887622  0.8026444627252016
  0.1986439527883924  0.4003126289902477  0.9988627460366299
  0.1993440566547038  0.4032403853144191  0.4055054506240966
  0.2040403768250106  0.4044650422573466  0.6025474745994350
  0.2000963263331899  0.4010880688261587  0.8010061861197699
  0.1990484504679114  0.5991879294146221  0.0007470592087078
  0.1988357379995478  0.5997936380149950  0.2020351464897874
  0.1986861209160005  0.6013177040282642  0.4005312310248061
  0.2004982183169349  0.6021792046519011  0.6009503153812943
  0.1973873730861316  0.6000301206339020  0.7997514943467557
  0.1993211057249736  0.7977018616981787  0.9991672411418523
  0.2004068138514012  0.8007463987851430  0.4037783651403090
  0.2052379805144446  0.8002714087707530  0.6024022162197705
  0.2009114254674011  0.8010602884653532  0.8018420542382240
  0.3987202551099643  0.0005881834035044  0.0039380251101247
  0.3967246247945091  0.0001932852898219  0.2005749968045831
  0.4027880560857068  0.0000875547058508  0.4004469653947746
  0.3996146316185450  0.0002156750440427  0.5982255245083135
  0.3988408758873368  0.1999840617657092  0.0000281474637308
  0.3990951174249006  0.2005224529937450  0.1978738487336832
  0.4018619074823524  0.2010838122138563  0.3994025455729640
  0.4002013817192264  0.2002956332816151  0.5999743207821775
  0.4024640003744346  0.2021259426946767  0.8002945235424865
  0.3990071839762766  0.4012875730772660  0.0011344662548542
  0.4017509931690334  0.3994641727184461  0.2006263286957944
  0.4002785421171161  0.4003736889880425  0.4002952372753942
  0.4014211475144246  0.4011848270228564  0.5999699024155647
  0.4007165421351807  0.3990148882254789  0.8007494009192079
  0.3993521903528281  0.5989192702803358  0.0037293303110602
  0.3994536635948130  0.5997131147093716  0.2012965105284374
  0.3995973151270932  0.6001705449634925  0.3994088381199977
  0.4012383936901315  0.6000037321260918  0.5967421248083820
  0.3978271315806416  0.8001210638647990  0.0004097901302291
  0.4010507367929935  0.7995266593652431  0.1994603616343704
  0.3998359781350552  0.7995650892383808  0.3989822124937717
  0.4009615874070009  0.7993483492923943  0.6014560316162878
  0.4018165095594262  0.7988758757733952  0.8009085962744161
  0.5990624988196809  0.9994637656536357  0.2047955415957854
  0.6006137323071499  0.0000250817060959  0.5945090081884007
  0.6044501416037470  0.0044527534482567  0.7936667236940536
  0.5990330991033436  0.2024144213691898  0.9944518047073397
  0.5990544351735034  0.1995495803016547  0.1976569614879136
  0.6003707605267228  0.1972905521393059  0.4005752136315089
  0.6007537635704112  0.2006218169359285  0.6030528436061044
  0.6037939747191320  0.4011715517417436  0.9996192323670703
  0.5975797482822163  0.4006986785221557  0.2001366680758294
  0.6010249071764935  0.3987178783868850  0.4002382581806314
  0.6009013905058598  0.4008114563976974  0.5997229860220633
  0.6009632507229481  0.3972794784224053  0.7991507180899504
  0.5970574091915903  0.6000875383118103  0.9996156036226577
  0.6001986820950626  0.6011823215179162  0.2018015408812799
  0.6019069317521826  0.6018216485344148  0.4000231505719738
  0.6012109062719629  0.6006193861639577  0.5988580334678588
  0.6036589255063246  0.6003539859120850  0.7988414877647599
  0.5995471116948429  0.7970535759366280  0.9982175531044958
  0.5986570991915362  0.8003199458065841  0.1978190032459377
  0.5991653975593562  0.8043802392196632  0.4001172546054949
  0.5992339425689632  0.8004795843463536  0.6002871083816846
  0.6009546332708819  0.8022394310738411  0.7997035473879410
  0.8015021124205992  0.9995947198867435  0.9992953415499494
  0.7984648521120272  0.0002401686597319  0.1984115122985308
  0.7966290407710727  0.0016663892110287  0.3988859092879586
  0.8022359887980541  0.0000902544566498  0.5980677593009053
  0.8011875103167942  0.9971759757428154  0.7987374195612182
  0.7991377017639333  0.2024434754262355  0.0012616339903328
  0.7984007877496021  0.1989156962219249  0.1982350259456925
  0.7995175072870819  0.2019157513194039  0.3974091241409436
  0.8006467154562649  0.2016095370796305  0.5961521857948576
  0.8006667089009823  0.4001772198579401  0.4005923432315974
  0.8005689896698819  0.3995446961800918  0.6003007506244248
  0.8007332076161243  0.4036615684177204  0.8014359699859442
  0.7992029156888998  0.6038757221513305  0.2032070178251543
  0.8016922593040686  0.5970981033893420  0.4001441673737897
  0.8021211006507115  0.5971812265325622  0.5992679561391600
  0.8012180219191131  0.6009728758568413  0.7973995820129501
  0.7989108275414659  0.7999037685390491  0.9989036491859155
  0.7949923414637806  0.8001537856090238  0.1937227883753467
  0.8003412788006081  0.7990709007089539  0.8028094745714123
  0.9964123481513385  0.1999756533187918  0.3989541772439073
  0.6004101662078000  0.0010909947760114  0.3994933949098874
  0.5976182577554253  0.2006866686759954  0.7974975489760008
  0.7999402796632968  0.3983999073219590  0.9957186887224683
