Zr V  Cr
 1.0000000000000000
    15.5176564344983579    0.0055358052127085    0.0009235349890332
     0.0055289702635454   15.5339659065587714   -0.0041197367383691
     0.0009253811786535   -0.0041210125583897   15.5341853465245965
 Zr  V   Cr 
   5 117   2
Direct
  0.9996860884894322  0.4007636905878645  0.0000697581343507
  0.3733613045226818  0.1990728512104113  0.1983972569001114
  0.5998178486122204  0.2004728586648503  0.1997799381542215
  0.6088148480637837  0.7918235592224323  0.7995644825548888
  0.7928818091123802  0.6075323191117518  0.7999525831621684
  0.0028216158485399  0.0003405421703683  0.0018781818392397
  0.0021975382159759  0.0007356926905147  0.3994276284924073
  0.0004491277678520  0.0002303090050185  0.6007473435074384
  0.0014728398843566  0.0011107758535995  0.7994819912515020
  0.0003509226653742  0.1963646989238498  0.9998481752927064
  0.0026225897141586  0.1992441470303068  0.2012800965896198
  0.0009388413425053  0.1995196792093068  0.4009696082518778
  0.0007309294768972  0.2003508289550129  0.5996390753218940
  0.0010891939443014  0.2003442465460514  0.7997992580987425
  0.9990065290877357  0.4020841175483681  0.2044310628186676
  0.0004486825114687  0.3998601951589341  0.4009216320937978
  0.9996951628138057  0.4010440988972168  0.5993169941007906
  0.9996142165666688  0.4013825179498852  0.7955428005325894
  0.9997164583134964  0.6052500949701630  0.9996154329260133
  0.0000495973006617  0.6009272707089016  0.2008140578910347
  0.0002771597900286  0.6008807539759767  0.4003858344195899
  0.9997737595230106  0.6006493232416192  0.5998555282790657
  0.0014153549963801  0.6009696371158890  0.7993380474585339
  0.0015348026436030  0.8015734459145606  0.0005687932385188
  0.0022467168665649  0.8019486743894875  0.2009078024495572
  0.0014278470329636  0.8006300374972547  0.4005534390323055
  0.0013773532982153  0.8005721277010079  0.5993598961740521
  0.0041422131109263  0.8014105812734891  0.7999726202430819
  0.2022110852179650  0.9999585030782014  0.9963830037145145
  0.9979410165393157  0.0000821751312634  0.2009508511233484
  0.2014572126117802  0.0003666543662819  0.5997821272282164
  0.2013351371287989  0.0009753671260220  0.8001366444005239
  0.2005665018445078  0.1986162769879458  0.0001868844469146
  0.1993854215345909  0.1993786666273312  0.4006722198446616
  0.1996179066991862  0.2004684170496340  0.6010501060501529
  0.1996375165361356  0.2008909398777160  0.7994660898752345
  0.2040597692548250  0.4007690755307163  0.9994833506406647
  0.1996458778759799  0.4018046683974063  0.2010574269304090
  0.2007147469683201  0.4009105640699321  0.4013426921279495
  0.2005165874905586  0.4000108595441249  0.5997144026328119
  0.2008106392283990  0.3995065363493634  0.7997337107037127
  0.2012832116114003  0.6003776400973485  0.0001406990685961
  0.1992802669140280  0.6002731227528685  0.2000137909596704
  0.2003625163666994  0.5990271314845369  0.4002878183866896
  0.2002864335460995  0.6001300015572093  0.6000755813872232
  0.1994491120973354  0.5996514185184894  0.8001528751122661
  0.2011815595169480  0.8018023424873614  0.0014934639034295
  0.2002913474118891  0.7972557579328008  0.2005161616283186
  0.2010554280212977  0.8006470525290371  0.3996667871137012
  0.2005897578857646  0.7998951889478111  0.6000913709499548
  0.2012956584270221  0.7999272131401320  0.7997036419670104
  0.4009713440845989  0.9997149833326845  0.0011348181445771
  0.4064704250163044  0.9946964401557583  0.2003147559620666
  0.4006391891595503  0.9999656025867484  0.3992159998252310
  0.4015017982144864  0.9992790259781050  0.6004355761686792
  0.4018427265998710  0.9990647672656436  0.7993953814368917
  0.4016435371854884  0.1995017277450079  0.9935314266973245
  0.4000706346625530  0.1995239550000695  0.4048842102543636
  0.3995713407627690  0.1992620213568145  0.6009835558193576
  0.3992853369498821  0.1997938465556398  0.7984252664646865
  0.4014567186628126  0.3998352455580137  0.9996740089525304
  0.4006146505670424  0.4052055560546585  0.2001974133739679
  0.4009003114460110  0.3997747255860365  0.4001619178151211
  0.4007151957335037  0.4004150864580991  0.6003445470417456
  0.3998346745728250  0.3995076361229737  0.7992521186937138
  0.4002512339691585  0.6009658447341456  0.9998518144226410
  0.3996958651273133  0.6012175048938592  0.1998094678163281
  0.4003372852244717  0.6004345971042121  0.4003519152336445
  0.3998397973064329  0.6003505595884184  0.5998681793458348
  0.3967577890513003  0.5992317438049408  0.7998105672778393
  0.4014642060715681  0.7999207039944463  0.9997175999820513
  0.3988323050568379  0.7999008202387725  0.2006362701844634
  0.4002774770644626  0.8001981721306203  0.4001950187485501
  0.4009433536455078  0.8000725914542148  0.5998725819620324
  0.3996139670592841  0.7998884992543344  0.8000436819679481
  0.6012861068582313  0.9992490352140372  0.9991095060858900
  0.6026705560677992  0.9948194703563796  0.2003995258199328
  0.6015164667893074  0.9998623852206032  0.4007659281897798
  0.6007904969176121  0.9993145476398346  0.6002302221214013
  0.6006787152859508  0.0009297190524455  0.7997596077326826
  0.6010945180103382  0.1998724805322105  0.9943924524640160
  0.6009073236329519  0.1997463179515253  0.4052849515573442
  0.6012816625083252  0.2003796435885209  0.6013918196546535
  0.6010184002794318  0.1995761792477933  0.7980211792259323
  0.5993492811430996  0.3997984476457452  0.0000217991417715
  0.6006168076932539  0.4054113949289880  0.2001909473833959
  0.6003429339976085  0.3999696677493254  0.4003250541073267
  0.6002570625807262  0.3997912229036252  0.5994691792987467
  0.5992877789197252  0.3967536292966308  0.7993940483609809
  0.5985397452791960  0.5988697461476625  0.0011019222337914
  0.6004168670535809  0.6010858254102330  0.2005557672840138
  0.5997519860835003  0.5995368056952357  0.3996088511994297
  0.5989066093684653  0.5985194226644224  0.5982375949789225
  0.5904049110326722  0.5897036355424558  0.7998933732433740
  0.6011315693849264  0.7993955849530798  0.0038100942705569
  0.6023438399510651  0.7975592017947688  0.2008611840711882
  0.6008850486855469  0.7994395053208230  0.3995956497523511
  0.6015537841411394  0.7989957175993302  0.5958414318610640
  0.7998078179729342  0.0009808357276010  0.0000879710134190
  0.8012125119895217  0.0006768339159484  0.2000769505211723
  0.7999583138054612  0.0008201539168533  0.4005344412679978
  0.8003748611184859  0.0010024788453465  0.5995700825994443
  0.8016602803138283  0.0040189000600483  0.8003667829273828
  0.8004608127869040  0.1999187676636050  0.9999422596598764
  0.8049270729337983  0.2015079072637173  0.1999053151066799
  0.8013069309876496  0.2006676139961031  0.4003100154723310
  0.8010549397522569  0.2006556859140161  0.6002522900396209
  0.8016110947239486  0.2013969703599180  0.7997156691983848
  0.7954658226592728  0.4011533599513319  0.9997346348344031
  0.7998596764431045  0.4008011759582527  0.2007051691583575
  0.7996252616002870  0.4002764021281324  0.4001098566972695
  0.7998109022201726  0.4009753624332912  0.5996021172044370
  0.7995719336915936  0.3992187716905214  0.7993736242547818
  0.7987354897264056  0.6018508467121819  0.0040623538386888
  0.8006068495670721  0.6010072752235351  0.2006273448175598
  0.8000346015512529  0.6003902163906630  0.3992077964678720
  0.7996737591231483  0.6010522650054964  0.5957021200349034
  0.8022067275925837  0.8025808709695496  0.0018321840936202
  0.8017989456754613  0.8001665756093396  0.2006794625489460
  0.8014675779785435  0.8010859376079593  0.3993770750568061
  0.8021823342043796  0.8017099420213780  0.5983975119519201
  0.8110129481975611  0.8102741112471329  0.7999905040216561
  0.2014294639578848  0.9997725938170384  0.3999356024603227
  0.1916580520235573  0.2016365414655390  0.1999691044241829
