Zr Ti V  Cr W 
 1.0000000000000000
    12.5062221911064633   -0.0118592771758309   -4.5188867799002281
    -6.2437795351313943   10.8693910899341972   -4.4629948533269008
    -0.0196216462483696    0.0342470852872195   13.5010443303164465
 Zr  Ti  V   Cr  W  
  11  18  74  14   7
Direct
  0.9922961033086408  0.9910859722137561  0.1892255424962389
  0.9920213610331274  0.1883947827097557  0.3936981436879734
  0.9897115042760526  0.6019732129967539  0.3897264467326921
  0.0001590239073554  0.6110853188705373  0.6047123850233589
  0.2013317889404460  0.1718370514830932  0.1951398845729096
  0.2089212503976840  0.5981426203443607  0.3954002336985201
  0.3827244382783342  0.7922833012973132  0.7900981473033315
  0.5988194571186353  0.0102518897926431  0.8086069923410505
  0.6022539554104746  0.8009471873667756  0.3925706637992075
  0.6000940541804788  0.7963231557420406  0.6047830194915443
  0.7966903646018104  0.4033915693517178  0.6060120593097031
  0.9963094582793873  0.1972388358533516  0.6093977145933959
  0.0009268928734862  0.3966822212257696  0.0056446974301082
  0.0050385912759868  0.4028644472452313  0.8036974043699056
  0.9962051867266477  0.6005807317527277  0.0033106250400639
  0.0173433174477487  0.6306750004909508  0.8251643261306755
  0.0637816437382516  0.8594444299793195  0.0546267031611260
  0.2050982061929525  0.0060253899898336  0.3745653735694650
  0.2058820836700020  0.2033767076028469  0.8003792080806342
  0.2133883866669374  0.3984361988172455  0.6096957724239150
  0.2036902124434565  0.8172937229178459  0.4060364613317011
  0.4088282004291628  0.2014883014119343  0.6038642650939647
  0.4152680820681671  0.3990667924479101  0.4069105077641818
  0.4011985742493709  0.6005330439348598  0.0002870429014173
  0.4052898809816105  0.5836756032353985  0.3753563896407577
  0.5933663835426587  0.9996560577106133  0.1987662043177611
  0.7978105723121293  0.2012281004846695  0.2013798540889002
  0.7964198557483134  0.6001763318374822  0.1977080069322052
  0.8139879310521020  0.8072395703517938  0.8106994154827386
  0.9928026640228453  0.9862419984244717  0.4018555322895200
  0.9987359706274399  0.9954158521607946  0.6009997464106361
  0.0115105095237801  0.0058607278717090  0.8070946006231405
  0.0061272000395939  0.2004365478241559  0.0070708837487876
  0.9996706958096677  0.1996826856784636  0.8119814306325337
  0.9888161474350965  0.3820844379816823  0.1957142639145182
  0.9956308158319582  0.5827906937273808  0.1824199241259253
  0.0034058210173726  0.9750157260640958  0.9869772145930277
  0.9927305111324530  0.7816825076902744  0.1967398555476975
  0.0002220911934165  0.8193605302459280  0.4075454187294261
  0.0050958645462305  0.8193573260239947  0.6087420938502538
  0.2090197847815005  0.0042351167410930  0.0018780166709544
  0.2073933429649343  0.0136976962321724  0.6077378683423429
  0.2141335633095383  0.0117305289421011  0.8101565322416138
  0.2152647586183443  0.2023311349612773  0.0019728380356128
  0.2236469844868750  0.2164527352403922  0.4220700503905181
  0.2028263125147415  0.1912401463204295  0.5969704004503656
  0.2071194276779986  0.3968633229262953  0.9989630320596096
  0.2011101763795917  0.3923667352761482  0.1886723988576920
  0.2085570706165334  0.4082606314991194  0.8112026314502421
  0.2061520646069250  0.6090551389701830  0.0043120757175048
  0.2118785286382198  0.6059645382038256  0.1924602656870138
  0.1874444711266741  0.5755648833774863  0.5822079049797033
  0.2022744144535509  0.5965437618598826  0.8043862950708860
  0.2069843940363313  0.8268409971392261  0.6143965777663699
  0.1945794826198857  0.8193981563980967  0.8161636261805358
  0.4029283158349981  0.0103139403620353  0.0043797477954934
  0.3877850273182951  0.0039043381827377  0.1996424998462916
  0.4056182207007573  0.0113095818023447  0.6080480395570870
  0.4145806822487333  0.2053502694188944  0.1966062367282655
  0.4193768063075629  0.1963221782754845  0.4044639303575196
  0.4012835733148077  0.3955073600253855  0.0020677157462052
  0.4064113835148863  0.3951237091187969  0.1954574356037925
  0.4158456240504948  0.4057935701980703  0.6116132790240499
  0.4019262211540257  0.3942309713764432  0.8033214445308209
  0.3917712681098187  0.5848569085018180  0.1822650138582060
  0.4082716071874117  0.5895051888564111  0.6026713995038253
  0.4094590627864229  0.5927374790452949  0.8054206826950089
  0.3884646260356012  0.8041583604527095  0.0034580468557639
  0.4004582548179653  0.8050012748297459  0.1978545645088478
  0.4012688470514043  0.8192993457355292  0.4012633507451214
  0.3878251454910987  0.8202999057343585  0.5894261666376941
  0.5941589123008982  0.0021944462818831  0.0067707134272466
  0.5947626274599411  0.0121389198163639  0.4021732805048218
  0.5913397216734547  0.1982566014360281  0.9986781395016395
  0.5963410180733538  0.2044816061994892  0.2000909810311882
  0.6056701999923668  0.3933191675582749  0.3968229440792297
  0.5991225779721986  0.4012692448682522  0.6067147734299517
  0.6038686631359645  0.3990718323203163  0.8063025559191686
  0.6027324882255085  0.5959761411355443  0.0019074153859814
  0.5948543847397953  0.5917069089141355  0.1944862446118236
  0.6089348948907988  0.5888815078815630  0.3980695940258729
  0.6053064605102196  0.5973257752418554  0.8054475981013132
  0.5954725340367474  0.7960821124875312  0.0001656484925425
  0.6048013944043817  0.7990588248762072  0.1935075748884485
  0.7765507896965947  0.9749472660103268  0.1832710441012119
  0.7912095842309291  0.9956529021398520  0.3962114136926235
  0.8096567254815579  0.0125934867291543  0.6109853788712466
  0.8192300665036397  0.0204417177003367  0.8135956297756456
  0.8055379538996325  0.2131485735879905  0.0056637900870360
  0.7874860918052026  0.2024138821279808  0.4083688665214538
  0.7901686565691088  0.1962017541073820  0.6014277364876786
  0.7978406191675904  0.2032209502474197  0.8023178142087297
  0.7815211939918315  0.3885124405916974  0.1840425284649879
  0.7917997461511256  0.3871544322630385  0.3840103400953915
  0.7886094477658472  0.3916026924034174  0.8088950293440919
  0.7930003940303101  0.5898589387865464  0.9966401860801971
  0.7803400884315380  0.5925605136636560  0.3957665446749219
  0.7897329952964292  0.6131550337809129  0.6121059551278324
  0.8007834294275045  0.5988677481698861  0.8121142555025828
  0.7903326346131545  0.7842035905593668  0.9984962925795228
  0.7951764141725626  0.7971021425414107  0.1969120512891259
  0.8059920602070488  0.7977552833862833  0.3972137383408417
  0.8148533469739737  0.8042849524096922  0.6021706120077697
  0.9965115206026213  0.2019187824931517  0.1904138114016926
  0.0020647848364705  0.3985156341483687  0.4023135265918661
  0.0142360131929521  0.8186830652920274  0.8103992811606348
  0.2136012511091062  0.8126139558191073  0.0084779126527066
  0.4100704431036203  0.0067009668379526  0.4054102885030258
  0.3929296151439568  0.0160313597596296  0.8033996887962340
  0.4035226826785576  0.2035994701386334  0.0017591385473002
  0.4057771387061392  0.1999763950747298  0.8048129144147481
  0.5952866984476262  0.1947228824437474  0.3966875542405949
  0.6028373378544654  0.2017400894928907  0.6021088173836198
  0.5974036476661024  0.2108408073395459  0.8037496842005833
  0.5973364257390787  0.3955907934610908  0.1932990816809140
  0.6071597924646056  0.5928248245430435  0.6082271281427399
  0.7930590451887320  0.3954766964480178  0.9985434732146101
  0.0041501507200061  0.3985437263007042  0.5967258925117471
  0.1997668799969509  0.3884857105243616  0.3941365079192582
  0.2078211220696674  0.8082661892126544  0.2002670454055176
  0.6024881429115483  0.0125704498269980  0.6019958014779703
  0.5951596658196856  0.3943783001788764  0.9977862697667279
  0.6030147606832180  0.7937231913477978  0.8103904903612749
  0.8000073696326856  0.0033735171590692  0.0034645297915958
