Zr Ti V  Cr W 
 1.0000000000000000
    15.3797489849020970   -0.0238644870838211    0.0034593264189143
    -0.0239038622817555   15.4348715210995540    0.0636576862150444
     0.0033968313435369    0.0636464627177920   15.4408378619124882
 Zr  Ti  V   Cr  W  
   8   9  99   7   1
Direct
  0.2115721376091266  0.7975205995633914  0.1992783830400529
  0.3982400137704335  0.4497891921467256  0.1551852568602498
  0.4026301465624021  0.6053168820471265  0.9782026125321779
  0.3972422998956837  0.8234690375553680  0.0528612740284908
  0.4029567192682872  0.8118904940304295  0.8347664941148687
  0.7915787910885889  0.3714485059829308  0.9914686199716120
  0.7802700004993532  0.6150605692413396  0.1853068846196780
  0.7841724012410685  0.7831592704998569  0.0107029517826747
  0.0076967332071654  0.0115898918274915  0.6139905076029137
  0.1926638178990538  0.1919224930380609  0.6007614768719011
  0.4038552781481586  0.1971043640236888  0.6026922193073782
  0.4005159307951645  0.5851259156582941  0.7764853654043611
  0.5866054614541766  0.9872229778663304  0.8039423950026705
  0.6132067579539054  0.2008159176109559  0.9953176179277762
  0.6058050221708343  0.7902978775388063  0.1735384805377296
  0.7964200708020218  0.1973949210399353  0.4042670514479555
  0.7906698251485376  0.2001438653483660  0.8118990846795057
  0.0006036942618571  0.9973111688453521  0.9046526611680751
  0.0031372754968580  0.0012950109851515  0.2028803568102564
  0.0050030631993514  0.1970510935093435  0.0005610875755508
  0.0006221105427429  0.2007379607316259  0.2003177189902677
  0.0013170627110211  0.2010786586624439  0.3998138717164133
  0.9941138027414924  0.2036354007500668  0.6005257404949407
  0.9992793010157135  0.1979383057434366  0.8007704517220032
  0.0025773724903548  0.3962343437038198  0.9976761528589148
  0.9970506995173918  0.4023126375408900  0.1968301438743224
  0.9993463178070553  0.4006703885437750  0.3973979804152309
  0.9987669446118453  0.4007518671450254  0.5966598040161704
  0.9996120601263434  0.3968654761508936  0.7970293153692570
  0.9992356417944013  0.5967511258509087  0.9982436892578977
  0.0017486731789155  0.6025457374625403  0.1985409690207927
  0.9990836017709029  0.6005310803478701  0.3964231718187508
  0.9995652638936293  0.5992764917350460  0.5974053490852436
  0.0002778839436677  0.5969684169787675  0.7967401016200031
  0.0032650156175009  0.7995381095162823  0.0009927699025358
  0.0005531657783006  0.8014517227019715  0.1998293112420892
  0.0007775965058237  0.7989593446042961  0.6025607078857211
  0.9987747660618098  0.7959358557025702  0.8042371400213094
  0.2074429542730106  0.9974014479621026  0.0040922282287585
  0.2020416990257757  0.0056446180642749  0.2023809637397193
  0.2011714832507920  0.9994011616687450  0.4026687359377055
  0.2051373215894155  0.9956851014024988  0.6034821806203037
  0.2022405207431825  0.9956638064422316  0.8052875669076931
  0.2019839846347643  0.1970270017444187  0.0002949549242726
  0.2020858118450021  0.2034967159554210  0.1992854008468734
  0.1998986661786594  0.2001372068183974  0.3983201549991827
  0.1972825937054029  0.1970049053450533  0.8036072897176977
  0.2030185559271454  0.3982185846219246  0.9964078910505509
  0.1987760119545200  0.3985863561281888  0.1977936231453201
  0.1997823945034741  0.4004759542046729  0.3970450623417737
  0.1989962431742592  0.3996783474611907  0.5977684361168502
  0.1996806412024575  0.3970157879876146  0.7957430298799238
  0.1958805374366663  0.5968129210465575  0.9967234353156319
  0.2013927859360752  0.5934354164781295  0.1972083298356158
  0.2000901701898651  0.6016490067626811  0.3976020479660712
  0.2023143660311727  0.5982590596544897  0.5975283376503996
  0.2012271963027483  0.5971550072439297  0.7976790980857524
  0.2011794881160728  0.7955053291259264  0.9914205669305886
  0.2002549602125097  0.8009208758099142  0.4064465942916552
  0.2008585051499986  0.7971861968917625  0.6042425665511686
  0.1957197067716874  0.7990180946342733  0.7994834012709831
  0.4051944333154603  0.0152276666969437  0.0037566778250482
  0.4041132894113537  0.0109831619264102  0.2065061114317381
  0.3996631815871875  0.0067013770849448  0.4086939499384665
  0.4032627435672478  0.9965280942683460  0.6074626584883163
  0.3948802059362390  0.0090560488336229  0.8050742696209465
  0.4020424552810476  0.2081357210032970  0.1980834279056207
  0.3995487148444671  0.2045146053998467  0.3963299675673827
  0.3977165687226374  0.1982617611273050  0.8010657803035943
  0.3975293699568117  0.3947839297452735  0.9726070059655054
  0.3979698391197510  0.4020539943053477  0.3969526467691498
  0.3996366874190312  0.3986829999685758  0.5920577926365880
  0.3979736953641302  0.3897876379815740  0.7865822078305432
  0.3939883315441765  0.6496479781480959  0.2013971279157541
  0.3988490315041405  0.6033600939021828  0.3933435776375335
  0.4035521814183561  0.5998853874059108  0.5874917590114075
  0.4146922121541204  0.8185248759454818  0.2357736752200800
  0.4024634708999409  0.8083837184579992  0.4169810319045398
  0.4007142433290601  0.7977180060575549  0.6137088186072753
  0.6004416521332273  0.9924080770562247  0.0075178932871786
  0.6020436771408401  0.0054437438772060  0.2040667964623255
  0.6002361131953344  0.9998731326760972  0.4026011388449983
  0.6003533798825749  0.9979501227114314  0.6019433419317644
  0.5999330259263649  0.2020574816681835  0.2004863648799445
  0.5974484452284277  0.2018449042595682  0.3991208499847308
  0.6015952977060660  0.2005857834293072  0.5989506270291546
  0.5943135052991549  0.1975507773809334  0.7970230955685854
  0.5874171363179500  0.4000257767562790  0.9962906181804191
  0.5998112051814340  0.4022379508607594  0.5970186585962460
  0.5977371041467180  0.3968694609317235  0.7965670046708726
  0.6093679137975579  0.5921560958698420  0.9945038632594358
  0.5799074978996996  0.5896311068495946  0.2015686757034779
  0.5987708553209504  0.6021187986333335  0.3999952066455134
  0.6015767806964127  0.5926132233631998  0.7943649149779963
  0.5878989885324424  0.7917539557010018  0.9901129331070601
  0.6017821796146631  0.8015930731851207  0.4079605438556362
  0.6014060694958975  0.7936600385366656  0.6056569296946276
  0.6076779163725784  0.7898835520528973  0.8043950804780231
  0.7994088836850981  0.9926140825162153  0.0031046360834376
  0.7998404417358033  0.0039093684771188  0.2060125456107769
  0.8014796130996624  0.9999901957182127  0.4053983531342562
  0.7985630265337994  0.0010461193551686  0.6060002336363914
  0.7983962814431930  0.9927124430031502  0.8069259626925005
  0.8104942448088913  0.1753796531474392  0.0064254091836793
  0.8010636463738845  0.2020219344994366  0.1996131710357124
  0.7971857368895319  0.2006974556271404  0.6027111843213502
  0.7968373352954881  0.3997452267229480  0.2002777702453490
  0.7999878880701141  0.4032585954770781  0.3957586678619589
  0.7986129256550636  0.3996287702942011  0.5938443196280980
  0.7989703616552101  0.3987185663849344  0.7886949465293071
  0.8048785134287830  0.5787465931282650  0.9845698053424207
  0.7952569432918101  0.5998686162820948  0.5957846470953079
  0.8013836044961138  0.5970060250980960  0.7935492336801352
  0.8053566427325922  0.8137668665794464  0.2106112814032856
  0.8021655384958685  0.8008196150108379  0.6025690045772917
  0.8036346492900854  0.7977917870758393  0.8005691838584844
  0.0015131660687987  0.0005621243748040  0.4034347937774435
  0.0010867749847356  0.8009086854383280  0.4013864126903413
  0.4005159185225327  0.2042015090206055  0.0002386947700443
  0.5985108587965136  0.3983342516589171  0.1969344706763069
  0.5996494593440850  0.4009875009795340  0.3967704402859226
  0.7987397148061933  0.6031417361593397  0.3983955613730624
  0.8021837910864112  0.8022377988010676  0.4047121122535063
  0.5983381724683663  0.5983267841504607  0.6006004607094493
