Zr Ti V  W 
 1.0000000000000000
    15.3251724423404525    0.0070128769391973   -0.0004714545103314
     0.0070165878469139   15.3328247917111025   -0.0066220456422159
    -0.0004713462084994   -0.0066216079972265   15.3468382774047818
 Zr  Ti  V   W  
   2   2 106  14
Direct
  0.2358263486175037  0.6335671313573323  0.0017008497553175
  0.4020936909275310  0.7996547832842500  0.0021868260293259
  0.0363299062966812  0.0024285483793351  0.6048407007109706
  0.7943347087725580  0.4067859192881960  0.2051256568168008
  0.9995675000523893  0.0068545573794268  0.0038637691451202
  0.0013712921230955  0.9985760410983067  0.8030783516112969
  0.0002974552996233  0.2039969496770794  0.9994913961231767
  0.9975675183166836  0.1977043403518112  0.1984455530984688
  0.0008964661393462  0.1970553064011857  0.3992715716554815
  0.0016018313233543  0.2022858994645345  0.5990165978879951
  0.9986049441796619  0.1974316367833017  0.7980322855125269
  0.9979186692425541  0.3999952256459757  0.1961559825821298
  0.9981748566483152  0.3995005833161365  0.3967889423804746
  0.9943084663193580  0.3992181797455178  0.6018257517919493
  0.9984546914596057  0.3997229249889795  0.8031672677617765
  0.0021168595672976  0.5923230280236561  0.0026973801986249
  0.0034190613373242  0.5999846230643681  0.2013387554004922
  0.0031442954290315  0.6001418322807152  0.3980669235230955
  0.0006370675615030  0.5968859310349177  0.5963005440709743
  0.0010900433077510  0.5992124791940036  0.8009621887543074
  0.9993438690989560  0.7950082467102293  0.0003459961429275
  0.9951027996346968  0.7996776784670157  0.1977539269078789
  0.9986218910708665  0.8028505969457315  0.4010668974838986
  0.9990685509369188  0.7970606961463230  0.6004601215166353
  0.9979203696549203  0.7977840239241606  0.8024215988320292
  0.1989966458623424  0.0089688349112824  0.0005007478954429
  0.1966726322531709  0.9980781073688596  0.1990318594169479
  0.1953092670791649  0.0019686082019561  0.3972702162249840
  0.2011636496903729  0.9949202100241813  0.8031772772506872
  0.2010708993369395  0.2028723690501721  0.9989108040342272
  0.2015504632237340  0.1995493254655371  0.2066436746029947
  0.2042184380275534  0.2055484595311953  0.5971462852764750
  0.2012328359367425  0.1640963990441806  0.7635641769034347
  0.1939135946099234  0.3979522640335016  0.9982676448553103
  0.1972597154106769  0.4009189871681683  0.1991224352294312
  0.1960859269895943  0.3957539108857059  0.4007855854413415
  0.1974384691910098  0.4008728675855787  0.6029531424784749
  0.1983415890817509  0.4061375461818821  0.8004561538977668
  0.2039329913055062  0.6005580314427467  0.2051485053423243
  0.2027763939309138  0.6013228885402914  0.4003364192941608
  0.2014873560048221  0.5994113828577448  0.5994211640092616
  0.2001102802076599  0.6073567589112884  0.7954884574713504
  0.1908096524869512  0.8197309642615748  0.9923698537848225
  0.1969727788576690  0.7988092825215606  0.1932980477401124
  0.1985473184337802  0.8026043797910805  0.4058826851990315
  0.1991449675831550  0.7978111646691770  0.6058958614827147
  0.3997186596308289  0.0060778343075059  0.0030142346121080
  0.3983928182698370  0.9958128665131935  0.2003501736493364
  0.3950173612806320  0.9973001327574116  0.3986914274097957
  0.3995052300234126  0.0034346799216678  0.5973510115232863
  0.3985393643546921  0.9986360497202220  0.7990324388726902
  0.3995757946176982  0.2012630204274622  0.0000471707590977
  0.4001275635236269  0.2016572625436563  0.2015956781418896
  0.3952452333679753  0.2008781867611737  0.4011381025623328
  0.3990278181294077  0.1989039609217035  0.7955605971968748
  0.3965421396011504  0.3974934455453007  0.9996201640554540
  0.3988142517090988  0.4040183471676539  0.1979321539864202
  0.3990407022405293  0.4038711411534679  0.3989910009963940
  0.3999240915712164  0.3974872047425673  0.6006848694425574
  0.4014950628282016  0.4019306597587183  0.8011654705296810
  0.4206753163471434  0.5888427075343650  0.0079453828041051
  0.4002362279908771  0.5957103540706330  0.5919675178274110
  0.3986694723075952  0.6006161267840318  0.8063710840485288
  0.4013760539608282  0.7963123027841315  0.2065886682293551
  0.3985792437424891  0.7972813878875189  0.4016333998383370
  0.3993950649994258  0.8008392418954215  0.5993874235891029
  0.3997422629099550  0.7991095118153050  0.7937306761578792
  0.5995301368448027  0.0018699069360539  0.9992726523570173
  0.5995070909784257  0.9984896028678106  0.1999732078884988
  0.5981923434238763  0.9993953970721356  0.3990182139155233
  0.5996988351312870  0.0040150550652291  0.5995556791422515
  0.5987484784935204  0.9928038729980859  0.8011201762066978
  0.5995816092645353  0.1996266444274908  0.9983644768016036
  0.5981951627431128  0.1986182211866971  0.2004346889035761
  0.5979003866887718  0.1989044528182939  0.4028872485962429
  0.5992234879237243  0.2022681099660524  0.7972802718797088
  0.6041050511939202  0.3964761067266948  0.9944193636439966
  0.5988459167988476  0.3988934538507740  0.1986176213851866
  0.6010317847941925  0.3987764553073882  0.3993859172214015
  0.6036352704136069  0.3952220119217998  0.6061519021811818
  0.6064337675396090  0.5967549477178770  0.0013213298922223
  0.5958905865760628  0.6001508059217850  0.2007325464753262
  0.5949175766241189  0.5992001952881898  0.4011427350525540
  0.5978675700306961  0.5984826919060869  0.5995724093125758
  0.5979095443356409  0.6012666334926156  0.8008377267360877
  0.6061988276791344  0.7997227816329416  0.9945071410152263
  0.6031941782025158  0.7999123152775034  0.1975469128919694
  0.6007365932757249  0.8011104330363256  0.4048348903800220
  0.5995647674054730  0.8000802548809989  0.6055576256958005
  0.8011852093831112  0.0016001956953129  0.9995170619325516
  0.8005686435983298  0.9937833332660144  0.1984276609573219
  0.8045277916109247  0.9985367896096607  0.4005474765611313
  0.7978503313354592  0.0008311458549727  0.5974619021155317
  0.8020467797613158  0.9947554551250736  0.7987641924374345
  0.7992637396569611  0.2001907164560515  0.9992246051392194
  0.7965056830604459  0.1969000451092688  0.2016280212709361
  0.7987999506488206  0.1997443832501240  0.3999518881457291
  0.7968894670201496  0.2005230977440137  0.5984758878888889
  0.7988515782758610  0.1958397206646114  0.7980832822748057
  0.8029803574497525  0.3994659923697871  0.9962138017115869
  0.7999244470803375  0.4006542279546331  0.4059174921424641
  0.7958727727917994  0.4031805723155311  0.7964986861307057
  0.8034198808032391  0.5983350880528346  0.0025819823579598
  0.7969692267393784  0.6064341366870940  0.2018802514261378
  0.7994479455451303  0.6004687901566814  0.3990612017358474
  0.7998520171365087  0.5961481883150095  0.5972116808690763
  0.8001423233709786  0.6053373396329447  0.7983539267645435
  0.8020983334580311  0.7998827664063385  0.9980954658059518
  0.7981503642166309  0.7982451457063489  0.3981260979650879
  0.8008429674400812  0.8004792894177477  0.6031451791276147
  0.9988651692493766  0.9969924324476289  0.1962982711959992
  0.9997542303004301  0.0010423807397912  0.3850964584799653
  0.9984849455538057  0.3983774951699142  0.9996286658553993
  0.1990996091538052  0.1987673876217428  0.4038842940493853
  0.2012236634162326  0.8002546339626648  0.8013387660475413
  0.4019732389937449  0.1998853714769327  0.5977821833589513
  0.3978470598002870  0.6022775545783793  0.1985632811519900
  0.3989744996910346  0.5995857130419482  0.3961517529112456
  0.5957617326299141  0.2001665691182127  0.6004133715101042
  0.5992548720195400  0.4035572433626428  0.8009346610743301
  0.6000886985978721  0.7972906629879928  0.8007862320412895
  0.7987439188575289  0.3992829402452717  0.6015147841576921
  0.7983463535091353  0.7987040265532407  0.1983021583878614
  0.7981667157487244  0.7987880490553110  0.8003416685839320
