Zr2 Ta1 Ti3 V111 Cr3 W5
1.0
  -7.5249999999999995    7.5249999999999995    7.5249999999999995
   7.5249999999999995   -7.5249999999999995    7.5249999999999995
   7.5249999999999995    7.5249999999999995   -7.5249999999999995
Zr Ta Ti V Cr W
2 1 3 111 3 5
direct
   0.5992975830541074    0.0004808366489221    0.6010017081769647 Zr
   0.6002353323494315    0.2017602394092468    0.8008512965658895 Zr
   0.6057881706986320    0.5973652021621290    0.9987540414955436 Ta
   0.5994912034938342    0.0040490305108930    0.2073836077948936 Ti
   0.5992345876407875    0.2003276880153784    0.3997249925453010 Ti
   0.7992376906132305    0.9988390075534452    0.7986173703079638 Ti
   0.8021998431347092    0.0034920103449431    0.0008484467324963 V
   0.5997733811639610    0.0004621415041877    0.0009609715288003 V
   0.8038712228916017    0.1977501811029143    0.9960126450042157 V
   0.8017720114749349    0.0034025586820675    0.2053102958987230 V
   0.3983952192904156    0.9992284709677660    0.9965116506136344 V
   0.6011379444997247    0.2006946688938673    0.9996179049993048 V
   0.7970863535482582    0.3996078555365909    0.9991368813328247 V
   0.7971972824706601    0.1966018636177022    0.1994004016618328 V
   0.8002430936758420    0.9970759502224753    0.3998140940818835 V
   0.2018435456062545    0.0026623817991510    0.0018374421191567 V
   0.4011267871663136    0.2005461038608072    0.0001565036998543 V
   0.5938055555385471    0.3950432573811615    0.9913720331285123 V
   0.8046286306741991    0.5964604322903712    0.0015030524711604 V
   0.4049359148792667    0.0051754282789128    0.2024962615335997 V
   0.6053277662520131    0.1984945443124711    0.2042452585798197 V
   0.7973965212221394    0.4009148677946341    0.2026118794837750 V
   0.5994909291852789    0.0062680140383187    0.3995117397879240 V
   0.8031392995578487    0.2031188495997458    0.4001013218099457 V
   0.8050558577847071    0.0001586081466393    0.6060169904003099 V
   0.0014061896529262    0.0009977222484075    0.9993757338634970 V
   0.4062512831959194    0.4068862065112338    0.0059580162605667 V
   0.7959365938562740    0.8005096938241804    0.0015303613707752 V
   0.1958079360642631    0.9975965323260144    0.1985391441321302 V
   0.3960393205154417    0.1998678648817727    0.1941065170527570 V
   0.5949566075881980    0.3949289321949132    0.1928289014785095 V
   0.7968472102857413    0.5989419474246200    0.1993230473552379 V
   0.4007189252983442    0.0007071880551061    0.3997838179066223 V
   0.8009055668870497    0.3997223012249102    0.3978277333662182 V
   0.8007216485537685    0.2012179503791414    0.6007756371270463 V
   0.9973025568249921    0.1977812210339421    0.0030444368617744 V
   0.2013761759979809    0.4005640161156987    0.0016905942689710 V
   0.4013098649001141    0.5980152526113927    0.9967476712993590 V
   0.5989687867184549    0.7990448737153385    0.0000462062096148 V
   0.0014409680569567    0.9982926205676835    0.2027021052943570 V
   0.1956054925512589    0.1998434532442390    0.2019865533091481 V
   0.4032439708536263    0.3997561450008108    0.2020175719034059 V
   0.1944323063784232    0.9940284720571014    0.3927305770820467 V
   0.4004588770188857    0.2020371185837715    0.4005682800617517 V
   0.5987665512799862    0.3995104859082850    0.3953768339035705 V
   0.8000202587026490    0.6015833641329886    0.4015254561760986 V
   0.4022918855451647    0.9942660236176482    0.6012392827730608 V
   0.5961663127214724    0.2047886716352378    0.5975462289997875 V
   0.5981115926508991    0.9977890752709111    0.8020512792785094 V
   0.7971877611751533    0.1960507986813424    0.7951471030956920 V
   0.9998740248183980    0.3932249043007501    0.9990157506710995 V
   0.1965119877802793    0.5957213769161185    0.9972537408789862 V
   0.0007808196862514    0.1999848734798402    0.1996858860296219 V
   0.4005831187732395    0.5975007247448472    0.2003758537553132 V
   0.5988987982281326    0.8003813328245699    0.2002789941746236 V
   0.0014560497795599    0.0001105855534791    0.4000934120291831 V
   0.1994198908280488    0.2027928835987330    0.3977294000738644 V
   0.3973148385653727    0.3956862971915344    0.3976232083838335 V
   0.5993809944413717    0.6003628356299465    0.4020372464782337 V
   0.7988551373280635    0.8027916872177163    0.3975070719736480 V
   0.1984723226987349    0.9971743417096671    0.6039763388044559 V
   0.3969102037985510    0.2027839036114716    0.5979106890632759 V
   0.5958791296493005    0.4034076926276645    0.5965580048232969 V
   0.7938798879941100    0.5996194235417021    0.5972488478926647 V
   0.4047208508998600    0.9986486503381393    0.8014352277758237 V
   0.8042404069384315    0.3991427236156154    0.8009431848259796 V
   0.0032330350521206    0.5957481291940707    0.9986728653025307 V
   0.1981552288683834    0.7982496941742170    0.9984935521143528 V
   0.9996063473730048    0.3930652997651066    0.1957129709688111 V
   0.2001119200932626    0.5999266400966661    0.1990246018702601 V
   0.3994882574487149    0.7982877018040511    0.1977787183092857 V
   0.9995278994195501    0.1981400210678916    0.3932981810618269 V
   0.2025835473937987    0.4034747900380257    0.4012068324950558 V
   0.3970857157456498    0.5962665929444290    0.3992379613322534 V
   0.6058660255479897    0.8072751624029194    0.4024521377034487 V
   0.9994409221119784    0.0061934374414850    0.6004936270578125 V
   0.2052435557582810    0.2038965928451806    0.6040903260896600 V
   0.3987884032625268    0.3977608458737278    0.5963723271474692 V
   0.6001054750843171    0.5950561464729200    0.5980826001286846 V
   0.7970351391706800    0.8022560702749590    0.6040927898028379 V
   0.2059700126357324    0.9974783548094146    0.8006607402838108 V
   0.4007602120962849    0.1981641942768209    0.8000344184900882 V
   0.6004237001323153    0.4003643264240251    0.8015309170262059 V
   0.7987832508144570    0.6026938333414724    0.8052195453726978 V
   0.9964676545888942    0.7974779611306340    0.9985160154895912 V
   0.9981958498340938    0.6035818182315346    0.1977315910163545 V
   0.2004462169626054    0.8009541983517855    0.1992983168721451 V
   0.9970624916189117    0.3978126805463825    0.3976674793264644 V
   0.1970857050802498    0.5930013753827634    0.4010402888433273 V
   0.4031249020319111    0.8043807863030310    0.4090984738527913 V
   0.9972827172917048    0.1995943024686204    0.5982464645161534 V
   0.1988372621894952    0.3992475542750151    0.6041810980187533 V
   0.4034548734257934    0.5995552154627959    0.6031143983565745 V
   0.5993925952209835    0.8038919887239784    0.6038566060094239 V
   0.0004647037947629    0.0031752325372564    0.8020339424287488 V
   0.1982828198650863    0.1997874819570420    0.8005323493779739 V
   0.4023268246368019    0.4054789139653168    0.8018776162328609 V
   0.5997248104509556    0.6003661302009551    0.8039823886579875 V
   0.7958319255081197    0.7917396462174102    0.7926582408466554 V
   0.9976306791410655    0.5995269053539336    0.4013120614343659 V
   0.2014182647314215    0.8019879294964737    0.4022424339099925 V
   0.9985456098268614    0.4000550584185428    0.5939833087836116 V
   0.2048507473332661    0.6048830816182372    0.6071804767400552 V
   0.3970537588709009    0.8006879942156665    0.5999671116021451 V
   0.9981713992100409    0.2001919550778337    0.8016874197693882 V
   0.3999261213952338    0.5944422950170402    0.8031972488183881 V
   0.5994617211993670    0.7997602014451195    0.8021720044096595 V
   0.0013137641178496    0.8004701902358159    0.4009544684091570 V
   0.9941649240523718    0.5994656780615508    0.6014650061950431 V
   0.2012026126438419    0.8023816470332066    0.6008955387354612 V
   0.9961848274209042    0.3979559854900883    0.7926818614508031 V
   0.2014236695959396    0.6028235129414911    0.8000470590833815 V
   0.4011736722371751    0.7996227664884332    0.7958953380747184 V
   0.0019150272864758    0.7994539189751642    0.6045721767904201 V
   0.0022492316445922    0.5972730980800345    0.8034848351616007 V
   0.2010033759746153    0.8007930142670190    0.7976018115757676 V
   0.0021027656031968    0.8010381169665570    0.7963005977700929 V
   0.1979896191464316    0.2016732914582462    0.0000747036678584 Cr
   0.0032216143488280    0.8036522968314774    0.2029027339609756 Cr
   0.2010236677799070    0.4005457564216077    0.8002701631881666 Cr
   0.6035930097885073    0.6016198507086442    0.1987090252505666 W
   0.8007291076361915    0.7957607123088856    0.1991495948192685 W
   0.7993782138368659    0.3980942789923929    0.5992061799504973 W
   0.3979752126401824    0.7986229165740637    0.9971015111537597 W
   0.2015179721525464    0.3987550248756608    0.1984955164592601 W
