Zr Ti V  W 
 1.0000000000000000
    15.3687751858679373   -0.0034047973547748   -0.0004629384474201
    -0.0034058626285429   15.3762737440467472   -0.0028872120149207
    -0.0004620936853672   -0.0028876454386987   15.3933118945991367
 Zr  Ti  V   W  
   2   2 106  14
Direct
  0.8000843205693632  0.9932597602980346  0.7631291957443755
  0.8166241628997865  0.3879873927946970  0.0156806349696932
  0.1962654705986843  0.4045978440791080  0.3930706484818813
  0.1981679122975531  0.7971732915953098  0.4060781105332137
  0.9995640079480153  0.0028518593501918  0.0009517418323837
  0.0003494701501407  0.9999245432933488  0.2011066693081309
  0.0015922705472595  0.0017427809295484  0.6003571382482265
  0.0027545904556842  0.0009324995186704  0.8001999214900827
  0.9964615282411510  0.2025471737048901  0.0005055518030510
  0.0006964920992958  0.1992753949901447  0.2011164196778019
  0.9986974786010466  0.1993759378096948  0.3998042536874831
  0.9998089180415817  0.1997141957398025  0.5986213801921960
  0.9985298915654235  0.1995761711530541  0.8008367145852682
  0.0127237187018581  0.4000002941747889  0.9980326730438266
  0.9958960235766642  0.4006943476893724  0.1987672333936756
  0.9967046951866307  0.3984683181044517  0.4008225954040765
  0.0038797889210472  0.3994515133757147  0.6009493341022092
  0.9967891423710780  0.4012589232059431  0.8015619650534828
  0.9995519203793523  0.5992144741036679  0.0008003821218556
  0.0044645166419705  0.6019938150998311  0.2008428367802876
  0.0017501846395907  0.6010586385741056  0.3999123851173013
  0.9992422023921338  0.5987631076934263  0.5983404397736807
  0.9992539835132145  0.6007978319555604  0.7980937177432514
  0.9997456971394764  0.8016135610643533  0.0015016025842383
  0.9982443419502977  0.8007383234802220  0.1994100163607131
  0.9961601070688676  0.8014654908153542  0.4003080591186360
  0.9995393167369175  0.8003556159627744  0.5990307438507363
  0.9997375179361184  0.8005116122456317  0.8024470588747695
  0.1993787295786816  0.0033014050980018  0.0002102456465518
  0.1993469852490368  0.9972142780670822  0.2009790862838954
  0.1994886837167513  0.0008386979993313  0.4006675866869013
  0.1991116264733143  0.0008122424201779  0.5990415618723116
  0.1998914961027491  0.9956798493923831  0.8001117743684120
  0.2006708529168503  0.2035923419085603  0.0000139701517954
  0.1999957295159744  0.2014844306677090  0.2000009058752309
  0.1987300432799740  0.1992691651630435  0.3988781452843437
  0.2024307103024828  0.2059225976134178  0.6006949207593916
  0.1985368805329048  0.1989382274701654  0.8015838165554389
  0.1996518922322481  0.4052194048526767  0.1923269438729420
  0.2000730728302723  0.4038273203196561  0.8024127731090372
  0.1998759015642488  0.5958467806490630  0.0033664680399074
  0.2008589768776533  0.5953512181023776  0.5947792157488772
  0.1994231969065448  0.6047060274991896  0.7996254168187109
  0.1991678725030615  0.7995398252336094  0.9961561519200371
  0.2041222340138565  0.7946713764476644  0.1944794861341504
  0.1998269067395417  0.7981928567370087  0.6067032247436688
  0.3990990518794171  0.0020552583687075  0.0005150372052736
  0.3978795283942503  0.9956061364322019  0.2012278320085287
  0.4038332129010996  0.0001423571967782  0.4000718798153034
  0.3990377290499728  0.0034331235157946  0.5986098311848972
  0.3995697667278565  0.9984951475352868  0.7989820314015323
  0.4029631837059026  0.1978703153648095  0.0010394400439394
  0.3981923899302892  0.1998135205512494  0.2020749467333382
  0.3993856316869303  0.1997630778355500  0.4026973093936680
  0.3984045209921809  0.1975375536334139  0.7955527238201608
  0.3983095212200962  0.3983507111428420  0.9997984062003095
  0.4022082699072659  0.4010255407024598  0.2009417646066002
  0.4022809031615326  0.3991512657386476  0.3987607905424220
  0.3948092588850253  0.3957800581825311  0.5998124900702283
  0.4029838461482250  0.4016592014265835  0.8004417414764951
  0.4005829531993166  0.5995060571640848  0.9991456201644372
  0.3963090407769498  0.6036121860236965  0.2006158987419601
  0.3954959148426675  0.6011491110166037  0.3998280848802251
  0.4018272788679006  0.6004404100092401  0.5967048288443511
  0.3992817863581959  0.6024012851604711  0.7990966327162335
  0.4010544679172605  0.8017487873247265  0.0020330624382778
  0.4007278923670590  0.8017472954065696  0.3957113465087028
  0.3987810218626920  0.8012771288699501  0.5995251708432774
  0.3967108847396512  0.8008610748960288  0.8015253848703212
  0.6003075175555821  0.0049249462147878  0.9993076053440175
  0.6006348978259547  0.9967015754523613  0.2048227270939784
  0.5986651219222499  0.9997824602951301  0.5979003890863838
  0.5966057914928793  0.9980796930133392  0.7988542683567638
  0.5975423257324939  0.1992392745882838  0.1960829620107347
  0.5997085622239277  0.1970014682335874  0.3986987171244011
  0.5947744008682255  0.2017354033258736  0.6000568195354937
  0.5981280850722465  0.2059618541356740  0.8056131568272108
  0.5987568675110410  0.3961625911415320  0.9957670949526393
  0.6025681925012955  0.4034037482965944  0.1987424529419646
  0.5994270456455578  0.3991077055327032  0.3997508503680172
  0.5985207357722446  0.4028526639969444  0.6042224204462187
  0.5996907641196190  0.5971652208883353  0.9997782641295372
  0.5977434915895253  0.6033438543045322  0.2013264440382992
  0.5994455686072224  0.5996734817139890  0.4034226203062901
  0.5988752898011824  0.5975527859875763  0.7951880123292471
  0.5996579605330182  0.8005572590607659  0.0035568746161070
  0.6003565056233904  0.8031894286746905  0.3965736516955642
  0.5978023861912258  0.7953611317355072  0.5994170931297165
  0.6020687284076883  0.7990743876816514  0.8035230143004022
  0.8009502871478904  0.9979288213061883  0.9956866611335299
  0.8017442167010285  0.9982389694271016  0.1988651092024825
  0.7972965352691422  0.0003289699741897  0.3972789270207744
  0.9644813456599217  0.9999577019640763  0.4342148796093049
  0.7944695463030660  0.1893526872772597  0.9986785633526033
  0.7991919378078643  0.2043411172320142  0.1987689866178841
  0.7988371911042872  0.1975274877310867  0.4024917261658332
  0.7984415844269617  0.1992185295447211  0.6018777665195942
  0.7987401622759694  0.2007666887979593  0.8001717785028994
  0.7994967778201243  0.3988350336628428  0.4023054778607428
  0.8008214306196737  0.3984824901192981  0.6004555843016979
  0.7970960361401580  0.4016885160856741  0.8012446464516231
  0.8009543743137054  0.5990024769194016  0.9996175443628288
  0.8005063313133306  0.5976996503411344  0.2001936973122991
  0.8013726231608508  0.6005448871281039  0.3996028681097210
  0.7965138876516723  0.5987674962998415  0.5970469774613142
  0.8003642453376288  0.6013050914868810  0.7995971057775711
  0.7994774938732112  0.7998068215196094  0.9957151534625253
  0.7954628360937421  0.7969695569602872  0.1979218672050471
  0.8002972966515340  0.8010449892987440  0.4019936814197687
  0.7991319395665670  0.7972241971962697  0.6037400007298597
  0.2044539563827502  0.3997870899079415  0.9978537495418894
  0.2001435314155416  0.4011267999487724  0.6081016093737053
  0.2004471248573307  0.6002167097750013  0.2022839503255309
  0.1987291281139082  0.5994564706887532  0.3966463123926879
  0.1987093845010877  0.7987533713394898  0.8012163522651842
  0.3979677238113367  0.1994009008135598  0.5997330323626706
  0.4022068141858676  0.7995837939249054  0.1981836684924720
  0.6030065889280698  0.0002196523370321  0.4020774279342199
  0.5996543585584392  0.2014760925656085  0.0006374249488688
  0.6003947213872601  0.4022264309301843  0.8011149769531478
  0.5970202525413442  0.5980483620870115  0.5979745448103259
  0.5975424968423557  0.7988557755052964  0.1990862491549088
  0.7987757458671672  0.4022176042894336  0.2118407211620478
  0.8007030093488490  0.7944894803990853  0.8016697018248529
