Zr Ti V  Cr W 
 1.0000000000000000
    15.4695456893154439   -0.0104129675157638   -0.0129065069854960
    -0.0104137391937017   15.4757645649348952   -0.0070963079655090
    -0.0129095646272375   -0.0070981179518511   15.4652129238154856
 Zr  Ti  V   Cr  W  
   3   5 104   8   4
Direct
  0.0024101955273415  0.6047448834765151  0.0025245324766470
  0.5991073380824425  0.7989303064201075  0.9984186751871414
  0.5985951233682539  0.7966666805367487  0.4058077348221549
  0.0044111862482528  0.3920684327109419  0.5974695531123568
  0.0064002576493418  0.6027748397074518  0.5976569977803791
  0.0150676891066832  0.8158851257273230  0.9814976239324954
  0.1899896332192317  0.8039207827625277  0.8043407831591767
  0.3979426819350100  0.1822146163444768  0.3993859718381372
  0.9996238609935412  0.0067079268362521  0.0017281669698723
  0.9996781149401409  0.0007089027723126  0.2010479909706893
  0.0006361091188169  0.0010795030068568  0.4003133231657999
  0.0005844259320169  0.9999387215429134  0.5970087482071627
  0.0012193840023187  0.2012156819192555  0.0004609587247283
  0.9999612976582354  0.1999457723651459  0.2013888946525556
  0.0004032587945737  0.2004169650953662  0.4001213762458802
  0.9996926470729697  0.1961722113844329  0.6015467887132603
  0.9995217525004346  0.2004032689351516  0.8006804871809422
  0.0006432154580245  0.3971785737494716  0.0010831725702472
  0.0004640711049388  0.3986642130218459  0.3991485141995392
  0.0002493515729536  0.3984426499372007  0.8010605280451143
  0.0000252902595159  0.5994097673171990  0.2055006281110889
  0.0001833798575188  0.5985283010593579  0.3994691621695949
  0.9983771079524689  0.5975853294412904  0.7959696809269170
  0.9998335571915071  0.8005704517601385  0.1993773078022191
  0.9993159939831879  0.8015582092020753  0.3984400746247990
  0.9994488515947508  0.8043565508514675  0.5985309302187326
  0.9929858042082012  0.7975647670900382  0.7920037192673852
  0.2003633494394718  0.0017792739971762  0.0009469560349492
  0.1983743449642309  0.0001087682121108  0.2002792978655914
  0.2033805369896948  0.0014466629626195  0.3999198620947038
  0.1987733798283674  0.9994795678684392  0.6028301216534373
  0.2019857012167074  0.0028400388815044  0.7999300605850357
  0.2005943613339891  0.2010215827009866  0.0007430527405734
  0.1975184718242102  0.2015051909421743  0.6021238247504432
  0.1983981738783638  0.1997795451056029  0.8012038237111273
  0.2010974173703255  0.3990228236668248  0.0011264802306143
  0.2012160413251043  0.4004485755199531  0.2009442516363225
  0.2025908550255393  0.3984607547959674  0.3993088602770747
  0.2063138524232922  0.4031693426224239  0.6015905167833090
  0.2057545928653307  0.5981111091260539  0.9991490768933076
  0.1992876800551840  0.5996484119723381  0.2012082028350272
  0.1984588958389630  0.6005245777100408  0.4044135244082655
  0.1988555713045997  0.5979644705966594  0.7966505259692769
  0.2049674998434860  0.8006687940832680  0.0032132396080351
  0.1979003356651021  0.7988735706515476  0.2008513777816064
  0.1971200860626406  0.8003452137717373  0.3994096570361654
  0.1984730832365839  0.7958403580956069  0.5982628327181485
  0.3988135017844742  0.0008943373285575  0.0006283265141846
  0.3986492473886640  0.9990235705333825  0.5974195207434594
  0.3997414658118267  0.9996453645527115  0.7989775133073989
  0.3988318579541726  0.1996925275115548  0.0005566436100026
  0.3998308147082642  0.2012129483719292  0.1984658930772251
  0.3983405145058898  0.2039492478744361  0.6014171383219071
  0.3997288468283927  0.2002316731245260  0.8000961127748624
  0.3997664407306937  0.4000897560243551  0.2033707584340044
  0.4003472669746772  0.3990928154903089  0.7965729593688367
  0.3999903949380791  0.5981580651374083  0.9994357167576920
  0.3998240650568277  0.6014689130520930  0.1988517941420382
  0.3999139725222407  0.6024499738050428  0.3979249363364401
  0.3981348591462079  0.5974576014796896  0.6001980921466669
  0.4003842602082719  0.5995768360385099  0.8007359909530980
  0.3956908341148352  0.8011378701334307  0.0001222565928789
  0.3979522707662220  0.7997532663424610  0.1992980512554579
  0.3934192796929729  0.8017818372362250  0.3989097200424949
  0.3980529952797157  0.7979473259899660  0.6016608232266337
  0.3996186956401269  0.7998040809194505  0.7999770652022734
  0.5980843176287675  0.0040954780732942  0.0006071790430551
  0.6002425087496372  0.0006051571272194  0.2005946674823077
  0.5950011688162662  0.0037824666944384  0.3996990343593837
  0.5987240288121948  0.0014087626309241  0.6014290986428971
  0.5993590302419112  0.0006345116886697  0.7998260623947347
  0.5994883296158658  0.2007428818038035  0.0000344308159344
  0.6009975065193353  0.2008087494382069  0.1991946113719053
  0.6025661328464516  0.2006207265200027  0.3996454518164578
  0.6007168891295448  0.2000455067894059  0.6008669769858381
  0.6005794988092307  0.2000965533260889  0.8007446629686545
  0.5992299274569146  0.3985625547722896  0.0000475086287535
  0.5991529671254295  0.3991105917786175  0.1994612530712774
  0.5968426396187798  0.3978350513536677  0.3992201025851782
  0.5955003066786247  0.3986628831952376  0.6003050835108761
  0.5996709523793818  0.3995450197925025  0.8003475341414794
  0.5992110739577667  0.5946704132217254  0.9992766159177576
  0.6010460485591946  0.5994308859710819  0.1993638112826817
  0.6009529476812723  0.5949790301255121  0.3995556054732204
  0.5993490225385145  0.5992321520015225  0.6007797929404609
  0.6005972037367692  0.5987883475756397  0.7999451737342141
  0.5992439510354181  0.8003230998452359  0.2008312844051760
  0.5986490226128665  0.7994923106984432  0.6056824082035821
  0.5996877064337072  0.7994297706329271  0.7963890764663997
  0.8006382505656452  0.9996165364174482  0.0005698953955308
  0.7990061014653901  0.9990178697899356  0.2008499448272031
  0.7982282596653376  0.9997082875063967  0.3998125490467445
  0.7996093162039033  0.9991195205156752  0.5998417271560579
  0.8317511878529487  0.9989182973910437  0.7999681772964840
  0.8003384096847296  0.2005221967823823  0.0005364094976403
  0.8008797780715798  0.2000535511136391  0.2004637588603613
  0.8003154527216377  0.2004609587038013  0.4005144284125808
  0.7996473702549813  0.1992472717329887  0.6004158154538348
  0.8015457003685518  0.1990326521850775  0.8003508086477393
  0.8002325960101794  0.3998268671111500  0.0007070878233057
  0.7997000165757371  0.4007635988755611  0.2005354938269921
  0.7994264738769359  0.4000343421131486  0.4006379789624925
  0.7966661941936911  0.4001654888533641  0.5998189972240580
  0.7997187921026740  0.4006022868865269  0.7998762884889306
  0.7975604662394596  0.6001600267707761  0.0002097155850324
  0.8004934539322657  0.5998753648064437  0.2005487062008079
  0.8005791712470258  0.5986246716492285  0.3999126151930319
  0.7982758104360381  0.5998640658358311  0.5992843999990092
  0.7994235648961747  0.5992410598598753  0.7991294368615844
  0.8042667333692247  0.8005741265979017  0.9993007453142621
  0.8034342160304154  0.7992499422308332  0.4009159241296238
  0.8000239281349237  0.7997260357889691  0.6000277466497393
  0.0010653379252490  0.3990259328853926  0.2014965705538309
  0.1994897088616371  0.2008403473455306  0.2010466199198200
  0.1976596352924004  0.1998891868439857  0.4009842547644858
  0.2008148387699428  0.3994346353231765  0.8015356351690047
  0.3989777206389357  0.9998996215552578  0.2000299568910653
  0.4000324370170500  0.3992033773267585  0.9999329538392218
  0.8002649805209967  0.7997699543026677  0.2009303793403820
  0.7986914781483740  0.7991513399266222  0.7982870546697760
  0.2044428391067227  0.6007917428461534  0.6001367253249470
  0.3995868730683413  0.9933422559847492  0.4027411480531654
  0.4005101032132541  0.4091000143621173  0.4014277264828154
  0.4008529939446375  0.3994731812634201  0.5937996263879741
