Zr Ti V  W 
 1.0000000000000000
    15.3687751858679373   -0.0034047973547748   -0.0004629384474201
    -0.0034058626285429   15.3762737440467472   -0.0028872120149207
    -0.0004620936853672   -0.0028876454386987   15.3933118945991367
 Zr  Ti  V   W  
   2   2 106  14
Direct
  0.8020329210860425  0.9915095552453687  0.7978619376921610
  0.8165263848608528  0.3864009697608451  0.0155952825356851
  0.1965625707792601  0.4029673137713095  0.3926134123893668
  0.1966923743543572  0.8072171241609504  0.4056088326042206
  0.0000020350671254  0.0032889368053226  0.0019734017591917
  0.0004365190653145  0.9999194105283773  0.1998092371105236
  0.0013986648330000  0.0015091913721482  0.5994418597496862
  0.0050736985926146  0.0013318019545385  0.7994491923962715
  0.9962391954120274  0.2027431613203969  0.9988566284710158
  0.0002319967841780  0.1983333089608349  0.2008192935613698
  0.9987535164656669  0.1997102312587352  0.3992550986678022
  0.0000567936470131  0.1987645891522036  0.5981323191285668
  0.9984405882658216  0.1995275776586301  0.7992463541957154
  0.0126900164289646  0.3998752309087787  0.9974258012376800
  0.9954646521644500  0.4006652691493183  0.1979438136963771
  0.9966193937782644  0.3977522653856172  0.4004731072165328
  0.0038381163752687  0.3993588612957795  0.6008069207350055
  0.9968806294687270  0.4011366307341849  0.8012607518333532
  0.9995975218449208  0.5992802499995450  0.0002440620703104
  0.0046736540637327  0.6020562615499963  0.2005471321412031
  0.0018764990148404  0.6008422418210365  0.3998999411602597
  0.9993691123066212  0.5993982947027164  0.5980783250104362
  0.9993927617927862  0.6006039523062625  0.7977811001259933
  0.9996506929804901  0.8016727813532027  0.0000716844231010
  0.9969853853119403  0.8009429922741238  0.1996956035406976
  0.9913158180745408  0.8002458734915466  0.4001977866713040
  0.9994040053221130  0.8009652218269800  0.5983283163056190
  0.0000271901134193  0.8005529831788997  0.8009195168320222
  0.1994027428280914  0.0033787496686251  0.9997306894169932
  0.1987537523241264  0.9973654677163536  0.2010177310503412
  0.2003842222377964  0.0017217546165820  0.4000259699787454
  0.1989519079460496  0.0002030328193451  0.5977467332563173
  0.2007089607733051  0.9955125381108193  0.7999995672247456
  0.2006643179494714  0.2037508080308291  0.9993961041819324
  0.1996822369808953  0.2012209594251191  0.1994464231768897
  0.1982390622015429  0.1982908758259778  0.3987692330631476
  0.2028828735681618  0.2051733615248489  0.6004405724937258
  0.1989223824920554  0.1986170434807537  0.8012132475503301
  0.1993812206276748  0.4044622006278268  0.1923236624708290
  0.2001167741434156  0.4034370910259196  0.8024686123151424
  0.2001545166706690  0.5958259247214043  0.0038816810232171
  0.2011196797021148  0.5947932943717271  0.5950651125631385
  0.1996700582275157  0.6046069513823089  0.7998075073759402
  0.1990999976928905  0.7993391101568693  0.9958934608174115
  0.2039647230751001  0.7949890605655738  0.1941050426701053
  0.1998293052045132  0.7979183893450504  0.6064388665347591
  0.3988907694141230  0.0020176556893121  0.0001334573830403
  0.3971469509438388  0.9953881138446166  0.2008165110749139
  0.4038857373909840  0.0006877639428930  0.3994266652062086
  0.3988839318803047  0.0032034860295065  0.5984179393431179
  0.3997071631693363  0.9983406893069037  0.7987380051149270
  0.4026687921361345  0.1981191052910704  0.0006097475880435
  0.3981143068164876  0.1998219524243096  0.2016488835693402
  0.4000826235557242  0.1993557408663337  0.4027007484295253
  0.3988857817087990  0.1972323293014602  0.7954171674577352
  0.3982370360680754  0.3984509462541585  0.9996999584060585
  0.4022446617880058  0.4009782100061420  0.2009790877129231
  0.4022051445854246  0.3987271594547793  0.3988011720161672
  0.3951359794142082  0.3956877788333648  0.5999674712266205
  0.4033227807755927  0.4012558339024157  0.8003748714099508
  0.4005852524132488  0.5991781636528268  0.9990864270593105
  0.3964359644394357  0.6035589455665842  0.2005810224143788
  0.3946476893692965  0.6016364377059421  0.4001989501938463
  0.4023958040214824  0.6004160323891886  0.5968917021205483
  0.3996747214476990  0.6021696756743481  0.7990660685841761
  0.4012912184611768  0.8014912536656190  0.0015452828635392
  0.4008411083261620  0.8023957402609152  0.3953185356314393
  0.3993871837114868  0.8008418454597018  0.5995705408588300
  0.3970061552451268  0.8008814900857738  0.8013059928815123
  0.5995605107069363  0.0065298879364821  0.0003296433619457
  0.6000958256856948  0.9965369641862079  0.2031804662222236
  0.5986080482476147  0.9994185752129643  0.5957656438327272
  0.5965903602738979  0.9988839215889592  0.7983962547852242
  0.5976068209624522  0.1989409936543649  0.1955523331803176
  0.5998624238225586  0.1972202331080129  0.3981834665553785
  0.5953354952511321  0.2015187694231421  0.6006724760639096
  0.5991804779444749  0.2051690461488631  0.8042783028835087
  0.5985197955197109  0.3965870111848773  0.9952384886606173
  0.6024307251390900  0.4033629105489837  0.1985547136180133
  0.5990111414877425  0.3996615955344500  0.3997358492135822
  0.5987200474010502  0.4032640776332320  0.6038702187333551
  0.5998800694097033  0.5971678435411590  0.9991125008361829
  0.5976149511562575  0.6032042793464307  0.2010554676911371
  0.6000373721531972  0.6008248867621502  0.4031262957716260
  0.5991978489473573  0.5974598833423456  0.7946860130475611
  0.5993246437374236  0.8003918384425783  0.0020894401599678
  0.5992583774135686  0.8032727236886971  0.3955420095689203
  0.5988191912957829  0.7963023571918020  0.5989026355095797
  0.6020313077635333  0.7990715083208931  0.8022583865071143
  0.8001749867630064  0.9976779786204643  0.0049777608641068
  0.8018557576922086  0.9974214421987473  0.2026979037565768
  0.7955683632622759  0.0015591539260082  0.3988193478329465
  0.8007714862118189  0.9996812135318325  0.5930240620159493
  0.7936958899650514  0.1891890868558994  0.9990816897687658
  0.7990011178581182  0.2044853979237652  0.1982749282703933
  0.7992894366386933  0.1986705737416369  0.3997019902443178
  0.7985081562818638  0.2005114394319303  0.6000842794124726
  0.7991065256253705  0.2008374087526642  0.7998912496732647
  0.7992256666469401  0.3993720677160953  0.4020231010535411
  0.8009583895644762  0.3991629049835460  0.6002407239662131
  0.7972491436186568  0.4010423758528161  0.8014736818374326
  0.8010617004816615  0.5977099767773926  0.0000471850601880
  0.8002528654214112  0.5976244623242417  0.2007193410910452
  0.8015620433280329  0.6002198560495845  0.3995926275320125
  0.7969868532064140  0.5995167291687979  0.5965260039323543
  0.8005887986193995  0.5997887525759152  0.7999375412050760
  0.7991350656408919  0.7985909064397335  0.9975383444848582
  0.7948164555148123  0.7966144696286763  0.1958991883384447
  0.8663157692482848  0.8666082525520028  0.3989632642831965
  0.7994074138752270  0.7993856944622265  0.6052991385834320
  0.2044558932602455  0.3999578380672252  0.9979292218406653
  0.2001849842343662  0.4000725494575345  0.6081945211669516
  0.2002857732970702  0.6003132130177283  0.2031800912786699
  0.1985191887862537  0.5993556593979465  0.3972411554767447
  0.1991293257320369  0.7986474088601757  0.8009915513663626
  0.3988378460398295  0.1991053034659265  0.5997104486172310
  0.4022014666153442  0.7991782180037021  0.1975459046349939
  0.6014703364450862  0.9999237943750855  0.3993011598106700
  0.5989401041784214  0.2028206306565540  0.0001172243651904
  0.6006801469283181  0.4022726466452226  0.8006697482092072
  0.5979839953570125  0.5993127932447919  0.5974992917376827
  0.5972640035631741  0.7992108465650164  0.1981714857642397
  0.7985376092144858  0.4018493209468447  0.2117484123083791
  0.8007235479527965  0.7922920498821884  0.8010070480201519
