Zr Ti V  W 
 1.0000000000000000
    15.3251724423404525    0.0070128769391973   -0.0004714545103314
     0.0070165878469139   15.3328247917111025   -0.0066220456422159
    -0.0004713462084994   -0.0066216079972265   15.3468382774047818
 Zr  Ti  V   W  
   2   2 106  14
Direct
  0.2283691399041187  0.6386647250456576  0.9989611882461276
  0.4017872709423466  0.7982275445395247  0.9996931368342233
  0.9957836183933344  0.0058142045163025  0.5951943612614946
  0.7947376675687343  0.4055079376396759  0.2052456340251366
  0.9985624130715470  0.9986712861025733  0.8023219775135380
  0.0002688195056143  0.2042596147347092  0.9999304000619218
  0.9997711704713554  0.1975757157490619  0.1996753197950666
  0.0039865589015402  0.1966273639269163  0.4001329483915320
  0.9992696684803954  0.2032171534323960  0.5994774579638160
  0.0003597770157776  0.1978271283013617  0.7986836355423733
  0.9981596984592044  0.4006298589788850  0.1963906486834525
  0.9986707596099609  0.3990130515001442  0.3970360669973656
  0.9949454513019163  0.3992924898999086  0.6024957637229812
  0.9979446129471508  0.4009499620488333  0.8033664773174449
  0.0077787279256842  0.5928268626836449  0.0020602989101086
  0.0035775143117314  0.5996563376915107  0.2017525478637677
  0.0033632389856873  0.5999105841617184  0.3987406796200166
  0.0009873447331043  0.5975703031384814  0.5960271745625458
  0.0013527941459295  0.6000200457229214  0.7993194061080238
  0.9999574465001121  0.7945236457942350  0.0000555709333279
  0.9954181317764673  0.7997147605226893  0.1981397318161627
  0.0007157044092678  0.8027069255307256  0.4011189693905989
  0.9991601714515250  0.7979077675060494  0.6010978724512848
  0.9982624865842603  0.7993390481327777  0.8020789940635258
  0.1997024695148012  0.0057222394801784  0.9981730211039148
  0.0328528534971790  0.0062590462283438  0.0361448425847499
  0.1956040479137218  0.0020115272488573  0.4033841874216236
  0.2010029895166415  0.9999456996778787  0.5999830113008084
  0.1981997093723949  0.9945956368875827  0.7986036566499525
  0.2009827072048731  0.1998227569225441  0.9996165309602252
  0.2020526245931341  0.2029963008432791  0.2042280779118040
  0.2042365813528544  0.2008337715121103  0.5969875126996230
  0.2003979448497654  0.1970833802934235  0.7961734553410456
  0.1954247786833810  0.3967464400706436  0.9974007876985186
  0.1983423455715129  0.4020267303858083  0.1980706983693684
  0.1967545719540316  0.3962169076479463  0.4012500339593254
  0.1973724312263621  0.3999167549982018  0.6020415303412291
  0.1989552267015176  0.4038750481619670  0.7998249106294543
  0.2043939178578761  0.6019251199545522  0.2047727712344295
  0.2034373668786103  0.6014346772392701  0.4009957877922878
  0.2014842071511727  0.5995777102407049  0.5989713342929214
  0.1998444847605181  0.6063732606592362  0.7937139513908001
  0.1914156588694014  0.8273738865087218  0.9970025158341790
  0.1988899952204256  0.7979198065524852  0.1947382275966750
  0.1986364967336499  0.8033710816948940  0.4011004060953512
  0.1993049731133120  0.8014231035704020  0.6074904493276592
  0.3993653085429276  0.0053705856224263  0.0024456332057492
  0.4015020763902344  0.9955017511827605  0.1998547153417016
  0.3964969676228392  0.9973220200400470  0.3961887909461755
  0.4004225224099865  0.0039255609175843  0.5964331705389162
  0.3999777021317900  0.9978243061698486  0.7996218598015664
  0.4001459456956426  0.2009433200402367  0.0002714055790096
  0.3996299714879692  0.2000364531994998  0.2013942225119981
  0.3963803667653074  0.2009304254250975  0.4014571929468598
  0.3983057520183395  0.1987123109952687  0.7955310339759581
  0.3970416330729786  0.3971276205734423  0.9993854782095499
  0.3999790487089360  0.4046779009444042  0.1981661136685343
  0.3999597924282366  0.4034528064796963  0.3991974872868637
  0.4000801476070051  0.3972550672894949  0.6009365091939993
  0.4021245046259450  0.4024524599923511  0.8009678257219232
  0.4165519526450517  0.5883520399985535  0.0078473544214801
  0.4000861652056258  0.5960793270103178  0.5919892725828353
  0.3979917015046009  0.6003820340681654  0.8059752547866070
  0.4024842985604820  0.7963742602269426  0.2055018731043753
  0.3991342731712305  0.7968768757572261  0.4012798182578472
  0.4006559901282134  0.7992650246875131  0.5987692014417051
  0.3993648766824203  0.7991480995463438  0.7929223146295279
  0.5998960037995037  0.0017607558281967  0.9993948866495591
  0.6000533064988294  0.9983001272443308  0.1999840523635865
  0.6006642070440849  0.9990841079841989  0.3996231270848276
  0.5999412917332710  0.0037652305870638  0.5996687094095741
  0.5987391921427410  0.9928505766382842  0.8006036722383546
  0.5996221226084518  0.1997159629474715  0.9982382999503847
  0.5987855839050134  0.1988216774058415  0.2007950206275418
  0.5984635548676828  0.1986630722364292  0.4032473251550075
  0.5988775563254813  0.2025127134615127  0.7971790049463587
  0.6051494053640361  0.3968987158889206  0.9942091568987601
  0.5995019684668342  0.3988145384648584  0.1987312645551007
  0.6017672979732001  0.3984963427733816  0.4000273068631102
  0.6043600146671197  0.3954654790691630  0.6062577829680117
  0.6064562808165139  0.5968402392811815  0.0011296909562586
  0.5958623600885274  0.6002001080456553  0.2003311549533406
  0.5957627539484530  0.5990319958576420  0.4014258385201818
  0.5978521732068183  0.5976939156166079  0.5998021762339759
  0.5978372313000924  0.6012385967467815  0.8006762823387112
  0.6064195279981400  0.7998902813327445  0.9946854374186272
  0.6039877958256088  0.7995003755373389  0.1974135180960098
  0.6013173951370158  0.8009624432551881  0.4054449033133022
  0.5999060797994680  0.8001313923977711  0.6058225835140635
  0.8004879218806515  0.0016803674334029  0.9998640631077911
  0.8015312243404623  0.9941200145869953  0.1987559465434875
  0.8052543189187547  0.9978888605252576  0.4005611855246761
  0.7977759532523974  0.0002308983325162  0.5984449332535116
  0.8002590215828271  0.9940771912397072  0.8004699743543054
  0.8002954525505381  0.1999202467301996  0.9996365446468864
  0.7970569223263025  0.1976279515189642  0.2021030733782297
  0.7997365060010994  0.1994313945197178  0.4000767086227011
  0.7955569262257350  0.2020252665768509  0.5992409469989614
  0.7987449337599887  0.1957862792823123  0.7985747672427086
  0.8040970847196489  0.3997925571670510  0.9965903219788709
  0.8008080498539948  0.4004730095502140  0.4060604818472944
  0.7964061053260320  0.4028433659897807  0.7969793012665785
  0.8048116747699215  0.5982452469933605  0.0025129827130452
  0.7975856133888075  0.6058523371228324  0.2014806818748467
  0.8001649853541569  0.6000541993464331  0.3989847426118910
  0.7999389224160283  0.5958640703153867  0.5972325052619107
  0.8007247283245141  0.6050931231333598  0.7990426435026514
  0.8030512132771631  0.7998745650815948  0.9984418290643149
  0.7991652690346339  0.7978581078391399  0.3986303275106424
  0.7996806783898394  0.7979208372856774  0.6049077994048111
  0.9950874941639910  0.9974893600068830  0.1997103122562389
  0.0012231814408565  0.0006130916102983  0.3910534797101951
  0.9997982714425963  0.3985149063104953  0.9995968679107707
  0.2007510410710171  0.1995366109352987  0.3998653191191426
  0.2024162667458272  0.7980858830439331  0.8056177035038958
  0.4027022646857566  0.2005036198805656  0.5973411701973944
  0.3982409850228595  0.6018584403420822  0.1990577148887562
  0.3995854488502779  0.5991443128593444  0.3961483349793904
  0.5966695027769954  0.1999830149576807  0.6005907515517096
  0.5995518711788862  0.4033278860946399  0.8008200219939421
  0.5997216386414123  0.7971945634362018  0.8010221722177121
  0.7993143733718292  0.3991818840473437  0.6017815923697534
  0.7984456491501500  0.7985651671052482  0.1986511542350476
  0.7974016931120170  0.7983637094847762  0.8012821870630831
