Zr Ti V  Cr W 
 1.0000000000000000
    15.5605004684825037    0.0303255126318240   -0.0385586955404674
     0.0302728279200678   15.5530849979154286    0.0655903308017144
    -0.0386454446837789    0.0657938000358750   15.5388918105482556
 Zr  Ti  V   Cr  W  
  13   4 102   4   1
Direct
  0.9513953287161084  0.9514256374254506  0.4266665201031780
  0.9829269685416810  0.8126392037974018  0.7890194949165006
  0.2471865445900308  0.1965647135584312  0.5970478732263331
  0.1948442172646749  0.6034093148014404  0.3966602522618244
  0.2012694459537920  0.6053554289795741  0.8016971646074570
  0.4048144644694084  0.8060335041304387  0.5966341869261295
  0.6064183935518865  0.1801475958608892  0.7951244770116846
  0.6349356750992127  0.8297035965250227  0.0049321501084580
  0.6170441182378661  0.8044136179566417  0.2373203507340237
  0.6013135899298244  0.8199389836891584  0.4530863439245085
  0.7425294958959043  0.9925507504606592  0.3731811511289704
  0.7944843525998661  0.9908170003262105  0.8037028078602487
  0.7722890800796799  0.6428667748790429  0.9969804069185465
  0.4237439239018638  0.0437730113086319  0.6150561206986421
  0.4045358906371902  0.3993209461286509  0.2008250335761349
  0.6203601275638184  0.1722206333379031  0.5850325851124819
  0.8170794724254657  0.7739550367790892  0.3689141871280591
  0.0045533011591737  0.0068620966209880  0.0016450934270250
  0.0006954797212003  0.9979830497804592  0.1965827141055813
  0.9973063077192755  0.9976960133929191  0.6231815090915040
  0.0047633165855308  0.0130580466302206  0.8084320674577133
  0.0016845182529535  0.2043681336227330  0.0009292351010137
  0.0000669246504377  0.1970319788836938  0.2029175623430783
  0.9997933674762067  0.1939618492186246  0.4032006793546262
  0.9991138706798658  0.1971179664105906  0.6012542080907500
  0.0034923522576662  0.2042861566639839  0.8002933713473612
  0.9980858641258109  0.4052408781143372  0.0010663166925889
  0.9986368765753371  0.3970412673087733  0.2009892976641584
  0.9978800280716870  0.3950810945344161  0.4004496643581755
  0.0003776998356431  0.3977908606955692  0.6002507908912378
  0.9998385998646413  0.4007788070606443  0.7984138027686212
  0.0060080692379825  0.6002708749273380  0.0253407524271424
  0.9890603786334496  0.5906354004249441  0.4015504657016715
  0.9947214202527492  0.6011860729650037  0.5979435216570760
  0.9939531630039966  0.5985650995098506  0.7958885918394151
  0.0102679231346781  0.7974701978483167  0.0009059202587152
  0.0066962953304506  0.8005674673128202  0.1947781662288022
  0.0150387775976994  0.7605818962834514  0.3843981309556985
  0.9990189647463988  0.7985070170264931  0.5827366394139091
  0.2029394284663670  0.0032810997634408  0.9992474515133986
  0.2009673963087834  0.0021458778047869  0.3989312087317574
  0.1885863405773287  0.9994943774540763  0.5975278601034769
  0.2012441274573257  0.2011437456673729  0.0016249998896664
  0.2005440059783234  0.1996893602679323  0.2003647933976010
  0.1967762850983628  0.1977878083277911  0.3962634761376445
  0.2020143886322847  0.2013752890905252  0.8028255241642469
  0.1989554517186719  0.3999109838498899  0.0011454821769989
  0.1982926486198912  0.3957332964494886  0.4002463259560915
  0.1987243087187890  0.4036976795820103  0.6000675161340345
  0.1984133760476956  0.3971116605722377  0.7992282631408282
  0.1995238971315688  0.5999059812836552  0.0048115626601997
  0.2036404582753214  0.5991095320761861  0.1948089029749689
  0.1984684972680881  0.6022727338557030  0.5986496568760494
  0.2031123163584720  0.8050160523024520  0.9990450422627335
  0.2021752525706703  0.8025340892723097  0.1976327699111521
  0.2046348309851410  0.8074548820728507  0.3978257737300976
  0.1972283846748763  0.8046630563814492  0.5977884205717013
  0.1981261356604533  0.8069866997036296  0.7972610265131900
  0.4014006451297684  0.0030141736836550  0.9985017711733044
  0.4016705103745825  0.9997304688457269  0.1921790494997742
  0.3931755014045855  0.9996583818021154  0.3842183801511934
  0.3973533029027636  0.9971778123817054  0.8075694030145728
  0.4000954102895223  0.2039081743227725  0.0021360641623207
  0.4010301503836509  0.1978024376081780  0.2013821764527229
  0.3976422113975562  0.2016716347911785  0.4050746209843126
  0.4449781979520890  0.2201830920606593  0.6133378600480851
  0.3969786696791918  0.2036456875961095  0.8025431278643613
  0.3980434382100128  0.4000507042436129  0.9983299678102636
  0.3982348563904430  0.3995838130337580  0.4019746436723963
  0.4006957857423183  0.4052766179123988  0.6007140432408427
  0.3984507937802563  0.4058394377796755  0.8018116821164760
  0.3979261515152046  0.6018026504810662  0.9966284826830759
  0.4007617553897616  0.6014982797649899  0.1984893021340873
  0.4016082967507240  0.5994922321163874  0.4002448988977411
  0.4009796022680132  0.6006147893222129  0.6028911451455776
  0.4029237782936624  0.8019655718560624  0.0009542307992023
  0.4048909928196783  0.7985289728340623  0.1962517410688379
  0.4002001574825487  0.7993824913989858  0.3903026635956761
  0.3937543858163277  0.7950805307787387  0.8051182479871660
  0.5976231858942295  0.0226546296476826  0.9946543300063443
  0.5995450440033472  0.0018995530028303  0.1918246486443759
  0.5668720699186849  0.0096252513986039  0.4048942583397321
  0.6094003672693939  0.9852338843755537  0.6055779976672627
  0.5894173990198568  0.9833223584455242  0.8039482632968796
  0.6004264522650919  0.2067348035731563  0.0028578483265205
  0.6012829530080483  0.1994389412372078  0.2001895047639711
  0.5970155654816089  0.1997442752368815  0.3951701204654811
  0.6008897407121592  0.3992510927644678  0.9993258869919655
  0.6045122178440298  0.3962333820888958  0.2015953537081107
  0.5977408406109322  0.3964420332530753  0.4014792875326778
  0.6027425528535303  0.4034566129790127  0.5997472929741160
  0.5984073179943626  0.3952567805416677  0.7991768809523462
  0.5875669222634216  0.5926653849808722  0.0017659281867599
  0.5988486088997054  0.5965453036129233  0.1993664641454802
  0.5957691141867318  0.5963922543554878  0.3980200373096826
  0.6005138004758191  0.6024509712465412  0.5957011004012895
  0.5938196372222478  0.5943865186797966  0.8031936615942259
  0.6117626666025990  0.7926244245161003  0.6336907958598884
  0.5887799788689873  0.7916913821722642  0.8051066550058705
  0.7982040163205052  0.0118791425178921  0.9999289650322257
  0.8024979408106097  0.9988107686212031  0.1869769055557056
  0.8013147452891295  0.9945945061549103  0.6013367299289667
  0.8027190516002759  0.2065043354189746  0.9994617319246424
  0.8016372405309307  0.1958597665710719  0.2017619434737003
  0.7971347580788919  0.1973843510296936  0.3999439946712438
  0.8080960641289644  0.1954551087962376  0.5979360002128496
  0.8059569207258659  0.2016338913953210  0.7989226848649497
  0.8008786667751143  0.4025880962526029  0.9990192111677627
  0.8014826366861811  0.4002785433902823  0.1983735560580208
  0.7967123727103540  0.3935620817147908  0.4005377064411593
  0.7987058543871187  0.3969714652872816  0.6001787628664058
  0.7992679840873149  0.5949782575268118  0.1999240060022535
  0.7932642983242720  0.5899005892496818  0.3995136084109243
  0.7967958064375337  0.5966857339207366  0.5989081619834653
  0.7949779472729338  0.5909502375867228  0.7953103876706219
  0.8306015863387340  0.8298122032368758  0.9688095588839769
  0.8117711065559130  0.7955743370843783  0.1699239105151945
  0.8053044099515154  0.7935625973436075  0.6151625469436598
  0.7816112953396646  0.7805037980158533  0.8133115195039912
  0.2011002470664452  0.0005335627060782  0.1972990446473711
  0.2004173569918818  0.0024171384411318  0.8010909324106117
  0.1969422097067271  0.3995068893563005  0.2002079627498517
  0.7985395521501573  0.3965074354440290  0.7989513821226145
  0.4021279057128955  0.6021501147391131  0.7970658553198153
