Zr V  Cr
 1.0000000000000000
    15.5277836321495606   -0.0011014415353407   -0.0036444284316418
    -0.0011015311309700   15.5268057001839015    0.0012045176117796
    -0.0036459540422085    0.0012051907892001   15.5242636607114743
 Zr  V   Cr 
   5 117   2
Direct
  0.9995279852255463  0.1995217546039480  0.3995538339879142
  0.9910209409745242  0.3990848208253661  0.9948187442751542
  0.6293189701668019  0.9997511627230002  0.0088217486839619
  0.5976662784303273  0.0029487784110625  0.7895712451358268
  0.8063836837315855  0.3870574472408795  0.8098544657531429
  0.0020114354930028  0.9983622440616020  0.9991792590110899
  0.9983080122862931  0.9981319126251933  0.1981856802026186
  0.0000093725885000  0.9947610489620838  0.3996549299433851
  0.0003124965376151  0.9984714355949983  0.5993567175338187
  0.0007703629652929  0.9993873757473825  0.7998192249945237
  0.9970546279732617  0.1928710819551579  0.9983764721561614
  0.9987793554625574  0.1993151159087143  0.1951718363144379
  0.9992075382462027  0.1982058344723839  0.6030886531263707
  0.0020836296359925  0.1989170230032297  0.7990795011423125
  0.9993468811178104  0.3996126373900620  0.2019087353991306
  0.9995935763248448  0.4038890713091784  0.4000212203399786
  0.0007789334884380  0.4003999275361425  0.5981596801078130
  0.9985654044596483  0.6041115813205497  0.9992442525219334
  0.9989602129698495  0.5996715554462326  0.1996292784942768
  0.9991313574022328  0.6006088284067703  0.4000015492379267
  0.9993568640186189  0.6004811969400409  0.5990728743015082
  0.0012963248188929  0.6004659319217486  0.7979145405243364
  0.9973650373407533  0.8010934643778689  0.9992468860184959
  0.9990802100566091  0.7993484594521693  0.1993978477987536
  0.9997252755299870  0.7983434875066586  0.3995186919992260
  0.9994670962375682  0.7993687925192121  0.5999490708711869
  0.0004768877302017  0.7995855386083572  0.7993045707613549
  0.2009850588143873  0.9991526167038967  0.0002814539979223
  0.1988218743818354  0.9996306204079951  0.2001909347733000
  0.2003879198566085  0.9986117876562465  0.3992911105652240
  0.1995443603691129  0.9994191160841166  0.5987024624995879
  0.1988977913754893  0.9994347271631990  0.7990548624273522
  0.1993192637534579  0.1996340038841409  0.9993386606863637
  0.1994157339610640  0.1993707150840671  0.1988034617310975
  0.2039412946570495  0.1995617965520809  0.3993712031040868
  0.2007022438324315  0.1996040286861897  0.6004125918673718
  0.2004991424834434  0.1996448925641846  0.8002249111040994
  0.2007417984959047  0.3991828807870310  0.0007003810011229
  0.1983868049051483  0.3992788050807579  0.2002418029235603
  0.2005557196918324  0.4001905410352288  0.3998264781815250
  0.2006322512917650  0.3990496377255061  0.5985450069667493
  0.2022279817809641  0.4001199888768774  0.7987715136817726
  0.1986512632240503  0.5995249344149540  0.9998038726039234
  0.1985212594903923  0.5991434197672240  0.1999640125277969
  0.1997117982711703  0.5996474644070261  0.3996592382333726
  0.1995045170667174  0.5989342147710190  0.5997351239334865
  0.2004208891088909  0.5998886610602391  0.7998817858074907
  0.1997509350172959  0.7996006837626426  0.9998760557798758
  0.1990533920893929  0.7992747129603975  0.1996139856300660
  0.1999479930352129  0.7985825422368850  0.3998111011287560
  0.2001027159305615  0.7995564118317281  0.5995167968786445
  0.1995093478434558  0.7990222658243675  0.7998844339378917
  0.4048108611232466  0.9993609957619038  0.9994472019253713
  0.3993276581418186  0.9995106373244361  0.1997776927102325
  0.3990902193839309  0.9989816162983853  0.3997517865095829
  0.3989870362041364  0.9995231903019515  0.5988592742182529
  0.3944111899084713  0.9995809611827695  0.7993713986862719
  0.4005579028625962  0.1987077028676870  0.9994410826366877
  0.3985220242885112  0.1991317766032213  0.1988923381799741
  0.4005447158373854  0.1990371151508089  0.4000208312330232
  0.4005121679429762  0.1990822014781412  0.6004372243831134
  0.3987578021206976  0.2001114915911233  0.8003930634605242
  0.3979908494501646  0.3998594069378084  0.0005522917358669
  0.3985296850427533  0.3993500355048737  0.2010200230826129
  0.3995936727735163  0.3999124758398212  0.4001440835506316
  0.4000586024460157  0.3991612494312736  0.5996322181087892
  0.3992845298616018  0.3999728096617148  0.7999904301512359
  0.3989519276255258  0.5998902683585993  0.0001342281690400
  0.3985861334476177  0.5995455926042390  0.1999984824656389
  0.3994582200975265  0.5997956039549117  0.4000210238348818
  0.4002399459449434  0.5998491063277036  0.6001122933974518
  0.3990248767138463  0.5998399843427095  0.8002989222450534
  0.4002250003107542  0.8002274881839757  0.9995507640154604
  0.3988583049429072  0.7995329878969463  0.1995880237627584
  0.3998719808108357  0.7992797032584741  0.3999124987969436
  0.4000290820193402  0.7996385282558476  0.6000279276189929
  0.3989263913401411  0.7996151879843240  0.7999748937882065
  0.5990806378337881  0.9995455790039408  0.2076620333786396
  0.5991248223246067  0.9991999826457310  0.4003184859686753
  0.5998055569005510  0.9995378831301002  0.5914107967258060
  0.5984539126639852  0.2035190989550578  0.0001792648752201
  0.5977094296216012  0.2006624254531258  0.2007536174016902
  0.5983999579992264  0.2005811134356493  0.4003136965325209
  0.6000025835278697  0.2001556770622693  0.6004013895062288
  0.5987404524988841  0.2072226332779074  0.7998870314678524
  0.5947950584606093  0.4020500541482202  0.0020914833642140
  0.5977497994448971  0.3999456675495852  0.2026411544423574
  0.5982928011847810  0.4001118946668942  0.4009513522439030
  0.5996153723621291  0.4004867900230202  0.5998650917015772
  0.5979594590993224  0.4023246594756622  0.7996197589664918
  0.5982144262996596  0.5989718289195436  0.0005763022068579
  0.5988714463773096  0.5992653660936571  0.2012536681287239
  0.5996904699658083  0.5992827529122695  0.5998249907854283
  0.5997306186678584  0.5987647423090812  0.7996964623165131
  0.5991845511005064  0.7954289726181741  0.0002307272855737
  0.5980027861416378  0.7983412772657781  0.2013719799632989
  0.5992635124095790  0.7982664525321282  0.4000125656053989
  0.6000339932200535  0.7984877452232528  0.5994009087896236
  0.5988136131707936  0.7954665625816126  0.7988360148957813
  0.8013687447312311  0.1299881879824252  0.8675505352399479
  0.7999968929519833  0.9998310653398073  0.2031679168772195
  0.7994650778617727  0.9985639510614307  0.4004766702037837
  0.8001563259878989  0.9998634527384528  0.6004066217585653
  0.8047818637904186  0.9981838778596250  0.7992878474703053
  0.7971278345477782  0.2017674148033091  0.0011076081915578
  0.7989872502317511  0.1992563893167794  0.2001305390540511
  0.7945641457173030  0.1991308472121846  0.4004559284605060
  0.7989840582690489  0.1998328198750815  0.6004389691791593
  0.7883005322335946  0.4008482879690417  0.0117989188356193
  0.7979568553536855  0.3996080180697557  0.2051351231631412
  0.7983549347669788  0.4004526339033890  0.4013892330114394
  0.7993825956107904  0.3989458815277618  0.5991215579839234
  0.7976300846613341  0.6012238250423771  0.0012911209288947
  0.7990013587814235  0.5997098253748034  0.2013953157954690
  0.7988942934532647  0.6000343144189033  0.4002311846118289
  0.7996431113254305  0.5988668613666764  0.6009531428475140
  0.7997959166399113  0.6001647661429982  0.8009745190409722
  0.7979198240064973  0.7999646992181700  0.0005904057346355
  0.7995797409986263  0.7995772266550848  0.2006296060997056
  0.7985743966715521  0.7988160595158262  0.4008760396378792
  0.7992241734132656  0.7995085382347901  0.5997364772614835
  0.8006876004639955  0.7997869359849086  0.8011170101992030
  0.0076638752522842  0.4000116239794071  0.7927659624069523
  0.5990790624133987  0.5993936729218859  0.4007264389284884
