Zr Ti V  Cr W 
 1.0000000000000000
    12.9591978573688582    0.0569286067707885   -4.6595471477297732
    -6.4236918964124836   11.2982696861547964   -4.6407273346723512
    -0.0330687606954278   -0.0341668558172510   13.8849168996373802
 Zr  Ti  V   Cr  W  
  30   9  49   9  27
Direct
  0.0540804327206767  0.9941819804785176  0.9984282635114919
  0.0023283131701488  0.1609839648169201  0.1770240811179116
  0.0010231645014003  0.5993570665333201  0.5941815244860754
  0.9912271427483333  0.6201222000173654  0.8134175838202166
  0.1303236600847499  0.9362695712413235  0.9898297527696911
  0.1951556070801760  0.9993452849173203  0.1973722280749891
  0.1902300386634181  0.9838871286869041  0.3921387694198132
  0.1895383455247120  0.1852275273277666  0.7877988649135150
  0.1911294859617679  0.3893000215803207  0.3845521965201009
  0.1741185059592312  0.4074284925088676  0.5946029667728376
  0.1744905424363999  0.3995558605126119  0.8034686043322686
  0.2082097527826660  0.8055195605463654  0.0098459491248177
  0.4008621696837550  0.9981767700924092  0.5961088102236328
  0.3965379613736518  0.2037685182711327  0.0005212055073089
  0.3905811774122584  0.2030220921625806  0.5968022705444563
  0.3887088373188446  0.4004474987004271  0.7967734345783283
  0.3961770520337071  0.6123772724306451  0.0081521323853562
  0.4031220035774348  0.6031845631845233  0.5938942580158588
  0.5957367057517604  0.9949592026982824  0.9953207091070944
  0.6098319534433275  0.2037360830943879  0.3965097133838255
  0.5942447308364955  0.3988884452637095  0.0043645940093496
  0.6032119732216730  0.4011428595275319  0.8032991553502985
  0.5893207393684351  0.5886529897247851  0.1947942915073099
  0.6074002719072167  0.8019763105464849  0.8049008753778948
  0.7935225299501792  0.0011134033223764  0.3907577820456087
  0.8068186593575775  0.2019474165884879  0.2081335804994210
  0.8604046427228503  0.2550900643598368  0.4406413029838365
  0.8124960962563988  0.2083004086915443  0.6108168735585102
  0.8002018859983541  0.7913308994107633  0.3988243913396795
  0.8192509625648876  0.8081545851684283  0.8090805326542567
  0.9952119238488685  0.0025291280195165  0.7846032309766904
  0.9945772912079519  0.1964940242733491  0.9922066152146207
  0.0094704121790825  0.4282653910381115  0.4036026381764649
  0.4032839421483361  0.4052291049655695  0.2070184875608075
  0.5915382790617447  0.9929122589538210  0.1998401818307707
  0.6047652419462878  0.2036205766540791  0.6070958931092232
  0.5999038287028563  0.7951817049944617  0.0135198290129174
  0.8024963414788827  0.9969322609730298  0.6066849471200543
  0.7915754922274714  0.7827086177540614  0.5966275729764090
  0.9823449527533605  0.9769790522799370  0.2101323567910048
  0.9931754010723438  0.9802672676256603  0.3996644150184383
  0.0056799534938195  0.1722220324988898  0.3871058104735570
  0.0025143536763751  0.1740123982725152  0.5900108794441450
  0.9921621101080211  0.2094497036127640  0.8080494030439546
  0.0015531611108472  0.6013499867297362  0.0151269184342700
  0.9892099212084865  0.7825153890299374  0.1874003314050855
  0.0009954516662160  0.8036847672821128  0.5893224897323966
  0.0038270490632849  0.8084345805968056  0.7634394226459288
  0.2102651844182767  0.1995564821005212  0.3918318501167743
  0.1883245771138705  0.5983460876751935  0.0107102376301884
  0.2011273905174508  0.6027644298733363  0.2048837548245477
  0.2000418187692898  0.6089970428645886  0.3964498077137180
  0.2143191650532757  0.6336726826870511  0.6066713653326039
  0.1974052581255425  0.7836027976729866  0.3916990465840456
  0.2023318934416756  0.7983511933151670  0.5908337308293441
  0.2096839336575484  0.8103480455130901  0.7974900502813992
  0.4008025166375743  0.9988129783707776  0.0039214621331856
  0.4051391158154787  0.9986372094361403  0.3917878696294000
  0.4063651909927223  0.9998504042123821  0.8019517741014361
  0.4061539339549102  0.2042502959029976  0.2120399748621571
  0.3973437302374461  0.1705334537218927  0.7874699174045124
  0.3617081974317553  0.4012075615128102  0.0011081687006163
  0.4048064546860108  0.3981440252375412  0.4000817479107117
  0.3888455820682549  0.6050208910655180  0.2092463415832335
  0.3967079060352862  0.5993198797692045  0.3887696671114254
  0.3997327721806071  0.8124434088444297  0.9971643898721495
  0.3996630951079798  0.8015602710601198  0.2081586184550708
  0.3981125326044164  0.7952986343107528  0.4000129656469673
  0.3896505098183922  0.7978600314366946  0.7885788753072407
  0.6054949236780316  0.9982456394381999  0.6041854314824443
  0.6083477766756248  0.1992093329890570  0.8114535995735047
  0.6104820597884876  0.3913606119169887  0.2172678924750156
  0.5979112654731447  0.4060823648318900  0.4012886925186063
  0.5980038862279886  0.4039844304450946  0.5941161079271229
  0.6042532844457698  0.5932484065402203  0.5940291817274206
  0.5904143901742963  0.7994650852767045  0.2145668402905949
  0.5973903273104694  0.8041849229562774  0.5926088849165727
  0.8000275383912482  0.9897441697341350  0.9945309885709802
  0.8113517125999415  0.9884026815832057  0.1904179083409566
  0.7913230858079342  0.9992206235036947  0.7962479555420432
  0.8042320328263775  0.4035596743510694  0.0054540780375304
  0.7869544120735017  0.4131848426336250  0.3932018185996278
  0.8063058879240140  0.5999767699207952  0.0109007174046075
  0.8102172623207532  0.6002844630495801  0.2024991537008836
  0.7999148890150732  0.5910687822814387  0.3997069255741541
  0.7906551184455812  0.5915229427982389  0.5961126778031047
  0.7975763294222066  0.7833115315634388  0.0042727914496062
  0.7998556225257345  0.7891832962143235  0.1916548386090535
  0.9994034357554503  0.9888497139826986  0.5817884715963588
  0.0105998738394971  0.4320942761384951  0.6657414425733880
  0.9970010520632164  0.4163044086443995  0.8197817039159395
  0.0048607119502139  0.6045754582041155  0.3954443768055188
  0.1896851941678670  0.9844871952885993  0.5927267856536920
  0.2259897221143552  0.2192474581884298  0.2100813370290801
  0.1953256814652500  0.4087651952311268  0.0142631324992345
  0.5906054232756804  0.2056062907087657  0.1900284235415062
  0.5970769826452718  0.5971956706934142  0.8005270333168145
  0.0017349370740118  0.4043194595745288  0.0042763778238465
  0.0008152542563865  0.4041018272212090  0.1963888729976915
  0.0013202238318575  0.5992772970569250  0.2015877456019075
  0.0043207044875202  0.7872979455329070  0.3974997549497638
  0.1992137038496443  0.9846762248349963  0.7758412832321052
  0.1950827299536292  0.2168545132554216  0.0097297065677162
  0.1783707086385971  0.1844978339799010  0.5711167588859049
  0.2027032055052708  0.4070883467915569  0.1985759545270431
  0.2058441364195656  0.6194535825317615  0.8082719749796868
  0.2037558498716154  0.7921564240645853  0.2086253810266226
  0.4048214395618234  0.0018895174525790  0.2026284685980728
  0.4048843020549091  0.2069492285846688  0.3995676846163955
  0.4056195160210365  0.4052119421468301  0.5943765313136741
  0.3995623131376485  0.6137514724690721  0.8007412038563961
  0.4009732790840180  0.8008348329633417  0.5934801592747289
  0.5871930930514777  0.9893756392204833  0.4044153820842141
  0.6001008737794505  0.0010506415810460  0.7922934438513672
  0.6068233765364778  0.2028063613990959  0.0044841371816395
  0.6105577702987472  0.6082821387128386  0.9955142372978648
  0.5955182478726019  0.5960743978879068  0.4045872793088275
  0.5903111865071944  0.7943504777513568  0.4015776230109069
  0.8000900167042558  0.2005242262385452  0.9986067950810323
  0.7990690387203843  0.2018980588003698  0.8063005889237993
  0.8045066688604592  0.4082037607918065  0.2027526258851209
  0.7994913413751001  0.4124718018300056  0.6077030997274331
  0.8063188114290538  0.4074058304695701  0.8113003343460929
  0.7783503863558021  0.5891484291138319  0.7994416967115651
