Zr Ti V  W 
 1.0000000000000000
    15.3687751858679373   -0.0034047973547748   -0.0004629384474201
    -0.0034058626285429   15.3762737440467472   -0.0028872120149207
    -0.0004620936853672   -0.0028876454386987   15.3933118945991367
 Zr  Ti  V   W  
   2   2 106  14
Direct
  0.8021681908924043  0.9894885571809734  0.7954978001401525
  0.8082252329288167  0.3950779459498889  0.0089597936181818
  0.1969734058927084  0.4058216829994284  0.3957502983820452
  0.2004406471313162  0.7939512442521898  0.4073298708714832
  0.0003933194812302  0.0023353529965366  0.0015289061306294
  0.9994470029700843  0.9999352757133760  0.2009934247364769
  0.9988982722489825  0.0008714366196923  0.3989089208449451
  0.0012966321043923  0.0016790770723269  0.5970231765904296
  0.0050392146472252  0.0009454322434217  0.7991147656018514
  0.9965998240911930  0.2006985081743151  0.0009059847119124
  0.0021621903524747  0.1994397886552589  0.2008310593247311
  0.9994003002738977  0.1999638413662760  0.3990651973200446
  0.9998152273377487  0.2002678659739140  0.5990933637839350
  0.9987915357600385  0.1989529053132331  0.7996261352445547
  0.0093666903942521  0.3992054212757320  0.9985346225685588
  0.9968191899686367  0.3991494549242471  0.2003590345890910
  0.9963335746750571  0.3990701533937768  0.4016021021498973
  0.0042095423548374  0.3995951362161441  0.6010483163418534
  0.9974682404487926  0.4008607480257372  0.8011422309914140
  0.0003329005591312  0.6004685682896854  0.0009850510269729
  0.0046256518257358  0.6017799250316738  0.2012025845715892
  0.0027003633741354  0.6015630479500556  0.4001640766862842
  0.9988575251506622  0.5997008865974366  0.5984534984558592
  0.9992770159277312  0.6004464711798969  0.7987325976718362
  0.9999478953277271  0.8018677159049532  0.9999871946574665
  0.9989844901292515  0.8003383141735800  0.1985971205215467
  0.9967210810343532  0.8019553544348705  0.4004811537885760
  0.9999492888405267  0.8004971551929001  0.5995575662230173
  0.9996830235766295  0.8004822074192314  0.8003067588276942
  0.1992617204535461  0.0028551396234537  0.9998222724714969
  0.1996445406032183  0.9963409226014821  0.2006414607632400
  0.1993173674912279  0.0003102032126741  0.4005740449866904
  0.1995991308187452  0.0007836730404537  0.5991591271612440
  0.2004922767846561  0.9953686408218395  0.7996923367995253
  0.2011585923206680  0.2036961055026541  0.9995574547849378
  0.2000274561057812  0.2010299646373138  0.2001502290140177
  0.1996581774953069  0.1998295498951916  0.3993619477583533
  0.2024309164976344  0.2057876198112929  0.6007074099913118
  0.1989643423119681  0.1986610107462970  0.8016597851556142
  0.1997390260485591  0.4055448099998655  0.1929537415456081
  0.2000589941176158  0.4034620775781447  0.8028964136465241
  0.2001744871142952  0.5956041364739936  0.0036058702436920
  0.2010957765415997  0.5952266144679056  0.5954975516063227
  0.1993915443600409  0.6043837571303816  0.7995472633629114
  0.1995476635725154  0.7990289461402188  0.9956298669296199
  0.2037106345250444  0.7945079348987500  0.1946547264007001
  0.1996078627188428  0.7984705634079030  0.6067120005251473
  0.3986797686486666  0.0015525417425168  0.9999564108322556
  0.3967866464728658  0.9948543404722654  0.2008039115493384
  0.4034310366442705  0.0004115577476453  0.3992804684307285
  0.3982357626575075  0.0034130489192276  0.5981322730550914
  0.3995596742471333  0.9979308532480984  0.7985408136393529
  0.4024996168810850  0.1980290115532937  0.0007021562413076
  0.3976778540652607  0.1992342524039145  0.2018201551133588
  0.3999965622919067  0.1998061502213784  0.4029129259889631
  0.3986747137893391  0.1971263228351634  0.7954735521275196
  0.3968701127983800  0.3987591997499079  0.9998024681198666
  0.4012212468513063  0.4011290098402874  0.2012173002579907
  0.4027006302488476  0.3994446690519401  0.3993485642032372
  0.3947397952854674  0.3957892501926801  0.6001508761149263
  0.4034644868423231  0.4012308393397659  0.8006844711960975
  0.4004149252184820  0.5993995975748623  0.9994726084138708
  0.3963733263902522  0.6035737625825279  0.2008913328427547
  0.3964315228029829  0.6013682826839729  0.4001525807953735
  0.4021543416336282  0.6006404147912033  0.5971615391601077
  0.3997618738712507  0.6021396344616382  0.7990844587166440
  0.4006852613679215  0.8013882733482868  0.0015332352581197
  0.4016226696380280  0.8021471985962160  0.3955073260857795
  0.3988626972617012  0.8016537433820239  0.5988948419961090
  0.3965955667088921  0.8004479102653574  0.8011820095654874
  0.5990591181869973  0.0053640831734154  0.9990013662001294
  0.6006557072560652  0.9968178531656798  0.2030618644170587
  0.5979951862033083  0.9993955249281643  0.5946560564813584
  0.5962972868353422  0.9983696362808305  0.7979069598967514
  0.5954721261586371  0.1994673988900868  0.1956203129024938
  0.6010116527912512  0.1973068346703468  0.3961552371441108
  0.5949788540400163  0.2015097017673888  0.5997561049245516
  0.5989372220572993  0.2047135737198076  0.8039789421023250
  0.5958539093607236  0.3966686670659303  0.9957638469324962
  0.6011373042938561  0.4022354445366750  0.1995879626531080
  0.6002362364649667  0.3994256414258736  0.4003182065742424
  0.5985471965302923  0.4029992438221410  0.6041288141870407
  0.5992031068485394  0.5977412667319456  0.9998446957535962
  0.5978154978932841  0.6033020822145090  0.2015555697213549
  0.5992887897670984  0.6001249104606458  0.4037953518959738
  0.5994700181347056  0.5964032734560704  0.7955850181537631
  0.5992223439461892  0.8006305883070953  0.0023735641756524
  0.6012005451476370  0.8037390116121454  0.3959723085059034
  0.5976798527578083  0.7958778085243770  0.5996831156573292
  0.6019947585141604  0.7986024430082096  0.8015873195951162
  0.8004397724118193  0.9988827488247276  0.0042495251464949
  0.8006807511370685  0.9959842350597791  0.2004718455666389
  0.7972786183283782  0.0001311914728432  0.3974958033860531
  0.7991932998639988  0.0001935168988370  0.5927816792833563
  0.7944624411720582  0.1918590596285071  0.9956928845306533
  0.7996647492777255  0.2014763405358108  0.3332941695784616
  0.7986474432194115  0.2000578524703796  0.6006397841707611
  0.7991894298174200  0.1994077012702519  0.7985325048654934
  0.7999119306579630  0.4003197016017699  0.4016029268476716
  0.8006152090299220  0.3991516193314237  0.5992520723932271
  0.7973979662868339  0.4005567471736535  0.7981037721060187
  0.8010860871782202  0.6021883376579686  0.0004142215767746
  0.8007157281959926  0.5973574037688009  0.2012596527074861
  0.8018906192798962  0.6011609530162008  0.4008551560096542
  0.7965633424887626  0.5994040733191996  0.5977518646696675
  0.8008479070074712  0.5995791861338046  0.7996519010760497
  0.7993064393342960  0.7998524563300369  0.9970942963778359
  0.7954196523762501  0.7961989309436673  0.1976151994775432
  0.8006095799377395  0.7992207239915480  0.3994203112067873
  0.7993147108620240  0.7993759823874634  0.6037100044721011
  0.2026367412900953  0.3998337728453509  0.9982526172039674
  0.2002785205892420  0.4011221448627786  0.6087120532196436
  0.2007666776242591  0.6002970363526164  0.2025099523429213
  0.1995761580118922  0.6000212620234170  0.3970516329568264
  0.1988482344126195  0.7983326619658802  0.8011641706716975
  0.3984375655406990  0.1992352314872782  0.5998631394530199
  0.4021750939346705  0.7992361888613655  0.1979041544132023
  0.6015153494563448  0.0007928113966689  0.3989139318508507
  0.5988726756895915  0.2014095577640334  0.0008772389278862
  0.6009750237047858  0.4015129700730935  0.8010386556350989
  0.5977334920629956  0.5991682037754520  0.5982709265863684
  0.5970699635426820  0.7986003436983498  0.1981831516843734
  0.7990901844473641  0.4042603914008704  0.2077775072887846
  0.8005562403778694  0.7910330204796718  0.8009022108869281
