Zr Ti V  Cr W 
 1.0000000000000000
    15.4244097105604929   -0.0012107223225386   -0.0042394490092486
    -0.0012099076426666   15.4412294863263000   -0.0024734284807045
    -0.0042424892746054   -0.0024736538270091   15.4407019588637713
 Zr  Ti  V   Cr  W  
   1   3 110   3   7
Direct
  0.4023754087576346  0.4042959038922322  0.1971150997867486
  0.9998845910163719  0.3906580354099916  0.0004934885449626
  0.1986335966303320  0.9982964107130431  0.4003208258630596
  0.8003350621819194  0.6013199590634324  0.2092514633883904
  0.9991981794267685  0.0019889708275909  0.0006420921700889
  0.0001414296358622  0.9988931162875320  0.2018877117568590
  0.9978460823803257  0.0025370771364239  0.3996109557306242
  0.9996352894218490  0.0004675859474434  0.6001182239925482
  0.9997212008455075  0.0002776288372592  0.8000648637440732
  0.9995457454128576  0.2009055298929248  0.4000430608534798
  0.9999347128058883  0.1990676776448894  0.6015738534161649
  0.9995647391841932  0.1995685628265933  0.8025771226216963
  0.9995669637133830  0.3976023545617869  0.2011403830248196
  0.9994252462601169  0.3988113416067233  0.4003008429551670
  0.9996129662900310  0.3974705292071518  0.6009253307721637
  0.0003112131714181  0.3991953384922015  0.7974256052787485
  0.9956083343494887  0.6002599968553211  0.0016994968314573
  0.0020224174939820  0.5989124149752192  0.1992625816032824
  0.9982683522700468  0.5969806029670890  0.3988614912446012
  0.9996395113516245  0.6006757328826903  0.6009448692712724
  0.0005163774838759  0.5988882530067993  0.7999826156341014
  0.0000672173066640  0.8007336642076094  0.0005395558376071
  0.0013380436739268  0.8012779157294727  0.2656621243539061
  0.9995353231638597  0.8011709300713238  0.6033203546595182
  0.0007401142116390  0.8008633505512004  0.8006597270824714
  0.1998611479524015  0.9991846029897400  0.0005756792144784
  0.2000739790112230  0.9992327493470118  0.1986720384629311
  0.1997916267117679  0.9998681040708386  0.6020655392122926
  0.2006684442972470  0.0000298201657393  0.8001479878845222
  0.1960734468395426  0.2006492353152853  0.0000064149184852
  0.2009405542940546  0.2001308144469065  0.2005892007057984
  0.1991765870128609  0.2040619040522378  0.3995583035051901
  0.1999117466010336  0.2003640866568487  0.6000933824585011
  0.2022722282376745  0.2008100082103444  0.7994611067462829
  0.2010618288718815  0.4007177441847426  0.9995270390514975
  0.1958769362959863  0.3993926195861308  0.2001400839761993
  0.1986722468982571  0.4048935114292926  0.4009164870984809
  0.1998047738257019  0.4003617241375125  0.6003957228729087
  0.2005989215163961  0.4008641321938690  0.7989921315982610
  0.1975766693221616  0.6000091801378040  0.0011207710682360
  0.2012001755967839  0.5997591244876891  0.2037896602484077
  0.1991439840345800  0.5992967702450118  0.5964248726022595
  0.1997999602533924  0.6000449784268281  0.8002063664509007
  0.1985739189488076  0.7989872541367675  0.0014157611667332
  0.2001757041077592  0.8010592059181926  0.2046464082534874
  0.1995604300737068  0.8006574494503000  0.5970842211768991
  0.2003626663830701  0.7989172122099237  0.7996159085650187
  0.3993824644423332  0.9993815538900510  0.0002922898956706
  0.4009336505491621  0.9991497825964009  0.1996740144378262
  0.4021374375449751  0.9995211674784966  0.3998050861624369
  0.3997933602422824  0.0001301864959193  0.6000644346829401
  0.3993376103851681  0.9993187078812864  0.8005872329408870
  0.3986295121599083  0.2000797480316036  0.0004391463554496
  0.4001591397802496  0.1970079470566622  0.1991310591801521
  0.3997044036804820  0.2004945824551298  0.3998074881843959
  0.3992697541746015  0.1995841033862228  0.5993976066593903
  0.4037568557077185  0.2004288989613816  0.8006335577877731
  0.4002720321267891  0.3997440161822413  0.9935135831257991
  0.4006266732842197  0.4001009893229912  0.4038548216442561
  0.4001761017064555  0.3997635731110790  0.6007800574088641
  0.3998250781211873  0.4007432152701546  0.7987990313361457
  0.4003414372322937  0.5996380805891319  0.0031619590768440
  0.3962019542443990  0.5986085485826359  0.3957305199325178
  0.4002336723753395  0.5999521899568132  0.6001125285528869
  0.3999541130229731  0.5996437493844513  0.8014652751273453
  0.3999474966926360  0.7997295234097264  0.9999359062928403
  0.4007708898432509  0.7998807988704590  0.1990462762369535
  0.3968764509253203  0.7998463828834548  0.4001129290884976
  0.4002776964924316  0.8001343126444560  0.6008894855886214
  0.3994566958305768  0.7995399257705008  0.8005605774712264
  0.6010777653310287  0.9992653714849099  0.0009210677950182
  0.6000233055265320  0.0005136105858368  0.1999968740240291
  0.6002036583566753  0.0000366724803147  0.4001364258831215
  0.6002929901960589  0.9997016694408040  0.5993785530320322
  0.5995600474262114  0.0026177685551930  0.8002772723788457
  0.6016475345467484  0.2007994541474850  0.9961906736105515
  0.6001249909210584  0.1991348230304033  0.1984283877875624
  0.6005566569032820  0.2008748024400290  0.4004610842886289
  0.5996861539285545  0.2000971074553082  0.6041528971276091
  0.6009721591473975  0.3996844466809959  0.0001201697604933
  0.6055268581650849  0.3973722165453898  0.1994435838036216
  0.6002843610884633  0.3999185095301763  0.4002267911646109
  0.6000343609939310  0.3999123071591452  0.5994755034205361
  0.6039165656066088  0.5995458613001947  0.0002927830397610
  0.5952525033579303  0.6002593088649367  0.2001358721697808
  0.6030377096593581  0.6004254921765397  0.3999568549651231
  0.5983874609942116  0.5998770336172982  0.6005239343291130
  0.5983700577227591  0.6007898564544236  0.7992920919853965
  0.6000306047644659  0.8000134765082253  0.9998837245461932
  0.5982579703830125  0.7997131451587878  0.4004206313818429
  0.5986634735300137  0.8006925730507153  0.6003737401368610
  0.5991074441356788  0.8015299086149416  0.7999785984221400
  0.8000850222772531  0.9977846685672296  0.0011265879113242
  0.7996831168863077  0.9988887203876232  0.2004950232453112
  0.8002761144710449  0.9979298114707343  0.3996377992894420
  0.7998985183472647  0.9994383738546546  0.5990097423606423
  0.8002581511359269  0.9986555751261108  0.8003615690074684
  0.8047237600656637  0.2020045226032086  0.0007232796505386
  0.7990703436657306  0.1995984288927049  0.2003102173597953
  0.7998013745979736  0.2018798756238293  0.3996325989363004
  0.8005564022917114  0.2003419079332801  0.5995091547025014
  0.7954358961865885  0.2012355256561156  0.7998700770520014
  0.7982936547836678  0.4053122459576586  0.0003324460787643
  0.8011619241981937  0.3981669110530449  0.1998308313333491
  0.8004108392364290  0.4047873254959766  0.4001018607723850
  0.7998192523503003  0.4001481765831036  0.6003683869032520
  0.8004051561701496  0.4007458352816032  0.7984933656369327
  0.7997437355828749  0.5997976070743438  0.5992565574997637
  0.7991915050341869  0.5997500163366041  0.8000611150789116
  0.8000127848845148  0.7951974495838618  0.0007708754554120
  0.7995250847458661  0.8014898423667045  0.2006220603488558
  0.7990695862183649  0.7955638587697786  0.3993232062479081
  0.8002307414988237  0.8000976798848740  0.5995634084577438
  0.7990162288321694  0.7998747441138599  0.7987704642724921
  0.9998016028995989  0.1983670951629525  0.1999281594346685
  0.5999100707176570  0.4003034097778371  0.7996540491802888
  0.5992197838288359  0.8010564930645716  0.2000439365511149
  0.9998792497478787  0.1964007369351003  0.9972297280309399
  0.1953597535395067  0.6012564349376009  0.4006522161317067
  0.2030746018489647  0.7927140793021705  0.4008365934116433
  0.3989902504606048  0.6050761084227119  0.1993223668710032
  0.6000912183719361  0.1974509643499917  0.8008945020507151
  0.7986283220526558  0.5998599711227961  0.9944337349371681
  0.8007046986344571  0.6007887531412469  0.4046129750223106
