Zr Ti V  Cr W 
 1.0000000000000000
    15.4771126092992706   -0.0171409429028663   -0.0108832458615090
    -0.0171377985850307   15.4835452709138899    0.0089453070842751
    -0.0108770206815257    0.0089383803551370   15.5150560916889226
 Zr  Ti  V   Cr  W  
  10   1 106   6   1
Direct
  0.0009279479106811  0.0277047480088003  0.9646181362852428
  0.9938687124986637  0.2098778656938421  0.7901413147948259
  0.9909951422815405  0.3887065052092343  0.6039917784437471
  0.9978975880617286  0.7986850809851928  0.5952905966686541
  0.1670739853342300  0.9975804354507006  0.3687080290269887
  0.3900853986425573  0.9960467997022694  0.3994684447170967
  0.4013698212409501  0.2031336491681640  0.9969906024345856
  0.7988188438990987  0.3914839672934226  0.4459344509679443
  0.7993654862882451  0.3914117991747947  0.7333346569766517
  0.7992043513578200  0.6110352872566769  0.3963361294492184
  0.5992042063627993  0.7988687307391713  0.5971184238819763
  0.9816564375027088  0.9989648486459713  0.3936337553446333
  0.0012290451768340  0.9994232394225007  0.5897860448325717
  0.0009198663975361  0.9965980384952116  0.7806629032121629
  0.9990928733554325  0.2168081066247002  0.0023211925829315
  0.9998549791702228  0.2058308136130173  0.1968174599001129
  0.0008128448512530  0.1951825578839758  0.3934459529339120
  0.0034906731582569  0.1881760857912662  0.5868726901427808
  0.9652235484808874  0.4061415248571760  0.0048423599745122
  0.0020590062942744  0.4008934068554190  0.3914186068201675
  0.0059557559478223  0.4122853310946108  0.8129563242021416
  0.0014053901971642  0.6061624361787453  0.9986058434721664
  0.0020131246905986  0.5971273344625102  0.1971190978237174
  0.0046032858511327  0.6016881229372335  0.3992207047789498
  0.0010698992929216  0.5979136998362045  0.5975088016429254
  0.0022308516326712  0.6039025585060347  0.7972543302787413
  0.0016378792637384  0.8056437458404011  0.9998289548660807
  0.0002204155858564  0.8002157465135605  0.1962832221127398
  0.0005973024375321  0.8026905712658430  0.3924778649874462
  0.0018325341411673  0.8012460147492044  0.8006766285621876
  0.2033550291772413  0.9995431990931559  0.9907213105446321
  0.2033589505011389  0.9992229690887775  0.1787500571628544
  0.2017872574854479  0.9988459045829342  0.6042743001811859
  0.2007986654068978  0.9988879026675241  0.7969150177180498
  0.1950797033958409  0.1994780066194231  0.9957295437309903
  0.2014783492595920  0.1961544432340127  0.1977155250836025
  0.2006827224148173  0.1994897443826595  0.3976760977604308
  0.2007346648692171  0.1971438511221321  0.5957919019900473
  0.2016012969725564  0.3994490795905998  0.9974876927286158
  0.1980503843185283  0.3987808768717218  0.1966961817224521
  0.1989171018735715  0.3989489038622990  0.4002833593466265
  0.2000469149819465  0.3966119370527522  0.5991627377876417
  0.2011435092432729  0.3993585488633744  0.7990195712771512
  0.2013349954038425  0.6000113294876319  0.9967045241900260
  0.2017347550551510  0.6007804212217012  0.1980446249905149
  0.2007002936289195  0.5991217700311212  0.3985847220235799
  0.2020897229707873  0.6002528598297491  0.7972808441166731
  0.2007468608850290  0.7999458680467664  0.9971007860804687
  0.2011254685409752  0.8011373722349622  0.1972548846355937
  0.1993926947626636  0.7959640512647994  0.3983156574601194
  0.2039881338640887  0.7990083424246438  0.5975294583667795
  0.2008135320069036  0.7984856884891494  0.7981520540494147
  0.4030637967657791  0.9970514347123629  0.9940559218297994
  0.3999914557523163  0.9984669259489860  0.6024922537304113
  0.4021820193623841  0.9987740755790724  0.7973791547672233
  0.4005095440232291  0.2004615920309348  0.2014432209260086
  0.3992704890923320  0.2025544527460710  0.3988386367177582
  0.3995724949743000  0.1986792824172126  0.7935365496502820
  0.4004871815926042  0.4053584359395678  0.9997905133228223
  0.3993581625585654  0.4008868724825229  0.1992762987379686
  0.3974739266500231  0.3998624011320188  0.3987072375027930
  0.3974947017662602  0.3988116372079106  0.5991532476703284
  0.4002585087717994  0.3998044273942293  0.7985623150044904
  0.4017366016904956  0.6012353525672141  0.9977653009091700
  0.4000208916298450  0.5995719893824778  0.1988014500544394
  0.3996786885898014  0.5981648336421970  0.5990228937126183
  0.4008792165895297  0.5999574973079651  0.7973690880332008
  0.4014277480785602  0.7988680768669292  0.9981843584424835
  0.4010701342447326  0.7987836580388037  0.1977748803566639
  0.4001920108290326  0.7924462190718125  0.3977240945706588
  0.3989449996594265  0.7974845582632712  0.5976790480236945
  0.4004715053901528  0.7992325452439130  0.7977522653027634
  0.6026654619313601  0.0008169127115754  0.9978312256073170
  0.5997584101525779  0.0006677300345455  0.1976976245191069
  0.5984572970082601  0.9998637749080918  0.3984554268388266
  0.5999536235868441  0.0017106565238025  0.5993460686226391
  0.6010270286601973  0.9998443782629217  0.7987802343480344
  0.6053850609789511  0.2013407311290574  0.0000561783943398
  0.6013889536291265  0.2006181087373858  0.1989229432598637
  0.5987795911699330  0.2007260883214016  0.3996030893561663
  0.5994803774346928  0.1989367705804319  0.5988109577968405
  0.6006263394038898  0.2003689800101318  0.7986355991130731
  0.6047489847782033  0.4015976236071335  0.9992457540319869
  0.6032159085258381  0.4005949389153876  0.2015874661331838
  0.5951596163966513  0.3992864612190356  0.3999844207624013
  0.5940301188900299  0.3983491484280522  0.6000820690118088
  0.5980145780906972  0.3989295853164195  0.7995571948418574
  0.6015002166860529  0.6001610024881047  0.9994850277442768
  0.6003216283794379  0.5995092294023078  0.1977095550710857
  0.5949986268173868  0.5990193318761899  0.3994835928190074
  0.5994326917939118  0.5959397525378668  0.5988798223339757
  0.6013433220285922  0.5987222510951195  0.7988816403192203
  0.6017622847012926  0.7999202620815438  0.9988854422403832
  0.6008624540065193  0.8004148093371083  0.1983617687422774
  0.5985860369073934  0.7986831734822983  0.3955228173971991
  0.6008574373499227  0.7998803298875342  0.8011292992912536
  0.8008462289221970  0.0008145213645239  0.0005815422240949
  0.8004231458454680  0.0008499558840797  0.1967625655170414
  0.7943071977200055  0.9988959495353897  0.3979795419269593
  0.7998905918509711  0.9947694757019724  0.5994628353943120
  0.8022690625044817  0.9969846921367558  0.7984141358064833
  0.8010331826573917  0.2017228856304824  0.9982081864679946
  0.8004564014768428  0.2007217311097392  0.2008278598238749
  0.7982374436321232  0.1928336918496914  0.4004731686295298
  0.7999936932510867  0.1899869872139140  0.5989342300700780
  0.7942031189337894  0.1920749177934825  0.7965609018889764
  0.8058326737906558  0.4022349071019694  0.2167453620529529
  0.8028720911142806  0.4006992128379399  0.9539838668849503
  0.8014339372775602  0.5999194315247947  0.9955781006520468
  0.8008490563422320  0.6011794971253736  0.1937693719983735
  0.7999234367114143  0.5968067577902699  0.6027804640036135
  0.8010343409282035  0.6033670039214487  0.7985489274529649
  0.8017180872829259  0.8028124628001103  0.9992240024832535
  0.8013002443780216  0.8014222823903059  0.1972822185686276
  0.7984018082062481  0.8063691538445020  0.3969981127941448
  0.7948798763700218  0.7989504173211841  0.5988134982052238
  0.8007984508201719  0.8001658059599956  0.8001702979736554
  0.0001923578165874  0.0025837705873193  0.1970469529029771
  0.2021899527333079  0.1991826158331266  0.7957531753284217
  0.1995670689482799  0.5963398748600449  0.5983507674215688
  0.4010406131853729  0.9993886861303203  0.1924992544893536
  0.4000551751669129  0.1989804064405934  0.5976857121337065
  0.3979373784104122  0.5974617878702281  0.3990106287690081
  0.0009901667092274  0.4007343083011564  0.1992060661224161
