Zr V  Cr W 
 1.0000000000000000
    15.4863295998759050    0.0024137293282322    0.0105674120120943
     0.0024156779473548   15.5040449564505511   -0.0174543962439357
     0.0105707746262879   -0.0174578174046017   15.4782021514271442
 Zr  V   Cr  W  
  10 107   6   1
Direct
  0.0005052822834608  0.9702335718309414  0.7577812428805548
  0.9978301542904507  0.1982007471972866  0.6097852128428505
  0.0002042214837970  0.4335585881070129  0.0391728573260315
  0.9982502157279201  0.5805098249862596  0.2184379880975963
  0.9603869290707063  0.7957057039386054  0.1929222002109328
  0.9986704912066030  0.7987953245676976  0.5984532919137152
  0.1972611770102823  0.5974969722413425  0.5942484847618371
  0.3583258878428477  0.8034376826956735  0.1990616068314425
  0.8427417712256341  0.4282575037453381  0.4008557669813229
  0.7497956391173262  0.7917291977769544  0.1985089233754808
  0.0006422511383937  0.0061282736004360  0.9993577795885448
  0.0028453922731124  0.9989849626790956  0.3928056429328937
  0.0003295486976140  0.0017796233177177  0.5715534765572031
  0.0008442316393040  0.2007511979096116  0.2016496963704839
  0.0020160965990426  0.2024409231287016  0.4008101473890891
  0.0010574140743080  0.2056723678011237  0.8103506080731810
  0.0073155717409814  0.3878790383214723  0.2321717635016010
  0.0363267175081753  0.4017701154204740  0.4066787345738533
  0.9988616843868168  0.4027246620729095  0.5997262303416837
  0.0002933299116321  0.3982197038512999  0.8036827066631578
  0.0002097406953498  0.6237918294540378  0.0112302985705783
  0.0051696391563549  0.6090087524997082  0.4163845677977996
  0.9931651800939514  0.5972444542778942  0.6081913780155753
  0.9988789365384466  0.5927854208830582  0.8079780976371866
  0.0008447876478548  0.8119991448639118  0.9918672249051557
  0.0017260750383357  0.8014666123192301  0.3949470976368067
  0.0003266531849460  0.7825528633065171  0.8035970406212696
  0.1995519390694428  0.0026411091551966  0.9974846522867717
  0.2002721181046580  0.0020546804319002  0.1981431611243915
  0.2022085300773559  0.9990636010620534  0.3972699223446683
  0.2009152829088715  0.9998004958943080  0.5982353174944209
  0.2029553075271095  0.9994571373839599  0.7999316522992558
  0.2016117420886116  0.2006650779781346  0.0011298753888280
  0.2021853895957620  0.2022502725820651  0.2011378383628591
  0.2009509438181779  0.1944565057038327  0.4009459867417041
  0.2016201798888969  0.1982133453719468  0.8027760695828506
  0.2036277527050006  0.4002853929947230  0.0001726020100248
  0.1997996417217741  0.4009335138653865  0.1959481257505863
  0.2009633515770996  0.3945848028178902  0.6056830234257714
  0.2003683533553713  0.3991051523978609  0.8025873723928284
  0.2000091369150168  0.6023251385447909  0.0004659470815901
  0.2045477874312647  0.6006303196587166  0.1983798079796504
  0.1990601642742091  0.6024964753581882  0.3916889829545551
  0.1994179955271179  0.5997684465967286  0.8044208577865114
  0.1991001015431526  0.8027596774004760  0.9995177066964595
  0.1713527426607201  0.7979149479331399  0.1965039082166330
  0.1988982146196234  0.8003969143636245  0.3972499735641687
  0.2056956620730784  0.8031553123654637  0.5992047857466783
  0.1992400836217998  0.7994652096545581  0.7989598677832854
  0.4014359724583972  0.0004746749040521  0.9982308457620149
  0.4021517185925070  0.0042273488700857  0.1979964262416048
  0.4012006858112902  0.9982339391513112  0.3986345727506335
  0.4024313516479112  0.0001477864904511  0.5984112523869120
  0.4003339539584587  0.9991848374023138  0.7970203771723036
  0.4012589388174820  0.2001204441223478  0.9992648512024755
  0.4015873318145743  0.2006983274545989  0.1999839049438175
  0.3994912444192183  0.2004896551683864  0.3996517303425164
  0.4023920970211806  0.1987002786121500  0.5994609658566667
  0.4011285503541308  0.4000147388355033  0.9998675290364223
  0.3988022167761980  0.3981712972375607  0.2015501396927487
  0.4030904389467532  0.3987529183827766  0.4007175239163760
  0.3992804271272024  0.3986020533784622  0.5995238194031209
  0.4017718801796233  0.3996940184682351  0.8000839638910405
  0.4015566854490541  0.6007514196596125  0.9999992566087146
  0.4026865771516120  0.5943539147146649  0.1999028495263098
  0.3985916309325892  0.5986678647722201  0.4002635638562632
  0.4048594620952481  0.5985436680927515  0.5996135591562285
  0.4004466789202954  0.5996036599945617  0.8007170961122381
  0.3991046451524962  0.8011300815583733  0.9945600314923976
  0.4006827844843015  0.7995645730880386  0.4026279230216681
  0.4007745459691999  0.7996382243484487  0.6002492924923637
  0.4000665582408495  0.7985049230246719  0.7986275839937176
  0.6006667974613944  0.9992748671377661  0.9987543339293887
  0.6011839051046882  0.9962855933351533  0.1987967539819315
  0.6007979183259081  0.9978551280904154  0.3978288537983941
  0.6009749412850227  0.9990485820732923  0.5971593470706811
  0.6006202097389027  0.9977782200406414  0.7978398009399716
  0.5997382265074321  0.1986464136927162  0.9999025106422199
  0.6017681209576932  0.2007469400912551  0.1991108710626257
  0.5999081112278767  0.1988562867912891  0.5994169385087864
  0.6005591043048164  0.1995249969850972  0.8001500418168617
  0.6009265654343223  0.3988382256742559  0.9999043017612853
  0.6038542656484198  0.4004189287031652  0.2003534753018546
  0.6039112049372422  0.3997449563411338  0.3988410183564047
  0.6017772087071528  0.3990919834199720  0.5984628267936994
  0.6001702751241992  0.4000624134583509  0.7994428794612786
  0.6017656472655739  0.5999210530886662  0.0038392027173906
  0.6029020384901225  0.6000144109510200  0.3964370060923338
  0.6009877591557338  0.5990420425811106  0.5973960444024615
  0.6018978090901552  0.5997835576139318  0.8019743602114685
  0.6004321704661156  0.8004079400368155  0.9982337002835103
  0.5636682682312960  0.7896865593277753  0.1991585162559243
  0.5992102571868059  0.7994274489013594  0.3989883554060196
  0.6003157701183002  0.7992360960752986  0.5988258984097463
  0.5996871695788866  0.7981034330715135  0.7986471553121699
  0.8014275530267452  0.0013992640857265  0.9970753363334327
  0.8017908372904006  0.9978057803095590  0.1983915789884491
  0.8000477930004897  0.0002679375664533  0.3982193358238759
  0.8017497691658135  0.9998283655988949  0.5989704127370854
  0.7982252629346710  0.9998156876444354  0.7991159999058253
  0.7995939692876614  0.2003280685052883  0.9998694407006806
  0.7998256263082419  0.1998619700198122  0.1994263965590702
  0.7999030898247474  0.1964929853410893  0.3989905011197593
  0.7947153167712305  0.2007945815141327  0.5999043140696871
  0.8001498731371719  0.1989391466753948  0.8014817341268293
  0.8064793982476665  0.3990680459698268  0.1960851441434339
  0.7992678423042404  0.3991652253905780  0.6014674389774903
  0.8000736971825680  0.3999693680860181  0.8008563100780842
  0.8023730542196491  0.6010119577347420  0.0001557370899885
  0.7916674811075950  0.5947119879450238  0.2063907339520225
  0.8018192742255480  0.6152329337055128  0.4023276608155346
  0.7976825144994590  0.5994389096145606  0.6004357929363224
  0.8004350473980910  0.5992126392878253  0.8021364583664233
  0.8018818641489718  0.8023511395275574  0.9971188139739294
  0.8056490741865685  0.8051552706252267  0.4008090556793119
  0.7938484350253485  0.7997800622051837  0.6004139717629642
  0.8003751864911128  0.7987765969835755  0.7987907272878327
  0.0004671486671767  0.0049963134045419  0.1972199862444063
  0.0008213959578827  0.2009915822518075  0.0039565391136871
  0.2047263733675589  0.1985900223676466  0.6015732498675200
  0.4015237397603252  0.1996637030258566  0.7997574137834923
  0.6003147899344646  0.1985839191922749  0.3986429196725692
  0.7981926883015213  0.3996307085771135  0.9985716198545939
  0.5999836284064222  0.5971541947013876  0.1995527696894956
