Ti V  Cr W 
 1.0000000000000000
    15.4680708186707445   -0.0019791925582942   -0.0047359324461698
    -0.0019790318440020   15.4527092295556869    0.0037359914958914
    -0.0047356967593003    0.0037361514560846   15.4658715029001890
 Ti  V   Cr  W  
   3  99  15   7
Direct
  0.9938005662210921  0.5916575005565125  0.7962822438119932
  0.8003696473486216  0.1972062920269992  0.8028359341044142
  0.8026033963910164  0.4115522118550065  0.8012176776732192
  0.0041127814310168  0.0005378493820385  0.0000605201639394
  0.0009969970553923  0.0003464708376078  0.2042061180791740
  0.0000569089762585  0.0002048540990265  0.4011698246231385
  0.0022898760655519  0.0002287431270320  0.7967177588137579
  0.0009585017812065  0.2006901600265751  0.1991852256667105
  0.0001515749724114  0.2000985756354260  0.3999236774102977
  0.0007373989143595  0.2005439944199167  0.6008530491915113
  0.0005856715081110  0.3937727933944541  0.0007582264457869
  0.0006254009836020  0.4014271328493053  0.2015611679336266
  0.9998490009500252  0.3999088463508473  0.4003661742774055
  0.9992384995909658  0.3985777116053000  0.5997905530789904
  0.0027601352370417  0.3956975119198368  0.7994093162391847
  0.0000068956442413  0.5994261540215028  0.2006251409320977
  0.0004736590428903  0.6013133691264024  0.4008114725887187
  0.9991482598221606  0.5995627079041825  0.5977957436209607
  0.9988054685243472  0.7992556221039154  0.1971410036398282
  0.0000188550739505  0.8006616848503233  0.3991437693170677
  0.9983852638500028  0.8004722547640591  0.8040500235056535
  0.1993824308296003  0.0013343282324373  0.1970973188256808
  0.2016605536703105  0.9999268427365435  0.3982817257525221
  0.1994729534224951  0.0003216646760542  0.6016785213223950
  0.2017860648750208  0.9993609423550127  0.8019370139260588
  0.1997527855898099  0.2001832420847714  0.3999249780375262
  0.2005967265338339  0.2008636625488263  0.6002728834334365
  0.1997624757847579  0.4017259730568611  0.9996726043715666
  0.2000190799937725  0.4015631439760686  0.1988848810158371
  0.2007360215846369  0.4012481136645102  0.4007852770845303
  0.2001917522933695  0.3997452914174698  0.6004132781618586
  0.2016977281674052  0.4029453068252098  0.8007731399690524
  0.1976924221964488  0.6010490863747876  0.9962828923411478
  0.1992584965835836  0.6008889948415252  0.4005061341268040
  0.1994001346210486  0.5998752900518962  0.6033219629530404
  0.1922570422377649  0.8010090142907510  0.0006001731099994
  0.2006159381003736  0.7989308786141570  0.2004431676368863
  0.1988424346921681  0.8002874838709357  0.4000399883702734
  0.1982555913838611  0.8008452602472820  0.5996543929934809
  0.1980976688881115  0.7940467279917701  0.7987543979325973
  0.3940857638816793  0.0013639091476027  0.9973041352710493
  0.4002439121402935  0.0001565864851287  0.4019543539553900
  0.4007189539926950  0.0009578432172568  0.6003783867399085
  0.3994979018018189  0.9997045668449243  0.7996372579552047
  0.4033791027152912  0.2000493663189270  0.9999911786816432
  0.3998659070324476  0.2033464596483233  0.1984440783936443
  0.4004592991738082  0.1993673882622060  0.3986866066923674
  0.3998552197869507  0.2004549396336812  0.6007177914391494
  0.4006247615016125  0.2009573067262453  0.8011873008907640
  0.4002273319411749  0.3998704026613615  0.9997329007058312
  0.4001033221876166  0.4012560146015601  0.1999653006776487
  0.3993016600799203  0.4012049809819400  0.3993661486251863
  0.4039185983776553  0.3999536449714418  0.6001645956770028
  0.4000890011505341  0.6007718632312390  0.0001582108725873
  0.3993866537251330  0.6005541175323680  0.1987794109941332
  0.3987619993563235  0.6013740578584778  0.3995760764656331
  0.4002638329239204  0.6015070667292419  0.5988778401975021
  0.3978841945292668  0.6003733951549416  0.8007442675885005
  0.4012869818542225  0.8008779934066806  0.0012391465792572
  0.4002059376313845  0.7986841120217011  0.1994757216265396
  0.3996127065373399  0.8013649547449139  0.3989005920263373
  0.4007741776727507  0.8006059835875740  0.5997777316323498
  0.4011476219509498  0.8002783673282616  0.8001723128474421
  0.5319391923053051  0.0010904213063665  0.0674335037883972
  0.5989309482218499  0.0012152828821352  0.2019152986749441
  0.6005034023569104  0.0011875931338159  0.4009590722380192
  0.6012807240664351  0.0017313414540514  0.6000993051558853
  0.5981566201985062  0.0016196508982715  0.7974199130424261
  0.6072795502243892  0.2016551575876309  0.9988893649424718
  0.5990383814022984  0.2001588555263251  0.2002153391370211
  0.6017262990058295  0.2005852867153224  0.3994813040355613
  0.6017824803383244  0.2045090170918877  0.6006673117181952
  0.6014649369499629  0.4006064511243018  0.9986505308200827
  0.5999214698899397  0.4010442686165859  0.2011317457595480
  0.6007315974111486  0.4003861028913548  0.4032383217378153
  0.5982940248753147  0.4003119841454577  0.7952362021256637
  0.6002368378536871  0.5998711237654379  0.9987119660422704
  0.5998118650583958  0.5997355273662210  0.2001473777971208
  0.5996811410322987  0.6019686569427711  0.3991804254439852
  0.6007022114657489  0.5981006433504918  0.6000711472937370
  0.5976943562145025  0.6001102266041870  0.7999760845565037
  0.6052755174787706  0.8002588272271592  0.9988483387620019
  0.5998463579609680  0.8021862206702207  0.1999983060002703
  0.6017279904935211  0.7998918284311761  0.6005470345083108
  0.5993488077079461  0.8004964049395414  0.8001263231319536
  0.8005847154698811  0.0012092509074764  0.0003787344734820
  0.8007150356326338  0.0000584678930141  0.3999638662145343
  0.8008113185507792  0.0003069144924615  0.5995164858896143
  0.7992266147542262  0.0013763226057526  0.7984113230917969
  0.8013354658318514  0.1998276509235920  0.4005734081167633
  0.8000683389487946  0.3996462953773786  0.0022822768262564
  0.7997749701732030  0.4023055288513826  0.2011861203744767
  0.8011037298689379  0.4008656419521947  0.3990947969569257
  0.7976900229683939  0.3994590847440507  0.5984446807415641
  0.8006829224864279  0.6037415783576087  0.0015688402300449
  0.7989240513220632  0.6004870083628282  0.2010237011392222
  0.8006094459548283  0.6020178366982375  0.3988691379995804
  0.8002669769910215  0.6034630831278519  0.5984742300627299
  0.7978015630468277  0.6027933968845428  0.7999010113650354
  0.7992226778091408  0.8001861567929658  0.1967206557980106
  0.8001960112469440  0.8006263204281001  0.6009190054637678
  0.7993795530741801  0.8020910248036129  0.8036588561980512
  0.0002629469506481  0.9999928404372731  0.5999936404084300
  0.0048543704263484  0.1987893368812247  0.8002253772111791
  0.9992924444121317  0.5982006251290026  0.0015902183384884
  0.9987559499633892  0.8006715158256740  0.6009098004332479
  0.1985577959786351  0.2001963116627486  0.9997967455277877
  0.2004901838958302  0.2014957771264843  0.1998323274802284
  0.2018485218420446  0.2009647197006436  0.7998751552607624
  0.1996640712425105  0.6003312765516959  0.1989028463329810
  0.4005460106094413  0.3997858564259297  0.8003499069795507
  0.5987163482798420  0.2010737354945271  0.8000064280011427
  0.6007239085105105  0.8006653093952576  0.4003156454659456
  0.8001327750788576  0.0009210235862029  0.2013684420023435
  0.7994635521910706  0.2004380553940164  0.2015576535124043
  0.8017826360617062  0.1997869599052980  0.5993075434892856
  0.8001997137719955  0.8013131520075518  0.3993767311592133
  0.9922749187129817  0.1963907773596290  0.0028096945998477
  0.9948682222834402  0.8039359899791872  0.0016279029851547
  0.1990495888346402  0.9955994682244989  0.9989643139327866
  0.2035842279391512  0.6002103420625576  0.7984402868194977
  0.6005897692903115  0.4028640135595072  0.5978810873420322
  0.8055881593887664  0.2003511900483918  0.0003491369352870
  0.8021413980231643  0.8029833325912209  0.9996582214146106
