Zr Ti V  Cr
 1.0000000000000000
    15.4889002550493640   -0.0195313770937778   -0.0155534076795571
    -0.0195267745976093   15.5102089440028070    0.0059105293967036
    -0.0155475950656657    0.0058984254639578   15.5083315327291498
 Zr  Ti  V   Cr 
   5   5 111   3
Direct
  0.9976850810716069  0.9931308982271989  0.8058094797314028
  0.2125951275579879  0.8022014352519190  0.1937492042618187
  0.2164101697548118  0.8084755754161504  0.8043167591119786
  0.3918335466836891  0.9645287361592949  0.8365664657013673
  0.3799613873268409  0.7933327631036861  0.9965742243603121
  0.1996030580233583  0.3999309990941698  0.9991175910621888
  0.2116734531289594  0.8128705736689714  0.5926372453368512
  0.3968806262738619  0.0119422720067395  0.0262341349715606
  0.3908424066068814  0.9888358732371346  0.5970921093098065
  0.8051567439314189  0.8026206357934919  0.1960898534333223
  0.9959956311831938  0.0043786043522982  0.0069038478938029
  0.9986259151974386  0.0005150669027721  0.2014745520924549
  0.9994278529382906  0.0001772763875458  0.3996579709242899
  0.9979050671372633  0.0002333118530895  0.5966539829734213
  0.9977794382630982  0.2013559447826689  0.0004405229590485
  0.9990544318586320  0.2010858721431969  0.1996783054760186
  0.9992916479764079  0.2004046192704531  0.3991479223695815
  0.9987936308131946  0.2012447676595089  0.5996593251742751
  0.9986528532896729  0.2032260228373306  0.7999990199973355
  0.9972621758375713  0.4010995645808562  0.0005707019840759
  0.9995754440476688  0.3995098171617179  0.2004820522010720
  0.9996894062998626  0.4007503287204218  0.3995576619946657
  0.0001336029277956  0.4007609763237562  0.5985633553846057
  0.0000886592591067  0.4004892084861462  0.7992356681232164
  0.9991085435639564  0.5967739925986416  0.9998601841669441
  0.0014078841941784  0.6005109422255434  0.1988809452639309
  0.0009745208502922  0.6002013841507359  0.3994955813553055
  0.0027536892532481  0.6005845027514696  0.5992702279064858
  0.0028182533157747  0.5995010052039137  0.8006279059914627
  0.8957764252881631  0.9005151092857560  0.0005983536439226
  0.0018245597680167  0.7998169701634806  0.2035977737657835
  0.0012644653515925  0.7991751716065781  0.3999645398561475
  0.0026252491400773  0.8003818742656084  0.5991692963744955
  0.0028300201265452  0.7930495651166323  0.7952302422850773
  0.1933085671177964  0.0035116418843186  0.0002281840990581
  0.1996568746840250  0.0044136809559031  0.1998163108614609
  0.1979620793101561  0.0017161141214141  0.3986387829754749
  0.1945826586628679  0.0079420575921079  0.5987496526919173
  0.1968146374303249  0.0122142387668442  0.7990292772581264
  0.1991292159043900  0.2004024001573424  0.9985405576636109
  0.1994734750749887  0.2012183702690029  0.1995476524025365
  0.2000058477913823  0.2003398407116922  0.3999562714235833
  0.1991273362056440  0.2026357956703999  0.5991174516545480
  0.2000053396994320  0.2035633877037419  0.7993813908872857
  0.2000881269251659  0.4002930140367391  0.2013627932278450
  0.1997876264951845  0.3994396519515043  0.3996701410247268
  0.2002090872009133  0.4006891362402717  0.5988333983130100
  0.1999105453097277  0.4014936589132658  0.7976732605345800
  0.1995717145971698  0.6053706999469178  0.9991156586201914
  0.2011476517006709  0.5966888888427390  0.1993613288926221
  0.1997013596065901  0.6007998008728322  0.3995965878934905
  0.2019953753102875  0.6009065142270719  0.6006963657638891
  0.2020832363100412  0.5985239108956659  0.7994881838666839
  0.1566071393088349  0.8020292227667730  0.0015140136096336
  0.2009725219507025  0.8011194278548754  0.3983900805129064
  0.3990882086070300  0.9993535224934461  0.2092701692738090
  0.3983974871365415  0.9986215825369370  0.3999740256423205
  0.3981148799021024  0.2026707742740323  0.9984886964388142
  0.3997058481707539  0.2011501855808624  0.2009549098403788
  0.3993434588778461  0.1988475002947803  0.4004941160998244
  0.3990928803698898  0.1979023120159700  0.6014086932342132
  0.3997217960398159  0.2024796589059960  0.7987319163984820
  0.4016578450279004  0.3981993685643744  0.0007214010254640
  0.4002538556034821  0.3989922891062727  0.2007410287561827
  0.3997794199029469  0.3994448837457540  0.3993894030731772
  0.4006745179683724  0.3979910134967832  0.5980539690342221
  0.4013197056398961  0.3974225982770553  0.7980766503755579
  0.3999582494147465  0.5902883682269241  0.9999411826306108
  0.4004486050674956  0.5982475984005138  0.1987604174114552
  0.3996682954371015  0.5984801273286348  0.3985262915149543
  0.4004800916124038  0.5953433192866320  0.5974289570758886
  0.4017047585695800  0.5907741696212343  0.7997990705067196
  0.4105447793391394  0.7977906429009417  0.2041727182279960
  0.4020874046215590  0.7971120842866760  0.4004730517338094
  0.4084427833337626  0.7915786767002578  0.5952211772837012
  0.4173966874780192  0.7767164554742571  0.7890799238769769
  0.5937008551395940  0.9992516562949645  0.9995611646296275
  0.5997614470828835  0.0003124843837130  0.1984963968151618
  0.5988875720187313  0.9996709205269946  0.3993405518316485
  0.5991127569698391  0.9985406902189035  0.5989789152298699
  0.5995938197875995  0.9994151706001511  0.7994836102299121
  0.5987473408151213  0.1982153470570199  0.9982558217957280
  0.5992385091685812  0.1997425207539321  0.1992641365454399
  0.5985623399656225  0.1983391516820482  0.3996497278001198
  0.5992581022602401  0.1979202179811406  0.5995743564369884
  0.6000471679096109  0.3985862144621611  0.9989649390715184
  0.5998386178299037  0.3988200570557813  0.1989891487262224
  0.6000458928797123  0.3992697230172220  0.3990343370434832
  0.6000141970558019  0.3983827660888895  0.5989544676196529
  0.6015295661773005  0.3983349094248476  0.7992246727590474
  0.5989031233590009  0.6000661252474900  0.9984868452070835
  0.6000283887084975  0.5997764668457065  0.1982142183281561
  0.6003957426352569  0.6001576144213145  0.3983858458795739
  0.6015524493203918  0.5985970459047375  0.5990997436028187
  0.6030843300463716  0.5972755470130576  0.7993296953889798
  0.6007717408960987  0.7993931896559883  0.9974915333480299
  0.6006897287527543  0.8008021655859779  0.1965822089647972
  0.6016027498155420  0.8001744536727580  0.3985303642909586
  0.6046662286020504  0.7991707440179050  0.5982362706443881
  0.6058320027619923  0.7986783366437714  0.7984024289827084
  0.7983275461094603  0.0033543182859681  0.2018972406787780
  0.7993147523245323  0.0002048587982333  0.3994585963097281
  0.7990154267171251  0.0004770300098862  0.5992785408954853
  0.7944340157789682  0.0004589560331654  0.7984390987206312
  0.7986908110991705  0.2000129894427255  0.1992767083060272
  0.7991334838242755  0.1998829112432409  0.5994212005352808
  0.7992603732039840  0.1999367052326755  0.8000670140222590
  0.7984228089356279  0.3982261175163982  0.9992967906135571
  0.7996249308447448  0.3995448997034832  0.1998639141738703
  0.7995875953740107  0.3996653866641237  0.3993555867453434
  0.8001865745541265  0.3992444280686889  0.5991884696335785
  0.8005798873516039  0.3999947687208228  0.7994026616994654
  0.8011417606730312  0.6003828928605511  0.9990599561010576
  0.7998765480940978  0.5975135096842814  0.1987988817424572
  0.8008908250778844  0.6000185428789564  0.3989604249621364
  0.8017372913482606  0.5993809612517005  0.5994291675610935
  0.8016303723549758  0.5986956252084299  0.7990283634399243
  0.7997530541324360  0.7989785868619923  0.9964859471575414
  0.8002994046179690  0.7999452251814709  0.4013121482801336
  0.8023573841240033  0.7993832868257694  0.5985770837982701
  0.8032574632611212  0.7988607110969735  0.7992718974673704
  0.5993146363091121  0.1984609348734591  0.7993358952267156
  0.7974674912446141  0.1992463902794855  0.9994386488162478
  0.7989444728619004  0.2001798625153674  0.3999306349359627
