Zr Ti V  Cr W 
 1.0000000000000000
    15.4219977637485020   -0.0153525296692176    0.0018800521315798
    -0.0153399539639544   15.4042384266248558    0.0149563524432868
     0.0018828811446291    0.0149768248118706   15.4308175709018371
 Zr  Ti  V   Cr  W  
   2   1 100  10  11
Direct
  0.6029443188577515  0.9856500493040860  0.7875933800769008
  0.8060840015703266  0.4053474073930664  0.2024735180343163
  0.5974716395453463  0.4032579423556694  0.1972494759710656
  0.0001880702756300  0.0017705136573121  0.0003701892052009
  0.0004436395979723  0.0002483496396008  0.6007787754580768
  0.0008212727394676  0.0002548912107046  0.7997966401687558
  0.0054433644833459  0.1997777599238150  0.0009933849797450
  0.0013453721194315  0.2026901137972348  0.2007964577767736
  0.9969719314060173  0.1994538477818804  0.3999748925615028
  0.0014778295329290  0.1997424574575798  0.6006947001813633
  0.9998456918569324  0.3989679997776905  0.0035701689687540
  0.0009469271801961  0.3997119208487249  0.3981238261004514
  0.0010107358588943  0.3999411623374025  0.5994941788688357
  0.9996901290113920  0.3995411584803344  0.7992721528411445
  0.0032021645394996  0.6002681345568278  0.0009985359743794
  0.0015044637827837  0.5986977627271881  0.2001398105657458
  0.9997533384922328  0.5994132330448464  0.3994968475966238
  0.9990477156746895  0.5987374480380774  0.5987323120121573
  0.9995842840479423  0.5993826060267007  0.8007906223559056
  0.9991066774605381  0.8020359338508575  0.0002450536841443
  0.0008058754038051  0.7992913164272997  0.2008668071978227
  0.9991586072547450  0.7996057543647924  0.3991638237102544
  0.0023509871967478  0.8004449579965730  0.5999023922138288
  0.9963028772325918  0.8006564055750937  0.8000879297424833
  0.1985799713068866  0.0048568871955194  0.9994727019327765
  0.2023780923397937  0.9988202775324226  0.2001649205528173
  0.2005568301573061  0.0009368236216450  0.4001206427514861
  0.2007517344482279  0.9968554921833925  0.6006585633203403
  0.1994386467478861  0.9989061143434261  0.7997319035507184
  0.1999935161232047  0.1995534628519521  0.4011350958753068
  0.2004216722787480  0.1988688601939698  0.5999485448150701
  0.2007194750213208  0.3926982870823401  0.9996994376507908
  0.1995818079530761  0.4005865498849182  0.2017942415382196
  0.1999325143464991  0.3992940854170460  0.4018413445666969
  0.2000299377717941  0.4050068563726177  0.7987455310988283
  0.2042336558033780  0.6017379637107325  0.1956508736931522
  0.1994266178447245  0.5987386925986377  0.4013680508536954
  0.2009833998241420  0.6025335578813134  0.6049332124201797
  0.2005391224170386  0.8034001369434749  0.9987676058412859
  0.1992080441811538  0.8011830314712137  0.2012597492127743
  0.1992693700865150  0.7996266258418271  0.4041254898371621
  0.2008772493820385  0.7969085435271736  0.7961125138548316
  0.3999897824932207  0.9979953573688833  0.2020290610794974
  0.4011504822804010  0.0018172643788336  0.3978625920150679
  0.4036670779158261  0.0014315601482950  0.5983691087523209
  0.3949393369770076  0.0013178415894361  0.7981294073525047
  0.4005561774662712  0.2028539944863780  0.0007802161509645
  0.4021666037821078  0.2013885082494750  0.2015542167422314
  0.4023338858104329  0.2016202036311954  0.3992547411989780
  0.3996036431643168  0.2010542595853894  0.5991756971506704
  0.4011549271304900  0.2006501439373946  0.7995603717354972
  0.3994214256444252  0.3999345825591888  0.9990928713405745
  0.3968296898338919  0.4067476328231300  0.2026381373934761
  0.4003917047444422  0.3994244755588123  0.4005168008745704
  0.4000858745362413  0.3994875573015363  0.5987811398238413
  0.3994429097330803  0.3999422422481214  0.7971977374070777
  0.3960952295428160  0.5985045147544512  0.0023499730117900
  0.4002337178972163  0.8676363985005733  0.9997949520553439
  0.4003662286494279  0.7975856517772372  0.2011011497301419
  0.4014846132212989  0.8002267684741151  0.4001063848845753
  0.3955542170078399  0.7993102487458210  0.5973132335145952
  0.4027952625204987  0.8033089174890562  0.7991221683277435
  0.6037932651074739  0.0046463180448751  0.0001889519788834
  0.5990478069238703  0.9982986123033850  0.1984885411623139
  0.6011307161452536  0.9996423779886875  0.3991143662895155
  0.6001211725919716  0.1987163888511131  0.1948896550264302
  0.6052998586628453  0.2009305801131260  0.3976692706698443
  0.5999647381758977  0.1954650419027102  0.6041074606299797
  0.6011705691139038  0.2018556872178910  0.8039281425060069
  0.6000622167385095  0.3959196717904320  0.9963789759102915
  0.6005505859271014  0.4004679420369221  0.4034021994239744
  0.5994825301353903  0.3998111742737889  0.6005208898615098
  0.5999190858773001  0.4053873490138162  0.7978462349402616
  0.5983984136785460  0.5978524898005351  0.9959644114904104
  0.5946922150408518  0.6049199759923762  0.1971372305445800
  0.6010655321557430  0.6001095672440236  0.3999346427197185
  0.5994884866345815  0.5995924385880174  0.6022108168507871
  0.5999151071572381  0.8044032727182110  0.9946172550129835
  0.6000505395412142  0.8015183425032696  0.1978894729553810
  0.6015730837824969  0.7995725683297720  0.4006931311951728
  0.5982358450372993  0.8021095168010024  0.6016909647872788
  0.8027252668262304  0.0015686767852099  0.0006606163249925
  0.8020604839279606  0.9988902366110227  0.2010540650812683
  0.8013259464437628  0.0034449158078160  0.3994732373348666
  0.7970232810041371  0.9997850518071357  0.6004958803123605
  0.8075051093754179  0.0006869962104753  0.7998330790559828
  0.7956171406342403  0.2002785708064850  0.0007610678780226
  0.8012791492724936  0.1963797449488840  0.2043318964057943
  0.8008947670588499  0.2001919616314281  0.5969080278169728
  0.8009049002080720  0.2004496083265472  0.7994589857142994
  0.8019656368027404  0.3993491825390178  0.9967705505538499
  0.8001051216259707  0.3955818916617419  0.4067982903120148
  0.8006589781320484  0.3989948682427983  0.6019099517607384
  0.8007267555160243  0.6005731935662666  0.9999690439911364
  0.7979337345735372  0.6072370162433284  0.1992741177385079
  0.7989559228047117  0.5988973344132109  0.3998583618603954
  0.8005965948290162  0.5999529795541799  0.5989916915989658
  0.8004256996867043  0.5993652444487101  0.8000517075393647
  0.8003501115691600  0.8005786070929370  0.0006105330035816
  0.8003392171073026  0.8023800038635741  0.2000788991392117
  0.8004518787614716  0.8003891360098079  0.4006914446354689
  0.8025154810690047  0.7993859305960977  0.5984633886444892
  0.7978354015665793  0.8005512994567245  0.7995191336270052
  0.0020819443428144  0.0002760272636830  0.2008037211803096
  0.0005989951968961  0.0001117229733998  0.4001138046527071
  0.0007991825492810  0.2010210009716186  0.8005240632380846
  0.2016156819169001  0.1996389393211611  0.2015885491797526
  0.2002490232353903  0.2013047296557933  0.7996359166737627
  0.2004498114835686  0.4004638129917943  0.6002725089722644
  0.4003163220590900  0.5997136521934761  0.3996721742640821
  0.4003855418839865  0.5998923289787845  0.5995066047741274
  0.3993191170615289  0.6004208528554290  0.7999261459388057
  0.8017487594447928  0.3998078334714531  0.7990864510986101
  0.0070002698601303  0.4027237237469647  0.2015858683405892
  0.2038348257123790  0.1986529898580064  0.0010308096495171
  0.1999368390170381  0.6048462949612662  0.9971093251351835
  0.1937958933864062  0.6016263220060764  0.8055696170260553
  0.2002094508907686  0.8002332477793058  0.6003555626887572
  0.3986983975835090  0.6022163143639547  0.1962792783493482
  0.5993753920014930  0.9989587495522139  0.5905725322348425
  0.5983105583067094  0.1990345023893785  0.9980213282482032
  0.6040052634077551  0.6018041490656701  0.7999016727299948
  0.5995862681567586  0.7869679334491222  0.7986992584728851
  0.8001975796396209  0.1997451721472847  0.4003846694073014
