Ti V  Cr W 
 1.0000000000000000
    15.3660384737921660   -0.0005376361430344   -0.0071098524204557
    -0.0005380862180412   15.3658728178464994    0.0022583698723901
    -0.0071112580112583    0.0022581408279047   15.3780529877332786
 Ti  V   Cr  W  
  14 105   2   3
Direct
  0.9977017249498802  0.0023421189883633  0.4024021582416977
  0.0030702492948577  0.1933948899919796  0.1997349274108137
  0.9901870196400243  0.3937250575909895  0.4015867465424595
  0.9902297383644866  0.6077911669575500  0.5947504580067233
  0.1921527915581337  0.0013482752780660  0.7968636450707222
  0.2006548958807340  0.3984813025340825  0.4015734319409349
  0.3980695253126119  0.1990780157130701  0.6066874910502879
  0.4031911044057727  0.5922921787105644  0.7957482136055333
  0.6116626032707735  0.9982399750405043  0.7894022986870223
  0.6042905699164898  0.8020621182313705  0.2064427906063031
  0.7931596015871640  0.0016597443104258  0.6030188672032475
  0.8051467014742039  0.2060730378333863  0.4015425530866183
  0.8005333290703504  0.4218316770919066  0.7996890453041064
  0.8046298874172056  0.7892785273086083  0.6147252293359583
  0.0009180612305080  0.9990653416542472  0.9965113330916311
  0.0006644354653199  0.9968637706672382  0.1970608102549447
  0.0014010988828390  0.0018853467172020  0.6055165090560981
  0.0010321202276928  0.1999724124219190  0.9973185319154246
  0.0032625175825469  0.1983891043405121  0.4045364663800525
  0.9993697346297087  0.1997439236160944  0.6017545351294457
  0.0009648604193435  0.1968523992429761  0.8001668294523521
  0.9995345126470738  0.3988410841281886  0.9988324066815284
  0.9997540880366362  0.4002567765968290  0.1983004538009611
  0.9973093403701090  0.3983982714604916  0.6048178240610768
  0.0017475220862302  0.3991810311265512  0.8001764024829405
  0.9998740396524943  0.6017510354418613  0.0002465748603639
  0.0002216923895324  0.5995222085498830  0.2004341213659333
  0.9979188772176517  0.6021111544792080  0.3977697277841073
  0.0019758670181331  0.7992946281967839  0.9993929875412236
  0.0017492116572266  0.8006245706757343  0.1992006519136101
  0.0001010044960676  0.8008184038091963  0.4010865516139743
  0.0028759416653821  0.8048902316757101  0.6007480687355975
  0.0036281768050053  0.8037342768295536  0.8013945849198099
  0.2003786541848458  0.0001976529876311  0.0025317663308560
  0.1993703094557417  0.0009465701092553  0.2009906841956458
  0.2024141920075826  0.9992308951949733  0.3986416180951604
  0.1997343863530347  0.0004371793706828  0.5939813493213421
  0.2015556851109308  0.2001680433588585  0.0005838203971933
  0.2029749329745694  0.2001194939694790  0.2006657073812948
  0.2004662352640993  0.1975274412244842  0.4001133930686877
  0.1971239610147254  0.2007479098978645  0.5987549781550227
  0.2045821035888351  0.2033466318736993  0.7978839801718700
  0.2002018013155222  0.4008560879427385  0.9997883042372426
  0.1986850405872096  0.3988113134345108  0.1990510303233944
  0.1972066437000085  0.4013813600464213  0.6006801498101841
  0.1993939855700405  0.4011355507887171  0.8000245896463697
  0.1999957741403736  0.5993191805748338  0.0007848833195652
  0.1986065401074521  0.5985651865958118  0.2016045495403109
  0.1982860610839480  0.6009745491585192  0.4000532560934772
  0.1981290629648463  0.6006348727294887  0.5994983456755095
  0.1955183640413186  0.5991070248124835  0.7989255351651418
  0.2055759059939750  0.7994165036592681  0.0001523879679310
  0.1996449540596295  0.8006402317995351  0.4004924275335968
  0.2022927818181471  0.8000293248383715  0.6001713775671149
  0.2015795849385977  0.7965671948021354  0.7988240448869853
  0.4014551601125626  0.9957912512665074  0.9989930451207059
  0.4010639745592272  0.9998451199422514  0.1992513308834019
  0.4007389172814659  0.9992773153600236  0.3987052481891281
  0.3990150342275403  0.9974677184567943  0.5996782606216976
  0.4010036458237836  0.0034452399100060  0.7981263804988785
  0.4015418914821605  0.1978981229978753  0.9976640092917172
  0.4002578757449498  0.1992084622384540  0.1982274187922866
  0.4006133375538232  0.1988115257660670  0.3994725333621006
  0.3999018559704572  0.4016299384487311  0.0000050550632009
  0.3996576607906013  0.3989675939150775  0.1992474762901497
  0.3999480791779481  0.3993048625673806  0.3999264766518750
  0.3989470518257638  0.4030062169485953  0.6001565501986389
  0.3989765385814844  0.3926796491317140  0.7994458534437191
  0.4003850013497585  0.6029607250654279  0.0007707314105105
  0.3993933493019968  0.5992842115065349  0.2004649544137407
  0.3996551309863902  0.6015975102290546  0.3992541189860956
  0.3984978251107737  0.6003591845637520  0.5982045800397382
  0.3987135179446100  0.8003836539169408  0.1963555244237825
  0.4000501018427491  0.8004327952093869  0.3990517858971155
  0.3994943662665210  0.8003092730869380  0.6022569375044317
  0.4001710006273806  0.8034535260801725  0.8034250487110974
  0.6031222903207710  0.9997476577345112  0.0007365879475328
  0.6014986633476657  0.0030884491309837  0.2010037015137759
  0.6007511644325934  0.0008833954228039  0.3994666486391242
  0.5968438412572011  0.9996218472847486  0.5945455611596175
  0.6002672531341529  0.1991076836931595  0.9992888380347871
  0.6007933162599166  0.2003346745189683  0.2011560782686645
  0.5986573558345542  0.2000907859698943  0.4015935757069801
  0.6022227894829528  0.1998333511540017  0.5995118274375347
  0.5986781503748905  0.2020046943530476  0.7989689556528424
  0.5997312230391669  0.3992472886536170  0.0003297459270086
  0.5996828765879021  0.3987281452918985  0.2004936767850238
  0.5978504889321414  0.3997513511815466  0.4006588033926936
  0.5987826410429706  0.3984352279999199  0.5987035909058209
  0.5989733745953617  0.4010504686561425  0.7986329102411627
  0.6006472365109577  0.6004498156514552  0.9991292456125349
  0.6007993188439422  0.5970575322101607  0.2013798520456661
  0.5988111754706023  0.6006857682045975  0.4003474310754665
  0.5991757267488574  0.5993153936124246  0.5992413850077237
  0.6014806450443614  0.5992036425164555  0.7982710698557076
  0.5976097069790445  0.8003175180298202  0.9965514817481068
  0.6004948091249589  0.8004929716683328  0.4049225555273019
  0.5976861193800299  0.7992295516635178  0.6013891922981934
  0.6016198203034890  0.7967069811097551  0.7980913583211984
  0.8005311383112546  0.9987091485563288  0.0021237616401118
  0.8021613603728380  0.0013423038623150  0.2006456675283256
  0.7982445523363094  0.9991960696451679  0.4001837430074508
  0.8072702093835531  0.9991039489245775  0.8038902899241521
  0.7996776729691483  0.2009437674192930  0.9992692813229666
  0.7990908183482109  0.2001955563122538  0.1986641379145869
  0.7999730688764234  0.2032757386125246  0.6040037057521782
  0.7997349303173760  0.1952510582615115  0.8002540028262711
  0.7997625622583212  0.4009165890399422  0.0013643288136959
  0.8007078857549069  0.3995894629098315  0.2007339474922492
  0.7947291313988614  0.4039260145471352  0.3993589527024413
  0.7986480038080491  0.3988462781970201  0.5981467998540657
  0.7998389070799516  0.6002838314455154  0.0012230473749277
  0.8005437181799415  0.5999669302295128  0.1993133529997273
  0.7977346192860943  0.6015171543110936  0.3985972223911111
  0.7963834423508889  0.5952031722880097  0.5976374244042076
  0.7994160341165168  0.7982570791982662  0.9995812074311319
  0.8033001014202940  0.8002186237114605  0.1995129442813461
  0.8002231800868219  0.8015940235376491  0.3969391712138322
  0.8016310104521638  0.7322576283274342  0.8015690087599068
  0.9986461918642646  0.6021288724971667  0.8021900630364860
  0.2001371238131083  0.7994531006911412  0.2008118097433105
  0.9996535898019646  0.0006460129577191  0.8000842682895238
  0.4008062561606827  0.1979405947262057  0.8045136760736608
  0.4018994363851288  0.7993432530200685  0.9991802322873903
