Zr Ti V  W 
 1.0000000000000000
    15.4529206753737594   -0.0089219929548298    0.0139355642811389
    -0.0089343212131673   15.4627799901828133    0.0191221628419376
     0.0139437596884260    0.0191164033920139   15.4587375740632638
 Zr  Ti  V   W  
   8   6 108   2
Direct
  0.9908559413785941  0.3872118132922066  0.3662156104857187
  0.9974607965918479  0.3857491075365596  0.8093283540762941
  0.0317625265080735  0.5961684540107486  0.0029414979016440
  0.2438225596321744  0.5992063965154554  0.0014121657526240
  0.1988349824525585  0.7981007625273108  0.6037995058570086
  0.3995877889255924  0.2016179475837485  0.4023443265501891
  0.8153753090340666  0.0209037340488052  0.0142087085382998
  0.8079972708304327  0.3991433112994875  0.5962403780121426
  0.9842442865915608  0.1975420644741135  0.9751157722078165
  0.0065154303391528  0.2127111234912158  0.1913269522388575
  0.0004939357126938  0.1801573988484695  0.7835930228280897
  0.1917004734787907  0.1974964287449869  0.0068293430398414
  0.5908560136006448  0.3990732289801721  0.6011348421703465
  0.6119785403534217  0.5992202644348956  0.0015931633654351
  0.0128441198220371  0.9978058923760313  0.9979501607807227
  0.9978490671093333  0.9997426457856947  0.1968370080002312
  0.9996309699861498  0.9967835731231292  0.3984333181332687
  0.9997754518260334  0.9989997596802551  0.5986472633335863
  0.9997290593521916  0.9901441089525508  0.7990626760891365
  0.9982474531399522  0.1906551741240112  0.3970292229910977
  0.9992868181161422  0.2002446436251453  0.5912370851911717
  0.9978070517547267  0.3933901361755406  0.0060379821550407
  0.9979221364800497  0.4115705703318229  0.1726320275720988
  0.0093928214911500  0.3981901054008202  0.5998794290836040
  0.9980219714336670  0.6034437028219083  0.2076819653527432
  0.9979754735186793  0.6001096867315672  0.4023990696526080
  0.9987530896997882  0.5960688029087000  0.5992052496538839
  0.9962193699267142  0.5988311439163136  0.7974125459575384
  0.9987789174424164  0.8024689454500794  0.0008655543495177
  0.9982210078405001  0.8002497188487752  0.1992831738342771
  0.0007569226217910  0.7989501473801535  0.3995364501992894
  0.9931708775443838  0.7996792294866231  0.5990446097452163
  0.9972026155521085  0.7959880964195852  0.8013018193678091
  0.2030147985364792  0.9990761702842027  0.0024679304666573
  0.1992726852969278  0.0006476576793037  0.2011392124984145
  0.1986189648629019  0.0003438247770360  0.3993558692969805
  0.1993137167075457  0.0034360706761826  0.6002519048024697
  0.1983606107176920  0.9999403977583132  0.8028447299864403
  0.2015187884246947  0.1983397802918077  0.2031832309098305
  0.1942150590958749  0.1998024701525667  0.4024995134138935
  0.1985734186637819  0.1999357864904228  0.6013094220353135
  0.1984311277296877  0.1979695698751762  0.7983660429115971
  0.1996391669140438  0.3977374053732326  0.0017486507474960
  0.1950077215777848  0.3990880438273709  0.2043904004386881
  0.1998312699709897  0.3984631840247134  0.4017703467828657
  0.2011209019920203  0.3974687800658003  0.6026449002681900
  0.2019486764297785  0.3965967176737959  0.8034827921581718
  0.1969770660903923  0.6008017748975776  0.2036678276478213
  0.1989980864020525  0.5973165728988089  0.4031198831035849
  0.2000006109648496  0.5936774371611978  0.6016676753337726
  0.1930715558773242  0.5964335700030943  0.8009059631246687
  0.1969029958977407  0.7991357453389246  0.0028093369412696
  0.1992489049898957  0.8006627469922254  0.2009767555782722
  0.1995557455609408  0.7994793103623503  0.3973823472459644
  0.1987205941240447  0.7986446743855319  0.8070538176426795
  0.3989753448787584  0.0009969340776770  0.0008612086261783
  0.4003956407412448  0.9999607642010665  0.1994544116368794
  0.3986147522067439  0.9967433614386442  0.4005437823107752
  0.3992594297970018  0.9998105769790460  0.6030046814388723
  0.3979059233286313  0.9988939489245746  0.8028834136059666
  0.3981648898710664  0.2047170127625384  0.0001258072667145
  0.3995707333875217  0.2006170175478503  0.1967347200005394
  0.3989594079887526  0.2007020108696198  0.6065376417975037
  0.3987043699159792  0.1988267607232745  0.8028937100114937
  0.3954072615103967  0.4012809743673032  0.1954928494734156
  0.3968864848572487  0.4051763555634146  0.3970398685557849
  0.3964081910880083  0.4002694228103996  0.6053244788420594
  0.3968463404694563  0.4000010532198248  0.8075682867758620
  0.4302601867635615  0.5945078702664433  0.0012581923271176
  0.3994588629352585  0.6008099356294683  0.2017923905754628
  0.3989492456521002  0.6001470984944641  0.4023859642379407
  0.3995238656291065  0.5983633748444028  0.6027198161394774
  0.3990294209657353  0.5996362045184456  0.8021836519910235
  0.3992069426618160  0.7965727509678080  0.0019240512602465
  0.3993703139085241  0.8005904266745386  0.1996163209726728
  0.3997275596278800  0.7981473648349057  0.4003632191013232
  0.4035801606751536  0.7989007153014418  0.6031866314089553
  0.3984323512037157  0.7987576619425205  0.8032504591423536
  0.5986821314655119  0.0021529070854065  0.0009270872314122
  0.6033979169306719  0.0019868164235537  0.2006928041976104
  0.6000668119952129  0.9991960781410189  0.4016885500161462
  0.5996420815981163  0.0000093752026398  0.6004947717712523
  0.5996214971190217  0.0002076100175966  0.8014189422250994
  0.5965083363795214  0.1999840002804856  0.9987351185272930
  0.5991063618641622  0.2014797790198289  0.2013459099253402
  0.6042220733000846  0.2008083551887214  0.4004858413514424
  0.6008544701006701  0.1977199318008440  0.6009797461985997
  0.5985362013931822  0.1989464429651288  0.7989723308594744
  0.5932571318896475  0.3965740792887538  0.0021492661911366
  0.5973216618394624  0.4015086892930192  0.1992228899659993
  0.5947956321798265  0.4002760038239112  0.3970858574863858
  0.5955655687538346  0.3998968226860270  0.8039932422651065
  0.6011490041532032  0.6024571555322448  0.2056040300101598
  0.6001986436315395  0.6016684019105807  0.4022133910575635
  0.5997973891551459  0.6020538830897466  0.6004498345846043
  0.5997304483867463  0.6007431770545371  0.7967378005997175
  0.5995720269344859  0.8046591802358010  0.0004958159470134
  0.5996103693036641  0.8015408905528812  0.2008230252476695
  0.5980732573489416  0.8005386717103393  0.4007863627572892
  0.6005987348553796  0.8015533958032452  0.6000334821651220
  0.5980336278704306  0.8002976965198635  0.8023117503430200
  0.8005235537662767  0.9704154183323621  0.4004852014037888
  0.8002133939765389  0.9997856917999004  0.5998257872446898
  0.7999324971973667  0.0006739141543810  0.8017535695442781
  0.7896746772341372  0.2150934865526001  0.9968257212929826
  0.7971187029404384  0.1992990154911596  0.1945905588916471
  0.8026689643154009  0.2044255077232861  0.3984389645424165
  0.8005294501964187  0.1965372441732516  0.5987889220143608
  0.7957384836901606  0.2012379244406298  0.7981385109959090
  0.7954931316268308  0.4064915864938983  0.0011967547380090
  0.7987750480397402  0.4025736365312629  0.1972796879978998
  0.7887471993046118  0.4001616465559630  0.3923217434101768
  0.7907566767585681  0.4020887988149497  0.8034780849890975
  0.8079051596825041  0.6027106054271781  0.0004425232755272
  0.7991580170667327  0.6062604676701590  0.2022428755833749
  0.7994013022252957  0.5951135853236057  0.4020401215780094
  0.7994693581985325  0.6050867969088691  0.5996977994016818
  0.7988521161067134  0.5997941979640430  0.7999427575591410
  0.8001997166246597  0.8027814139511936  0.9992995301811241
  0.7989778130380275  0.8068721731213192  0.1965401052072055
  0.7981924886746860  0.8013782405219447  0.6024589768504170
  0.7969883102814567  0.8014379899789814  0.8020342826067264
  0.3949338971422228  0.4016888540925994  0.0023365872393411
  0.8010209183765491  0.0025784170095058  0.2121727086918945
