Zr Ti V  Cr W 
 1.0000000000000000
    15.4218125631900325   -0.0059686382723848    0.0062585989012477
    -0.0059677460242910   15.4281327699692579    0.0068346148581175
     0.0062604253005019    0.0068382331099848   15.4329886035241781
 Zr  Ti  V   Cr  W  
   1   3 110   3   7
Direct
  0.3990195712752150  0.8023443919597389  0.5975728775594522
  0.2010119462444083  0.6058664800504671  0.1902445480233418
  0.1991347077090773  0.7903846952952033  0.0079421669645681
  0.6003083467594159  0.5976393867580625  0.5806323442363175
  0.0020819228106823  0.9980808981816577  0.9999725597992927
  0.0002836724804622  0.0033109718132163  0.1995471797062323
  0.0007985190247433  0.9945266708723476  0.4000215495155483
  0.9990632591808332  0.0014874520770330  0.6011918620676663
  0.9990746538869210  0.9973319911971278  0.8012108510019997
  0.0004566592436293  0.1989730666333015  0.0039664988533699
  0.0000150235900319  0.1998717637826257  0.3968613296079008
  0.0023014457004908  0.1995959549897817  0.5984249608806514
  0.9988117096085531  0.1990736284323455  0.8011413721246303
  0.0049909187106905  0.4005795444233298  0.9998343930642943
  0.0015423816700639  0.3970300289869137  0.2010819789816626
  0.0011115011782505  0.4035336749870478  0.3991438427913475
  0.0006201011579046  0.3992701441737143  0.5989414016399092
  0.9995968384135688  0.4002494902487684  0.8004214939913559
  0.0003936427244172  0.6002973230661534  0.9999237114321485
  0.9983426026577561  0.5987465642165810  0.1997039524805998
  0.0012034480648926  0.6040475018904811  0.3989592743560736
  0.0007933726661948  0.5983773751682951  0.6002028882994129
  0.9976837435505466  0.6021116564103695  0.7989953561464487
  0.9976908741759249  0.7989414011532608  0.0003659930141362
  0.9987730270021896  0.8000629172990288  0.5983728167238848
  0.0012159225096895  0.7992232189132707  0.8000664284741126
  0.2008586748860687  0.0015160376691895  0.9995704531931695
  0.2001241951798698  0.0014021514420852  0.1998051095848151
  0.2009502368389837  0.9994815260355704  0.4006513076507804
  0.1997983623658551  0.0054093227754733  0.6008993224423997
  0.2006258135319939  0.9984896706209919  0.8013696996334444
  0.2002732318398093  0.2021045428922295  0.9987716981836011
  0.1951217710894489  0.1997654965876279  0.2017330623192341
  0.1998149829185006  0.1999564549322807  0.4030447651853136
  0.2001654810322924  0.1990067400712497  0.7960141948527161
  0.2004512409956203  0.3973451425372497  0.1954749495534721
  0.2006199762249126  0.4021484395936754  0.3984710241284290
  0.2000604814145500  0.3947056650997950  0.6001986149544386
  0.2007673824896602  0.3995832191949089  0.8022883361686430
  0.2005962728824897  0.5908014581888965  0.9934671586177792
  0.1997787483029883  0.5962513032929118  0.5999285982232262
  0.2013093145484033  0.5988413540324332  0.7973267203620072
  0.1990553956993547  0.8032625033773204  0.2038624602413296
  0.1943798954721906  0.7985662686755103  0.4002251688247384
  0.1957257642600451  0.8006063092784031  0.6007138487210317
  0.1997555630717978  0.7975850752679861  0.7991370291008579
  0.3989572666441239  0.9990045918462906  0.0006070967980434
  0.3997956433082938  0.0006554715172286  0.1991712129161115
  0.3988753520113118  0.9978577934291765  0.3983028367041580
  0.3996205088881906  0.0047046551276718  0.6006844651367691
  0.4005449571979560  0.9979614616654278  0.8022114110183756
  0.4004408233326605  0.1992988809223171  0.0009300754730493
  0.4007324052927607  0.1986821788679669  0.2007383289928934
  0.3993658847877923  0.2007770703194004  0.3976279459325064
  0.3995899309378279  0.2009434779196622  0.5990396308872926
  0.4013566256867120  0.1991629096911199  0.8011309806330396
  0.3963366174954478  0.3990383885218812  0.0005370181108559
  0.3999026987578731  0.3995694913059631  0.2006480064449069
  0.3992257270777320  0.4016788183906985  0.3979476320288465
  0.3989500964566328  0.3990492275668514  0.6001969923240702
  0.4009949013558317  0.4002705326341275  0.8003176598657851
  0.3994708114669394  0.5993057185616225  0.0012844139532496
  0.4017212245842209  0.6004384448174291  0.1998127421469834
  0.3982925676579328  0.5997254468757128  0.3987579918173588
  0.3975760766489845  0.5955094815266410  0.5997646809456394
  0.4052899843271944  0.5997692038484184  0.7992186537299338
  0.4006701396866570  0.7985176219384554  0.0025561072837224
  0.4004102074652959  0.8008362182003697  0.2004954777174849
  0.3981054592134970  0.7979134512113992  0.3947400881792182
  0.3996239265605612  0.7990004383697273  0.8043230950425811
  0.5988554320214998  0.9995282396991861  0.9986390281909140
  0.5995115791424008  0.0004595910136458  0.2001722988271352
  0.5986464588305210  0.9984083300020155  0.4007237416804947
  0.5999102726478326  0.0052225257337870  0.6006573146298184
  0.6012031728527749  0.9966040411001078  0.8004729402843193
  0.5999280176890616  0.1998191736971753  0.9988384591401314
  0.6043968921077149  0.2000544765246989  0.2016833023152763
  0.5997324075511091  0.1999872442063482  0.4031498583890202
  0.6005838699274721  0.1999040753854710  0.7966393399617204
  0.5982997559942602  0.3982989451623188  0.0007758110053853
  0.5997558436971373  0.3985554624151011  0.2001472955923001
  0.5989992120658757  0.4019131212412582  0.4008203932192664
  0.6000601459812399  0.3932187902727447  0.6002146117892488
  0.6003661953786099  0.4029904547020968  0.7997046358240971
  0.5995109196476813  0.5984631330502715  0.0013752753595836
  0.6007724108715220  0.5994623179401368  0.1991529220354080
  0.5998554228593826  0.6004216764188748  0.3952717179603127
  0.6015388378185084  0.7996472542176440  0.0011659136979587
  0.6011817485805335  0.8010808886271883  0.2010844969833371
  0.6008430059179505  0.7991259468493792  0.4006695933937511
  0.6057818950552543  0.8033517642208592  0.6010663186346206
  0.5987954500892892  0.7949811545373865  0.7991350577784242
  0.7999077959553483  0.9980639132998556  0.9985045008840177
  0.7993922098127250  0.0042252068212398  0.1995483699551190
  0.7989099211603782  0.9989339954064521  0.4003725686229307
  0.8004474471696836  0.0015778294124962  0.6017746052505136
  0.8001667283824467  0.9994147417818513  0.8011552979746760
  0.8001174544055466  0.2002016953477556  0.0029453325479749
  0.8003287899653486  0.2002696806860163  0.3973682708986046
  0.7976005630264206  0.2000444083511805  0.5986944520544870
  0.8016088085689366  0.3994752640594969  0.9998384122661476
  0.7994962089845618  0.3963039849866011  0.1996929259622215
  0.8008716166597523  0.4017614611846939  0.4002181248117942
  0.8016659623692196  0.3974742411052770  0.6005760002576493
  0.8013000170013467  0.3993314587644788  0.8009324393267975
  0.8013497092058469  0.5996471914462983  0.0005154232983853
  0.8007222664933870  0.5975689222170550  0.1995201923120640
  0.7994311206414251  0.5995235811882769  0.3994924187405994
  0.8019347376316158  0.5981554537252776  0.6009245490125342
  0.7964699562496742  0.5976466482749875  0.7991023648846887
  0.8012121221675138  0.7993672908273137  0.0045422968584439
  0.7996353285579237  0.8012541089403337  0.2007211214461905
  0.8034513415075707  0.7990820873780323  0.3989685464356176
  0.8004930243697657  0.8001404104412815  0.6338449927053218
  0.9989568006304933  0.8014589336390741  0.2012643985153195
  0.1998209583495652  0.5993879747333549  0.4008509738446360
  0.8001782402865057  0.1999208569759216  0.8012504887471544
  0.9967586065189279  0.1990938205030541  0.2014824865773778
  0.9979897897073671  0.8002000984307710  0.4023891358640763
  0.2004101248868407  0.2007915097756578  0.5996618917436709
  0.2011144043692154  0.3967187049967458  0.9979240786643895
  0.5985264795072089  0.1999567343607898  0.5989522779217841
  0.6015682424368727  0.5995939916122557  0.8076933710752466
  0.8025488559807694  0.2003475183737783  0.2009078707978761
