Zr Ti V  Cr W 
 1.0000000000000000
    15.3190239909784154   -0.1450298507494952    0.0678040558082604
    -0.1448597503604551   15.4024564523525669    0.0387649496568785
     0.0672921310133102    0.0389187250617067   15.2995306797274697
 Zr  Ti  V   Cr  W  
  11  17  74  14   8
Direct
  0.9863274624875082  0.5974343425964651  0.0337127312793552
  0.0242056760812685  0.5862103069610449  0.2629212720073015
  0.9750791104074744  0.7933004557460015  0.1659893585617497
  0.2079310341147832  0.2316742846808128  0.6123390449546697
  0.1933830556736842  0.3656619788074776  0.4022220316250874
  0.1526057239428941  0.4169149951016258  0.7811720379936173
  0.1643901922782105  0.7465762074050559  0.0140151786517668
  0.4070746861774573  0.1998549617883165  0.9704752417382507
  0.3685634977105486  0.3766579555012192  0.7868480975888879
  0.3802729793331754  0.7955663622221966  0.4382202909186326
  0.8222405575670840  0.7953365798736012  0.5818726588855944
  0.0151248827889694  0.2126547833061030  0.7789569835954293
  0.0282631414106158  0.3817333417511492  0.5821251507789241
  0.0016928876031905  0.6082488565697598  0.8038083071748362
  0.0014365372987787  0.7759689831780590  0.4104058991698585
  0.2308521885374836  0.3553324747991902  0.9857376305799955
  0.2042085791062440  0.6089643638081066  0.4148027400647219
  0.1939794521540510  0.6092364739812748  0.6283907762047910
  0.3950081460623750  0.9985838221545305  0.5911423382798285
  0.4037483621064872  0.2014513426872555  0.2036424445754578
  0.4022689649662878  0.8000458396040185  0.6326128364416971
  0.6306812280156036  0.1977746000117916  0.9993398160462578
  0.7974088113755293  0.0029073904900159  0.7982013547814492
  0.7964521043932669  0.1987953896746213  0.1928562328809887
  0.7992229850107974  0.2111800663350088  0.7951940229616448
  0.7966969936183068  0.4124354654306195  0.1972737561855696
  0.8076062057106458  0.3951332766242851  0.5978723627122666
  0.7931891182582115  0.7971406498789729  0.9922434550473994
  0.9946502540664229  0.9997175759277203  0.9934100871020545
  0.9946333500831828  0.0080813037313683  0.1967769376991921
  0.9975696220876613  0.0128066455288943  0.3940106410737330
  0.9951410402161418  0.9961794359010621  0.5942202839913276
  0.0015232790778386  0.0104813317658632  0.7965096015007862
  0.0050990390010424  0.2004596033448830  0.9858573445114105
  0.0027424490812427  0.2073564257077645  0.1887388433799446
  0.9961847967932829  0.2075122253135638  0.3906549876224019
  0.9996508727725522  0.1909796196118647  0.5870902113242066
  0.0026811168665952  0.3986879692130157  0.1805353336247737
  0.9919889852503979  0.4023366868107185  0.3818750150464964
  0.9677317914740682  0.4070931879169167  0.7840215571869401
  0.0016602959233786  0.5807008836717561  0.4472504627225655
  0.9942493165961406  0.6128940398160103  0.6139050558179955
  0.1946537950892800  0.9914573691364661  0.0086111431141803
  0.1947889523916018  0.0083151173403345  0.3989098327712959
  0.1957735560168037  0.0141714567210030  0.5996864385146485
  0.1987159841294190  0.9902890274338294  0.8029790977371443
  0.1967536497260516  0.1776027471695885  0.0047289857170179
  0.2012764818733975  0.2003385313560001  0.1985343692285560
  0.2139685785787504  0.1807918215528136  0.8107031240804378
  0.2209263995607880  0.4234216215969779  0.5934279403927849
  0.1987433539332785  0.5324272049595487  0.0150668130586769
  0.2132892924544645  0.6048633965232746  0.2019288630406906
  0.2007065334539958  0.8137064292002457  0.6017669114638291
  0.2003284591239135  0.7944291887170155  0.8006241296951134
  0.3913471410361231  0.0018628395771376  0.2006330754854648
  0.3974035326986599  0.0129991343191917  0.3958043426208526
  0.3968203354073518  0.9933604480290518  0.8036259448749828
  0.3972902807217332  0.2062022267507578  0.4085171121701281
  0.4121301943522127  0.2077028358324832  0.6011491049697685
  0.4050676309720380  0.1817318681880377  0.7723768804545478
  0.4181753330019700  0.4021690327885661  0.9968475536590515
  0.4107109634524408  0.4039295423604313  0.1951668217347328
  0.4024576934220512  0.4009225328396558  0.3917126705186377
  0.4079250214567660  0.4081665710938926  0.5878233929049489
  0.3986547492551659  0.5939348446768602  0.0017994766307228
  0.4038332912341158  0.5941490604916652  0.4043124762607479
  0.4033725414689940  0.6051255791569069  0.6055204014993372
  0.3994772233655661  0.8041495308367625  0.1977901911100799
  0.3958808550759524  0.7950705661152413  0.8188736510057787
  0.5980906350021994  0.9977526892464502  0.9975386450106868
  0.6030100216043714  0.0026042962980984  0.5981078964049078
  0.5961711195395846  0.9995880443142415  0.7982233823249757
  0.5959483492678018  0.2103510415770995  0.2003833878541244
  0.6006129205521054  0.2041795999901834  0.3998710411747528
  0.6082310719888325  0.2050717707746849  0.5992304905138304
  0.5975232527317453  0.1997998684519229  0.7977170490644065
  0.6112421720836078  0.4000556923246193  0.0025247623490001
  0.6024480872589356  0.4025423615598981  0.6006032920382429
  0.5987776922503449  0.3990463053165769  0.8030291008224358
  0.6011486726041390  0.5995256596779286  0.9990418010686481
  0.5969650517121172  0.6042095318118116  0.2057246367718573
  0.6020341677355762  0.6038095280049487  0.4045851208514342
  0.5929993463980936  0.5979917576874211  0.8003538421376039
  0.5925774643672513  0.8002488214759554  0.0042077768460680
  0.5987334968796941  0.8037567501815123  0.3992499152491685
  0.6022088551605338  0.8016128430663069  0.5993048338514790
  0.5953905397103525  0.7994466393276156  0.7986706673648413
  0.7965465351156250  0.0086190334424883  0.0006927265452161
  0.7983135000872240  0.0037380460501735  0.5935847062373694
  0.8183686555116485  0.2101127425549382  0.9903435462708242
  0.7994658022570261  0.2107432057789095  0.3993329170252760
  0.8040898062486813  0.1971339750904820  0.5950498355460611
  0.8200237116466293  0.4123194182422335  0.9983058834885880
  0.8003747215820707  0.4069055968510611  0.3955014214894030
  0.7982870613117374  0.4096540776456597  0.8014379951513985
  0.7935079361284877  0.6176808644023972  0.1919592664374573
  0.8013843970474216  0.6089951353643873  0.4062976674210524
  0.7966759925034111  0.5939892374032859  0.6076742886535368
  0.7917793050200900  0.6097925025088632  0.8055213614601839
  0.7789544352711423  0.8165953540291515  0.1952920410117782
  0.7956399117862342  0.8069476134356286  0.3885763786298280
  0.7919273592684133  0.8044185358337671  0.7901068465310069
  0.0207969583137935  0.3969580684464626  0.9814550851985513
  0.9954717455944391  0.8108649734864356  0.7990880259058076
  0.2090296472090133  0.4010082134982896  0.1896663867304743
  0.1915597674020020  0.5996208150103667  0.8256470135940573
  0.2038782817714532  0.8064522557328245  0.2157797983499677
  0.1979495180824865  0.8111615953861269  0.4081940740065813
  0.3957965318905416  0.9923133625389359  0.0017324558296189
  0.4014517620052603  0.6035253314415883  0.2048551173670177
  0.3918507389687054  0.5960803687475357  0.8067217066579313
  0.5947870204601300  0.0057647816251216  0.1996809331037894
  0.5960611704824640  0.0054047446087926  0.3982576976897915
  0.6026170922965702  0.4043919117902769  0.3977484493004718
  0.6008095139556356  0.6003471055644998  0.6029228111080385
  0.7955442463757528  0.0074808571739728  0.3923113471536788
  0.9862474916581272  0.8072739358691476  0.9697948822611090
  0.0150813184158574  0.8039310589427482  0.6093870975769553
  0.1913466202687765  0.0033393278938371  0.2041175081204027
  0.4006318371564742  0.7903791597738888  0.0053950421828376
  0.6059333017999191  0.4080623112225645  0.1967089470964383
  0.5902271326020120  0.8021243213370661  0.2038785882538704
  0.7986105357028098  0.0069983190817534  0.1914256059427462
  0.7911370197412149  0.6053495967389346  0.9965332994357224
