Zr Ti V  Cr W 
 1.0000000000000000
    15.4708467865148371   -0.0457987880927962   -0.0198442725602326
    -0.0454938160247508   15.3995902028152862   -0.0270542228467451
    -0.0197944236660485   -0.0273036633962630   15.3709555907435735
 Zr  Ti  V   Cr  W  
  16   2 101   1   4
Direct
  0.9942178400165058  0.2205740762071459  0.1992354375293944
  0.0243021058858031  0.5840960867835173  0.3779347745439259
  0.1961070168223606  0.2307239748795679  0.9862322842881288
  0.2227746478490450  0.6227784307819112  0.0068674246835860
  0.1935037894208549  0.7752017580716039  0.2250582883150894
  0.2003810472721594  0.7916676958022695  0.6314121716741896
  0.3578512838365463  0.4372526601918966  0.9993892708347608
  0.4103052657522225  0.4074852789953368  0.7764300751720937
  0.5958831228669366  0.9957161165762477  0.3837580030138321
  0.6528881004181754  0.6182468549047317  0.2272239772118794
  0.5768178076906357  0.5803113614071221  0.6627865774537208
  0.5749075882646150  0.5659253038537538  0.8945409531290355
  0.5907587885449931  0.7558839584603458  0.0394443784132741
  0.6004495664880369  0.7837962290379380  0.7998455197143312
  0.8212628179833295  0.4541677129331685  0.2003138935592181
  0.7784909436908264  0.6052064905512369  0.0238319540095466
  0.0179047639450400  0.2037253479051617  0.8077883026952298
  0.7924546456175935  0.8044703475204079  0.1620790416539410
  0.9992657444696652  0.0057994024724530  0.9923766106459175
  0.0007805563932007  0.0020923884001391  0.1917789251098026
  0.0023117012727055  0.9985390358356445  0.3886420216368233
  0.0008516622973802  0.9975842113146535  0.5915253605813097
  0.0020875912432402  0.9979074570834575  0.7937316283574392
  0.9885812741631893  0.2017510436770422  0.9969678749482446
  0.0016991515220176  0.1966007691875691  0.4016525750660807
  0.0003246565258580  0.1958158291531951  0.5959127023204430
  0.9833831632926077  0.4090005837623720  0.0040678145555257
  0.0153208324423886  0.4199629083909485  0.2003591565924014
  0.9998111509698656  0.3960809067410110  0.5892529555094286
  0.9992137591217267  0.4007609675929805  0.7911261447261638
  0.9822563054842419  0.6086587390679403  0.9878522417124521
  0.0231800303390756  0.6097877696695588  0.1749978029403527
  0.0043162896947100  0.5971704073346619  0.5873246119570361
  0.9992484594888751  0.5965089508530406  0.7953936920149389
  0.9862115426311842  0.8041548185876636  0.9923717775268978
  0.9951530102935139  0.8049318851287400  0.1877007905954925
  0.0037188905503901  0.7982191817386209  0.3876152656936012
  0.9955947129173467  0.7959461653451904  0.5898396235460260
  0.0052660867971790  0.7979050668239431  0.7929384967573474
  0.1972693302358240  0.0093181889528371  0.9924218018129467
  0.2012301910768293  0.0082249526453264  0.1907979195647157
  0.1982729214520037  0.9957503216839754  0.3927761106236276
  0.2016281592805571  0.9994739264288492  0.5930157047837932
  0.2011391318090866  0.9962569431695308  0.7917788681598866
  0.2048424321659745  0.2010205021673082  0.1985002357121688
  0.2038049019302750  0.1995417537682943  0.3957177106580333
  0.2045812352873284  0.1974325337464908  0.5931313932389798
  0.2107601722511777  0.1977143119519881  0.7851231936862013
  0.1719456886907242  0.4259964882033603  0.9940545890877971
  0.2040785603323187  0.3942610575447849  0.1879033351105222
  0.1969680509909493  0.3994475612547784  0.4011452821466095
  0.2004412853746779  0.3934002124312927  0.5997481582893903
  0.1968784092998929  0.3979725205825506  0.7990903210414411
  0.2093040683329958  0.5862400675563122  0.2094730863291116
  0.2198701236923404  0.5969622331373029  0.4048350348080778
  0.1986484862896916  0.5902311458139819  0.6023675563385307
  0.1929914957310259  0.6001909820152008  0.7979603630466835
  0.1874587467462248  0.8167259834964704  0.0110894156771732
  0.1982240951756738  0.7970994888988020  0.4202085794584978
  0.1948145282493045  0.7964183230672358  0.8222787619616024
  0.3979669692954175  0.9983319528110728  0.9940234466203119
  0.4000962889621857  0.9998983752597329  0.1927889405357656
  0.3924492927634153  0.9945481366890691  0.3931218922205306
  0.4018212398445966  0.9948791434007648  0.5929792942130772
  0.4000011120085788  0.9943028128403653  0.7945527465731141
  0.4041111090143214  0.1973527401363437  0.9934716015082055
  0.4017729929974310  0.2026377749859382  0.1931252276874574
  0.4019376719176453  0.1984463115677146  0.3931319720380089
  0.4081249409353685  0.1980488049498796  0.5923849541062804
  0.4021116140377635  0.1971839900759148  0.7932537969881492
  0.4005151887445971  0.4011824363180719  0.2016164001457764
  0.3991308252774440  0.4065314374336991  0.3909550841929557
  0.3977645856338509  0.3959179643807957  0.5836470497508986
  0.4203903759533209  0.6307560308953735  0.0152794679234012
  0.3964988373457555  0.6079337442772059  0.2104724538770430
  0.3908741265311221  0.5984403626363707  0.6037646471808933
  0.3831815745307836  0.6044023675506695  0.8203189909604732
  0.3850013166926138  0.8033192877491734  0.0065225396965808
  0.4003533449171274  0.8039257532090974  0.2034343298686442
  0.3954793575778947  0.7913306689955391  0.3994020871898243
  0.4054380330650477  0.7970581035766171  0.6010189976367915
  0.3910545803079768  0.8006534214257884  0.8019072619150941
  0.5960746462634396  0.9963938420924725  0.9895427934601734
  0.6040456439072838  0.0034195479341551  0.1817854822402156
  0.6004239037176098  0.9977632053075479  0.5942125009112659
  0.5999297725437502  0.9929306487228414  0.7954822162437439
  0.5965850263960333  0.1947018778826265  0.9921457491167854
  0.5979670657390198  0.2004954600478447  0.1949135772837780
  0.6002662379038924  0.2022598071634865  0.3980158176166009
  0.6018307946337600  0.1914424684146941  0.7902264334341796
  0.6140504741608457  0.3880491568246042  0.0021580807059136
  0.5936064714131781  0.3929569856596012  0.1996220004997802
  0.6040228172080577  0.3994978709341713  0.3985871924638407
  0.6017763567152228  0.3852793726211728  0.5985592525886475
  0.6088286319552729  0.3826816097171339  0.8023314880152828
  0.5187806335247306  0.5197201947206158  0.1000806861694554
  0.5969027182963715  0.5947063278340189  0.4330041217390314
  0.5953636254538250  0.8186029844741000  0.2280208614740657
  0.6012403262030106  0.7911088801407490  0.3977273132010204
  0.7988705914752031  0.9074857996531670  0.9877816527290078
  0.8019344332783130  0.0089752536407656  0.1913530425452798
  0.8050521735486132  0.9962693178157047  0.3884468594417297
  0.7998402247015236  0.9907410856934297  0.5900466117514716
  0.8024101316136972  0.9975608074236785  0.7887514357210068
  0.7967646499720019  0.2006943801247623  0.9976597912753291
  0.7912373976533572  0.2057791675794599  0.1952490788756531
  0.8003750022331837  0.1995090066992714  0.3923563670729457
  0.7982068854670338  0.1944609658685595  0.5961672610836071
  0.8014641002807753  0.1948495307163410  0.7968073669347744
  0.7928236300346071  0.4000876635734326  0.9940936223774323
  0.8082999750510175  0.3977458012793231  0.4006879864829373
  0.8013143828610714  0.3998380079870339  0.5959684945657607
  0.8041330472461125  0.3991532988902227  0.7950417190896140
  0.8810491457470933  0.6848015928286979  0.2745941030167709
  0.7881386555938775  0.5943191150258883  0.3952916472450972
  0.8052966378199465  0.6010995017065054  0.5907161895735379
  0.8024415176255235  0.5970364076566680  0.7858646003309598
  0.8020911899779593  0.7992620705536729  0.4041238792604765
  0.8073696875256239  0.7956434748566772  0.7915334046278583
  0.6037936082507366  0.8009415161544804  0.5925405093659469
  0.0000094265575173  0.3838424291005449  0.3880536614519986
  0.4122666235054933  0.5984585105623447  0.4069962193924220
  0.6028237427908059  0.1914173660639250  0.5931451107676390
  0.8019118354846065  0.7939152571755813  0.5963436792744067
