Zr Ti V  Cr W 
 1.0000000000000000
    15.5189800638460067    0.0053948810984519   -0.0005922212079772
     0.0053614356663930   15.4324842596042995   -0.0034080797093035
    -0.0006771033361387   -0.0034056472556456   15.4238540815599539
 Zr  Ti  V   Cr  W  
   8   9  99   7   1
Direct
  0.0252047853134614  0.1762107823081809  0.9979380419710070
  0.1732930167244793  0.9985955974185321  0.1285466918618595
  0.1982721865061154  0.2009053686018163  0.2376221962300945
  0.1996326618855455  0.8072889739366992  0.9971534350929108
  0.4068379687878281  0.0099904509651549  0.7866798236559488
  0.4325147176947700  0.5686418433842834  0.6005724028867750
  0.5696185256678453  0.1860414640202871  0.7993791910199149
  0.5968866534945367  0.3989099221783591  0.6031530357333044
  0.0151076772132386  0.0058141728232617  0.8145906032451469
  0.0033801468884577  0.2228156959755520  0.7886156408338002
  0.2301851370728832  0.1959375755889254  0.0052118412589663
  0.1913538370546168  0.1951506770803293  0.6221804803956906
  0.3761720419075116  0.8012276198324344  0.6032495151915007
  0.6076649097364661  0.1994069922147032  0.2093335077691005
  0.7957086672788914  0.9956964980375990  0.4017004683079576
  0.7952347785390891  0.2051971653022278  0.3983017542764002
  0.7988717945741669  0.8031668522660310  0.8009768263821552
  0.9890711264728972  0.9843836247495624  0.0099597054953140
  0.9872072739401969  0.0015779303980294  0.2059555695594675
  0.9962849586182685  0.0034209586035504  0.6006817136791653
  0.9967649778122701  0.2002844339930817  0.2057201960040849
  0.0019368696117199  0.2003065348412687  0.4029525461692305
  0.9921492140187741  0.2004567859304256  0.5967966167833170
  0.0011770806708237  0.3985142311531743  0.0011781806453559
  0.0005077052708702  0.3984128198888746  0.2004053327488748
  0.0008234598685026  0.4013865308382747  0.4012769448894422
  0.9990177966059453  0.3996735099116046  0.5996685116945863
  0.0003735425121378  0.4096583899607504  0.8014696303832426
  0.0004553481798068  0.5995456221026634  0.0021396637794517
  0.9989330652071434  0.6004475996957497  0.2017732916832418
  0.0000678593596192  0.6004316067537542  0.4014533617166264
  0.0010720700222594  0.6040701026743209  0.6008128267805103
  0.0005722977444381  0.6026487188980286  0.8012770907897560
  0.9931015818748921  0.7952710705593117  0.0009449912234127
  0.9971126735080660  0.8006090207404857  0.2065328864864805
  0.0057177753319508  0.8023437769724536  0.4040134137086345
  0.9948404915431796  0.8054143214009986  0.6042107814763300
  0.2278648219547359  0.0136843676741944  0.9253557729899133
  0.1975033903269484  0.9985768328326894  0.4129783405915924
  0.1976485731934314  0.9925703506157013  0.6117163766486706
  0.2000848050623447  0.1993959409276017  0.4305831469031134
  0.1937283926967224  0.2018156010509536  0.8184879901217642
  0.1990269473171265  0.4035523494167149  0.2010202062059502
  0.1991798060884964  0.4033392578650069  0.4040860008197829
  0.1980074473851914  0.4050226256139621  0.6038845275113870
  0.1983624968316701  0.4036752854955175  0.8036445388018234
  0.2008240411200289  0.6002199974247175  0.0011271001309856
  0.2011937818463841  0.6009665439996555  0.1999061547627637
  0.2011147049733303  0.6044302624703499  0.4030239027348003
  0.1959854529591303  0.6019321344518438  0.6029887295075889
  0.2012910695226829  0.6023992858665911  0.8012526066134497
  0.2002643201095554  0.7993388680659596  0.2088631858020318
  0.1993589816612890  0.7986257563432178  0.7926520846467724
  0.4096616235826410  0.0030201413035602  0.9996463961412611
  0.4045083275905626  0.0041696746443491  0.1961095080055420
  0.3960254344758261  0.0017704053564662  0.3931940732860823
  0.3981123434765065  0.0003300681250984  0.5870920818931590
  0.4181555589694413  0.2052523273026769  0.0002099919570809
  0.4025714913810534  0.2019676586728913  0.1999954367105460
  0.3947784359351672  0.2009115838801050  0.4002367415142890
  0.4000386636904637  0.1920544540353346  0.6038781435625635
  0.3808962353544258  0.2119246878162989  0.7998967378421341
  0.4010308814491100  0.4005943496725486  0.0022271512462533
  0.4003736705984783  0.4002917248185206  0.1993897092263591
  0.3974747659864190  0.3998359716185806  0.4008591902669523
  0.3883531064800493  0.3803171007049485  0.5991999549305750
  0.3974402965714843  0.4038903990522187  0.8000276598664379
  0.4018197803596853  0.5993352177417695  0.1996138175905751
  0.4006522436543897  0.6005809363199582  0.3977743223190424
  0.3991243450129290  0.6012830435078466  0.8032923991162912
  0.4051833756503855  0.8030947722287561  0.0002283564012169
  0.3965970946296142  0.8013354110251935  0.3962857411541703
  0.3976630725193488  0.7993329798398664  0.8017661290174606
  0.6036704221487464  0.0000461084824017  0.9961953848741197
  0.6002243506721587  0.9976844353025522  0.2005413590275356
  0.5947168499368531  0.0000234915975106  0.4010762111392230
  0.5990520264515444  0.9972900756470334  0.5989912081340654
  0.6084742451468323  0.9884109916316560  0.7982828626781540
  0.6079129322461498  0.2011025901849970  0.0043332711534075
  0.5936688589029785  0.2005119590742605  0.4034345991459950
  0.5998241827730108  0.1939269419358930  0.5955330641027979
  0.6005237546687581  0.4029616943353036  0.2000708992812303
  0.5978098884022005  0.3999816090344008  0.3956696573692184
  0.5993153369202939  0.3980711110733072  0.8067320447955294
  0.6006757272520185  0.6000573414381752  0.9998664391661295
  0.6014216275926413  0.6011743805960614  0.2005331441387155
  0.5998428698753251  0.6019700552782719  0.4014798801719134
  0.6218972232593316  0.6080293901177931  0.5979809019243592
  0.5991695215971156  0.5995558824158023  0.7978959230628551
  0.5994094792554876  0.7988565141224970  0.0005291332973976
  0.6002967273523937  0.7998535934252575  0.2003932033989668
  0.5955594999429706  0.8010026166643441  0.4008425370446143
  0.6042883748192690  0.8005702243238048  0.5993990944244315
  0.5947403253290443  0.7976642833220831  0.7986719451779924
  0.7981895382296463  0.0015421621227373  0.9997570989936606
  0.7944459301898011  0.0022970725215523  0.1986342703423810
  0.7987974980418452  0.0035097374084685  0.6048819390529098
  0.7988412105551801  0.0051293636143485  0.8011885846117991
  0.8016708197262354  0.2017579828505131  0.9986012123371086
  0.8044184028189350  0.2016382296209548  0.1981846172248023
  0.7953796963395826  0.2009302123097401  0.6026307867234976
  0.8068696812523524  0.2018579792557359  0.8002029130814597
  0.8016913096686237  0.3990922940809081  0.0004897626859669
  0.8013146280929628  0.4003691566395787  0.1994546040230765
  0.7992726569634770  0.4025952628197720  0.4007057371339809
  0.8021501905343298  0.3992662074154169  0.6008679208633789
  0.7985292007507790  0.3998082356170610  0.8012507695487087
  0.7992989635781296  0.5989346699392817  0.9991134333198634
  0.7997756021571930  0.5994901874154599  0.2001301896928746
  0.8002490997672556  0.6011170946374630  0.4000380930743040
  0.8079913348357116  0.5995648360971469  0.6016191091171733
  0.7996083382277772  0.5992917557081175  0.8009767135783795
  0.7972450643445309  0.7997317920920465  0.0018642610662999
  0.7995104450046419  0.8003093656372776  0.2013587222812302
  0.7998591123992099  0.7997938051778246  0.4001642746598110
  0.8011478714038091  0.8040769055197912  0.5991077038864983
  0.0002957395173741  0.0017601404577308  0.4025007363410535
  0.0025849536638707  0.7997580688860350  0.8020345395123862
  0.2027027258545615  0.4019605712961895  0.0029151792099489
  0.2006493718151900  0.9307577258705250  0.7155200153315669
  0.4013556136734482  0.6012843707479871  0.0009598261917670
  0.4000745569744644  0.8014832492910844  0.1987697326175817
  0.6010869246830164  0.4010140821835045  0.0013663843042309
  0.2034224136513274  0.8023755962921576  0.4016588017818576
