Zr Ti V  Cr
 1.0000000000000000
    15.3990340272275770   -0.0170018773457157   -0.0022529018582575
    -0.0170107766548915   15.3787801482628375    0.0165544931564424
    -0.0022517709109467    0.0165430754876648   15.4057927644380346
 Zr  Ti  V   Cr 
   3  13 107   1
Direct
  0.1979831175898264  0.2029441770519772  0.3700649071774922
  0.2044263737958091  0.6220051074507299  0.3844766485624480
  0.3879277424472007  0.7948385116871637  0.3905712267414807
  0.0002119435564991  0.0027815674484977  0.0033055328627964
  0.0009824872187949  0.1978588202133109  0.8031955105933108
  0.2028223228681504  0.2008619990474338  0.1732025172737804
  0.2027990234957312  0.5937716929020779  0.1843487557252361
  0.2117197538164345  0.8043953943190885  0.2161990331194470
  0.3878264832069770  0.2055097675520445  0.6000793926635042
  0.6085283485192635  0.0133964036680110  0.5933513166313811
  0.6042656407569875  0.1922124900656956  0.4127369498284960
  0.5886209528458478  0.2030024430352748  0.8121579469936593
  0.7967188690205140  0.1980164042251860  0.1977674597287301
  0.7830818126153031  0.1955016688268646  0.5932212560741428
  0.7972353121998663  0.1987275132788086  0.8030097553804580
  0.8032846878947467  0.8023655103011008  0.2007869049164075
  0.0018502802649880  0.9998721880094122  0.2035290705961338
  0.9984179426544627  0.0013783079128024  0.6002156549273756
  0.0013523730817009  0.9984770100258761  0.7983716129611002
  0.0008077250948297  0.2023626370582878  0.0049212853327628
  0.0036952415116588  0.2002153522253877  0.2021016583859346
  0.9946559018082598  0.2017290078170764  0.4011155219322642
  0.9982946169452309  0.1997347403131759  0.5980067141188515
  0.0004391461986679  0.3997391065576111  0.0021448056407840
  0.0005219842339044  0.3996403565399249  0.2024258968650549
  0.0007351022897553  0.4007781284029787  0.4012418297075752
  0.9983589071925379  0.3995666239714569  0.6008903125114260
  0.0007774573136539  0.4006990806415179  0.8008192192036859
  0.0012878977034483  0.5995181795078856  0.0017959287837967
  0.0007912036746476  0.5997186884471452  0.2000874447500428
  0.9963319605551921  0.6003770977202679  0.3998230313473474
  0.0010202803799396  0.5996140709809988  0.5992490695874819
  0.0000839452601024  0.5998147080408310  0.8018341781184603
  0.0027455985708027  0.7984362115968743  0.0035717133924631
  0.0031187779809335  0.8005533332226152  0.2025877638478515
  0.9942017275959548  0.7993470699748815  0.4017052251661998
  0.0006792930033150  0.8009314557201991  0.6018651175048449
  0.0005358085096443  0.7994548871946282  0.8015026053191850
  0.2024677015218970  0.0000638363106283  0.0000998842606263
  0.2023785064902519  0.0058390135401176  0.2013390687366153
  0.2000867434846010  0.0011434388394831  0.3997169101670354
  0.0336700731567446  0.0029738266464233  0.4346714423034176
  0.2005517643319396  0.9999321610252795  0.8007453924515786
  0.1993336077496771  0.1997445542061045  0.9861020367194782
  0.1942463393172574  0.2012304986217586  0.5955891096700023
  0.2013448727466232  0.1975641010690476  0.7940889889018274
  0.2001973726715827  0.3983950724743182  0.9990844429525240
  0.2015704227887799  0.3978001583529842  0.1999909550180029
  0.2000667306390963  0.4073606843858935  0.4009574236167607
  0.1989310881724869  0.4008784686085680  0.5987888943681851
  0.2001521238444871  0.3991658214124761  0.8001805370466359
  0.2008777298795090  0.5995746195246717  0.9941100481902033
  0.2003259943962772  0.6006620976690924  0.6003665449045175
  0.2012453880591668  0.5992700231391767  0.7989271995037770
  0.2015402249986950  0.7998211947420154  0.0008037067983569
  0.1865830313008263  0.8223816520991414  0.4131352805904532
  0.2000914724298193  0.7978908706734553  0.6041743764153883
  0.2006659109496838  0.8029495073829171  0.8016744591218379
  0.4011301459665395  0.9995454545803941  0.0022913082567329
  0.4017755279198226  0.9970785082695257  0.2008659398367433
  0.4009468810689125  0.0043614838010603  0.4008838701024013
  0.4008702069948346  0.9996257444114969  0.7975751517696072
  0.3994360898090271  0.1985495272528314  0.0016845998738324
  0.4000115560393875  0.1986408006434230  0.2012983252324538
  0.4017925627034167  0.1981266997116786  0.3999454933909807
  0.3957042847961801  0.1989741660729737  0.8043852741489951
  0.4008602777554593  0.3985174047910104  0.0021525134902320
  0.4020174355761754  0.3978829507976493  0.2018499514126180
  0.4011334660070606  0.3943710120540790  0.4011594982134316
  0.3995326684660623  0.4010113356971068  0.6008665516497678
  0.4006716300839744  0.3990496544996771  0.8006876255720996
  0.4010883750370152  0.5985978418816533  0.0008523820975288
  0.4044540897694459  0.5970801628064927  0.1999495258985440
  0.4090087769884105  0.5896214535607355  0.4001411660436895
  0.4010723453053909  0.5975674215003918  0.5994452619962588
  0.4013647599707701  0.5996742285443888  0.8014789949620907
  0.4004243898946829  0.7991696501659747  0.9976502465698128
  0.4063886485727172  0.7992989834829904  0.1911087961289132
  0.3997977477234181  0.8003521708807944  0.6020211690218266
  0.4012531900201394  0.8002269501612254  0.7988906822765346
  0.6011037357321763  0.0001861168823944  0.0000659872325830
  0.6010366232357963  0.9998878972659274  0.2009843803303060
  0.5984123131947430  0.9944198613431050  0.3980074604532611
  0.6001158992807741  0.0003431301650007  0.8012121179065240
  0.6001279666827343  0.1996449119436781  0.0075437974033898
  0.5976187975958943  0.1979442303744932  0.2022261527809704
  0.5902102483463376  0.2058056841278139  0.6090177821712470
  0.6017423246070533  0.3990708893532251  0.0014460251928863
  0.6009466851832920  0.3970506441016194  0.2029139617311251
  0.6018955668439232  0.3988741550888321  0.4023456462304345
  0.6001324451573018  0.4020517399289694  0.6025029862578802
  0.6005246002763067  0.4020047415279422  0.8021350285260220
  0.6015630316820324  0.5992614565584958  0.0014361684863347
  0.6030870642951015  0.5993368880074735  0.2001784123684679
  0.6027609115093597  0.5983216553664381  0.4000876874914380
  0.6004812359032492  0.6020525937760837  0.6008972684028832
  0.6009591095388055  0.6003770131703895  0.8011661222363444
  0.6020496505578385  0.7998017033443113  0.0008116033821119
  0.6006043662372319  0.7991717983633271  0.2002596746097269
  0.5998712060737627  0.7989819059912042  0.4001113572933548
  0.5989703454567898  0.8015170023126601  0.5994899542579939
  0.6005695720996097  0.8018740169713225  0.8002705897173601
  0.7994765403911520  0.9995780982198874  0.0005672356987239
  0.8008014585765491  0.0003147054816703  0.1991918061905490
  0.8089790929291071  0.9961971209352781  0.3953496206568288
  0.8044074406019792  0.9963137878256645  0.5989663180977498
  0.8003945871840408  0.9982835043856257  0.7995298890512761
  0.8010982141553512  0.1990928359220058  0.9990818383918378
  0.8015304868520496  0.1976099617592290  0.3964416936977502
  0.8013903620273144  0.3982049586948027  0.0008455099551419
  0.8014243097559449  0.3990845091109050  0.2006835218047733
  0.8004828132687871  0.3977261257391451  0.4002838207150466
  0.7994255522559172  0.4001984329848934  0.6001462600091403
  0.8003661800374815  0.3994625391589989  0.7995174152344857
  0.8017403303530695  0.5986922666634550  0.0002733014802224
  0.8011258848504068  0.5969909067588293  0.1996086489219469
  0.7996007464477572  0.5994951260966687  0.3993534222637949
  0.7999355116820183  0.5986193847014715  0.6003311014532300
  0.8006448008883527  0.5998351608495863  0.8007334273580606
  0.8020340806030851  0.7996753486238906  0.9977299621917178
  0.7981739730219465  0.7993330432933946  0.4032525493147017
  0.7996198012881107  0.7984905780221133  0.6018270498860140
  0.8007349654921297  0.7999658825483316  0.8004065750095086
  0.3946952851427402  0.9976450669647037  0.5980219823951872
