Ti V  Cr W 
 1.0000000000000000
    15.4539762940606913   -0.0009302546193068   -0.0040609226562242
    -0.0009305541856652   15.4553324993326164   -0.0016432811203864
    -0.0040599645847516   -0.0016432389492442   15.4631351219687598
 Ti  V   Cr  W  
   3 114   3   4
Direct
  0.0059337378464912  0.4003283572088541  0.8094464133499273
  0.1936955235721350  0.3990138146642958  0.9905168865357697
  0.6041630211954588  0.7987758563570055  0.4052371404937480
  0.0004678076683906  0.0007172760223955  0.0020776018980840
  0.0009210821254870  0.0011609978364335  0.2003300070968636
  0.0005574618391313  0.0006626313206821  0.3991326294384530
  0.0012190497748512  0.0010885419425124  0.5992226361603389
  0.0008701943932203  0.0003902921168264  0.8009614193953118
  0.9996501312433002  0.1995289712868463  0.0005566586158923
  0.0003284915927970  0.2032793170563379  0.2005646970543612
  0.0005273223551724  0.1994731467572178  0.4008563036200373
  0.0015029636282951  0.2009604634840644  0.6004949794001661
  0.0005212252886027  0.1982259526260002  0.8001435328582762
  0.9944494325589607  0.4008629002481266  0.0083040538424541
  0.9996428872291168  0.4000149599170355  0.3967371297870635
  0.0010339015787115  0.3994412623686470  0.5981777451187728
  0.9982140716451799  0.5968111669761023  0.1987698182733049
  0.0011687527207694  0.6005251201235136  0.4002765098515557
  0.0012081863228344  0.5985141962438543  0.5994038673083846
  0.0000826339189194  0.6011670717840368  0.8018241681493942
  0.0000075555967862  0.7993619547447094  0.0013317964072792
  0.9998279863837145  0.7996752554635621  0.1995768331087461
  0.0005084258577668  0.7997792805279718  0.3998173023173386
  0.0016684423847024  0.8001106815018978  0.5997129773370407
  0.9963267908654726  0.8001195860139538  0.8012413710485460
  0.1994706997068669  0.9998435190834560  0.9993491767055770
  0.2035138987427011  0.0001620520335511  0.1999283005717861
  0.1992178655195207  0.9994258415936664  0.3994748511943274
  0.2008296918250422  0.9995999377746586  0.5993749653457219
  0.2002144114040368  0.9985921195626720  0.8001519971017851
  0.1997807878786452  0.1983002076825067  0.9978770920992547
  0.2006185838100311  0.2006603847403564  0.1994547675069136
  0.1996402811613388  0.1998551357455103  0.4010225461863272
  0.2040731668737458  0.2000920592574552  0.6003609416627540
  0.2005137789635587  0.1988433519208617  0.7988510670351980
  0.1959389276347950  0.3998806758480386  0.2007289979446461
  0.2004254341295101  0.4008049209998488  0.3995040675530452
  0.2001947898560981  0.4004276102891748  0.5984975880720577
  0.2029464273517017  0.4008401122259282  0.7960312217647763
  0.2005363412939153  0.6023745209279455  0.9989339112565004
  0.2013463295884924  0.6001268409391513  0.1996948812692812
  0.2006953042754654  0.6006469661703319  0.4008339147691533
  0.2010673991090068  0.5996343327132833  0.5999924624526212
  0.2014308902016464  0.6013720093679060  0.7979266323528824
  0.1996275533639899  0.8003029047508132  0.9987079299960263
  0.1989286177206032  0.7991581691355909  0.1998205432206537
  0.1997568439016255  0.7994877271811717  0.4007042739606266
  0.2005878552452081  0.7999384817340732  0.6006797793808931
  0.1993407003192681  0.8002109602931148  0.7992191827607769
  0.3997810245290932  0.0000578785252545  0.0033409605735824
  0.4002966906492406  0.9994726677260467  0.3955057172868633
  0.4003209853227991  0.0033780146142726  0.5984470607204539
  0.4006004988546715  0.9991637036817399  0.8007612249229076
  0.3996039923627516  0.2006083042539726  0.9980643502480113
  0.3995135989063415  0.1970806172214624  0.2004363603517551
  0.4000492223005711  0.2004862951017332  0.4036896209787003
  0.4002398492939939  0.1992576002091944  0.7963797557892565
  0.4000789984527586  0.3989774220543572  0.9994921246069959
  0.3982131233753053  0.3989091568014314  0.1990960920658044
  0.4001643595973520  0.4004450837692102  0.3984837152895680
  0.4005380259858521  0.3962654017445515  0.5986672046917962
  0.4013256052925144  0.4003696393807540  0.7995926682262766
  0.3990357645596098  0.5997926720152670  0.0006304212679200
  0.3992290463224393  0.6002054877548839  0.1999766878162171
  0.4002337109158096  0.6002469021896736  0.3993154556447595
  0.4006043255323983  0.6001934691301396  0.7988023756162110
  0.3995311399017558  0.8001555127940319  0.9987046741368849
  0.4005824794736075  0.8031805126186339  0.2003003566155518
  0.3989493516446475  0.7995558928852255  0.4008114580315582
  0.4002473298545997  0.8011353040430182  0.5999694948771312
  0.4014862432987291  0.8000726816512281  0.7994614855778069
  0.5996493039210278  0.0007050628592487  0.0001894946263452
  0.5959716914310622  0.9994874140531379  0.1999629288614337
  0.6011646260700330  0.0015326941321434  0.3993273953082948
  0.5994752599620697  0.0001680610156323  0.5990099187945024
  0.6001774065576232  0.9997373116071828  0.8011485916344460
  0.5998537148691565  0.2003949257399147  0.9989933502035331
  0.5996563378286901  0.2014319110383132  0.2001985395363930
  0.6010176453971369  0.2007511816916953  0.4000130561450667
  0.5965818826323693  0.2004313697725044  0.6002005668389456
  0.6007615130757037  0.1998187762009652  0.7999845183758811
  0.6008152292579545  0.4007604548068557  0.0007311937184057
  0.6001102274772181  0.3998285397048471  0.1994842067408819
  0.6010697971368281  0.4003119266867223  0.3986942191727721
  0.6006775232870448  0.4003876430371764  0.6000015945618463
  0.6016362296838397  0.4007477909138267  0.7998785797292668
  0.5960631025577554  0.5990053166539131  0.0005397097718827
  0.5995063480305678  0.5980372495100136  0.4000271967758508
  0.5986709078542214  0.5988100782603653  0.5994924682529709
  0.6007904803495847  0.5994341812924829  0.8018307205808222
  0.6002908612517446  0.7982766211570118  0.0002307438114130
  0.6016797978947983  0.7988928035508921  0.1976011272730535
  0.5989375713904191  0.7994714376796351  0.6020385969625918
  0.6045715589512932  0.7994744239448168  0.8006744674854823
  0.7998220356164101  0.0001129914298763  0.0010702264198501
  0.7991338340486810  0.9996814644631807  0.2003042170127521
  0.8003866047290115  0.9998037441830714  0.3997135824735421
  0.7999875833076895  0.0011180723086526  0.5993234915422941
  0.8002138857671394  0.9953047254499898  0.8002634707752782
  0.7995641004322659  0.1989373274520191  0.9985709468370260
  0.7987089403401398  0.1984717218506325  0.2005918713205685
  0.8000052937781430  0.1996374571730812  0.4017787414849055
  0.7995554539163304  0.1996406391077055  0.6012484465361647
  0.8007756087420045  0.1986952555104323  0.7988415933926851
  0.7983923190701111  0.3972574268819246  0.9996846498840639
  0.8027429659467477  0.4016933346918015  0.1993527393396331
  0.8001453878800133  0.3994228020959506  0.4007233084516515
  0.8013771926870600  0.3994793570318412  0.6008229339144279
  0.8004733042449728  0.4024738255498080  0.8018801309450750
  0.0029460917324177  0.5999249397068267  0.0003074417028450
  0.7987279964580284  0.6013481858556980  0.2035526141876158
  0.7997182847337728  0.6009281797374899  0.4012001135312299
  0.8001510132558980  0.5993174547559287  0.5991108147894788
  0.8007176895620657  0.6038555354340008  0.7957533088765210
  0.8001088668860833  0.7994096538709272  0.1995014483366141
  0.8032755011726957  0.8008268350156582  0.4022898315406206
  0.8010680846639168  0.8004414149753556  0.6025843347015741
  0.4000408607748016  0.5989176994513108  0.5994641701115450
  0.5994211405974843  0.5997951951946670  0.1998630024809072
  0.8001888833354647  0.7981864811129080  0.9988919748308019
  0.9993587152337702  0.3998829959995077  0.2018371043392790
  0.3992961255949472  0.0010278504437630  0.1997484512596762
  0.4001949916133951  0.1995969341786895  0.5996623098292235
  0.8007794982141638  0.7999164898528713  0.7979694302949051
