Zr Ti V  Cr W 
 1.0000000000000000
    15.3205282173675101    0.0002014824685806   -0.0032720455521328
     0.0002023707323046   15.3277042438828079    0.0007193262014022
    -0.0032728540049734    0.0007198926617368   15.3420216939870571
 Zr  Ti  V   Cr  W  
   1   2 101   1  19
Direct
  0.3942665702472706  0.4177716939167236  0.8183360077256008
  0.6107093961497400  0.6086202623150965  0.0067176864708529
  0.7913349600715809  0.7896513753339970  0.0084546898017488
  0.9973593354729697  0.9984381078450913  0.9956186566139336
  0.0004187770582850  0.9977568957136547  0.1972814026245191
  0.9986578365152069  0.9988061853256422  0.3960615896773588
  0.9992736083287713  0.9949521989231807  0.6071165289456372
  0.0016334428369070  0.2005954442678297  0.9962350168617559
  0.8988679171049291  0.0971046442296983  0.1977121209997452
  0.9993986549126396  0.1988983841764808  0.4049284508977924
  0.0000694316375125  0.1990283918388953  0.6015114423074781
  0.9961493305727267  0.2162469640107593  0.7992617003952500
  0.0040947405091276  0.3997227454861226  0.9996175219800338
  0.9995187961839694  0.4012621331869351  0.1966499498117243
  0.0006383381137676  0.3999978045673067  0.3975499904685720
  0.0019236337205229  0.4038564258048493  0.6054251670690886
  0.0018979672319872  0.6000443019003587  0.9949746242892372
  0.9985135208471191  0.5981739045636734  0.1982405375510035
  0.9951592957963401  0.5983780755194326  0.4053485922976644
  0.0041047203691051  0.7980485290407930  0.9991454204973170
  0.9958185947384651  0.7986869239215590  0.1985066501305001
  0.0023442835840612  0.7991036573395295  0.4041617716335940
  0.0014293177572553  0.7924831249980229  0.7974345155341649
  0.2007814505452463  0.0018085821782259  0.0003360934433083
  0.1975351564038208  0.0006303589929906  0.1986587921268124
  0.2041806642677818  0.9955253926660774  0.3988388767681731
  0.1996008455369010  0.0051429717988606  0.5996579462162874
  0.1947723455464717  0.9996936225090308  0.8003563322813276
  0.1999644981658011  0.1980737813376178  0.0003922649726800
  0.1999535789612195  0.2008304430262072  0.2020538077850904
  0.1987017192337108  0.1993857626643777  0.4046021192245976
  0.1993979303059098  0.2002474618651446  0.7953106529516333
  0.2062147459354179  0.3981329704271091  0.9994263817559975
  0.1996869228577546  0.3988577269671469  0.2010379781845289
  0.2010181853579084  0.4001946342832775  0.3984521960919382
  0.2007973192787946  0.3945301902658437  0.5998345655240739
  0.1918562081007914  0.3998620777223976  0.8003287921129022
  0.1983273345822067  0.6005173764543539  0.0002800873847884
  0.1989455358026552  0.5987691159942645  0.2000832186271172
  0.2009812142016516  0.6025665350403453  0.4006727378227885
  0.1967235963598640  0.5971104317324446  0.5988835526449494
  0.2143886424072834  0.5971081186155505  0.7987515827700321
  0.2000891947558842  0.7999160634701071  0.0015719156960488
  0.1998918336224142  0.7983864849955580  0.2034737168920433
  0.1968464355892438  0.8001918113193097  0.5947310862645878
  0.2031034783787493  0.7984685525552249  0.7986993190570445
  0.3997958435942445  0.0010712877222920  0.0010478310613299
  0.4015589042690566  0.9997287519288943  0.2010323657652374
  0.3998933222899078  0.9992584172844191  0.5968231482121928
  0.4001970927726868  0.9961985384271995  0.8019224589611423
  0.4005374892868878  0.2031008672805221  0.9976765624270588
  0.3999692484077808  0.2000585223859479  0.2017031024528927
  0.3999685923336136  0.1957134331974593  0.4020872307340937
  0.4007222017189555  0.2003444903697343  0.6025458557343829
  0.4009702005181274  0.1981829526179591  0.7992548326159313
  0.4040108337555820  0.4011674594649113  0.2028171276776548
  0.3989494320661003  0.4021587282338994  0.4007435349923225
  0.3996483875622818  0.3992651822185976  0.6020264314572987
  0.4000404399565016  0.5981191281109081  0.9965067803916353
  0.4017803033693510  0.6008172035626703  0.1996613642105023
  0.4006056897556672  0.6007719783394485  0.4034054304828475
  0.4008168152022141  0.5984173795711342  0.6048786030092449
  0.3979895728616457  0.8009712842661525  0.9977604086992993
  0.4009547258939010  0.7977090092257260  0.1967495147995788
  0.3988984129014371  0.8005595703902694  0.6027660525197635
  0.6019766097948298  0.0030356609593047  0.0008105862799619
  0.5988721806762508  0.0009587042716415  0.1998193674774989
  0.5962524812541704  0.9986538181313194  0.3981309953954736
  0.6004320350592895  0.0036635860477069  0.6011929130359471
  0.6009906690004279  0.9990271872509340  0.8009153128714295
  0.6001772880338163  0.2003787453633597  0.9987117076557203
  0.6036014190114014  0.2022172779074226  0.2021622930902103
  0.5999337392471061  0.2004526387448790  0.4057986306482352
  0.6038442633951674  0.2008311708402736  0.7965692220569265
  0.5952700916724400  0.3979868194348594  0.0051808724332843
  0.5979668744573062  0.3992265075830607  0.3961196893688426
  0.5972098607974278  0.3949404115798895  0.6007089635669767
  0.6018290683887311  0.4013789401519089  0.8034427304349706
  0.6004601901639252  0.5954401359191132  0.2052914354362419
  0.6025786452988527  0.5999083859724375  0.4041216471602994
  0.6018731777195784  0.5978361730883205  0.5989578207036331
  0.6022793316016930  0.6000442560471012  0.7963286749326843
  0.5938440150675471  0.8048151945149801  0.0002468261380843
  0.6009619996453031  0.7989732693095829  0.2003774349554434
  0.5992494211177559  0.7992841082972241  0.4010370349168373
  0.6006856086413354  0.8020449111030576  0.5982267870376113
  0.5982117885225091  0.8023550202386558  0.7977119452794229
  0.7984123079260455  0.9980612872032982  0.4002279600295232
  0.8007896343441248  0.0022759702885338  0.5987871823597471
  0.8036079313761745  0.0005657292254756  0.8065234428293572
  0.8006381347557454  0.1991462771521888  0.9964501133191491
  0.8011559181903241  0.2014374245706444  0.2027208345813416
  0.8015532660787752  0.1979817642235753  0.4041685299613599
  0.7986707357215196  0.3988433092661207  0.0025661903922205
  0.7968145883313830  0.3989256826749034  0.1994926432503157
  0.7999699991876729  0.4032997050162155  0.4000759921950935
  0.7996852371349549  0.3948892259565254  0.5987728531876668
  0.7995633695197237  0.3994958115350136  0.8038708790399827
  0.8027447861954189  0.5949601625343978  0.9948052043924174
  0.8005300801919788  0.6017280574563005  0.2054368190835196
  0.8008777172505328  0.5968617482838349  0.5984718417659752
  0.7989642617217988  0.7970127336211535  0.3974195098997513
  0.8029159311663935  0.8027762679419274  0.5983194954025373
  0.7953859300065299  0.7945052561733538  0.7972197516288124
  0.3995590801418957  0.7990928226314827  0.4000138056650357
  0.9989210618245784  0.9807484661124660  0.8010430439168583
  0.9974371915449082  0.4099094137944603  0.8038118865866889
  0.0000568683654678  0.6025007722757942  0.6035284915257587
  0.9844094534154669  0.5970466255599722  0.7951781930480621
  0.0010287425582591  0.7957351266331629  0.5996369487887655
  0.1993050045387300  0.1990705417005914  0.5996837245000675
  0.1970557280006187  0.7996898066762262  0.3988253447045657
  0.3997742412456285  0.9996036470257180  0.3984520974421640
  0.4012412303151878  0.4008449914398895  0.0129829317605368
  0.4076747953964859  0.6152049769510758  0.8007969504224165
  0.3998082068856242  0.8015978985209633  0.7999474462675968
  0.6028201673626803  0.2003823283916810  0.6012500794483643
  0.6000502680645914  0.3986884237629489  0.2009825076074238
  0.8002514783200003  0.0056508285122927  0.9984572808709935
  0.7982799755640555  0.1988219613950421  0.6037790493475182
  0.8018273324604890  0.2002419353528604  0.7962837690314835
  0.7997441789420574  0.5997324581129719  0.4031089195576881
  0.7960997238710699  0.5971952620655964  0.7960465767627704
  0.7987834910128562  0.7954339665242748  0.2026548804057988
