Zr Ti V  Cr W 
 1.0000000000000000
    15.4789986277991698   -0.0057363133456787   -0.0416155365588555
    -0.0057723299671727   15.5830275882165825   -0.0125050511144938
    -0.0417577802568669   -0.0125697874571833   15.5260084647108236
 Zr  Ti  V   Cr  W  
  13   4 102   4   1
Direct
  0.9976509150333573  0.4064402058469690  0.4055494890273868
  0.0069890636773722  0.6168256721267708  0.9709659189435743
  0.9556630707728984  0.8327442972923252  0.0110347744577677
  0.0010946131886211  0.7585889406833421  0.6306818579912776
  0.1773729559719950  0.7910206917495389  0.9936861055316027
  0.4155278921816722  0.9877831007639800  0.7843368444120227
  0.4041604430307469  0.3835528472419982  0.7662377361377745
  0.4085664371770138  0.5936836531006623  0.4094796598483879
  0.4038203972926272  0.8047536117866388  0.6037098762228431
  0.5578722448346495  0.2012604273604656  0.7697078029741219
  0.6058459889891269  0.3910192033711471  0.2362962008574046
  0.8130294228996645  0.6032431522977644  0.6155340547048781
  0.8481882510577080  0.7497723684229820  0.8116818033565015
  0.0015271403543115  0.5754959079513535  0.7643487703500432
  0.3910320100173035  0.4105404402254642  0.5684482205797569
  0.5877764058288342  0.4262288002626721  0.4329148097536740
  0.7772323870047338  0.8326628376850702  0.6016829436335289
  0.9981872867281848  0.0208504833401254  0.9963502828570319
  0.9974969485926566  0.0096182820085119  0.5956933912248805
  0.9980637253731715  0.9958085844562038  0.7955416182878872
  0.0000336258820791  0.2073030538958105  0.9991362078562102
  0.9984683110899193  0.2018009477122054  0.1974257870349529
  0.9983300635272542  0.2012517421841118  0.3946531500001209
  0.0006156697890469  0.2003146819578015  0.5955937643428398
  0.9992560445123678  0.1953971768809853  0.7973126600141984
  0.9999607149755505  0.4042152123649985  0.9992475172962546
  0.0022030432198366  0.4041468424912474  0.1974333912570258
  0.9989633459844331  0.3912423996593157  0.6051656466760696
  0.0001872844043285  0.3890059249447749  0.8022473452782101
  0.9998764048062069  0.6009839806025983  0.2007891910819732
  0.0016669894893422  0.6097577434732143  0.3986907288767844
  0.0148034603328322  0.5679913130064623  0.5814567203485637
  0.9993052220884103  0.7983526237519148  0.2069229248663018
  0.0001343655578359  0.8072107184009814  0.4010785847991247
  0.0348939506489727  0.8093921709519762  0.8238988578734543
  0.1976070439598384  0.0013761410044919  0.9974138445900433
  0.1983055581101030  0.9977520089055323  0.1973984346918274
  0.1984115717923866  0.0006787130966011  0.3980827446536668
  0.1960930088754067  0.9989578361340882  0.5963620656458524
  0.2006560843200408  0.9973170522482357  0.7955271647748590
  0.2003435554980922  0.2021052555301695  0.9994664708554348
  0.1982453153972569  0.2005914714920749  0.1988312492013218
  0.1988065405660583  0.2009941827761994  0.3978596931651501
  0.1986875732142142  0.2008423358988839  0.5964247631290192
  0.1963695675389139  0.1979547187472320  0.7962532975449292
  0.2013146362438542  0.3980972046783978  0.9984487125425826
  0.1979458941321408  0.4002102200138684  0.2022941519888212
  0.2040218718353789  0.4014790744991297  0.4000155641971685
  0.2015247311185934  0.3966915936385235  0.6010698566788027
  0.1950870477894293  0.3996941045076026  0.7989141864096601
  0.2126878814756088  0.5896250711522444  0.9986897230968731
  0.2006894055436015  0.5989353709836899  0.2017334977038712
  0.2000003842846825  0.6019757625827690  0.4013997334712517
  0.2065440129225874  0.5979161009275735  0.6004289667442677
  0.2024306551510248  0.5976657482231720  0.7989266294584755
  0.1968620692266107  0.8001344904819243  0.2030433195068186
  0.1993591619688944  0.8011795935053975  0.4023010731085968
  0.2014564989379046  0.7973496261111173  0.5967427070708292
  0.2063345608689511  0.7973647769310599  0.7913076070867875
  0.3974523382377628  0.9947710456691928  0.9976235774570023
  0.3979387197045144  0.9984279357548391  0.1959339216943908
  0.3986424618364760  0.9997580946510172  0.3942019766944175
  0.3967608547223723  0.0095642312435286  0.5860814608871545
  0.4002524619393018  0.2002880675691242  0.9954194805678497
  0.3965219415685418  0.1968638978302235  0.1943413267291159
  0.3977350413150891  0.1985497198572861  0.3917691796687488
  0.3958506159830962  0.2042526623337140  0.5882177584942503
  0.3714252755177999  0.1899921603363069  0.8013772068517567
  0.4036599985141888  0.4030624662531838  0.0020704743674962
  0.3979966406330787  0.3977829079094721  0.1975453568830682
  0.4012099763302556  0.3925905807810712  0.3855398817952559
  0.3999159520490467  0.5997743553680402  0.1971215066472751
  0.4029717839903213  0.5991020868765659  0.6140750498029240
  0.3983020509573442  0.7935733148497228  0.0024021964765621
  0.3968419938532070  0.7978256600613985  0.2007381380372698
  0.4004680000999457  0.8022103744962040  0.3968741038609225
  0.3996528260550545  0.7861099176986253  0.8089294638734139
  0.5979664569992288  0.9982875958734512  0.0000395086664762
  0.5995779224565426  0.9958235357977260  0.2014133052443609
  0.5982332933493172  0.0024923881924819  0.4014448367071348
  0.5965343853976630  0.0154703576812538  0.6024492088761154
  0.6156302039538398  0.9862196416829976  0.8072234957454330
  0.5992806753567557  0.1968894930186220  0.0022092641613479
  0.5983999028217190  0.1920906986697146  0.1959658452211340
  0.5965640234823297  0.1996186902335336  0.3919571609464407
  0.5973862981400773  0.2110831407021914  0.5780288481378487
  0.6022669295056514  0.3954740680458338  0.0012900710905898
  0.6011255416968460  0.4049644460721544  0.6153215118783439
  0.6073189151972690  0.4012474173049363  0.8056739900607237
  0.5960077960865895  0.5968136286698944  0.0042934725571188
  0.6002079047881240  0.6016989559823661  0.2080538628153319
  0.6122228559795024  0.6157504192605289  0.4107212055326612
  0.6019759650269946  0.6053671762113437  0.6095395076137023
  0.6067257523495754  0.5987063235542822  0.8043870293166444
  0.5991456599818314  0.7990328974949099  0.0029560533698643
  0.5987411531548306  0.8004037007002821  0.2063076847295111
  0.6007525006303149  0.8067995315365174  0.4054411362476478
  0.6004772861411397  0.8021593833720703  0.6044869297801633
  0.6012939005000099  0.7933226473806914  0.8025085250853761
  0.7976157363666748  0.1013898843988277  0.9976801033783593
  0.7970984837209707  0.0033678325626330  0.2006682422483706
  0.7985048452399426  0.0161304014934296  0.5979450468210806
  0.8024671043761923  0.0074556274416545  0.7946867886924994
  0.7991984929634217  0.2019328030593003  0.1986632429706224
  0.7990301174840464  0.2063924866956044  0.3962614656834114
  0.7929460729107582  0.2074558065091834  0.5951031782234253
  0.8010421913434211  0.1993211298062283  0.7987138767243658
  0.8017264220770922  0.4002291984855823  0.0066106457037776
  0.8067548554458459  0.4033157516324401  0.2029618624814947
  0.7924801189653733  0.4080804910301920  0.4024506712338899
  0.7974356619273339  0.3977490815109085  0.5989600817223620
  0.8022982781632563  0.3917257491926204  0.8039643535901052
  0.7941721320138578  0.5970096303138827  0.0079813390770253
  0.8015485250371884  0.6013912552622068  0.2031610036249250
  0.8042045647972114  0.6074813623172471  0.4029150502370921
  0.8017108009103439  0.5705558960356110  0.8166951355097670
  0.7734541197040262  0.7939871995476216  0.0078074948883953
  0.7996111563262039  0.8031391746639636  0.2029815937593543
  0.8025466756865784  0.8057666835090554  0.4036285357061475
  0.9980479764392672  0.0032878162365391  0.1983216514512474
  0.9988407598419706  0.0041222968979486  0.3963923324985162
  0.4036476789831084  0.5939710114514276  0.8055871691092982
  0.7996500278798084  0.0063010698730143  0.3980319717720339
  0.4033512977562954  0.5975526278118214  0.0023137294905750
