Zr Ti V  Cr
 1.0000000000000000
    15.3990340272275770   -0.0170018773457157   -0.0022529018582575
    -0.0170107766548915   15.3787801482628375    0.0165544931564424
    -0.0022517709109467    0.0165430754876648   15.4057927644380346
 Zr  Ti  V   Cr 
   3  13 107   1
Direct
  0.1968612853823175  0.1961284377025225  0.3714323735610291
  0.1942237941547103  0.6372325121325704  0.4080284136100471
  0.3657863510855957  0.8031924237493085  0.4044450982850271
  0.0017112651949549  0.0061608975675802  0.9950158807251290
  0.0012137687181311  0.1936536858825013  0.8072916332057919
  0.2031937654116081  0.1981033334606599  0.1737152203438132
  0.1996860786409273  0.5734176629548514  0.1959129101018708
  0.1970027880548288  0.8053789133885264  0.2320085377615476
  0.3928543263157993  0.2052573983859050  0.6058527065201949
  0.6111523974811469  0.0157974557712079  0.5935416365775316
  0.6059690469692147  0.1947724612371198  0.4137780241416032
  0.5915221305879983  0.2038529150761181  0.8132080793690036
  0.7957613378087778  0.1986434384834480  0.1955499717643165
  0.7871902712565124  0.1951092116758531  0.5935691634588586
  0.7984330316687918  0.1985010158852794  0.8025489284495103
  0.8015772605125585  0.8026842949171016  0.1977136129847504
  0.0023898620495124  0.9991940071417131  0.2001166168199235
  0.0030934660184132  0.0000152532534228  0.5973487436823730
  0.0020690590803267  0.9966171076139658  0.7957469929106851
  0.0010612001295824  0.2026041048493782  0.0050884008686717
  0.0018648152617080  0.1983824203357382  0.2014606444209392
  0.9950481897077299  0.1988789741455830  0.4001646069126977
  0.9993331781387899  0.1986582131870132  0.5974447166641224
  0.0004828273517634  0.3996272772071672  0.0004532235392963
  0.9994074482787276  0.3974841557618257  0.2006631837175036
  0.0002540970658693  0.3990081478975151  0.3996869980070845
  0.0001615859918537  0.3977552662893158  0.5993586401866591
  0.0008854580976072  0.3994673850657850  0.7994284489683918
  0.0006484612601301  0.6002553940157750  0.0008709517300545
  0.9974807406234371  0.5965839456497274  0.1982020176256254
  0.9930302300283336  0.5982448913984314  0.3981485168879319
  0.0027139844775624  0.5985314392339784  0.5976304256655607
  0.0000254929627602  0.5989208524616759  0.8001750919903476
  0.0018134138803695  0.7987527272078110  0.9997775321012546
  0.9988510058046014  0.7999093491895548  0.1982690333254635
  0.9982070656876965  0.7967915710641466  0.3979883057318191
  0.0038713572638405  0.8002708755643795  0.5969951988040750
  0.0004999292298846  0.7980313001987972  0.7977329404168376
  0.2034792705274349  0.9991038835394085  0.9973028265926618
  0.2021426260412955  0.0049376165292994  0.1983159654588951
  0.2047180952423281  0.9930391736590889  0.3999605095927914
  0.2023779075999713  0.0004562881944181  0.5963555658659834
  0.2028343131022485  0.9996336291391157  0.7954346386427850
  0.1993775506720751  0.1986757355212349  0.9850199860014506
  0.1971059340912212  0.1999006570495019  0.5939119951940530
  0.2019654888998615  0.1983505284334371  0.7936352532568972
  0.1998518034011908  0.3967496011393953  0.9968604794463931
  0.2008732304294641  0.3858206862552613  0.1987370593135763
  0.1997463921909948  0.4072004916162418  0.3993336816078854
  0.2005867866841223  0.4009877880724265  0.5973940441767589
  0.2002020870870995  0.3986293343294560  0.7984933463051148
  0.2002533980677959  0.5989648540997451  0.9989279038256157
  0.2009633368283139  0.5995467428548296  0.6083997815973392
  0.2008662125323120  0.5985176622550666  0.8018371724520647
  0.1995039796179487  0.8002568699457392  0.9961637473130217
  0.0353192754704551  0.9679122161458632  0.3998281994045624
  0.2030945488319058  0.8014823229383067  0.6025411547630471
  0.2009295228860015  0.8009614424097941  0.7999788536383663
  0.4014720890476629  0.0008304524617417  0.0013649548500438
  0.4037328862852590  0.0006149128985081  0.2000934659793059
  0.4035600797907417  0.0081110712107406  0.3998759998492880
  0.4031070031085553  0.0009324141986775  0.7985842312184925
  0.3997236594815747  0.1992878028521547  0.0015727077294854
  0.4019175227453081  0.2003398401419339  0.2020054425736705
  0.4020761034014576  0.2016235057583369  0.4013599726393703
  0.3968728723288294  0.1995955596311990  0.8054248939495112
  0.4001898224113107  0.3991691195628735  0.0016243203301669
  0.4014178475741156  0.3990918069361721  0.2011262399588483
  0.4001964470609622  0.3991428368698064  0.4009543870019997
  0.4000789742477731  0.4022901226347793  0.6005418950190026
  0.4012277821415970  0.3990506610174612  0.8001875240437882
  0.3998742047718994  0.5999350416746406  0.0017698569543532
  0.4020133088111729  0.5981993508464132  0.2005717953727792
  0.4031581052398262  0.5967056135066341  0.4019584785400115
  0.4014564663184554  0.5997842831081343  0.6019969073260927
  0.4014205868897827  0.5999627964750646  0.8028681202483775
  0.3983166482576755  0.8006714545245209  0.0014739334210396
  0.4023009098238935  0.8015644383337214  0.1975064611627719
  0.4033222603425858  0.8020797661546472  0.6079629492807735
  0.4015898695060640  0.8006181480448912  0.8027317278141132
  0.6016465869738912  0.0008313520992020  0.9997626632821962
  0.6028138784149145  0.0010165554935664  0.2012236140515631
  0.6005891975942184  0.9958944424607739  0.3982170672221220
  0.6019389744315560  0.0010236832451932  0.8009233269367406
  0.6002324491318971  0.2004362501945980  0.0075693397544913
  0.5986595333103707  0.1992941836001653  0.2022526246086046
  0.5939342506365973  0.2074890189294555  0.6096926554263616
  0.6011220238732503  0.3999899152777690  0.0010889272751199
  0.6003413715700641  0.3982753243284640  0.2027104112818654
  0.6013583525724338  0.4005101602874625  0.4017968088290709
  0.6001622496207832  0.4032487606335923  0.6015000164822421
  0.6009308826363192  0.4025976424165026  0.8017006356722426
  0.6006580629775581  0.6004078774871201  0.0014772901306943
  0.6012758450172817  0.5998319161642582  0.2006427467299693
  0.5993787399076748  0.6008076754019053  0.4005504028496872
  0.6012746478710143  0.6027997927791244  0.6014377095918472
  0.6013068364076175  0.6007211338570390  0.8014541850234391
  0.6009559951290122  0.8009405074104032  0.0010672266369063
  0.5979614164645884  0.7999623123003097  0.2012287356734145
  0.5985394561756134  0.8007785102712046  0.4008642610188790
  0.6001305721164155  0.8020831611884500  0.5992950664230221
  0.6009405561857973  0.8023782185037748  0.8006994087921265
  0.7997966644749659  0.0005016064120598  0.9985778431201640
  0.8019969617252127  0.0005459287072242  0.1984036529947479
  0.8120926400094831  0.9963423753445546  0.3953515577355552
  0.8067467759578203  0.9961732229027435  0.5979322132709132
  0.8014413287545511  0.9976015305512166  0.7971005785473182
  0.8011429208398622  0.1995389322336208  0.9975404496857474
  0.8025821527461658  0.1973533654167247  0.3961712592068770
  0.8011593791558397  0.3984035651058929  0.9995661855313778
  0.8003844004959423  0.3987412702669551  0.1996809612062299
  0.7998421967096595  0.3978095698594740  0.3995016953156010
  0.8004730435279588  0.4007126005860612  0.5991487410494168
  0.8008811436474135  0.3992675117134454  0.7978450630061251
  0.8007178829064204  0.5987003611275712  0.9989214971806482
  0.7986157483890854  0.5966301176215963  0.1989733193667849
  0.7981095453520083  0.5999270527785927  0.3991639092798532
  0.8009033323454371  0.5992036253568093  0.5998248311359921
  0.8009875497682726  0.5996837411477058  0.7999540752121020
  0.8006754774511480  0.8004620261738816  0.9962523033732010
  0.7995833900954963  0.7996575224019119  0.4018998980428824
  0.8021573424764120  0.7987098050023069  0.6004015278973862
  0.8010298989370760  0.7998539988044859  0.7988036467385472
  0.4020466992277202  0.0000237791940945  0.5995561942920712
