Ti V  Cr W 
 1.0000000000000000
    15.4539762940606913   -0.0009302546193068   -0.0040609226562242
    -0.0009305541856652   15.4553324993326164   -0.0016432811203864
    -0.0040599645847516   -0.0016432389492442   15.4631351219687598
 Ti  V   Cr  W  
   3 114   3   4
Direct
  0.0057390082639359  0.3995390950140257  0.8090963352638749
  0.1938079103479304  0.3986470865181473  0.9903523380621202
  0.6048819854383356  0.7991656301220459  0.4057957851483089
  0.0000779338483431  0.0034716885816901  0.0017745696250236
  0.0005097979181181  0.9991986633336216  0.1988658546039557
  0.0003550063562623  0.0008740587986166  0.3990384872586160
  0.0011344381517928  0.0015404896859350  0.5988199027689217
  0.0005466334230722  0.9991813084207009  0.8024283697880894
  0.9991785706839983  0.1998637704297250  0.0006369760994979
  0.0002748303749769  0.2034554925825825  0.2007456812713070
  0.0003706889858210  0.1995585853217801  0.4006582350859769
  0.0013988211716625  0.2009778995571072  0.6006238331737592
  0.0005956464529338  0.1983546183172153  0.7997732530550983
  0.9956602937191482  0.3993996202688071  0.0085024175020776
  0.9996007931441818  0.4000403674682537  0.3970305982273622
  0.0010947367327661  0.3994804766941293  0.5980926623026849
  0.9997215204862165  0.5977123267586774  0.1992260645046737
  0.0003470138580564  0.6000917027777465  0.4004452581952714
  0.0005568596120853  0.5979852252689635  0.5995887334380651
  0.0008636196436676  0.6028368808286435  0.8023420802247518
  0.9995726989869361  0.5974879593754298  0.0010467948775159
  0.9997209548458930  0.7987333610166825  0.2020853330772804
  0.0002567419758932  0.7996830557593806  0.4000482905235557
  0.0013088398856529  0.8002441677284271  0.5989438239653960
  0.9962564026910267  0.7998680805059478  0.7965876969871554
  0.1983088722673036  0.9987028105947353  0.9995067348019859
  0.2035434490321635  0.0002294812476478  0.1999911284727431
  0.1991105159903481  0.9994902248538642  0.3992665936501055
  0.2008009628818782  0.9995796824029912  0.5996944824989088
  0.2002192884160613  0.9985561591703331  0.8002916684489239
  0.2002610698076391  0.1983813611121889  0.9978895482016958
  0.2004330618066599  0.2005371697340622  0.1995214488586151
  0.1997250401930342  0.1999833861511750  0.4011191241410786
  0.2042127821765374  0.2002816309852280  0.6002487639186155
  0.2005808329381852  0.1987301546544802  0.7988285042279464
  0.1960010330466108  0.3999908311649334  0.2006143220779716
  0.2004446763399505  0.4007698889068015  0.3995457888721631
  0.2002120206957158  0.4004922905104352  0.5985875352414666
  0.2030361245489422  0.4010238608182539  0.7960971050269687
  0.1990273576999689  0.6038317314385460  0.9989983575076828
  0.2012580095373254  0.6000034357990903  0.1993967803919633
  0.2007767161310114  0.6006059588427284  0.4006985523227390
  0.2011438945313350  0.5996273792195982  0.6000645935150758
  0.2012724298555204  0.6011874695054223  0.7984854947724804
  0.2015943050375990  0.7998385077183168  0.9987133578471993
  0.1976069786018305  0.7991853332620332  0.1982217434025810
  0.1999893668319513  0.7993732681641957  0.4009664513323877
  0.2008696018504716  0.7997474453104426  0.6005859143008543
  0.1978824012262724  0.8001990794872875  0.8001060073960908
  0.4000050450570071  0.0004248291106125  0.0034209223541441
  0.4004496322490336  0.9995562584635301  0.3955744871132796
  0.4005372020420214  0.0034806949706192  0.5983154822341091
  0.4005723714373452  0.9989805960627712  0.8008617157179985
  0.3996324288783800  0.2006162662811038  0.9980483818737433
  0.3997715838861070  0.1973319206613412  0.2003868448977492
  0.4002286489582697  0.2006247598474739  0.4037267945320767
  0.4005326728566287  0.1995786577091463  0.7963811247562903
  0.4003973308802459  0.3995304074405317  0.9995942691337513
  0.3981610610413336  0.3988897532070511  0.1991738893485373
  0.4002283012466419  0.4003375263658372  0.3986056128644143
  0.4007901994393377  0.3963690922077729  0.5987973341468915
  0.4012381483059680  0.4003931478710276  0.7996094420823227
  0.3996763199745516  0.5995175939576476  0.0008162899088011
  0.3995744866940624  0.6000445092867130  0.1998019048330147
  0.4006655258915188  0.6001997434038415  0.3992023028857381
  0.4006115039051891  0.6001921334821891  0.7992899856352012
  0.4005254156329892  0.7995385489460487  0.9986042296431625
  0.4007899430904846  0.8031873829702413  0.2006075318826953
  0.3988446268902122  0.7995121730946737  0.4009392939637637
  0.4004967099806069  0.8009448211591325  0.6002063168857319
  0.4018331311490845  0.8000898972869643  0.7992078407080144
  0.5996034770324906  0.0005866480656882  0.0002102114959508
  0.5960441474611504  0.9996601704142660  0.1999265785605843
  0.6012579073720292  0.0016535513135778  0.3993442287819065
  0.5994581080968513  0.0001011358482474  0.5990569231999354
  0.6003959004925485  0.0000446720782588  0.8011425953376511
  0.6002031051792259  0.2005701775267243  0.9989690735114507
  0.5995608152168490  0.2013105317203779  0.2001965055543779
  0.6011054071582670  0.2009410239047473  0.4000074816078837
  0.5967033516881162  0.2006593179274859  0.6002963551447613
  0.6006119361722584  0.1998149627399580  0.7999770633580218
  0.5995596638816290  0.3995871119521540  0.0006575553790723
  0.6002307447713592  0.3995954659438447  0.1996414149805260
  0.6009491348967412  0.4004605057105260  0.3988393471596045
  0.6007100804831420  0.4003487585117063  0.5997293764268221
  0.6015582683975974  0.4007669444260862  0.7998963516011596
  0.5992300147275224  0.5987980762774854  0.0001747309282785
  0.5997159327002800  0.5979675256352252  0.3996267182453641
  0.5991875184061335  0.5987174444721872  0.5997379855586823
  0.5992120376432626  0.5991775853908703  0.8001974121381995
  0.6002699359289934  0.7990418537292200  0.0001374823754887
  0.6009620416908625  0.7986143763575660  0.1984280752577375
  0.5993489406749033  0.7995315706007033  0.6020808740140886
  0.6047380308039750  0.7992237196526684  0.8005552953201780
  0.8003009181125816  0.0003750501507782  0.0013478009544727
  0.7988590051401337  0.9991537841068362  0.1997723595256060
  0.8003921926054445  0.0000448996333464  0.3994384202963532
  0.8001438226131341  0.0014147367265739  0.5995231206030374
  0.8000627989820082  0.9955039598824876  0.8007333263611943
  0.7990599126843713  0.1998721498850962  0.9986503544971308
  0.7987143793471027  0.1986667503124261  0.2003349684078689
  0.7998726135914744  0.1997561483006417  0.4018731224022291
  0.7994402261838383  0.1998832168433716  0.6010127538789631
  0.8007234735700102  0.1989896343084122  0.7990738483992699
  0.7978908998252636  0.3995762309358338  0.9999392730259624
  0.8029225801580512  0.4003517051870366  0.2008377987673715
  0.7998581207217348  0.3999781914125657  0.4003721333326626
  0.8011890950355213  0.3998570009810067  0.6009795547632804
  0.8003249604304493  0.4009555083836147  0.8007581926663040
  0.7996327592086354  0.5999218050990766  0.0004098015758927
  0.7987985519564833  0.6015453764953937  0.1996650690468942
  0.7995644870306421  0.6007752360414579  0.4006454899380945
  0.8002652395407881  0.5988892539379627  0.5999055178669294
  0.8002983903456681  0.6039151457605326  0.8004164346176877
  0.8006323512345976  0.7998521350051487  0.1993275207115498
  0.8026262638090548  0.8001982830885226  0.4022199518422305
  0.8007658944207390  0.8000438829913560  0.6026123060484901
  0.4003303069505386  0.5989109944169005  0.5994208547025613
  0.5993580276112758  0.5993424041687094  0.1994421271496017
  0.8014919868348339  0.7997797610604698  0.9986635616566278
  0.9991503434264531  0.3997460215307318  0.2023737028805751
  0.3992897541166547  0.0009163394685893  0.1996462098346707
  0.4003673920190582  0.1997287147207899  0.5997005997974563
  0.8007593707231411  0.8001214600006950  0.7978064381858548
