Ti V  Cr W 
 1.0000000000000000
    15.3720038313806135    0.0023998420144863    0.0001449001601191
     0.0024007571799185   15.3633006247875361   -0.0006442210894229
     0.0001450310074229   -0.0006449824026597   15.3697544548857330
 Ti  V   Cr  W  
  15 104   2   3
Direct
  0.0067626920829125  0.3937954050144339  0.6004534165609484
  0.9919625619604067  0.8007522015226389  0.2028719185109066
  0.0092687380756256  0.7976552784925004  0.6015182823020780
  0.2011063108383678  0.2051666903448151  0.3922599839447578
  0.1960766186261037  0.2060373497657877  0.6030446539342984
  0.1987417354980741  0.3958984440528452  0.2060159333865967
  0.2029908119666668  0.7988527008659078  0.2001085721995587
  0.4015220580843719  0.9959052751981905  0.8036551070371669
  0.4004231407597016  0.5976507039959240  0.8007446217812926
  0.6158267460688570  0.9987840826632429  0.9991863496345728
  0.7985980435493544  0.1969046088960581  0.7972621640221031
  0.7996379558506433  0.4057885530028516  0.1950368409781733
  0.8020219530936138  0.5925882450236361  0.0029482710727982
  0.8059170671677340  0.7969840532198218  0.3918175659882127
  0.7983900299223340  0.7957058659515789  0.6042997622472469
  0.9984073501101902  0.0009925353910269  0.2026575201410835
  0.9984635349957722  0.0004496418884667  0.4011794395136426
  0.0002252876783849  0.0003254822932168  0.5986255210454476
  0.9974744321577982  0.9996595890517722  0.7983618779508733
  0.9978754591322307  0.2000742112001214  0.0001350317062392
  0.9983585350924727  0.1988498043901814  0.2002497851842499
  0.9977472244994481  0.1967828518000909  0.5977983468298382
  0.0007042072002392  0.1985440201514096  0.8004449651770289
  0.9972551471900861  0.3991359792571306  0.0008611030960060
  0.0000966859839813  0.3991364223694066  0.2011848431805316
  0.0001480604801378  0.3981881575401111  0.3977864874963582
  0.9999239867511790  0.3989252024885006  0.8013285875105430
  0.0033068973247501  0.5992906213648841  0.0019084666348961
  0.9997322155886124  0.5974587163400985  0.2014651719623103
  0.9995603425019189  0.5987486372616351  0.4006585624768437
  0.0007386891091457  0.5985614389514842  0.5987481471122540
  0.9990225746308932  0.6003984860311357  0.7991620183275960
  0.9992427329622648  0.7975886206665698  0.0005267137013215
  0.0030117596594601  0.7996738848136273  0.4011952963043999
  0.9992384953293254  0.8005301850143621  0.8040267158083213
  0.1979152034088801  0.9993091492104180  0.9998835721141063
  0.1968202993759032  0.0004446091050992  0.2009391828624865
  0.1995419803671402  0.9998339080188322  0.4003464067504062
  0.2000307947518742  0.0001110683805359  0.5993206122624845
  0.1958028365358251  0.0001941672301997  0.7998107995587674
  0.1988970471078167  0.1972475467617316  0.1967002712649776
  0.1998082833294995  0.1992110932254004  0.8022526551364927
  0.1993663444241253  0.3997718536064778  0.9989959393808431
  0.1991704524449487  0.4029436733061126  0.4058168236275794
  0.2039870387972243  0.4042982569150827  0.6025610703432778
  0.1994286557970743  0.4009785867484718  0.8010128622539522
  0.1997360277205345  0.5989785089666161  0.0006133745395194
  0.1988857294042949  0.5999921408898440  0.2017155518609643
  0.1982274348628309  0.6008589807354791  0.4002820344774747
  0.2002364264895120  0.6021918491557321  0.6005850543853738
  0.1969711039529417  0.6002660021190609  0.7997510774868598
  0.1984543486635894  0.7998075072340152  0.9984733515361648
  0.2002812141472773  0.8006217295504666  0.4035363226514955
  0.2050560550435037  0.8004764088398953  0.6020641894674876
  0.2000601767529248  0.7999446843495692  0.8005987053736657
  0.3943408704300818  0.0000882804591270  0.0034013497186978
  0.3988914031878422  0.0002551357418097  0.2004854097112875
  0.4021380201972800  0.9998709047971494  0.3998874461329244
  0.3991497704867932  0.0001688414234047  0.5976485829541630
  0.3994648156253603  0.1999297086837250  0.0002154813058209
  0.3989726287152136  0.2004619496041526  0.1979770070324979
  0.4010178441391600  0.2008342230395938  0.3995882514366176
  0.3989754401880596  0.2003544374292882  0.5996968888483567
  0.4003707298086739  0.2015392881794607  0.8003838407461207
  0.3993128367262359  0.4011022165845903  0.0010635101394399
  0.4014892678397606  0.3997338061724593  0.2004933524652583
  0.3999845153796754  0.4002672817149706  0.4001598805550557
  0.4013204311468800  0.4012145746804583  0.5998662928663659
  0.3994159795607977  0.3989094976545610  0.8008855659593412
  0.3991958137918802  0.5992425320751082  0.0034680689128512
  0.3989656232220736  0.5997398665210076  0.2010983414625944
  0.3992256725167995  0.6001149318232041  0.3992321798261006
  0.4006597415925553  0.6001975358870889  0.5967922919082923
  0.3997424448393764  0.7997137726219304  0.0002500708768400
  0.4009768591388293  0.7996439710474739  0.1995257520427406
  0.3989972589104948  0.7994272751167335  0.3991280544517529
  0.4005243540829051  0.7993179240040148  0.6012083947556439
  0.4007619606274648  0.7998866351699346  0.8008317922424614
  0.6004716865127685  0.9996597736249714  0.2046955410699621
  0.6004492005987665  0.0000810594834983  0.5943822503077892
  0.6048902131112280  0.0045021775861919  0.7944709046202301
  0.6000691484564813  0.2016772745123975  0.9945201929384522
  0.5980859633706591  0.1997431321607909  0.1977330868768283
  0.5998718579327517  0.1972755858981651  0.4003731726340001
  0.6001223478008800  0.2005189790823878  0.6033132815566558
  0.6036982765265185  0.4010628644689631  0.9998689432271003
  0.5977231786206625  0.4006117715742890  0.2004376494343865
  0.6005471584238230  0.3983832591472703  0.4005968730915421
  0.6006413751134472  0.4005594853907574  0.5999571452240633
  0.6005324667446553  0.3968387964354975  0.7993452895572565
  0.5971471134548615  0.6005223308425041  0.9997475331308767
  0.5997038545994610  0.6011859695177166  0.2019160570867660
  0.6014359388754225  0.6013644044384128  0.4003763737600789
  0.6006805080959627  0.6001889326744271  0.5991280714807307
  0.6027035671365514  0.6002759440581805  0.7990197554664652
  0.6006764851443207  0.7987369146613601  0.9984913134678680
  0.5979779955795123  0.8002749566151881  0.1982053129134299
  0.5984824561282607  0.8041316903396976  0.4001818509567227
  0.5989131519931906  0.8001153122010708  0.6003108396975047
  0.5993581135786569  0.8019715354214720  0.7998652619240012
  0.9037575404759493  0.0008820946600776  0.9990526938395395
  0.8006520727701146  0.0000719477177814  0.1998340070795672
  0.7962268021843913  0.0014759355761702  0.3990949647846941
  0.8015236939686606  0.9996842009080948  0.5970006604889581
  0.8007860579442326  0.9969284547485026  0.7959164641982056
  0.7999414604175987  0.2050604251823805  0.0011224932425111
  0.7982127074352401  0.1986189242100251  0.1979003059674259
  0.7991994182708049  0.2018136382647775  0.3978185834752564
  0.8003958469546389  0.2016313607149308  0.5968378437504295
  0.8003154369350677  0.3999984675690708  0.4009987615059917
  0.8000499413021387  0.3996809072254582  0.6002805722641725
  0.8004858278828150  0.4033672726486926  0.8012603376940429
  0.7989863037312089  0.6045707881420130  0.2033733026831677
  0.8012860031437479  0.5968114940477314  0.4003465409261895
  0.8018472294271889  0.5970206242539288  0.5995347916791047
  0.8006795126056960  0.6011059259889125  0.7975716606235833
  0.8003871542540780  0.8002844678238693  0.9992178664779622
  0.7953850973173708  0.8007267236946406  0.1932275501037902
  0.7997653933147119  0.7994654094388096  0.8037489010766519
  0.9963424812664761  0.1998293365034064  0.3986992491537972
  0.1980745594725798  0.2002786549280609  0.9996815316989567
  0.5996386181978380  0.0010308859839585  0.3996184295627453
  0.5949653354090112  0.2003744414117299  0.7978709257452665
  0.8001328915618783  0.3995086277321058  0.9961318829182666
