Zr Ti V  Cr W 
 1.0000000000000000
    14.9295970875328319   -0.0579205173356371   -0.1168567097762796
    -0.0577481194497152   14.9295375314715013   -0.0207892862030969
    -0.1172507061835388   -0.0209773452344547   14.9305611757679557
 Zr  Ti  V   Cr  W  
   2  10  99  11   2
Selective dynamics
Cartesian
 -0.0659688962157743 12.0506710910739017  6.0893098991715249   T   T   T
  5.5566923976043157  5.6396942598516500  6.3569291282958664   T   T   T
  0.1908331623901206  0.4831166646151005 -0.4052246461444131   T   T   T
 -0.1860663645073245  8.5724921390249413 -0.2525201459143729   T   T   T
  2.6097407759572921  6.3803835789973862  8.5628834420729163   T   T   T
  5.8781381636360246  0.1794031001400589 11.4822519430727539   T   T   T
  5.5933419880746902  3.2931538150292634 12.4128614487619213   T   T   T
  8.2602743608312661 -0.2267571563847728  8.6667638466178367   T   T   T
  9.0425415682999866  2.8590908247636668 10.9971439129310689   T   T   T
  8.5040179293066132  8.9000904352947501  0.6053334300897738   T   T   T
  9.2292137764810303  9.0020337905496710 11.8020381275938284   T   T   T
 11.1485131319875208  5.9452351150136282 11.4447106975214581   T   T   T
  0.2261101271449739 -0.2582436109585791  3.3018056119252099   T   T   T
 -0.4421748770189904  1.3607213230035515  6.3586056973248377   T   T   T
  0.0438566619947524 -0.0967983668230185  8.3689811677287391   T   T   T
 -1.5440745699821210 -0.6867126253111484 12.3039750885999624   T   T   T
 -0.6564384283906983  2.9256619946643108  1.2280675239307590   T   T   T
  1.0137051188047375  3.5439960680262743  2.9122017640705331   T   T   T
 -1.0507234511654708  3.1071304026845921  4.6773382234391923   T   T   T
 -0.1251945636378970  3.8603651566942299  7.9285145244010460   T   T   T
 -0.1143439088902210  2.4808598356738831 11.3139344664403314   T   T   T
 -0.3979840910634566  6.0962066785082687  2.3458739931489476   T   T   T
  0.0584057115156729  6.6129027240070792  6.0416436468110595   T   T   T
 -0.7299878786764290  5.6852121134988050  9.7290981939144370   T   T   T
 -0.4548444062899320  5.7227132740842883 12.7163672086222590   T   T   T
  0.1128509990480325  9.3868175608802300  3.3509963777470411   T   T   T
 -1.3397930515658720  8.5073379797274544  6.4810149216251789   T   T   T
  0.5008879969616372  9.2080190019801300  8.8419791920634729   T   T   T
 -0.2502872638238206  7.8435886747262424 11.0971336121391140   T   T   T
  0.5009596227852872 11.8283871118185804  0.7451195379190771   T   T   T
  0.0724566123647969 12.1781275895964196  9.0898181928476074   T   T   T
 -0.0094144051259873 11.4898701010160647 12.0691122077231956   T   T   T
  3.5266195106999327 -0.6296092576476388  0.0328753337939895   T   T   T
  4.0085982078673794 -0.6664160774584152  2.7381091639441633   T   T   T
  2.7320822487873473 -0.0716508725395043  6.2058079621443571   T   T   T
  3.1452093305762476  0.7284571697354196  9.9723621196521144   T   T   T
  2.0536386956853363 -0.5956819061648595 11.7110130350015069   T   T   T
  1.8763911485399043  2.9493346622248224  0.1668608783854176   T   T   T
  3.3135909652331446  1.8835748986116476  2.2209059974938969   T   T   T
  2.4684803715437602  2.8162679319510611  8.7759994009195204   T   T   T
  2.9216725045926193  2.1601687795958893 12.6519660384927732   T   T   T
  3.0541773855586301  6.9153352671578032  0.1215282430905263   T   T   T
  2.8847811578983888  6.7118204314839556  3.8266873181755834   T   T   T
  2.4072234504967724  4.0167155385717797  6.0745315086951575   T   T   T
  2.2026685969924342  4.8721031107970001 12.1293946250608933   T   T   T
  3.0584126898451642  9.3306316981054316  1.0295581626832884   T   T   T
  4.3426212592438862  9.9778859773190263  3.7402988797527295   T   T   T
  2.3627478243150097  9.4731781821139283  6.5049641169210783   T   T   T
  4.0088209529501722  9.5186381195856082  9.7491930944761496   T   T   T
  2.1795116096908349  8.2694648824427883 11.8270996143117451   T   T   T
  2.4751725901182993 11.3330495207652646 -0.6225459756086360   T   T   T
  2.8070685572681464 11.9999583275219379  3.6911861821088907   T   T   T
  2.4289064245260565 12.2290746888856923  8.6924912116929534   T   T   T
  3.6864880213603444 11.7492654137301908 12.2045252486739084   T   T   T
  6.0531432855993863  0.2315926644999516 -0.5590671595035501   T   T   T
  6.5882967104981471 -0.0446885259874714  2.1315098411510922   T   T   T
  6.1249625541836927 -1.5362435058942268  6.4905483979853367   T   T   T
  4.5672309542599061 -0.4191541372581242  7.9657070158250720   T   T   T
  5.5525808834105623  2.5255531595665848  0.9391746382702709   T   T   T
  5.5342676633852266  2.1293785999092538  5.0673337750389162   T   T   T
  6.1465644620865953  2.8562356560441384  8.4694823012320004   T   T   T
  6.4260015416646867  5.8199265504687370 -0.0527227547122128   T   T   T
  6.6480447377716319  6.0264513491082372  2.9928967273638754   T   T   T
  5.4721037728761086  4.8651016655106920  9.8675484728755389   T   T   T
  4.4709402737913937  6.4791380388305990 11.7778056993634639   T   T   T
  5.4892597331255528  8.2119568536234020  1.4687505410602837   T   T   T
  6.3578622373830864  8.2409004095135661  3.9459832403505652   T   T   T
  4.8058700489738069  8.7442071825695553  6.3487723042631226   T   T   T
  6.2733827031765701  8.4175346990088791  9.2737434020503855   T   T   T
  5.7220496454171794  8.7618259291153660 12.9665066209721722   T   T   T
  6.1256104350237521 11.5487575413162897  0.5432778781955200   T   T   T
  5.7325182618643646 12.7600872244457335  4.1392372440575596   T   T   T
  5.7803118125422523 12.0851338252480929  8.9200927182050052   T   T   T
  6.4647842202820556 11.2931849195879561 11.7140023814575329   T   T   T
  8.4601327997010767  0.8018426236524723 -1.1010362632235591   T   T   T
  8.8466912620679157  0.2791515608803083  4.9734008771132556   T   T   T
 10.1727275636423631 -0.4105132646654196 11.8088929822784046   T   T   T
  9.9143101351164589  4.0933323143621134 -0.3997586713554692   T   T   T
  8.0405454039719846  2.8087371756942021  2.3596189229501778   T   T   T
  8.7081853902733215  3.8692572093281137  5.2927851225823712   T   T   T
 10.0991645342212575  2.8058374028376045  7.6478843715377671   T   T   T
 10.1319814799551082  6.5716166723063667 -0.2266324962935148   T   T   T
  9.3748497999410727  6.1295267044543511  2.6209762368556548   T   T   T
  8.5105838293952711  6.3547052014688141  5.3592767173374707   T   T   T
  8.5558144773914186  5.8504132724170352  8.5485456274507765   T   T   T
  7.6425214680289200  5.9154517794978370 12.1088378839513506   T   T   T
 10.1511693966218974  9.4618823558646437  3.8720210116218770   T   T   T
  9.2776032095064700 12.1422489847318005 -0.8267403117606758   T   T   T
  8.9489617363171998 12.3293896110305532  2.4531468813562025   T   T   T
  8.2551953596067147 11.6721507932028903  5.9001273206180684   T   T   T
  8.9530633653339553 10.9240154622087751  8.4842806931037789   T   T   T
  8.7985601910178985 12.5383632109598260 11.4036940163817579   T   T   T
 11.6486638035076382  0.2981147619412766  2.1878092541680898   T   T   T
 12.5076328933084966 -0.2057609242846744  5.2223302428266543   T   T   T
 11.8132733430179400  0.1345483350606032  7.5030447925012336   T   T   T
 11.9714682823919389  0.3323114022113573  9.9864936246350240   T   T   T
 11.6254583809632077  4.0363267325032490  2.8995113368542818   T   T   T
 12.0410933536047864  3.3885736071214874  9.0392464971259106   T   T   T
 12.2145173785059100  2.7518262865565521 12.9855277322931020   T   T   T
 12.6451210214756209  5.6425015804005767 -0.0299580955968000   T   T   T
 11.2635969422334838  6.2203342832343411  5.7959408765791025   T   T   T
 12.4349431487348383  5.9868923946745971  7.8638586408666233   T   T   T
 11.2321058290466613 10.0657880557341866  0.1048564174510974   T   T   T
 11.9119422695023882  8.3892288051826505  1.9480811596875305   T   T   T
 11.6944259032703606  9.9782629862411554  6.1789699716137445   T   T   T
 11.4832237652194014  8.4399192564508461  8.8040894084668793   T   T   T
 12.6969069261927814  9.3884270685626223 11.5650875008439744   T   T   T
 12.8556791681130473 11.9343904797809106 -0.8124730132242675   T   T   T
 12.6547349734566357 12.0701103793778906  2.9719087581733672   T   T   T
 11.0889104723421994 12.4089418367145221  5.6969868190485755   T   T   T
 12.5906500094244578 11.8343041607600288  9.0812613411720555   T   T   T
  0.1476614897352475 11.7817369434509907  3.0692400227598049   T   T   T
  3.0584759011940337  3.1348319983422543  4.1947712990776109   T   T   T
  5.3599314512995493  3.7383585518714000  3.1097605336239189   T   T   T
  6.0164865759231319 10.8524123875483678  6.4553221150532574   T   T   T
  9.2410380399945282  0.5975216470864556  1.7938125027461020   T   T   T
  8.7903097905658782  8.1954390290996173  6.5048560808693319   T   T   T
  9.0087868708938057  8.1912027368169955  9.1896592545546252   T   T   T
 11.5507225816065038  2.3609254143393072  0.8347674715550899   T   T   T
 11.7527263802361528  2.6626295929748558  5.5516923955709077   T   T   T
 12.2657934970651041  6.3167233858349352  3.2537425091332581   T   T   T
 11.3833025728692459 11.9708976834798619 12.0977134844140668   T   T   T
  0.8312525431950287  5.3691165352068966  0.1492709321543916   T   T   T
  3.7024618681992081 11.9520717060711714  6.2572102365359177   T   T   T
