Zr Ti V  Cr W 
 1.0000000000000000
    14.9295970875328319   -0.0579205173356371   -0.1168567097762796
    -0.0577481194497152   14.9295375314715013   -0.0207892862030969
    -0.1172507061835388   -0.0209773452344547   14.9305611757679557
 Zr  Ti  V   Cr  W  
   2  10  99  11   2
Selective dynamics
Cartesian
  0.0212702487045009 12.0027566580385852  6.2024581900657196   T   T   T
  5.6570385570270982  5.6755579558221658  6.1461786303316881   T   T   T
  0.6732607010342482  0.2504751138137745 -0.1953746556879168   T   T   T
 -0.1739398546237980  8.4883735066253170 -0.3839719144196892   T   T   T
  2.6131456350186850  6.3189351792763135  8.3543708436873327   T   T   T
  6.0171687693023284  0.5295587887483751 11.7272582708490063   T   T   T
  5.5111980490961869  3.5412424132619105 12.4467333773826780   T   T   T
  7.9460283060070331 -0.2430267672587186  8.7256214592145884   T   T   T
  9.0905328407134292  2.8939533161573703 11.2043010596716694   T   T   T
  8.5973671209381095  8.6446101321875908  0.4763434076786404   T   T   T
  9.2897146949016935  8.8748328341137945 11.6681378156715478   T   T   T
 11.1513382771664418  6.0022556734941830 11.4711902094671547   T   T   T
 -0.0454567607083164 -0.3463609437163231  3.4931891126704455   T   T   T
 -0.1923455591757239  0.8700772805505111  6.2553589766501307   T   T   T
  0.3572159722440423 -0.3606768024092640  8.3386355130621652   T   T   T
 -1.1597723155459863 -0.6782096710677433 12.5604252074694287   T   T   T
 -0.2831753773923625  3.0859393490936950  1.3418409867896792   T   T   T
  0.8860616374674556  3.4553738291336242  3.3122327655644872   T   T   T
 -1.0502547457404658  3.0495789802471238  5.1760982801503310   T   T   T
  0.0349836849353364  3.5855559029152597  8.0632273277500914   T   T   T
 -0.1853909213893727  2.4214015780700802 11.6755823466400717   T   T   T
 -0.5878266414357799  6.5376631314812750  2.3219271689549128   T   T   T
  0.2499674203423926  6.5828525940469760  5.9973250555712720   T   T   T
 -0.8106195092757651  5.7085931417309839  9.7927211547734210   T   T   T
 -0.5372525126009705  5.9650162626717709 12.5896028648934362   T   T   T
 -0.1882155186202730  9.4961716232398565  3.2305185607981772   T   T   T
 -1.1399185965362673  8.5378713496955037  6.1641162404663827   T   T   T
  0.9310835918915267  8.9528172032184639  8.9598537532984146   T   T   T
 -0.2766771971031664  8.1528063269149822 11.1268358752589318   T   T   T
  0.4571035619432465 11.4361188309167723  0.7281784660855344   T   T   T
  0.0243200480524314 12.1279296645027586  9.2379068808049780   T   T   T
  0.1644105613940131 11.7698553231450482 12.1023687964713282   T   T   T
  3.7096955180949416 -0.6812486534007969 -0.1579935498858860   T   T   T
  3.7378547452146513 -0.5072120552144002  2.6340996429952819   T   T   T
  2.9071676884352597 -0.0688911520911939  6.3355763723161660   T   T   T
  2.9656335881249740  0.3885629351337934  9.9194521370517084   T   T   T
  2.0972283228031845 -0.7192993215605143 12.0498640053442667   T   T   T
  2.1052160385665246  3.3016832695787057  0.1025493770264937   T   T   T
  3.3350308801222455  2.0800190428254592  2.2937237018000625   T   T   T
  2.3193574685133713  2.8609299023775487  9.1200059238306874   T   T   T
  2.7051631715940387  2.4681636154424562 12.5239478767182906   T   T   T
  2.7972549708811485  6.9922776952302286 -0.0054581864974824   T   T   T
  3.0333377043130461  6.8515642094968809  3.6220303544475341   T   T   T
  2.4506338874096656  4.5516255976093962  5.6987730396108773   T   T   T
  2.0731381746082280  5.1181524034294448 12.2400552655484187   T   T   T
  2.8363969745927342  9.4226671523455927  0.7076360822324176   T   T   T
  3.9498315455518762  9.7427908341566685  3.5490424419619635   T   T   T
  2.2996973340256006  9.6179679361436854  6.6205286947849631   T   T   T
  3.9449899486064295  9.3924137646393380  9.5246947515524418   T   T   T
  2.2884363241340004  8.0959612710728717 11.7107068689448770   T   T   T
  2.5310443034668997 11.5940368939817269 -0.6752741180533149   T   T   T
  2.7057872933334712 11.9767469657376164  3.6951781588478529   T   T   T
  2.2977178922518879 12.0356704229996812  8.6314777244468939   T   T   T
  3.6126976674377262 11.6538917199647116 12.1170186664962394   T   T   T
  6.1665569317371274  0.3103164559261864 -0.3800371586244510   T   T   T
  6.4910087350435726 -0.1709482077042185  2.3024940334869868   T   T   T
  6.0777350966675243 -1.4631461958380905  6.4620785801585576   T   T   T
  4.6688553914330582 -0.4502260142872160  8.1229393939925529   T   T   T
  5.4429065396601768  2.7518318106772899  0.7390721070920587   T   T   T
  5.4347933410993479  2.3122699148820014  4.9382218883545441   T   T   T
  5.9425295414226458  2.9311182845326429  8.0546665121242320   T   T   T
  6.3279475738967630  6.1214461649851701 -0.5607159074754045   T   T   T
  7.0014491260058973  6.1683414007810295  2.9232835197726215   T   T   T
  5.3833243782001201  4.9846752145043194  9.5392215705908097   T   T   T
  4.4550564487201445  6.5059289726345959 11.5368903256940492   T   T   T
  5.6388579678062349  8.3734099808531415  1.0438286252735649   T   T   T
  6.0492056762731590  8.3639783750562291  3.7262486681748617   T   T   T
  4.7853899357489107  9.0288519256017743  6.2123751988311326   T   T   T
  6.1410367759252651  8.1818393384515140  9.0301101681989628   T   T   T
  5.8985553513576638  8.7422461161215317 12.7017313468822195   T   T   T
  6.3493586044341370 11.3037174229995365  0.4855844737071794   T   T   T
  5.3403279908028161 12.8616878321628683  3.9356384745324844   T   T   T
  5.9876254098749087 12.1502395433979729  8.8780256972249241   T   T   T
  6.6923429075836065 11.1679063420769751 11.5127229392679222   T   T   T
  8.4625685153405286  0.4368942680561506 -1.2387678643080593   T   T   T
  9.0447644540664278  0.1699695262466255  5.1398493466012374   T   T   T
  9.6278161309126737 -0.1900762134189106 11.5788682354069206   T   T   T
  9.8350347320844502  3.7760103218228691  0.0301978128131565   T   T   T
  8.2072629550445377  2.9524384557120618  2.4561575563208793   T   T   T
  8.9050032428353525  3.9647395818466804  5.3830430740264310   T   T   T
  9.7212710050370674  3.4015081262126361  8.0949915544476081   T   T   T
 10.2006517603405786  6.1190094819206298 -0.4210088176655975   T   T   T
  9.5565742562129206  6.4458440707389801  2.6005976122839418   T   T   T
  8.6672654013532231  6.4606292252249675  5.2887585397445829   T   T   T
  8.2377860903189681  6.0491384470048004  8.6692967244892536   T   T   T
  7.9415298164933610  5.7235622494521632 12.3314768825776895   T   T   T
 10.0938815403991544  9.6344013111876734  3.8469611590204797   T   T   T
  9.2356524601614556 11.8021234391755474 -0.3613562779184606   T   T   T
  8.6811627727294827 12.2238532992371596  2.5796838370304038   T   T   T
  8.3046341456568342 11.3608004539065437  5.6735292966960875   T   T   T
  8.7818686888326738 10.8657246844680078  8.3433610185449609   T   T   T
  8.9097644338418913 12.4691987288549910 11.8197850320888378   T   T   T
 11.6654368990981823  0.1630696711859277  1.6701242989102751   T   T   T
 12.5006434449209447 -0.4035879844439565  5.4685761148945931   T   T   T
 11.9230316496079780  0.1232245738536691  7.9076227348420467   T   T   T
 12.2324791575691485 -0.2313038067231522 10.2222091140967599   T   T   T
 12.0313927520830468  3.8669031820214195  2.9554763117555454   T   T   T
 11.6823092372100845  3.3094998974942764  9.0233411030260999   T   T   T
 12.3808642806810969  2.7360577423932622 13.1220898800862749   T   T   T
 12.6763178142178550  5.7408815853303867 -0.0442933489167063   T   T   T
 11.1813337016876435  5.9698719222589602  5.8448336068316342   T   T   T
 12.4296187516928178  6.0169115817806258  7.9200407003858402   T   T   T
 11.2008577281263690  9.9381011340053593  0.1262052014901964   T   T   T
 11.9079187802370328  8.4544305902908228  2.2105911621461329   T   T   T
 11.8354943732298299  9.8695779035686435  6.3572240223954815   T   T   T
 11.4339066566953065  8.4865707469231477  8.8361167728002226   T   T   T
 12.4612536784049901  9.5163077617639829 11.4498299787468305   T   T   T
 12.3060131034997156 11.8213815414582761 -1.0028676585034719   T   T   T
 12.6984801364770767 12.2998492199241412  3.0522529279133623   T   T   T
 11.2515017143904679 12.2500687058940549  5.6194405539749273   T   T   T
 12.5398072777936314 11.6080834215498747  9.0718444264323530   T   T   T
  0.0991788232537668 11.9195534671210748  2.9911896371237146   T   T   T
  3.0001274386724868  3.0372232974855238  4.3887556002480848   T   T   T
  5.6483972476151383  3.7660878014263761  2.8873215947479527   T   T   T
  6.0998510442172016 11.0089088372827426  6.4634704836096724   T   T   T
  9.0737797005160115  0.1784546554661516  2.3741219127474302   T   T   T
  9.2040147061437825  8.3416742140098545  6.5181254566243103   T   T   T
  8.8935136480848982  8.3457962893909041  9.0567250721770591   T   T   T
 11.8289411162788607  2.2744458565167651  0.8811646342714236   T   T   T
 11.6368201476344773  2.8811867419837398  5.4077252784886216   T   T   T
 12.2344361323393080  6.2203034179127883  3.0209338242105193   T   T   T
 11.3174975004781402 11.9553007660515771 11.6759545606604771   T   T   T
  0.6405049931166034  5.5142208141481062  0.1052525316656267   T   T   T
  3.5820980251303483 12.0496059297239917  6.2539537123360640   T   T   T
