Zr2 Ta1 Ti3 V111 Cr3 W5
1.0
  -7.5249999999999995    7.5249999999999995    7.5249999999999995
   7.5249999999999995   -7.5249999999999995    7.5249999999999995
   7.5249999999999995    7.5249999999999995   -7.5249999999999995
Zr Ta Ti V Cr W
2 1 3 111 3 5
direct
   0.6024966469069259    0.8009197241375190    0.0007046580022806 Zr
   0.4022499907230632    0.2020439459386688    0.8015643149672481 Zr
   0.0044725936481145    0.7988546643529024    0.0046165438329884 Ta
   0.7990545197794534    0.1999023466244162    0.4010700037517436 Ti
   0.1993177220493709    0.6026873017986389    0.0037645898310665 Ti
   0.9982727618637008    0.4015315678074610    0.7940662420541776 Ti
   0.7977654109061123    0.9950398572583347    0.0036782733180814 V
   0.7950543551175271    0.2017141929038437    0.9991428751405130 V
   0.8037201874870650    0.9996101911608252    0.2012756811770763 V
   0.4059920393981272    0.9989582560070027    0.9984622610426502 V
   0.8080041999939600    0.4018119563854080    0.0055512932322572 V
   0.6036382034558838    0.9988994336913930    0.1983581786420876 V
   0.7938407406115466    0.1966224522220727    0.1968580616410779 V
   0.8011280687518585    0.9988210417267760    0.3991976323634030 V
   0.2012829916438977    0.9986335314813775    0.9994064271453746 V
   0.3988119974312879    0.1921635908296991    0.9953424147800233 V
   0.5998830018476192    0.4011992809024172    0.0011612955257827 V
   0.7937175152811999    0.5988994481919010    0.0015606148879042 V
   0.3999421907096203    0.0025306084713767    0.2066103564523275 V
   0.6068067731824314    0.2025051531567437    0.2019557320287099 V
   0.7954359866651632    0.3965572364357218    0.2003183809905764 V
   0.6007253657263739    0.0006510430160627    0.3998444710596737 V
   0.8011674073977626    0.0030436005343142    0.6011146848262223 V
   0.9981383395623666    0.0016307512455165    0.0018564198464899 V
   0.1973455000153327    0.1956590722651182    0.9947049922276762 V
   0.4018268690585491    0.4018111553919124    0.0017457721943906 V
   0.6034889890551637    0.6016500955791948    0.9987909570347516 V
   0.7973102690582097    0.7952499798654423    0.0003146442667078 V
   0.3974844802474575    0.1978920505118028    0.1968345529771441 V
   0.5963400340230535    0.3950105905081329    0.1929107654376319 V
   0.8077444431940725    0.5998454728513773    0.2044512412894504 V
   0.3984944902542130    0.9936364160451687    0.3965295078281911 V
   0.6003343951058480    0.2006445455185962    0.4012187816276165 V
   0.7984270803474294    0.4025137054907192    0.3964215206252054 V
   0.6050713441603900    0.9962146914630131    0.6027566252808900 V
   0.7960975982312694    0.1955673838106378    0.5942675691161668 V
   0.7953744390025591    0.9988763162251810    0.7995674733894466 V
   0.9959341144610018    0.1981255365334961    0.9929100496344746 V
   0.2050098227296818    0.4053672959742680    0.0062969246160621 V
   0.4004584605594086    0.5998268620964077    0.9985563384549634 V
   0.0012078845631463    0.9966794928594020    0.1968489664004349 V
   0.1990515244535431    0.1993117548421297    0.2000474988115517 V
   0.3960408351149640    0.4023306176742794    0.1997806385322391 V
   0.6011864790705549    0.6006336588052352    0.2009950178707200 V
   0.1983614055663578    0.9925882326225022    0.3986623894718558 V
   0.4078799597416398    0.2047827039116842    0.4063159056094784 V
   0.7962153124909819    0.5955131707475846    0.4007795054851246 V
   0.4015093316626367    0.9999331494989645    0.5966039604378119 V
   0.5953258355358202    0.2019484986689460    0.5973280106730655 V
   0.7993235464472295    0.4005250553813895    0.6010278287414997 V
   0.7952479962562850    0.1978278512299523    0.7968914236766744 V
   0.9990690235296891    0.4034967542122259    0.9943975970459522 V
   0.4033565269630326    0.8024942355642045    0.9999917844576812 V
   0.0020805710742189    0.1981096186025855    0.2037100798832154 V
   0.4010171647438751    0.5940271332543609    0.1982533307883179 V
   0.5992584315632952    0.8022721953593024    0.2040175542786902 V
   0.9940532767888521    0.9977835188141511    0.3964751964833568 V
   0.1989390168641569    0.2004060819066465    0.4027247679141574 V
   0.4007286696472457    0.3983745491246866    0.4036049471434031 V
   0.5973023155801290    0.5955309697945064    0.3980431331449401 V
   0.7994870819546596    0.7954246029328678    0.4011729829954496 V
   0.2008438040191436    0.0017692507846922    0.6010200022097782 V
   0.4036768590238827    0.2036003151800194    0.6057839662895288 V
   0.5996949367097301    0.4012829563442027    0.6000634336281461 V
   0.7969089556169631    0.5966384275247376    0.5975602930999188 V
   0.3989637016074412    0.9948666594156258    0.8016883490629511 V
   0.5940595763897586    0.1940076172164646    0.7988872625886541 V
   0.7993770859598940    0.3967904148108553    0.7968586783731471 V
   0.9948789791724373    0.5991742578199621    0.9991582320147614 V
   0.2027419424958286    0.8062301165005621    0.0038170216017481 V
   0.0048142348197267    0.4034617016038203    0.2003222000295330 V
   0.2018919270623777    0.6003295400991601    0.1996411429932542 V
   0.3979422651018744    0.7950959927431698    0.1987522883119762 V
   0.9991479741101857    0.1976146976304598    0.4001628593957202 V
   0.1963712775934369    0.3982416033300962    0.3970166511660597 V
   0.3966014756587961    0.5955666864008636    0.4004563573709266 V
   0.5999719835404997    0.8008558787955875    0.4012237655123183 V
   0.9981797252765960    0.9973158218899258    0.5969335654778399 V
   0.2030154938709762    0.2040514218115108    0.6089797770643837 V
   0.3967760353644479    0.3988319831030348    0.5972670533352825 V
   0.6043318218018485    0.6038685025629164    0.6056743803297912 V
   0.7968766349214114    0.8056224061388961    0.6013294795377252 V
   0.2045387396856232    0.0042998121003633    0.8074222819256406 V
   0.6011113681396751    0.3961532199496284    0.7988381579468771 V
   0.8029604397699046    0.6064347442981379    0.7987558942746181 V
   0.9998559823877694    0.6024885640204385    0.1942426295918536 V
   0.1995093253279894    0.8035760827969409    0.1964545959325779 V
   0.9997283008486129    0.4006306550352327    0.4013873698093935 V
   0.2008200205141583    0.6016429130632670    0.4005672381200471 V
   0.4039736679195775    0.8004624635111646    0.4077650899664994 V
   0.9952393576804802    0.1985621696463617    0.6028504231597316 V
   0.1983796458820978    0.3943810163864387    0.5943674241906034 V
   0.4000734908763531    0.5975335961802897    0.6014895479327824 V
   0.5969531543918453    0.7994346542979788    0.5977425722904229 V
   0.9990724681161414    0.9978802007033534    0.7980708838397625 V
   0.2078148396853380    0.2061672993731674    0.8065230608338575 V
   0.3977357874293681    0.3983772620818272    0.7934357073434617 V
   0.6018540492352320    0.5993247955438927    0.8032324662493402 V
   0.0007513991228208    0.8067704338674949    0.2007311695395781 V
   0.0012225383666449    0.6017853093736915    0.4006103331438892 V
   0.2019323695775258    0.8018759556094066    0.4014954717458880 V
   0.0006575859573150    0.3975814085524182    0.5965810213962852 V
   0.1956361826051727    0.5965608183741242    0.5919885670898326 V
   0.4031435345207799    0.8016212850716331    0.6022898879557942 V
   0.0013691429023123    0.2005515460063059    0.8016602533385488 V
   0.2050089731157734    0.4081488182285054    0.8060999320755950 V
   0.4040689593671722    0.5952246692050330    0.7997382238562367 V
   0.5938589254539030    0.7954249363396892    0.7912294928065590 V
   0.9999773741120420    0.7986590604445518    0.3987868991503937 V
   0.9988801252103130    0.6017618938574899    0.6056209223801066 V
   0.2015793234264954    0.8004693319338065    0.5989910346261648 V
   0.2060821247357751    0.6058875418635429    0.8042248235941982 V
   0.3909983560750271    0.7937988588094179    0.7947025533487118 V
   0.9948326393348199    0.7921672775199022    0.5966219112181628 V
   0.9975829828306227    0.6014638883124158    0.7948885881695859 V
   0.2073839844029856    0.8009960618591360    0.8036704507524501 V
   0.0028592863034088    0.8021856513903882    0.7995498905245099 V
   0.6063983389813095    0.0076195191766037    0.0034789970993250 Cr
   0.5973467049091959    0.1925334815252962    0.9969914014622359 Cr
   0.5991909881191213    0.3993219825730364    0.3998602911585584 Cr
   0.1939628430768461    0.0009888200579918    0.1981147428755823 W
   0.8052843230937767    0.8031419158378388    0.2035648597476405 W
   0.5940382655868131    0.0008014040798620    0.7957868348021275 W
   0.2037727685543276    0.4002786181785069    0.2005969602441568 W
   0.7995131690370403    0.8006530066093407    0.8001934603501859 W
