Ti V  Cr W 
 1.0000000000000000
    15.3720038313806135    0.0023998420144863    0.0001449001601191
     0.0024007571799185   15.3633006247875361   -0.0006442210894229
     0.0001450310074229   -0.0006449824026597   15.3697544548857330
 Ti  V   Cr  W  
  15 105   1   3
Direct
  0.0054594676526065  0.3928458626121571  0.6022348093239189
  0.9911398175132170  0.8004555837210547  0.2038951944627904
  0.0092183723968534  0.7979941195993825  0.6022091941397757
  0.2005651759986687  0.2039353025352116  0.3934698819567102
  0.1965918507749783  0.2045693733796110  0.6057941972506531
  0.1983343827346332  0.3952488303892553  0.2011688830233326
  0.2025683501346294  0.7976563691550063  0.2011404822219176
  0.4068290673007301  0.9961046145751257  0.8061536482584853
  0.4020707228292614  0.5987525188776996  0.8014836662563516
  0.5938060063417711  0.9954255932901306  0.9946521585950007
  0.7940123200376938  0.1977651226506092  0.7959077199088228
  0.7993227416621436  0.4045114763381993  0.1931265024875110
  0.8015811689341413  0.5933348909488242  0.0031433966738223
  0.8067248464810901  0.7978044329758917  0.3916174800118875
  0.7985591615541955  0.7966461056646655  0.6042139870377908
  0.9992397591645036  0.0020266125876751  0.9999953949522732
  0.9984025686707886  0.0012916369233549  0.2015391803897259
  0.9982159882738495  0.0001952682938806  0.4006651100817574
  0.0001336536754001  0.0010833441706997  0.5994182719005882
  0.9995604491315604  0.9991245767701493  0.7986199819493564
  0.9978362777942371  0.1996035797554957  0.0005455077746192
  0.9985574512511661  0.1995387499773446  0.2002128640881795
  0.9976725582773620  0.1966051643817777  0.5974800992445398
  0.0672399350201335  0.1995740232631600  0.8667455206501093
  0.9971845889347914  0.3982932570763825  0.0000578999354066
  0.9997391710630156  0.3993928212281314  0.2010604518526773
  0.0001979560952692  0.3982495472113197  0.3979681553542884
  0.0001105763051454  0.3993635926932540  0.8016247524849748
  0.0021463080127593  0.6003272964694381  0.0020773096542912
  0.9995419037875026  0.5976677691085326  0.2015851214845653
  0.9999891455653962  0.5989700835758596  0.4007516786393103
  0.0008698709092668  0.5989345058010549  0.5988032662648122
  0.9993012143556298  0.6001382798066732  0.7994990622786284
  0.9994450533560534  0.7990730016102212  0.9999133212331732
  0.0033201910192011  0.7998053723826116  0.4014309551196107
  0.9992464631492356  0.8003544518494470  0.8028516414287822
  0.1974230816857710  0.9977252332530511  0.0003461994643722
  0.1975439475756968  0.0007538273168437  0.2004707371333251
  0.1992265700581848  0.9990895901567562  0.4003835171691577
  0.2004547404950391  0.9993718652544631  0.5997200813597653
  0.1985302805778413  0.0011021909206496  0.8012472174251810
  0.1990831397308941  0.1974999036186545  0.1997269689741195
  0.2023586282108523  0.1990561024213942  0.8005281877525414
  0.1984306790600709  0.4017731091968716  0.9995946164012103
  0.1993241084490872  0.4032533641463928  0.4051045683507864
  0.2040465501607789  0.4045625124617157  0.6024613423462778
  0.1995726013052088  0.3996728808630258  0.8023813183714060
  0.1989446067591766  0.5997038428231256  0.0008357200843185
  0.1990189395703754  0.6002873556867425  0.2019276717188694
  0.1986418370234879  0.6011953796452851  0.4006626380902621
  0.2006395372871090  0.6023024496996254  0.6011110122921481
  0.1975823042839386  0.6002541495345710  0.8000039393776983
  0.1992133948485328  0.7998045357913206  0.9981568163285637
  0.2006232312234663  0.8006290745830836  0.4038164440820540
  0.2054041731431880  0.8007006114036680  0.6022305558791642
  0.2005124155852540  0.7997347052635929  0.8000131016645891
  0.3942140083410124  0.0010823115339706  0.0044391477204496
  0.3980568815165198  0.0002032767705371  0.2012634750848448
  0.4022870128523952  0.0000813073481272  0.4001587194167971
  0.3997808584636723  0.0000155294263580  0.5984022550827360
  0.4010227114814527  0.2002742674937697  0.9997391055887678
  0.3986786465528927  0.2003466956513905  0.1967665557594568
  0.4017210382366501  0.2009426461482123  0.3998419461623915
  0.4004634752938632  0.2001589916739309  0.5999918177808367
  0.4028965190032740  0.2017326284090871  0.8011451156142366
  0.3977672869473922  0.4002933126331543  0.0011853136968657
  0.4019594012271373  0.3999176677464670  0.2007086944355183
  0.4002390359523451  0.4001387094138233  0.4001789430562818
  0.4013637292098420  0.4013463155815077  0.6003550979885188
  0.4008949943450604  0.3992147156339326  0.8010699158262303
  0.3993182421684855  0.5992228383849059  0.0037459331594725
  0.3994936707953202  0.5998719598585568  0.2013813786277765
  0.3995994284929248  0.6002217890087418  0.3995225311512692
  0.4013017902309257  0.6004873845088984  0.5969649260801990
  0.3990228209818640  0.7993413543753375  0.0005537834967766
  0.4011343084976681  0.7999221899770942  0.1993820492065356
  0.3995995750295573  0.7996762071798437  0.3990895533198817
  0.4008876445743523  0.7994689929216994  0.6013548224891883
  0.4013927471626754  0.7996811690838368  0.8011040331655037
  0.5986427759867567  0.9993343340142414  0.2041855527559203
  0.6010343795727594  0.9999669722157596  0.5939202304762347
  0.6050443686800298  0.0043743644005431  0.7934742026026496
  0.5988616767103754  0.2019239248035196  0.9944960506116758
  0.5989771033126178  0.1993414100757066  0.1975546342897058
  0.6001593737227651  0.1972000330436400  0.4003014238343934
  0.6006998335883865  0.2004963384794365  0.6027869274890548
  0.6042596281770796  0.4013554268634809  0.9996133736828545
  0.5973575868812308  0.4008455937406128  0.1999446271799351
  0.6009764929129254  0.3987101597298578  0.4002070923226005
  0.6009011542044096  0.4009724772642728  0.5997736393135792
  0.6008278280327433  0.3975037108857293  0.7994204092375374
  0.5968654605081577  0.6002644787321073  0.9996329569023202
  0.6000240615403669  0.6015502712415901  0.2017226393145031
  0.6018346565594499  0.6018005495703651  0.4000745429995341
  0.6010807724565161  0.6006985877250879  0.5989002136957836
  0.6034475156819118  0.6009167123892846  0.7988867414782852
  0.5992677501756674  0.7973907125775005  0.9982961121070675
  0.5988011303416944  0.8004499066893520  0.1978696175476740
  0.5988056713919561  0.8044383418178723  0.3999614851003716
  0.5991541649252721  0.8005133897800386  0.6001544813926866
  0.6007706996468806  0.8026121502381124  0.7995375957679663
  0.8009256528920962  0.9990966172848742  0.9995323033629699
  0.7985013911742782  0.0002157989236142  0.1983925213963579
  0.7963834968542257  0.0013308706624737  0.3987976147925886
  0.8019956742324114  0.9994700128561198  0.5974981458951876
  0.8016480713782475  0.9974703003324232  0.7988133262061401
  0.7993579390507133  0.2021138766249245  0.0011755414428790
  0.7975522576103716  0.1988591680954878  0.1982389099907462
  0.7991947335480269  0.2016427192509103  0.3971798303379899
  0.8009939798830709  0.2015581883100691  0.5965702894203716
  0.8003158324413111  0.4002464541000018  0.4004350555371202
  0.8000625997952935  0.4000923143588908  0.5999263378549213
  0.8012670655313014  0.4032258601909967  0.8016913820444560
  0.7989047336589687  0.6040529978428968  0.2032704894194423
  0.8015981277436697  0.5972082402816290  0.4002492801154559
  0.8020193537541568  0.5975465044500693  0.5993661417268121
  0.8008657802338617  0.6009952006984690  0.7977233941034836
  0.7989165090617425  0.8000916359451994  0.9989340494020839
  0.7949380230700267  0.8000493782835575  0.1937122176212389
  0.7998223398106791  0.7990173824263131  0.8027708977577475
  0.9959785286670474  0.1997174623369928  0.3989406470897024
  0.6000564352764426  0.0009536873344591  0.3990133718549964
  0.5992100302056947  0.2007852187894657  0.7971447478840653
  0.8003563073408094  0.3983680429073376  0.9959959156619640
