Ti V  Cr W 
 1.0000000000000000
    15.4171836946855763   -0.0006458025225840    0.0021743795697675
    -0.0006464432342440   15.4108214600062574    0.0048957167363750
     0.0021730867805691    0.0048939939426410   15.4267125679285311
 Ti  V   Cr  W  
  12 102   9   1
Direct
  0.0040735648163639  0.3987515935797358  0.4001536852067608
  0.2078640322117675  0.1989504406223150  0.7940477687216266
  0.1993152984886105  0.6061052734384048  0.0054115408016269
  0.1986423052713632  0.5968350783647823  0.7925026471072292
  0.4010436126538952  0.9951732381245376  0.5996776512175683
  0.3946420566432942  0.2054611045961580  0.6070437820950582
  0.3950801903135733  0.6014284315545467  0.4006833796237139
  0.5988083287675575  0.9995898923316361  0.9938585783035989
  0.5952474844769959  0.3955684713295248  0.4037971499706956
  0.7099118882086186  0.8027613587524511  0.3998363249212144
  0.8037569882213009  0.4040885779375649  0.9906689485636641
  0.7977353122928124  0.5923494306184028  0.8060243506142071
  0.0004864249989296  0.9997977594690293  0.0000543785138438
  0.9998371378044125  0.9997198096822887  0.2003506871830990
  0.9988472276683578  0.9980864655860222  0.4003992569295775
  0.0009524782941463  0.0006456854336883  0.7996472007493310
  0.0021626213128401  0.1992514555110819  0.9989998742617830
  0.9995851994166671  0.2004576718668894  0.1992465869297928
  0.0008847552429993  0.1978556572184224  0.3998133888506110
  0.9996167765429068  0.2008084737137161  0.6004651363114341
  0.0000196925896631  0.1994621272059887  0.7999490235770461
  0.0045148731200346  0.4001056498258572  0.9986883339043230
  0.0005637942435588  0.4000701503837447  0.1964631681608261
  0.0019296150534747  0.3987103843650183  0.8004613898289182
  0.9971292905950944  0.5993731128375682  0.0007167744878341
  0.9980043505598857  0.5983837746328952  0.2011245895990637
  0.9979367313589503  0.6029532510033790  0.4003031299234871
  0.9981046396349804  0.5987653820752039  0.6005415736193630
  0.9996603884681672  0.5987505005393937  0.8003272404943422
  0.0027485636429692  0.7989707223687941  0.9993383337272014
  0.9967003367963466  0.7989810810657917  0.2026272041671343
  0.0052369668015060  0.7996471181689881  0.4013853435078134
  0.9994372876872988  0.7986621045870463  0.6006852094868478
  0.9997002157192009  0.7987754359076999  0.7997393949670593
  0.2001937734231004  0.9973577888069740  0.9999099886169772
  0.2002818214584031  0.9997791730324359  0.2010804910452341
  0.2007227206399416  0.0003193435380378  0.4000856595304773
  0.1977082374916946  0.9989856331069288  0.5999960860444319
  0.2015450267605945  0.9984072967073832  0.7987295791427763
  0.2014498028973545  0.1984389346238765  0.0013161923114031
  0.2008484624560735  0.1999559948919845  0.1997669474053802
  0.2001283125830514  0.1990549671661138  0.3995511814998466
  0.1973158278358347  0.2000040150314520  0.5964165996468119
  0.2010068256582380  0.3984720078126662  0.9998610074421448
  0.2010662407572190  0.3994072870385989  0.2006327796582491
  0.2026145580199546  0.3993748356963879  0.4002699512388477
  0.1985568563600526  0.4004069929846178  0.5996457494279533
  0.2018565535035924  0.3998882562566745  0.7998500660215322
  0.1992284609840550  0.5990378931868198  0.2034040572752772
  0.1962650702786661  0.5996643868870016  0.4001755555419360
  0.1989725149230590  0.5995674330683981  0.5968616321509195
  0.2015085730953286  0.7991241678591933  0.1958392195929452
  0.2013141656755453  0.8010627047756064  0.4002077820162847
  0.2002443272794366  0.7986913219613719  0.6025885085043289
  0.2015519569683383  0.8006110783266703  0.8032692649985820
  0.3991305990136928  0.9997465917875243  0.0009221857403061
  0.4012259190576067  0.9997268625519905  0.2001674996102515
  0.4009792125178559  0.9998876451591002  0.3996669188190513
  0.4021328714207376  0.9987079365998274  0.8026009118943285
  0.4006031461339563  0.1996971371179599  0.0019907122639763
  0.4015332269270614  0.2004012123310679  0.2000974541950232
  0.3997899789055072  0.2001290908195985  0.3986884426660534
  0.4050468699625281  0.1994843509992557  0.8040263058021906
  0.3988935113342168  0.3999769476252269  0.9986363946709373
  0.4012947343748235  0.4005614830836177  0.1988879401036819
  0.3989045110222681  0.3991074883141346  0.4008429226269645
  0.3993169600850849  0.4034659508171781  0.6020437651180421
  0.4002926510490828  0.3997538569897759  0.8014327136187637
  0.4010664685721578  0.5990616744826248  0.9998721990742480
  0.4011746343111995  0.5989531345318718  0.1989695729266674
  0.4001882024201510  0.5999357222668099  0.6017787581233766
  0.4020736346822565  0.6000537987859198  0.8006653083901843
  0.4029753492710423  0.7991440572240934  0.2024760615603596
  0.3980599468824345  0.8015399779949186  0.4007948749327613
  0.4010753174748246  0.7969643142876726  0.6009210802439312
  0.6000294982908713  0.0034880007029067  0.4008604955627247
  0.6014143236471130  0.9997554873259061  0.5988865305474168
  0.6009694193788372  0.0007196619995555  0.7957991453117479
  0.6011407394307192  0.2022795255282719  0.9995453342331636
  0.6015534982883647  0.2005632089927390  0.1990678236992730
  0.5990821903752737  0.1984892407430484  0.4003637629231929
  0.6024660378703968  0.2010132050697122  0.6008182767627942
  0.6016488751934965  0.2001872967555061  0.7999462135671138
  0.5982390178782512  0.4008656038120501  0.9991709364320922
  0.5998526915595527  0.4008185038379909  0.6021952060483935
  0.5996057987548125  0.3994779583889520  0.7988847608246151
  0.6004758600044657  0.6000406214760128  0.9999353081412659
  0.5997275256685797  0.5992032811629598  0.2012485385947772
  0.6007315785070557  0.6005115625823816  0.5988069836982975
  0.5987692032101055  0.5989573068897173  0.7999494497094077
  0.5992520349401158  0.7983910602963004  0.9990686536321225
  0.6001227256618553  0.8003169811481636  0.1969331365828239
  0.5999969747300529  0.7995764336653182  0.6015772807055577
  0.5992475747302231  0.7993831662572001  0.7996830103206852
  0.8024168307580251  0.9997743873880082  0.0003623428916479
  0.7996081845234104  0.0011583324269173  0.4000994936059858
  0.8019822048184359  0.9992411606529280  0.5990669525545715
  0.8004377811904986  0.9994208369831111  0.7996564419672214
  0.8004403488209554  0.1981807642955173  0.0004025287904968
  0.7998437791040893  0.2008979229201662  0.1986887159986681
  0.8010223770359334  0.1999850753118194  0.3991905053197609
  0.8006974545894547  0.1997730502180765  0.5994582178580280
  0.8011242402586425  0.1986155430894253  0.7996275342037800
  0.7988763083174287  0.4006197708906244  0.1993401787114835
  0.7991668921350812  0.3987671242373262  0.3983675209978598
  0.8014281077912118  0.4000775587763242  0.5993322936248889
  0.7999824324591921  0.3951913187346794  0.7964588605029725
  0.7994734279073005  0.6021769940394135  0.0049168760801472
  0.7998152568460843  0.5963764325566320  0.3993781848321073
  0.8006288467573289  0.5996274023100602  0.5965161916347044
  0.8012048003022333  0.8003472576477210  0.9999035885005677
  0.7976895597676558  0.7992507332883433  0.1982152610003340
  0.7995047314768647  0.7980709644395044  0.6037483319320955
  0.7999295924695428  0.8010626504061161  0.8017029573223700
  0.9998276157930321  0.9988921296951793  0.6001756177560378
  0.0005779909700814  0.4000543774661915  0.6027180587599175
  0.3992948267178134  0.7994029073703175  0.0000250347190940
  0.4002675055551249  0.7987013882136721  0.8010885353317068
  0.6004902494941046  0.0003408289302291  0.2016416480320642
  0.6000954017331239  0.3999340556533527  0.1971735076263634
  0.6011319361112402  0.6029708089695335  0.3997776528383850
  0.8001631223693485  0.9998874781199211  0.2003677975150439
  0.7993817339483448  0.6003891209673006  0.2017575308305935
  0.1971194809881538  0.8020912226476531  0.9999330687978261
