Zr Ti V  W 
 1.0000000000000000
    15.3687751858679373   -0.0034047973547748   -0.0004629384474201
    -0.0034058626285429   15.3762737440467472   -0.0028872120149207
    -0.0004620936853672   -0.0028876454386987   15.3933118945991367
 Zr  Ti  V   W  
   2   2 106  14
Direct
  0.8012382459793622  0.9926244674212464  0.7956627731382696
  0.8153172902994903  0.3846467810342849  0.0158892838868716
  0.1962551551394735  0.4047362943047448  0.3932906817432082
  0.2002877955705539  0.7948194097880186  0.4079911562820659
  0.0001076063682010  0.0050638489514496  0.0011427903424555
  0.9999934614475550  0.9990964679151724  0.1993376073349386
  0.9990478744895013  0.0002274279492777  0.3982904494207490
  0.0017704026907086  0.0021090651721553  0.5963649858190292
  0.0050800664371032  0.0008162310348567  0.8000441606564096
  0.9964234040111500  0.2023927714126911  0.9991698179738132
  0.0005719522939664  0.1994947677412802  0.2003469363144629
  0.9986397828697456  0.1993508147989414  0.3995551969700623
  0.0000154044647058  0.2001985982096681  0.5994358026184008
  0.9985698757107141  0.1995612093863642  0.7988930823504713
  0.0120805443032906  0.3993465845971082  0.9974786224068206
  0.9951641811140164  0.4000948536037326  0.1985323493768581
  0.9968534904391974  0.3989300451839416  0.4006148731766585
  0.0039447173967258  0.3994032906101306  0.6006367881738611
  0.9968489339555899  0.4013221449462978  0.8009572584112853
  0.9988263053741637  0.5954158125773770  0.0000135503001411
  0.0037792830481599  0.6027164118207842  0.1995798800588902
  0.0018862521425724  0.6010348852938397  0.3992276370841459
  0.9987672549029090  0.5992588516550660  0.5972864556320506
  0.9991082434070264  0.6016120688096288  0.7986335922658150
  0.9984946039783610  0.8006959772656396  0.1658823996396894
  0.9962195604602305  0.8017897894992324  0.4002988137773801
  0.0000596404451261  0.8006315874119052  0.5987066770080838
  0.9994328227521938  0.8007105238174217  0.7976391997041555
  0.1981623521229917  0.0017791128501274  0.0003609259793783
  0.1993863935004011  0.9969917629133873  0.2005735989049310
  0.1992316038822079  0.0007674065300356  0.4001553117145934
  0.2000255217803873  0.0017205742330640  0.5988835179915390
  0.2005079772021505  0.9962917131637749  0.7996820976569797
  0.2010480775237968  0.2041672107504271  0.9996685918357742
  0.1997764495439200  0.2012971941325473  0.1999408816754507
  0.1993068602363950  0.1999570487060113  0.3989853435264897
  0.2026975910196937  0.2061487156935271  0.6001881264672223
  0.1992859618441900  0.1989083471900267  0.8015483978361321
  0.1994997508207036  0.4054285312004297  0.1926292145483071
  0.2002493531072549  0.4037026233608967  0.8023169369586421
  0.1981755482148727  0.5970091614220887  0.0033653836119186
  0.2008600323481937  0.5951049227461366  0.5949747665820858
  0.1992875347811240  0.6045333354457872  0.7989042688130542
  0.2021483998860927  0.7993987668706657  0.9959679100868238
  0.2032183551226479  0.7950309898964114  0.1936012662794833
  0.2000092682731685  0.7988626277858771  0.6068258914473665
  0.3990803332527271  0.0025984316793941  0.0001492462960049
  0.3971335322589946  0.9955094331520080  0.2010371558930620
  0.4032665652682886  0.0004970769660955  0.3993230809146894
  0.3987141066313050  0.0037545227118699  0.5979559424190790
  0.3996753416632549  0.9988060653243488  0.7987329141538256
  0.4025005850711953  0.1982379784773560  0.0007856619841607
  0.3982680798104490  0.1997762217048485  0.2020539171252596
  0.3997380305090230  0.1997200169872854  0.4027522951899260
  0.3992171927894358  0.1976791033284294  0.7951819372384499
  0.3979121319997201  0.3984975176168871  0.9997399474299330
  0.4019302517138960  0.4007226388297450  0.2011136129797635
  0.4022505510483218  0.3991760544002868  0.3988704195797693
  0.3949711958376163  0.3960554259300495  0.5997859392846264
  0.4035334786662404  0.4010928021145203  0.8002356725976845
  0.4003131683642187  0.5987309852542014  0.9989464148913502
  0.3960198944154451  0.6034744110464189  0.2003519123072243
  0.3959575541351425  0.6010976364547137  0.3998309758897518
  0.4021598619115010  0.6006357634613777  0.5966258436938476
  0.3995178242548616  0.6022018914717792  0.7988093083162044
  0.4010557531634680  0.8015099405199199  0.0013912979527149
  0.4010237519220276  0.8021184600788558  0.3955782551932162
  0.3991905571337879  0.8017937800018556  0.5990724170583165
  0.3967564720643216  0.8010630112653018  0.8009392172065517
  0.5992423271509904  0.0068994171170629  0.0001058006594576
  0.6004964017040046  0.9964973626274940  0.2037979418129696
  0.5983740849845185  0.9997040930609420  0.5953557188420056
  0.5962208689594594  0.9990720623581808  0.7989103170194430
  0.5971533681275563  0.1992087111631408  0.1958228361380377
  0.5999905775038217  0.1968344785108926  0.3984366309905982
  0.5951704535038637  0.2015682814271173  0.6009293676342821
  0.5994397143761568  0.2052031832932510  0.8043415260866035
  0.5984577150808544  0.3967366376464029  0.9956706167954763
  0.6024685572688847  0.4031168596473950  0.1990112231987899
  0.5992619955258982  0.3993633274761769  0.4000515293005372
  0.5988520497209149  0.4030414273717829  0.6041153866590397
  0.5989688941990832  0.5970726588015312  0.9991956363446486
  0.5977295578793193  0.6032779368288606  0.2012836522123327
  0.5988013329316740  0.5995706783614391  0.4035660973661963
  0.5993625527917114  0.5971814938905118  0.7951904759886775
  0.5991630218379027  0.8007085678031005  0.0025225000992251
  0.6008623542602490  0.8034859956971373  0.3964051539959223
  0.5980911160612474  0.7962418745670010  0.5997807741376870
  0.6021070645209501  0.7994376839710223  0.8019306297557433
  0.8023068317631705  0.9960925439556951  0.0042943546222356
  0.8009098611156664  0.9982348647405076  0.2011599865536108
  0.7967554678408374  0.0001968764221001  0.3982283883471229
  0.7999267920692535  0.0000897551115893  0.5938165121865882
  0.7933944567928184  0.1880613150327680  0.9990614500657490
  0.7992383051507235  0.2038810402339209  0.1987303786056918
  0.7985375069916425  0.1994349310460997  0.4001649715553749
  0.7988099992891536  0.2005298690148770  0.6000450843097674
  0.7992782372988890  0.2010682447882479  0.8003645827918684
  0.7994278125343806  0.3988250987200923  0.4023917751511787
  0.8007958581531318  0.3990553016566472  0.6002838065043890
  0.7974857159124599  0.4010428248631671  0.8013008494831322
  0.8014809907299233  0.5994934517256674  0.0006202182942701
  0.7997770608571422  0.5967135561502941  0.2006280292154422
  0.8011924672510586  0.6007103069744198  0.3997164942050223
  0.7967013192979043  0.5985261498280343  0.5969898513388997
  0.8003745859265466  0.5999082654447073  0.7998030324683346
  0.7971294730864954  0.7985710246749744  0.9974028025357041
  0.7956406199767843  0.7968998146798113  0.1966459990572863
  0.8000630917144899  0.7991463231847740  0.3995464697587786
  0.7995580278823575  0.7991351676547515  0.6038949658274361
  0.2042221635793366  0.4000340879544524  0.9981577277569175
  0.2002890619262487  0.4010779221430199  0.6079573537680695
  0.1999769408674009  0.6001701477708161  0.2023694641347676
  0.1989593469945992  0.5997993331075361  0.3965026268106584
  0.1974852234223197  0.7990100902511856  0.8017704476433652
  0.3989615843894430  0.1995799965745337  0.5995421756671377
  0.4021452981364560  0.7994941695307035  0.1982310571006145
  0.6008470141994633  0.0002442573219064  0.3995635895083743
  0.5988785984872068  0.2031508781388724  0.0004642522613804
  0.6008267024230021  0.4022213797061015  0.8009258701045001
  0.5977142917505838  0.5993478404735693  0.5979045540985216
  0.5969306007844870  0.7989079711877476  0.1987835216115622
  0.7984581788954875  0.4018039103464547  0.2121073912137127
  0.8014071612269442  0.7928991897811495  0.8015981714749136
