Zr Ti V  Cr W 
 1.0000000000000000
    12.5911167094248988    0.0340321349657384   -4.4651127512690021
    -6.2606958638130132   10.9008704492667636   -4.4499898086669072
     0.0017762997224301    0.0219469782085256   13.4007816977248968
 Zr  Ti  V   Cr  W  
   9  17  87   2   9
Direct
  0.9843329186192297  0.1962783851617307  0.0065752092933050
  0.1831602317074652  0.3806611260409039  0.9895886704261339
  0.4066880292471679  0.5995166882485023  0.2063554331361001
  0.6074356566508979  0.4008400104990232  0.9952804306397268
  0.6112387982729046  0.4014296651176530  0.4072798658099028
  0.5987038498249551  0.5913685802143021  0.8039351073929550
  0.8013796143563293  0.0057325734549451  0.2008135559233835
  0.7967049601666120  0.2026901554252413  0.3996057636908160
  0.7936029232284951  0.2003975558619933  0.8170753515957480
  0.9942723968728866  0.9987554997301299  0.5959232245830646
  0.9967262174130540  0.0043298178694964  0.8055036657718575
  0.9907808217475601  0.3991529507067187  0.1895669367968967
  0.0074442958622916  0.4057076007793392  0.6100223984741884
  0.9977309115260405  0.6020834495061299  0.5998791988026132
  0.1984507728577377  0.9948138427487574  0.5940162675760869
  0.2051603078328927  0.9960684277088776  0.8041809940582251
  0.2352804621370880  0.1928007744670412  0.0077307362655773
  0.2009287006514269  0.1985800457780406  0.3976811853961712
  0.2126980897230695  0.4027181295082316  0.2239545745515009
  0.4560009698841235  0.2031225569121006  0.0037747265217406
  0.3969922196295067  0.5800447518524307  0.9817226808308620
  0.3930607207219720  0.7922503238511156  0.9943994296299661
  0.5769347970297680  0.0075116276557478  0.1905730574132880
  0.6017414252770810  0.3986646969530580  0.6091710577574951
  0.6031502299203630  0.8038784422339825  0.2033942536796959
  0.8142220033386454  0.6123400486322483  0.2060159115165188
  0.0018297645331478  0.9921149713818763  0.1946497896564479
  0.0035605762419727  0.9990223762284830  0.3990538790388252
  0.0158649191664781  0.2046973163976507  0.2207903290060484
  0.0162045455562157  0.2139476596290391  0.4156589141609366
  0.9966686290576957  0.1996732996128840  0.5954752017900478
  0.9856369813456710  0.1978187308551882  0.7714562254595109
  0.0040560612314804  0.4297030274424423  0.9958156820579649
  0.0046253744971519  0.4080032276814733  0.4000182641406820
  0.0011061774235502  0.6103479557928785  0.0005899344162248
  0.0095778401618916  0.6113453900327331  0.2018072116340157
  0.0042234412290015  0.6032763218890239  0.3969477389045768
  0.9985835010783841  0.5950465694215838  0.8001123294593200
  0.9976884979340737  0.7963137446627013  0.9988000121844350
  0.0012809790809393  0.8013767365371794  0.2013814632073062
  0.0009470124381419  0.8042861223772613  0.4027071699544321
  0.9996256380758937  0.8003369291541759  0.6010356681571081
  0.9986803856260152  0.7942519495577083  0.7952841283260684
  0.1910711809479374  0.9811571810460092  0.9973203046417056
  0.2004083387412489  0.9958328516799461  0.1997098351981202
  0.2027406436075694  0.1868745984476699  0.1932319271866082
  0.2000846872918479  0.2022869434140681  0.6018927179260920
  0.1982361230961180  0.2067161265484479  0.7921025027725702
  0.2001959976571756  0.4079610125209588  0.4096458971696762
  0.2028355210800013  0.4006887734825859  0.5957903598077494
  0.1858929988577862  0.3942125178861791  0.7843205821697840
  0.1948733231835067  0.6046458202109889  0.9948953837502897
  0.2025731549584725  0.6043243909144886  0.4020218475336077
  0.2003704384420258  0.6009384120790447  0.5972026308540995
  0.1969560791497251  0.6009744544148110  0.7992906102396241
  0.1919538380059455  0.7941058866332047  0.9947459833538151
  0.1994623628044818  0.8016314839106404  0.2006550298495523
  0.2008959714656491  0.8020199387254188  0.4016112241935090
  0.1997969594779577  0.7963648198452496  0.8029734793748148
  0.3887178789018108  0.9915690160874849  0.9946388290993847
  0.3859788902098266  0.9899362887381948  0.1984137973137324
  0.3996528247483240  0.9980188677976769  0.4045199766401916
  0.4000975285857896  0.9945627551283882  0.5965302090277281
  0.4054542630365874  0.9960531274268768  0.7964874545921827
  0.4053656531223138  0.1861401238146647  0.1929340773143646
  0.3969020295074525  0.1957834646943834  0.5955964576417435
  0.3827054809136151  0.1996940630778973  0.7819749555104037
  0.3999158394454140  0.3865345105104351  0.0001969751248871
  0.4187464877983744  0.3930553321862144  0.2127116423490291
  0.3987274647602191  0.4009311149998886  0.4051065394984349
  0.3919923993686305  0.3958772240070016  0.5949386450658500
  0.3876962914932730  0.3931038259769558  0.7909314050861946
  0.4093333918048673  0.6095146701458414  0.4203714616240394
  0.3990370395054201  0.5981113933726007  0.5974997568134679
  0.3867291733091163  0.5958257100074493  0.7876293393499650
  0.3988842107838004  0.8020380021188198  0.4031723786310937
  0.3944195672062270  0.7969567317074603  0.5946526429850526
  0.5884687963391730  0.9915048200255272  0.9913468409803442
  0.5965691729206332  0.9998685980059712  0.4068240294466102
  0.5902231856025092  0.9941492424073162  0.5943984147981656
  0.5906630229509587  0.9892937966275107  0.7888625190104210
  0.5892404167710522  0.1855134596219251  0.4020090636920106
  0.5973490482713568  0.1929677579309338  0.5997811513003372
  0.5758492059950101  0.1863664030652674  0.7895661833542393
  0.6161023045998989  0.4177876880252310  0.2133016585462587
  0.5986115912324558  0.3780040000870078  0.7902276033056449
  0.6158297246168229  0.6243425086953203  0.0234618400048873
  0.6080304674769387  0.6022326561245984  0.2033266250343350
  0.6059767902581260  0.6092562761497567  0.4069206264769423
  0.6029951064285439  0.6046742776447309  0.5967382696451587
  0.6007959592637052  0.7956996367995742  0.9911042938729466
  0.6104908296565117  0.8130797745812923  0.4137684589570597
  0.5965182396470688  0.7975277717315044  0.5979815821901721
  0.7877596038185530  0.9967494058583390  0.9870237173975062
  0.8053512260623481  0.9978606042496234  0.4177105560562994
  0.7933892110905103  0.0023074521027702  0.6015180507970969
  0.7835793140415437  0.9754645599447392  0.7804645978182765
  0.6828247975978510  0.1920984113296247  0.9937876759827321
  0.8055208394520517  0.2117473027607573  0.1886634993052593
  0.7973041033840443  0.2055327588823740  0.6072742197493867
  0.8173124544487426  0.4136036735960867  0.0017109503792742
  0.8059886443600064  0.4069743794078035  0.2068833728045822
  0.8098825984761565  0.4045875282059347  0.3889455205654942
  0.8019024179810650  0.4007583800960174  0.6054511577372829
  0.8013975198967183  0.4045234649915903  0.7962379433723848
  0.8076320833884555  0.6076391356028422  0.0013990892459913
  0.8065921624073266  0.6150131949773210  0.6158084409600373
  0.8122853033498105  0.6041352915269543  0.8043546790578163
  0.8053934285649247  0.8045680863994232  0.0078504084541275
  0.8100545079868244  0.8060607678470414  0.2041413331105392
  0.7986852808168531  0.8025005477384551  0.3977440877774993
  0.7982551875779985  0.7993472687866926  0.6002684583975980
  0.8013266476575950  0.7976899445239726  0.7990865487458905
  0.9963236417177972  0.4050468205506999  0.7978169646454883
  0.6217201266704606  0.2104821003992130  0.1888513962914620
  0.9964820975762280  0.9894745996042782  0.0003579476612801
  0.1995098808199060  0.9945566273566367  0.3964653806395794
  0.1981509846794193  0.6064036040244417  0.2042897294976544
  0.1956419294331174  0.7952235484234603  0.5972716733405111
  0.4013600939433775  0.1956157848878275  0.3970811350110764
  0.3959319690995551  0.8051261849089540  0.2036831502912962
  0.3955126921524736  0.7964389034405844  0.7939845668065281
  0.5972991366430158  0.7982051580323890  0.7956207587391131
  0.8081514098158681  0.6100381294169962  0.4082946336146044
