Zr V  Cr
 1.0000000000000000
    15.5176564344983579    0.0055358052127085    0.0009235349890332
     0.0055289702635454   15.5339659065587714   -0.0041197367383691
     0.0009253811786535   -0.0041210125583897   15.5341853465245965
 Zr  V   Cr 
   5 117   2
Direct
  0.0008276397123799  0.4143640277067790  0.0017671225967544
  0.3751106730156762  0.2030061768850360  0.1976210767873929
  0.6005570662074292  0.2002908782159710  0.1999836930176097
  0.6092841230216792  0.7934114087245956  0.7997376658942559
  0.7939711333187766  0.6080915813424916  0.7997320450611949
  0.0012079574184114  0.0001308349688502  0.9998353643423306
  0.0007734942101334  0.9996961397203022  0.2009119924746473
  0.0010517791548432  0.0008466425434517  0.3995846551542595
  0.0006480314379367  0.9991922062589820  0.6011393916473849
  0.0009005958458153  0.0024529893334143  0.7998393035156487
  0.0004003372429644  0.2011788176966122  0.9998996367454906
  0.0018359952845218  0.1997798429210521  0.2007192047413394
  0.0006199954331217  0.1995936417990179  0.4010296951737632
  0.0009566164136299  0.2001612294347121  0.5991405078653285
  0.0013314464851927  0.2005176021848422  0.8000297518834455
  0.0001201773106776  0.4007149626548125  0.2046276353808488
  0.0008833020093866  0.3995807242588261  0.4007515267600052
  0.0000478103743862  0.4002464933794424  0.5987601479870792
  0.9999051443254484  0.3998293703086194  0.7963601239905904
  0.0007908987262640  0.5995373354356320  0.2013403998482789
  0.0005483714471204  0.6000437821037812  0.3999415477167172
  0.0001801544450602  0.6010160577880624  0.6001870922754455
  0.0021395473146666  0.5956397785827235  0.7987435386823712
  0.0008421742192048  0.8012793501354446  0.0024579086790817
  0.0015517058374635  0.7997190007612798  0.2002959914161666
  0.0009695901780276  0.8000194066407487  0.3998610165964646
  0.0010938237760802  0.8001730711534398  0.5965992752940236
  0.0012388521505827  0.6702180026803357  0.9327523836182224
  0.2013873784753099  0.9996021169372953  0.0000966577854820
  0.1998026009863278  0.9991514504623458  0.2006028660122320
  0.2010546872178799  0.0001355941558361  0.5998705849292505
  0.1998361391595538  0.9999033896977615  0.8007716584066981
  0.2004031284409202  0.1992078681235495  0.0002855464404212
  0.1996655587005263  0.1994607586373786  0.4009771068107508
  0.1997696764477174  0.1995696499517083  0.6004191837578877
  0.2001552377793295  0.1998843414040250  0.7999254716005195
  0.2045120473242644  0.3997164974220264  0.0002345937541071
  0.2008955393769058  0.3993214630720101  0.2012405603679994
  0.2010487234192593  0.3999786781306465  0.4004396159122224
  0.2006939343170257  0.3997748065475955  0.5993530862590927
  0.2014078842983470  0.3982149059402828  0.8000148577509290
  0.2018437571397187  0.5997802604077583  0.0007539608107747
  0.1996522543562332  0.6003019747728784  0.2000511526182530
  0.2005816332481746  0.5991386308910788  0.3998033456865697
  0.2003941665259900  0.6001292148455007  0.5997983636139602
  0.1991020911652102  0.6006128170050543  0.8001367181594915
  0.1996059128257132  0.7998691681753103  0.0002240640810759
  0.2005755009542554  0.7996098873943779  0.2008190733132423
  0.2013656309141401  0.8005577021366895  0.3994324490488331
  0.1994892845201672  0.8002714260365441  0.6002530894279875
  0.2015388195779957  0.8001731922670978  0.8001377275253279
  0.4012625846712853  0.9999294636526932  0.0003161255317052
  0.4008847863538283  0.9960392842303495  0.2003358790278293
  0.4009086466882854  0.0002824562390104  0.3998232822275569
  0.4006864049655647  0.9994271279434208  0.5999478767629290
  0.4011425125030569  0.9994666691960897  0.7997122665255509
  0.4018137757092550  0.1994720060454473  0.9936892739334645
  0.4003729124280888  0.1997324819221488  0.4041911635919198
  0.3994544940906088  0.1994743603135155  0.6007079914877925
  0.3990784341867256  0.1998682081605966  0.7984639828233315
  0.4019185183451465  0.3999388706342856  0.9999148260014835
  0.4014872157885689  0.4066025078426982  0.2003090336479141
  0.4010113961669698  0.3997154300548343  0.4000662913281857
  0.4006877244984492  0.4002613007203925  0.6000291127165742
  0.3998033630840651  0.3994027650797053  0.7993057913024101
  0.4000917907467000  0.6007835991613450  0.9999734396734917
  0.3992713737465610  0.6015407095118191  0.2000294333183550
  0.4000811476321499  0.6002670211412967  0.4002967136500505
  0.3996848778752598  0.6003187519246884  0.5995663630813254
  0.3971622324288422  0.5990439879966406  0.7997294501636489
  0.4015305089088660  0.8000222597033630  0.9997128679591784
  0.3996063581767976  0.7994054845701227  0.2004429817300726
  0.4004774056271292  0.7999784585776284  0.4001649923448536
  0.4008462886319322  0.8000175495116195  0.5996611880867279
  0.3993929693628380  0.8000935047094936  0.7998244260076359
  0.6007643890347311  0.9994625523987294  0.9999458550777496
  0.6012132133610680  0.9949081351126224  0.2005439047832591
  0.6006192037626490  0.9999374893238940  0.4001223486176107
  0.6004380766041688  0.9994617884243493  0.5998454047863647
  0.6000805304436230  0.0016911726769662  0.7997297666950308
  0.6013129812533737  0.1999356374228771  0.9946255968766214
  0.6010332537822536  0.1997631771046429  0.4052880076840497
  0.6010777568639097  0.2002620414957701  0.6012705234374528
  0.6005958101681601  0.1995829517621079  0.7982344904914408
  0.5995261213600085  0.3997412341984371  0.0000948670567905
  0.6012079214754240  0.4056046045344996  0.2002870281113153
  0.6002927731644120  0.3998970081960898  0.4004112096488543
  0.6003156335892140  0.3997895327674615  0.5994785344750164
  0.5992805938534859  0.3968662308054204  0.7994270263166701
  0.5985138080393068  0.5991955975390112  0.0012882249179507
  0.6002903531239665  0.6011799087611099  0.2008156940972750
  0.5995747121719454  0.5996187270066564  0.3995022030334215
  0.5990283340774278  0.5987415999281877  0.5981970814524510
  0.5908141478426475  0.5904644001919565  0.7998264202194075
  0.6008480872238335  0.7996714910682763  0.0042371600587830
  0.6013652029525405  0.7981694010755584  0.2009051671502496
  0.6006539079059176  0.7996341471963263  0.3993631706280334
  0.6012842458425963  0.7991487943921376  0.5954970748174311
  0.7997414515195603  0.0008939949014530  0.0007071623611003
  0.8013369091906886  0.0004222819937272  0.2001301608481865
  0.8000613655234318  0.0008199878293187  0.4000062029961404
  0.8001015234820150  0.0010421060976528  0.5992263939481743
  0.8016179910777708  0.0045187478081233  0.8004074145775744
  0.8009178844167385  0.2000854360705304  0.0001912605002579
  0.8054186822915909  0.2004049242377888  0.1999860824142988
  0.8012906768093734  0.2003261374606500  0.4000248150763261
  0.8011771787842759  0.2001955921590565  0.5999194531745613
  0.8012526046623071  0.2012113534438994  0.7997629553288267
  0.7963948716449205  0.4008449369250822  0.0000621808924097
  0.8004062687134886  0.3998242648149793  0.2009300887825003
  0.7996807455996515  0.3998539985436219  0.3997343421273789
  0.8000467754324213  0.4005017830443388  0.5991955939071297
  0.7995701855275699  0.3984582890505182  0.7993884750377986
  0.7979470966124009  0.6006559138342826  0.0044340634793840
  0.8009294729418790  0.6010724096076638  0.2008114735031594
  0.8000543791148502  0.6000736149279685  0.3991582551055969
  0.7995849380717025  0.6006551213734439  0.5951949990261575
  0.8032906158914176  0.8016044064215269  0.0025200136923809
  0.8014607226682438  0.8004808807005843  0.2011027827644680
  0.8007912482221946  0.8011751151432631  0.3987978971022306
  0.8028988701641078  0.8018286292915203  0.5978187160119000
  0.8123804903465874  0.8103818196561301  0.7998235428700347
  0.2005983341421645  0.9994990957980826  0.4009706794463646
  0.1919692464735032  0.1994270614053031  0.2004186353235875
