Zr Ti V  Cr W 
 1.0000000000000000
    15.4679138161833851   -0.0234617701905078   -0.0073565197370444
    -0.0234807748335921   15.4835771831266733    0.0255900788900589
    -0.0073319414268126    0.0255288067535688   15.4688931063552495
 Zr  Ti  V   Cr  W  
   8   9  99   7   1
Direct
  0.1921508254249465  0.4024003947768130  0.6013683202475707
  0.3994179653370895  0.0063751718733460  0.8085077043329607
  0.3973611972870967  0.1894035473788072  0.9910727183916102
  0.4125773938826704  0.2012931678940734  0.4066678621320696
  0.4340465348271595  0.6094089546525632  0.3973060858145990
  0.8028418318678123  0.4252746893788770  0.1624878171767931
  0.7918093707302474  0.4054001307264626  0.3748031455677330
  0.7973898740701735  0.6304348091837467  0.2197063846725555
  0.0017710639366915  0.5774030925887271  0.1928567792991947
  0.4091479125649578  0.9903165658248365  0.3964863745071525
  0.4043919773509812  0.5955844966299823  0.0009416429738862
  0.6064495302775644  0.9980479108102023  0.8051146653712753
  0.6264066992607789  0.2281163203899201  0.3913502296917703
  0.8109489164114738  0.9918027823858417  0.8035302000304011
  0.7979105549702147  0.2104119057891796  0.2109860905909280
  0.8138374554304753  0.6169229564971475  0.4208101163444406
  0.7982928777548326  0.7875338678578030  0.0230845061747253
  0.9972810823771436  0.9965015679212293  0.0009837060033242
  0.9978642499806439  0.9978258161235035  0.1998414728774578
  0.9998120368108798  0.9977552094325296  0.3982089994519598
  0.9976498763722422  0.9992351298550630  0.5992393584353558
  0.0008787625474508  0.9992042917400878  0.8015729083564436
  0.9978717822092481  0.1960769344786093  0.9976868421749169
  0.0028004523973832  0.1936953971747616  0.1987261865359204
  0.0035717298529198  0.1977758962038200  0.4002456198629972
  0.9999571882267443  0.1977562676215999  0.5992077048405975
  0.9987719322902152  0.2001094675660602  0.7973649822575515
  0.9963237862215999  0.3954072149295577  0.9983945564564208
  0.9991312331931193  0.3853192835726458  0.1982560715944339
  0.0016160820579014  0.3988892972292207  0.3965977180690973
  0.9905374422060641  0.3964108375557571  0.5935540569401747
  0.9982354328323274  0.4002756470894207  0.7968232776896261
  0.9987426546939802  0.5958023721871951  0.9963215496388554
  0.0018110161364655  0.5964595264662312  0.3917418198381160
  0.9983527285009025  0.5978717838194566  0.7667357616189439
  0.9984321541145164  0.7961146089647445  0.0008231306549056
  0.9939402362421894  0.7975102272917090  0.1993058568588917
  0.9995923771705636  0.7973387774740911  0.4016278399051308
  0.9979558373564104  0.8015944775605142  0.6009567404965453
  0.9977356846983114  0.7963445437730451  0.7998498911521366
  0.1967114135923225  0.9957386456877643  0.0033089246269798
  0.1990159252944003  0.9977049707438488  0.2002383075413386
  0.1971018944550922  0.9971714972035897  0.3991382036912732
  0.1936046264627982  0.9981463539314128  0.8017946811128163
  0.1939836880787741  0.1965434648623517  0.9995013381355889
  0.2008323254167409  0.1974173773562553  0.1991654603294175
  0.2025859539151652  0.1943754468455653  0.6008113078275528
  0.1981052076808602  0.2000308762558557  0.7997033955265848
  0.1977982255479614  0.3976980970900585  0.0003898755562013
  0.1992011776948927  0.3978990969300489  0.1978042325095425
  0.1981384881932967  0.3996508032464481  0.3941602472135128
  0.1974976515433195  0.4003215847883456  0.8057246452508253
  0.2001384166277414  0.5975253092467951  0.1973401586304303
  0.2017604267675224  0.6047668921261873  0.5985919653646805
  0.1980313363047215  0.6003939636534359  0.8002484301694510
  0.1970143581356438  0.7968793047320240  0.0011973369350933
  0.1971100603659065  0.7967558498279483  0.2006969632872215
  0.1972217180559736  0.7986342233347381  0.3997186307984840
  0.1979276640377759  0.8011951735778731  0.6003124984367858
  0.1980679558824210  0.7989918849089325  0.8009847456986107
  0.3991949958937595  0.9872265191315551  0.0111123532705408
  0.4001116136569547  0.9989283124459991  0.2022118959057387
  0.3992627509653006  0.0035339309509873  0.5977871463529858
  0.3996768447953932  0.1987379101093033  0.1995903581246463
  0.4001056385658897  0.2104972063854120  0.7902160938778952
  0.4006701216192982  0.3976369918058472  0.9994603577181946
  0.3972991036740443  0.3973482297451706  0.1972131244407272
  0.3938364057499129  0.4075785165210304  0.3965759917935705
  0.4017664530913519  0.3965510158532865  0.5962616124152792
  0.3994442361572372  0.4040312958306822  0.8008769673367111
  0.3968314698708131  0.5990543674207330  0.1967551357858908
  0.4002918714812059  0.5997848856839484  0.6004547554445587
  0.3997850823908318  0.5996039095213286  0.7980053519447003
  0.3991275031774410  0.7955660898799797  0.0017856185291665
  0.3973014446758660  0.7977609853289502  0.2029584445761211
  0.3982441904268324  0.8004851034696544  0.4011588918015953
  0.3986106454000019  0.8035619165818664  0.6012710901248517
  0.3968402263455144  0.7979508723671200  0.8005921856411000
  0.6022428663587650  0.9975927500258763  0.0033834658791670
  0.5988777666338244  0.0021032011062501  0.2010876529156484
  0.6071409952744802  0.9938270189311696  0.3985596535566909
  0.5999010956450630  0.0016090407006607  0.5978882934348556
  0.6040562788678716  0.2000453740978277  0.9989072403740927
  0.5965880749495410  0.2020150904491877  0.1959122795921669
  0.5972281980482148  0.2024049513782826  0.5988115621386977
  0.6009161818986137  0.3984262642433113  0.0005589472703647
  0.5971692735176586  0.4000617621976121  0.2004056181305115
  0.5898065451006924  0.4177330311315022  0.3977305515111011
  0.5992740584518255  0.4026642911721884  0.5953711100129121
  0.6033991450334514  0.5989981159816247  0.0002977500420717
  0.5937541277796753  0.5985319581893355  0.2003922290563999
  0.6249768459709364  0.6025679159596969  0.3998804896177576
  0.5993133475695094  0.6016858739425641  0.6003840513422948
  0.5990447404065319  0.6006844826246085  0.8017216526604135
  0.5982493910230837  0.7988589902320331  0.1999899592093648
  0.6008424810360422  0.7990309436326513  0.4002362955443238
  0.5967994785298395  0.8006411442756187  0.6007709995320224
  0.5980512636271029  0.7980483796853269  0.8019529938930103
  0.7993524587078729  0.0009737091434376  0.0062712163038192
  0.7973821880809733  0.0098179243330256  0.2038697547350205
  0.8025726107636063  0.0043027013960021  0.4019363526602329
  0.7972326184190998  0.0019444770255878  0.5990233055822890
  0.7992267635895743  0.1990233732627084  0.9961417846645121
  0.8115501847290499  0.1995182282682689  0.4072097427513748
  0.7964233894652074  0.1981836374997860  0.6000034157125470
  0.7991424205613238  0.2009364857733858  0.7972667771210386
  0.7988898580803852  0.3948626111301510  0.9791743896473778
  0.7956745147257589  0.4012054514468316  0.5941057807794979
  0.7986499379401714  0.4007241589364686  0.7912905275450683
  0.7981397048769717  0.5949525908855411  0.0000457451022553
  0.7987103280050378  0.6010655833702080  0.6080873770842729
  0.7986261529573736  0.5995704473364911  0.8015430425634759
  0.7951376754313274  0.8214778915895001  0.2115506885056203
  0.7996208962478286  0.8097674600492091  0.4043898022657353
  0.7972773367723777  0.8024124788240879  0.6020261397826595
  0.7974141076639086  0.7958693256829045  0.8016625225708972
  0.1983486704947163  0.9984574591295251  0.6002790592644269
  0.1993726419631655  0.1978237404065880  0.3996547191896204
  0.1967969938149236  0.5982403987216635  0.9986100834892986
  0.1969434077419402  0.6011088937085466  0.3988125070127414
  0.6017823696092465  0.2052394697552516  0.7980071679273200
  0.5993058286698043  0.4021576323008577  0.7980864558498437
  0.5966215003034333  0.7978593524033980  0.0025984157077616
  0.4001555823130464  0.2010336432226913  0.6043580410527271
