Ti V  Cr W 
 1.0000000000000000
    15.4171836946855763   -0.0006458025225840    0.0021743795697675
    -0.0006464432342440   15.4108214600062574    0.0048957167363750
     0.0021730867805691    0.0048939939426410   15.4267125679285311
 Ti  V   Cr  W  
  13 101   9   1
Direct
  0.0014924068033834  0.4008625431928133  0.4004920532189026
  0.2086740838454636  0.2003164248580484  0.7921775077349984
  0.2003600483302335  0.6000116394646989  0.0062194804091755
  0.1989401350396314  0.5981898389909934  0.7917544208573333
  0.4006965457296666  0.9950877510388466  0.5991456761538763
  0.3952861855138918  0.2049720128887858  0.6061615993205708
  0.4026535205465036  0.6018821550140311  0.4009984357839943
  0.5918762618967165  0.9995937185202488  0.9973540405837671
  0.5946411873792780  0.3991674037241821  0.4037397908377470
  0.5904561609452862  0.7985175362090964  0.4012095102859058
  0.8015716121050525  0.4069005653961995  0.9908664550462977
  0.7976795177373012  0.5925414423258185  0.8045330388231585
  0.8042268401776067  0.8019766848184564  0.4018240401072504
  0.9995990443056150  0.9987162781016824  0.2047585538017435
  0.0000976395197563  0.9991352115339984  0.4013287207418573
  0.0016174704351786  0.0003063709651558  0.7982721777762114
  0.0018281869742383  0.2019007889574970  0.9988824480687748
  0.9991833257230444  0.1983173387307902  0.1977749618877232
  0.0003272594777942  0.1986423221043400  0.4000997271324899
  0.9991550036165993  0.2008576972876652  0.5999947881077422
  0.9998282232094465  0.1981652626427789  0.8010258504448137
  0.0036970633188629  0.4002680854490510  0.9985751817662987
  0.0000508005347453  0.3998262491155605  0.1970696115103589
  0.0015025268795188  0.3986352555057830  0.7999562713909736
  0.9971068319196283  0.5989572312395102  0.0006411229945844
  0.9973908554273579  0.5981071208141807  0.2021201826423800
  0.9992011130330767  0.6009390749028242  0.4001648644347437
  0.9976303474880015  0.5986587129016386  0.5997883180673093
  0.9994021505335740  0.5986765131452610  0.7993745852801253
  0.0018452403536344  0.7952312204791178  0.0000707916361231
  0.9978511191985937  0.7992149473178786  0.1998303225928730
  0.0029468076136050  0.7985385520657796  0.4018428604382224
  0.0009220565547829  0.7979685180965206  0.6020807204717497
  0.9989444068386149  0.7993357611619153  0.8011697130972493
  0.2027382115290378  0.0005439254401494  0.9994417723081432
  0.1986214388320688  0.0002940698840027  0.2002572508156802
  0.2008189975246785  0.9998338110878574  0.4002539227764869
  0.1982923117142025  0.9988523708798712  0.5989864393318579
  0.2008099450153931  0.9993597005135959  0.7989179212288766
  0.2000259240902327  0.1986056418837885  0.0010032003719951
  0.2011176257351426  0.2004628069544111  0.1998686565059699
  0.1998075246908793  0.1993653996427310  0.3989765380701532
  0.1970866958259762  0.2002536704893161  0.5955685751790031
  0.2011090531496204  0.3989552673431003  0.9995880515211303
  0.2007037132310757  0.3996233671156632  0.2007443270180934
  0.2023622481031757  0.3998891778171181  0.4000706971325889
  0.1983080260030814  0.4008937489667836  0.5991715289830063
  0.2016394491669992  0.4001676882160046  0.7990353624966210
  0.1996910444686855  0.5999681343829575  0.2036655723114276
  0.1983698209519241  0.5999260328591531  0.3998288234634406
  0.1994825327184138  0.5997734891634582  0.5956410023252124
  0.2002453931417670  0.7993771859912076  0.1959507251398632
  0.1999043662071680  0.8006926020388283  0.3995984335946298
  0.1996763472661899  0.7985202898882028  0.6020406388841077
  0.2013021562312745  0.8008301571894996  0.8046318408604846
  0.3986516444139010  0.0004163952868028  0.0010543208504572
  0.4014866046568748  0.9992868069065273  0.2006170162504151
  0.3997518246187454  0.0006929752700533  0.3994164788405638
  0.4029577092365263  0.9983479644459837  0.8013522015982767
  0.4004671444026709  0.2010419549917621  0.0014341191028907
  0.4013162081014772  0.2001256436173710  0.1998807837472684
  0.4003430226710077  0.1997400022159687  0.3983081467199607
  0.4051597907323822  0.1996748034076022  0.8035003257115556
  0.3990307615891457  0.4002411070845751  0.9984745453103782
  0.4012265913097747  0.4009420599562606  0.1994412083318267
  0.3979288473823915  0.3982657420502054  0.4006806533197532
  0.3990908365085003  0.4035187343967118  0.6014071651937759
  0.4002406966621365  0.4003339710175234  0.8010638714546552
  0.4016236811054701  0.5994666136801778  0.0001953571485880
  0.4016703597325661  0.5997373432322571  0.1990237557634312
  0.4003562966017870  0.5998323012869258  0.6017533197109067
  0.4025598290865938  0.6005687973310586  0.8001648025834577
  0.4003431324806870  0.7991003961994142  0.2011622700702878
  0.3955501774234405  0.8017723538993328  0.4005981244964072
  0.3990679796090678  0.7966697256539259  0.6019763726105631
  0.5998736433749883  0.0011042096537932  0.4006393936143799
  0.6024944945101992  0.9993044803697775  0.5991779271827212
  0.6011253752880501  0.0001824749320860  0.7962428189133204
  0.6009420807961812  0.2018419622267230  0.9994618791996263
  0.6013815779913765  0.1999212226664568  0.1994867183885898
  0.5989966067316662  0.1982781833544856  0.4001265194209557
  0.6019233976841172  0.2005384698804425  0.5997148223885294
  0.6020375336798846  0.1998068680006424  0.7994154336942568
  0.5981646551113843  0.4006477987536594  0.9993065683269321
  0.5993188795823173  0.4001737557916585  0.6019363257104260
  0.5992067669329371  0.3994247914684694  0.7984866061113018
  0.6001188924262765  0.6004863471235256  0.0002523803169045
  0.6005667357686122  0.5986070645230376  0.2013507323155451
  0.6014842320903070  0.6000900896715545  0.5984600067802447
  0.5984699847190967  0.5988046886901289  0.7995398212755949
  0.5993139498549375  0.7979840371384280  0.9999822842072853
  0.5996595104041285  0.8003097201294982  0.1982385193884411
  0.5991010820115673  0.7990733036431211  0.6024586643158800
  0.5995718123898385  0.7992290069407911  0.8004873578803372
  0.8052361248647969  0.9996088080634229  0.0010577716398539
  0.7991989339031278  0.0006072322993966  0.4007386824495554
  0.8005871973915942  0.9992408525865610  0.5990622548265770
  0.8018327390227402  0.9988856463255481  0.8014375986245412
  0.8013183038407219  0.1966194999385256  0.0003535103729438
  0.7994237160647467  0.2001691600136307  0.1988152839209045
  0.8001758701407017  0.2000797672397852  0.3991878343369338
  0.8004147882882261  0.1994059037346380  0.5990336071996903
  0.8005867707125882  0.1985727057792387  0.7986878625500237
  0.7985333451728762  0.4004336412563252  0.1997843296307533
  0.7990804433832042  0.3992483777234500  0.3983993312793232
  0.8009791999431631  0.4003333317218268  0.5983594537961702
  0.7995180817217644  0.3953629437903499  0.7959318262360727
  0.7987056429114288  0.6032394464860765  0.0048132169613591
  0.7985404703017610  0.5979408296484380  0.3987383848833729
  0.7996523802000109  0.5993151764455424  0.5972927962697751
  0.8019907245500505  0.8021678753790753  0.0003589296299416
  0.7982215547052509  0.7990346503561256  0.1995516626671113
  0.7999801494574625  0.7981514472257426  0.6032954347064973
  0.7993025436425447  0.8009642426582763  0.8014731325224581
  0.9997168373253005  0.9987227811689922  0.6004180195550438
  0.0001309098592090  0.4000693831245323  0.6025630148823401
  0.3983874380655978  0.7995053446780278  0.9998087107941597
  0.4000299837951483  0.7987512009299256  0.8016031099609525
  0.6009073526518891  0.9997268329090361  0.2023413427468080
  0.5996350625481437  0.3993816409830449  0.1971631824619079
  0.6018869627368129  0.5993672160910015  0.3998504905668601
  0.7994790853998577  0.9994376868128351  0.2014921240966357
  0.7991345204879842  0.5998246041067219  0.2006408874731736
  0.1944571042611333  0.8072060502616289  0.0005168992264786
