V  Cr V  Cr V  Cr V  Ti V  Ti V 
 1.0000000000000000
    -6.0000000000000000    6.0000000000000000    6.0000000000000000
     6.0000000000000000   -6.0000000000000000    6.0000000000000000
     6.0000000000000000    6.0000000000000000   -6.0000000000000000
 V   Cr  V   Cr  V   Cr  V   Ti  V   Ti  V  
   6   1   5   1  17   1   9   2  16   1   4
Direct
  0.7495182907423407  0.9998030208580567  0.9970121170130289
  0.4978238506662230  0.9969204189450461  0.9984885803568055
  0.7496187539473695  0.2491916866889272  0.9988021684375760
  0.7498124911366602  0.0019805439996620  0.2516758190065312
  0.2521788626384347  0.0010658033206380  0.0006301707347184
  0.4992349401293004  0.2538058626970812  0.9986196888622092
  0.4973525871053085  0.9962820288834827  0.2508939620309519
  0.7490902994735535  0.2495800003828810  0.2494877195246263
  0.7533795242503080  0.0016055939916361  0.5006350121597329
  0.0008157637061947  0.0021453855534269  0.9996351482304684
  0.2505383590236462  0.2480012591684259  0.9991224234778341
  0.4970463156252001  0.5005616707428409  0.9994354943410229
  0.7499797553124126  0.7483334581397563  0.9976289182927168
  0.2483026990527373  0.9968992698778856  0.2457567131884003
  0.4967504324671090  0.2466360098059261  0.2495637988661907
  0.7512371835902918  0.4968288810590211  0.2508311638316757
  0.5023100918216921  0.0002459801829773  0.4982826355627564
  0.7470982990252862  0.2492798472857191  0.5004630563704998
  0.7506885857415729  0.9964811056541827  0.7508230568428778
  0.0018695437200453  0.2474305395909908  0.0013099588791819
  0.2539162503329412  0.4993402961218710  0.0023152135905272
  0.5004558029141043  0.7479436922968153  0.0031469722720769
  0.9969005074357420  0.9982624447104023  0.2500063418979667
  0.2498737234767100  0.2494009338199809  0.2501583094763725
  0.4987829993003500  0.4987308988922071  0.2497353954493139
  0.7503307287041238  0.7510236347419240  0.2515658657758468
  0.2482851032851163  0.9995595717754568  0.5000868372196263
  0.4989153688322748  0.2474191161059128  0.4983262869391384
  0.7494975809120545  0.4994209224318136  0.4973637857149319
  0.4997823885637499  0.9997373339290772  0.7491724897136891
  0.7503709469563984  0.2527021559732375  0.7499727333142131
  0.0000799522391969  0.4963876483413779  0.9975919213299888
  0.2452856553419617  0.7503848580311105  0.9995022636990927
  0.9963211651221826  0.2468961397108872  0.2448424557716272
  0.2501083272230934  0.4995829777370973  0.2513048121906519
  0.4975365472513640  0.7484361923531924  0.2480236461071140
  0.0047245877440423  0.0023275406069730  0.5017905121157638
  0.2495263687164949  0.2501564899514035  0.5003446433440346
  0.4986949387356668  0.4991612700705189  0.5029648267619773
  0.7489830297124644  0.7486577265086440  0.5007861858972988
  0.2543560589132629  0.9990251876213325  0.7506901376726380
  0.4984239335331956  0.2490256073053831  0.7496922497982516
  0.7539916964912330  0.5026542773957995  0.7491670031851300
  0.0006190965116050  0.7484706698469232  0.0019382807925622
  0.9987654130903000  0.5012730165406285  0.2482608589130986
  0.2504444400661830  0.7529504736049170  0.2512969940155594
  0.0013021776518814  0.2521190010856151  0.5045011352961392
  0.2492380090577038  0.4983451481873993  0.4995310546058997
  0.5020545325267003  0.7523053392994760  0.5037757736695931
  0.9951984449926927  0.9955774392264237  0.7487472791865090
  0.2511652507023674  0.2513318800108001  0.7480574123044447
  0.5010347402056388  0.5020442977871404  0.7494403170225580
  0.7516651042998819  0.7544512462965406  0.7545809964090179
  0.7927632003282836  0.5435192572648880  0.0448082391082230
  0.0007423500451367  0.5003294504685820  0.5001170548471121
  0.2497434701420094  0.7496856269160210  0.5002643117792487
  0.0000209950685077  0.2501972059089723  0.7492339533616832
  0.2516656097337068  0.5007535342891716  0.7493989692110544
  0.4995256894648657  0.7493775803336569  0.7503299720710122
  0.0001349029211813  0.7493525028588990  0.5008039176353353
  0.9966274292894767  0.4963629249233312  0.7508729680318587
  0.2482763304857101  0.7471191725753037  0.7502924185128814
  0.0032669819614051  0.7528608185906848  0.7503259431121907
