Ti V  Cr W 
 1.0000000000000000
    15.3901465190355609   -0.0011250204104957   -0.0011259532101999
    -0.0011247543542261   15.3962745551000300   -0.0010074302771283
    -0.0011269524369024   -0.0010081141208892   15.3968520262370543
 Ti  V   Cr  W  
  15 104   2   3
Direct
  0.9994914410872311  0.0038890012182971  0.9974813152828164
  0.9969962036846550  0.0004213637246713  0.2100704052880988
  0.9964722272303022  0.6001471058482277  0.5989958229222926
  0.2045311847583564  0.1987444754464864  0.7942321804847735
  0.2075124592017765  0.5989849629526186  0.5962364497596816
  0.4138665992417492  0.5990945214424627  0.6019668662589880
  0.6040203707856749  0.0021545046874485  0.5973091391374981
  0.5955359674621322  0.3955103354733955  0.2064799545875324
  0.5984938161849155  0.3955334066864356  0.7958228809606084
  0.5968307379215112  0.6048659508313987  0.7909690464783962
  0.6070873297289365  0.7940229523997411  0.5960123607657418
  0.7929362617599236  0.0002578604903041  0.4049579102791789
  0.7989768798976821  0.2010968556878154  0.4015560219979395
  0.7973738129570206  0.4073131975405722  0.4064091580438506
  0.7915094223245798  0.7953070666175658  0.4076866287150446
  0.0012534615455870  0.0003957794908174  0.4034667998849883
  0.0015161285116396  0.9996299142441458  0.6001139953171858
  0.0003711411277476  0.0003298661064624  0.7987207327922548
  0.9973264730225324  0.2009352085266976  0.1968166180305601
  0.0001478503342625  0.1999454377862938  0.3993734148448985
  0.9999219414086024  0.1986704107345623  0.6010676554586106
  0.9977914547415538  0.1989400069301446  0.8023369301868403
  0.0004299628520509  0.3957948081478144  0.9994884929037056
  0.9990492136385980  0.3997907344142329  0.2019124190099235
  0.0027515107769140  0.3989033446600831  0.4025399559592563
  0.0004445345755291  0.3964995655181275  0.6010053609821189
  0.0012227508641687  0.4001031482257729  0.7998022305445570
  0.9952768302286180  0.6006101568868187  0.2022734807664402
  0.0000763150382829  0.5995489753475168  0.3988175798800013
  0.0005654662453967  0.6000767497996664  0.7995644109040131
  0.0001693621336407  0.6959761033950560  0.9991139044725664
  0.9983274093744524  0.7991632027128405  0.2049170882384918
  0.0017491565757803  0.7997817900682237  0.4072463342856520
  0.0011262094858677  0.7987414088330688  0.7960792914625828
  0.2014528767938586  0.9994288901784409  0.0005499774467593
  0.2021164368539883  0.9994392166064281  0.2017974771790803
  0.2019285450334070  0.9998333000574052  0.4007475812024992
  0.2014806547732444  0.0012147352649146  0.6000862417019780
  0.2022802280479620  0.9967524567831849  0.7989050764908512
  0.1970394869044014  0.1999583965420929  0.0020972830809978
  0.1993782984942377  0.1999320519059655  0.2004712801390530
  0.1998078249077167  0.1997723780686389  0.3987725026221590
  0.1999740954572482  0.1994255334219964  0.5971459818295386
  0.1993486745657390  0.4005495285214828  0.0002441704155840
  0.1992890194711882  0.4007108509646968  0.2014702369401248
  0.2000833229346205  0.3999586306393861  0.4008778916012956
  0.2014763878172268  0.3988575462722538  0.6005624013589320
  0.1996098820309425  0.4031988860265114  0.7996937462778397
  0.2002308994074776  0.6004256797871333  0.0020439132090979
  0.1971940424133461  0.5999599402578744  0.1987599910132218
  0.2020302640152346  0.5997212433421588  0.3966495213210549
  0.1988126040094626  0.7995823143203362  0.0003050831918283
  0.1976907854854468  0.7997862193976853  0.1996947298181078
  0.2001520579877578  0.7995704762328495  0.4002470221960345
  0.1976721803906314  0.8002082148867772  0.6002667327132023
  0.1993908714990994  0.7989610294124169  0.8012192364827422
  0.4004895292310319  0.0006361412624638  0.9995606315516109
  0.4008461890928799  0.9994757412969754  0.2002320720222723
  0.3996464356225447  0.9999243556064131  0.4011512522328535
  0.4004180603117090  0.9996263349087180  0.6001532948331398
  0.4007198641829341  0.9988075328987539  0.7997460979059979
  0.3997758056671938  0.2002116832508085  0.9998814734400360
  0.4010841823806265  0.1999059145312285  0.1997994517739568
  0.3998306342017969  0.1996668176318565  0.4000325197286125
  0.4016862333875940  0.1993935956739435  0.5999054887947570
  0.4032373410424364  0.1990536835965936  0.7999059391012371
  0.3990617215937468  0.3992524637162440  0.9987748460869833
  0.3976714457691543  0.3994652516856182  0.2001354791388282
  0.3978406214910957  0.3998272561521212  0.4019798792681616
  0.4013387438566106  0.3974515029718006  0.6015648001867420
  0.3965633402057122  0.3989934900012964  0.7993939656730655
  0.4009874213073714  0.5986773063154376  0.0007087601581217
  0.4025954718095806  0.5997627891683706  0.1996824911615347
  0.4021344464909286  0.5995718931687630  0.3976262597950586
  0.3974258455195689  0.5997512420592112  0.8018362322602525
  0.3998085874805979  0.7993172334646714  0.9988654479006326
  0.4000017344641987  0.7994190725419622  0.1999289960721224
  0.3981042969764930  0.7993555180370415  0.4010323516571829
  0.3983080467479790  0.8011069807062016  0.6003376928588372
  0.3991777889927745  0.7992975863324142  0.7985828291146491
  0.5994141134415834  0.0008484633899537  0.0000899307108382
  0.6003806570771886  0.9995553590304008  0.1999718343928959
  0.5954431527420297  0.9998763284935288  0.3974030740068872
  0.5995663256126549  0.9985353808893178  0.7997360530707928
  0.6014286001531586  0.1996462531655389  0.9994960925685685
  0.6022850578119519  0.1976361388491496  0.1994596555699451
  0.5984945780134151  0.2005774536631001  0.3987889681662419
  0.6018681531803978  0.2014863369622676  0.5992362727551450
  0.6008158978708016  0.1967879738320044  0.7991443955916965
  0.5987978276348972  0.3986387016587165  0.9977451269450263
  0.5954431252096839  0.3996003883278886  0.4030330189541750
  0.6011992562785676  0.3982771543573151  0.5969797287511175
  0.5995396100004891  0.5991979558979937  0.9996022805304792
  0.6049540337120939  0.6019868566242371  0.1994312622667328
  0.5995990109067266  0.5992059125865294  0.3972258936650673
  0.6065026920741817  0.5959115636083280  0.5944499029173179
  0.5991209773794903  0.8011226575141916  0.9985432557925736
  0.6001940777156707  0.8012142113263125  0.2002196543098142
  0.5950434964121338  0.8002404551570617  0.3984241251127674
  0.6003508217689594  0.8017690148455376  0.7987760385211354
  0.7976742098917798  0.9989468554173785  0.9996461427324196
  0.7973815703754387  0.9995376403256111  0.1996484682967119
  0.8035975474327658  0.9998890792051902  0.6034742454817571
  0.7979036281627807  0.9984743634420602  0.7996937077262641
  0.8025277806218939  0.2002145190214809  0.9996726418752047
  0.8011537296589292  0.1999244018762350  0.6026917111226213
  0.7988167561424455  0.1993924233701598  0.8004912496806657
  0.7990067384553728  0.4008349402918145  0.9991707753873199
  0.8002179402652833  0.4033511575901864  0.1991598633216127
  0.8002294803526584  0.3999197968512078  0.6042814292147078
  0.8009009043434629  0.4012589761467555  0.8002917882707149
  0.7989062021515574  0.6001096476165908  0.0027198934872652
  0.7986708234935181  0.6003755390328906  0.3948055443407400
  0.7989435132907781  0.5996876554732007  0.5989419433896306
  0.8018261729126449  0.6001211336940278  0.8025757274898984
  0.7998678225869024  0.7996275500860198  0.9991147369214406
  0.8005371618856203  0.7965561545492020  0.1978926882071118
  0.8085115256257649  0.7993040991359651  0.6043256012640800
  0.8011702542785097  0.7995628568459306  0.8024163370151438
  0.1994091602154413  0.6005732570813362  0.8044887556281500
  0.7994701222839854  0.2016005271923462  0.1963218052651908
  0.0000660649794266  0.2021913513883413  0.9987752207966847
  0.0026301075079396  0.8046910413035302  0.6022045031352858
  0.8004011805765929  0.5997950615885906  0.1977049782977132
