Zr Ti V  Cr W 
 1.0000000000000000
    14.9295970875328319   -0.0579205173356371   -0.1168567097762796
    -0.0577481194497152   14.9295375314715013   -0.0207892862030969
    -0.1172507061835388   -0.0209773452344547   14.9305611757679557
 Zr  Ti  V   Cr  W  
   2  10  99  11   2
Selective dynamics
Cartesian
  0.1382628554021401 12.2465685712648007  6.1466694901642294   T   T   T
  5.6231906061009225  5.7104027991633322  5.6482434369030852   T   T   T
  0.8642537766541816  0.7596365694091269  0.1841794853294474   T   T   T
 -0.3734661772372058  8.6576823254385857 -0.1399069377387654   T   T   T
  2.7419226870931417  6.2727813113296147  8.6221022101552229   T   T   T
  6.3952181431311148  0.1103624446682032 11.9752692172213102   T   T   T
  5.5960994019740244  3.3571158568988140 12.3512670447976944   T   T   T
  7.6399134613242312 -0.4294820842192838  9.2437512132296700   T   T   T
  9.2182915188644472  2.9378722067821634 11.4055498934759214   T   T   T
  8.6261039704166169  8.7343670326182252  0.4526525497022953   T   T   T
  9.2206635036960183  8.9237635322395175 11.6365680648723870   T   T   T
 11.0342549687677867  6.2153862306389076 11.3194477201391717   T   T   T
  0.1951894174812054 -0.3749781510302005  3.1413908035066633   T   T   T
  0.1091497380441753  0.5512414728161734  5.7979294366058509   T   T   T
  0.7246666374793116 -0.5046049387769409  8.4387897270022876   T   T   T
 -0.8822574918138433 -0.5004771593372438 12.5500067151652175   T   T   T
 -0.1515995846768846  3.4083528741273028  1.2499539219949476   T   T   T
  0.4627821234752850  3.8587697257861109  3.5567973132218071   T   T   T
 -0.7748063099864240  2.9126576346663868  6.2137864263225850   T   T   T
  0.4416065310055734  3.3605532803978417  8.3237125553256490   T   T   T
 -0.0424583496627398  2.3816995838862844 11.6440643777911585   T   T   T
 -0.8793482907274044  6.9325108114366030  2.2503272619368642   T   T   T
  0.7451831195861462  6.8714864844932917  6.1799211875340037   T   T   T
 -0.8574335276276479  5.9937398191697859 10.0002586081664475   T   T   T
 -0.4393879534925665  6.3250241228926161 12.7925046880178925   T   T   T
  0.6804872940972102 10.2461601691935744  1.5834352886169649   T   T   T
 -0.8196921146485379  8.8305645856537716  6.0234484631273855   T   T   T
  1.2672949990565523  8.9447154599821346  9.1826663390827576   T   T   T
 -0.1198783197886600  8.9457447197754192 11.3055280769571755   T   T   T
  0.1179706948151362 11.8622520246333760  9.5287957249028121   T   T   T
  0.1038085553824520 12.0609810288139823 12.2059781701965768   T   T   T
  3.9446244319651247 -0.8857101250697992 -0.4924353545596248   T   T   T
  3.4109456452223039 -0.2778833139285713  2.1018088068282159   T   T   T
  2.6346890533144594 -0.2587323610002622  6.1372069506121685   T   T   T
  3.1431742594504315  0.2044566308336707  9.5463521157304729   T   T   T
  1.7950074806860257 -0.9642609396936324 12.4452087187399663   T   T   T
  2.8412461541683594  4.0119996097163666 -0.0173928262786477   T   T   T
  3.5536989149306351  2.3902698792032839  2.3477603637270672   T   T   T
  2.0377572633734364  2.6342751540110250 10.0545423882749443   T   T   T
  2.2472895520675182  2.5711690393844915 12.4440934548961515   T   T   T
  3.0671902736062906  6.7315495776621779  0.1095461933404351   T   T   T
  2.7531407087837989  7.0032712385394937  3.6647284250784522   T   T   T
  2.6264543456473306  4.8896318014325368  5.4764248661433612   T   T   T
  2.1197076429288284  5.5285580612427596 12.4508118177037499   T   T   T
  2.9044184601875558  9.3246729078420092  0.3930540690358298   T   T   T
  3.5664181051380210  9.8488659959864329  3.0539731005798765   T   T   T
  2.0573717195090380  9.6826984694704841  6.2166848419694123   T   T   T
  3.5150046461896989  9.0735823056384373  9.5783516125434947   T   T   T
  2.9002087454388219  7.8350914356509058 12.6279427537291866   T   T   T
  2.0759400252400111 11.8448397765943927 -0.6450234712577144   T   T   T
  2.3042880952526330 11.9309623498102599  4.0365120003024897   T   T   T
  2.4682595419170474 11.9527378966439173  8.8114085846556733   T   T   T
  3.9356167786008300 11.9194385625311892 12.2498168132710745   T   T   T
  6.5990041509669686  0.1413236265177885 -0.1336750710266336   T   T   T
  6.1326009479509906 -0.8513704578220391  2.7578473194750557   T   T   T
  5.8169402927857172 -1.5974486299553279  5.8538800598223606   T   T   T
  4.8538127706518317 -0.2235472599516410  7.7535957373502074   T   T   T
  5.7680169219100890  2.2490509801711704  0.9893769649848245   T   T   T
  5.4102088687014716  2.3648941718907137  4.8545642009384267   T   T   T
  5.7994573930865005  2.7334369638799809  7.7644642285104695   T   T   T
  6.4949019167771533  6.1453056801117123 -0.7260821107141064   T   T   T
  6.9743476595686484  6.2827606333927237  2.7514996080343197   T   T   T
  5.4752067781401044  4.8977962374498452  9.1467067877981787   T   T   T
  4.7724364024130033  6.4497407098841695 11.1208822706748602   T   T   T
  5.8657885807443915  8.4283993134483488  0.8835293680040937   T   T   T
  5.9996668772873178  8.4670468847845619  3.4451615777234492   T   T   T
  4.6582901561721224  9.1446335837292896  5.5147682108530258   T   T   T
  6.1568461595256112  8.5985973179610848  8.1127237271298149   T   T   T
  6.1482086725035980  8.8208346896313170 12.7796148795821569   T   T   T
  6.5037158517467031 11.0612105831080054  0.3295011430714957   T   T   T
  4.6722066705547949 12.1219835087361698  3.5577253511057068   T   T   T
  5.7795183450298628 12.0515243687786953  8.5098343707661446   T   T   T
  6.7276961007203537 11.1272852792138135 11.3750484174958473   T   T   T
  8.9813353428260303  0.4289880050514317 -1.0154288548480479   T   T   T
  9.1326912989936115  0.1144669103792587  5.2962483695668459   T   T   T
  9.5211407858870718  0.0756384012429722 11.6710682665071630   T   T   T
  9.5662498387886199  3.4307555503574463  0.1021571890077360   T   T   T
  8.3518222028435645  2.6036630798892468  2.2606994605028277   T   T   T
  9.0529375464162865  4.0497172153038390  5.6193275018906670   T   T   T
  9.3810956350692472  3.8816788777050397  8.6175755136302197   T   T   T
 10.1258046816576321  5.6327225206638207 -0.9414740058118565   T   T   T
  9.4780020174773760  6.1827478198375410  2.6314273730914359   T   T   T
  8.5007653269129033  6.4785713040307273  5.6837644457996186   T   T   T
  7.9190279938153578  6.0435175316302034  8.3958036401064575   T   T   T
  7.9911192883992559  5.5949031525585333 12.3236767322265521   T   T   T
  9.9766118438282234  9.5388204509136632  3.9457204392451550   T   T   T
  9.1398314452344458 12.1645329601676355  0.0867910838650369   T   T   T
  8.7054948516729382 11.7485202171829357  2.7755838365162013   T   T   T
  8.2957491921976825 11.1902528565380024  5.3938242593158821   T   T   T
  8.4258696783102192 10.8988053660505155  8.4759653548227067   T   T   T
  8.8750029008029170 12.3865075335672028 12.0926871692070517   T   T   T
 12.0217048899902075  0.2875783737261331  0.8531218927976472   T   T   T
 11.0925352848869316 -0.2367724863422935  3.4351179849987865   T   T   T
 12.2883450479851923 -0.5279857617710085  5.6334065481735802   T   T   T
 11.8839900489140238  0.1623010475902675  8.1271054044313740   T   T   T
 12.1171582643050488 -0.3507848159573420 10.4984423776126548   T   T   T
 12.1507975383075610  3.4479295640988616  3.0851350215101161   T   T   T
 11.5781966970409353  3.1822684822260028  9.1240264347636746   T   T   T
 12.9266145427170702  3.1478610670029852 13.0901500564135898   T   T   T
 12.7979429924595856  5.9669554811891379 -0.2924302382370893   T   T   T
 11.3416632635271544  5.7872149310297543  5.7777480846218499   T   T   T
 12.2627704585018940  6.0059179599063803  7.9305539522240203   T   T   T
 11.1773315370685307 10.0356090276113115 -0.0964911702026605   T   T   T
 11.4175447309052398  8.4401280672393497  2.1973035674295232   T   T   T
 12.2177408379654580  9.9033022662368015  6.1027939831907227   T   T   T
 11.1365873452323196  8.2845250525809515  8.8890673654907921   T   T   T
 12.3418812522099621  9.6409361622432073 11.3933277851346055   T   T   T
 11.6874924667918716 12.0266396730725020 -1.3162684300709850   T   T   T
 12.5448912560165393 12.2646045446868630  3.1500036917231116   T   T   T
 10.9745531067956037 11.9965445654066052  6.0613601217058930   T   T   T
 12.4651636080948851 11.3763866316251558  8.7456556273109793   T   T   T
  0.2954010260320361 11.7112380808434651  2.6619678033540888   T   T   T
  3.0439666042306874  3.2318351005117272  4.2539781024788068   T   T   T
  6.0749669587375674  3.9049576024341603  2.7447883052431434   T   T   T
  5.9496826420639568 10.8985184108180189  6.4217244231187385   T   T   T
  8.7738248975190789 -0.5477525137771040  2.7242926027170182   T   T   T
  9.0117186167442096  8.4404775548289983  6.5730474059451112   T   T   T
  8.6777055246279318  8.2473381464825284  8.9873088905246483   T   T   T
 11.9355349989369621  3.0392703784068740  0.7478817639078128   T   T   T
 11.4764721566512513  3.2025167104722816  5.4795831546089406   T   T   T
 12.0188467161277863  5.9739518992943568  2.7398027480320324   T   T   T
 11.1610139689307388 12.0473092174343748 11.1273021815564039   T   T   T
  0.6976270195540237  5.8205965251931193  0.3204591855763967   T   T   T
  3.5405016119402881 12.1271038619167459  6.4042558057195293   T   T   T
