Zr Ti V  Cr W 
 1.0000000000000000
    15.5025026574509024   -0.0024585053725710   -0.0078977226531806
    -0.0024585746168323   15.4991595138324225    0.0048509469551159
    -0.0078953928296063    0.0048487060596840   15.5054089884347679
 Zr  Ti  V   Cr  W  
   4   2 110   6   2
Direct
  0.2098063909354490  0.5986600143904653  0.2136943479241957
  0.3983523525524646  0.4075943611576420  0.5896866540581843
  0.3894568664850181  0.5921468711318043  0.3999497112742812
  0.8022766144923615  0.4002097069393560  0.9960986174744870
  0.1971710778759984  0.9996071117138530  0.0033345229848297
  0.1822858764045498  0.6076552762790125  0.4218461825799015
  0.9978524617353786  0.9998999378377164  0.0006514221649447
  0.9996357598478774  0.0002040868593338  0.2000154717230753
  0.9985749786298791  0.9996120655887110  0.4001160260896109
  0.9995528724977923  0.0000930838828368  0.5993329776121554
  0.9997625174021291  0.9965928457876690  0.8001398286106951
  0.0009575137861224  0.1995024223583022  0.0001973128762513
  0.0012242765861645  0.1996872795072585  0.1996026310461954
  0.9995291425290865  0.1996419238846342  0.3988795459892828
  0.9979183942737617  0.2018748020955363  0.6001287651083261
  0.0002885611699659  0.1985428886513108  0.8006464464798749
  0.0060182464048344  0.4004495919812009  0.0004805435356128
  0.0028608248635853  0.3998108330329296  0.2004440095332359
  0.9971758939762718  0.3999431019267771  0.4004999536615078
  0.0006055733204069  0.4007546283535409  0.6001443573428886
  0.0007099752772868  0.4013716036553364  0.7984183896196433
  0.0015099922260851  0.6003189053117299  0.0016860358560833
  0.9987404622215380  0.6001410565649482  0.2005745187227555
  0.9947642151327457  0.5987712723207177  0.6016084957236723
  0.9996923434703340  0.6043896373492731  0.8019949900538367
  0.0004848328368290  0.7997316582004972  0.9970350037922548
  0.0008286635395853  0.7995142952228766  0.1992176850512216
  0.9986208308977972  0.7996875099777784  0.4002008605397452
  0.9988765787523566  0.8008620144087609  0.6043094217115156
  0.1998451574418871  0.0000823236122443  0.2033481099644736
  0.1980166791675647  0.0004916351701127  0.4020667722446061
  0.1994659441369791  0.0009780578429069  0.6004517448458596
  0.2004210037480970  0.0006739725661333  0.7984169513840796
  0.2002787846358829  0.2019309247502566  0.9997405327964813
  0.2043638654840069  0.1988241694223913  0.2003315471180676
  0.1977070652264994  0.1994406821248077  0.4012082847181402
  0.1999139248680882  0.2001544142653134  0.6001945480571760
  0.1997945184238240  0.1999222063322238  0.8007413694484636
  0.2015533794034901  0.4006850647102105  0.0003271566591634
  0.2008170421727377  0.3955208480608770  0.2000244544828956
  0.1980030532367992  0.3986979183840581  0.4001595078406277
  0.1952652562817892  0.4008565748169771  0.6001621100466642
  0.2009781018484378  0.3998662328066804  0.8002433937521188
  0.2012878619736920  0.5991598297159967  0.0017918348549913
  0.1982721927602340  0.6013571394620242  0.6099348340338401
  0.1994328324935919  0.5994604622130733  0.8034051045841847
  0.2001844163605751  0.7976889068392163  0.0018805364382791
  0.2000258572170971  0.8041879672555473  0.2009650205055739
  0.1976707114951567  0.8033360849298833  0.4016769311684102
  0.1987266559746595  0.8002148038812148  0.6001763667097111
  0.1960495395583453  0.8014864719975535  0.8008656697355283
  0.4015130080969576  0.9988316300777039  0.9979358991420083
  0.4005498509071652  0.0024619930613634  0.1985604990314484
  0.3991043642878890  0.9984984204636513  0.3996159152521649
  0.3993859061321675  0.0006069223436288  0.5997259266833297
  0.3998280142470945  0.1984168376677564  0.0024088083554871
  0.3992637791727145  0.1962416656516881  0.3946445416855742
  0.3988901354219724  0.1981284185377292  0.5987717811683564
  0.4000205172700472  0.2001609681067851  0.7999690942085272
  0.4024144794818112  0.3927660980897031  0.1946028992649563
  0.3993526454657162  0.3909858413722899  0.3885630191612625
  0.3990237800493642  0.3997473339356438  0.8004974033704112
  0.4004256976646361  0.5998197741508201  0.9988377539932044
  0.4103025000936842  0.5992560591966278  0.1922752850500642
  0.4001141690604417  0.6097996471503052  0.6077925793368424
  0.4003222596077415  0.6016607275860432  0.8027026665568959
  0.3987735164733321  0.8009490747581747  0.9992774197283757
  0.4004241542682815  0.8013223036107826  0.1983257331217781
  0.3978359483201682  0.8019905418561698  0.3976242158062431
  0.3982178188089470  0.8029027816585215  0.5997378589190886
  0.3974388841451846  0.8016121627860282  0.8007898150313952
  0.5999014850381563  0.9992467433602494  0.9989686487091803
  0.6008419599747808  0.9986326105096063  0.1994141327522308
  0.5994747167920540  0.9995109746326366  0.3996040257844957
  0.5986047254791469  0.9995312482112375  0.5992938841762465
  0.6004286687985170  0.2001573004809911  0.9989556933310099
  0.5974564344679995  0.1988270136476551  0.1985822434170637
  0.6005542743009787  0.1995042677941430  0.3987203255973948
  0.5996733579914543  0.2014886733575173  0.5990248806228867
  0.5992342242052969  0.2003516764911240  0.7999404240743269
  0.5975352644000715  0.4003049800770678  0.9982638698619887
  0.6015017653001710  0.3992499683856009  0.3986347026348149
  0.6007786921595679  0.4011158665133193  0.5978533203398598
  0.5996180566971395  0.4003909140940223  0.7957939415973179
  0.6001143043039306  0.5998171550610013  0.9990906338685394
  0.6025705188214293  0.5990493386026753  0.1998858096591395
  0.6000396209772922  0.5990620116437518  0.3994869098089688
  0.6003353660106931  0.6010257828683578  0.6001368068737933
  0.6001398698390434  0.6006716361086948  0.8004290224056302
  0.5993736667689615  0.7998766610568511  0.9991942082777362
  0.5998153058273011  0.8002225963527502  0.1992465311186779
  0.5975412514945851  0.7980783495385654  0.3991655083493760
  0.5981116044516426  0.8012471431178402  0.5999034357422698
  0.5997850464868862  0.8004661034883216  0.7996989851070494
  0.7990389602896067  0.0000674848786058  0.0004004753894256
  0.7993664736942747  0.0001348636288321  0.2000641245391548
  0.7992896112439031  0.9992907706586179  0.3988980608236776
  0.7984724045220289  0.0006986113430132  0.5993596999534947
  0.7990662706658099  0.0001570777732644  0.7995739293490772
  0.7998433618999770  0.1956054561754628  0.0001963026383089
  0.7995139603899021  0.2003542534525901  0.4003737255336290
  0.7991836012807302  0.1967739215922298  0.5993738887481936
  0.8003363589858515  0.1991180804213846  0.7974054742664826
  0.8012805010060289  0.3992781741969126  0.2019779357686189
  0.7992359371559663  0.3981768516837487  0.3951999298532837
  0.7973619141262863  0.6037551014365949  0.6003935138891359
  0.8010225861347001  0.4001081645735916  0.7942785105446625
  0.7998750087118224  0.6048244800575836  0.0011050438101925
  0.8000176320824585  0.6003806080879054  0.2001748232612948
  0.7982970895379021  0.5978983873481855  0.4023449523963958
  0.7996424290878580  0.6002571320986577  0.7984007361559380
  0.7994344829989950  0.8013957256901150  0.0004163336948726
  0.8004766270761712  0.7999915008320256  0.2005053705279346
  0.7992503184249972  0.8006594802822646  0.3992939423390904
  0.7981595120239455  0.8007920901977301  0.5984972983498670
  0.8029522734389772  0.8020900446254713  0.8003133635817492
  0.9923048368466850  0.6003397233340841  0.4016509977308397
  0.4001939614419879  0.0004026143184041  0.7993814242323688
  0.4004567410201715  0.3994062809042758  0.9982461460562370
  0.5992882512436912  0.0004410050665113  0.7990904965681974
  0.6014616400038953  0.3987324095224383  0.1981275219584902
  0.7997355052170655  0.1991468687072500  0.1998210388585299
  0.9995690401855127  0.7994506234602063  0.8003747149978386
  0.4002608816257682  0.1964661774818322  0.1988388253683659
