Zr V  Cr W 
 1.0000000000000000
    15.4863295998759050    0.0024137293282322    0.0105674120120943
     0.0024156779473548   15.5040449564505511   -0.0174543962439357
     0.0105707746262879   -0.0174578174046017   15.4782021514271442
 Zr  V   Cr  W  
  10 107   6   1
Direct
  0.0000792030180123  0.9688813330968870  0.7594876211660763
  0.9995840596489933  0.2030275068657277  0.6079386774171389
  0.0000573381912694  0.4323650299756175  0.0412035884172970
  0.0031725488587704  0.5780835024677133  0.2213104387634824
  0.9610607392609926  0.7916635518251651  0.1933432337723174
  0.0026897500355054  0.7981753903836595  0.5987642066697709
  0.1962408524109976  0.5335379542842541  0.5986010523989624
  0.3588093886342735  0.8032751895059761  0.1989436740213421
  0.8375238079151781  0.4312741510736535  0.3973553571211003
  0.7505065483339672  0.7914859224070403  0.1979225697675259
  0.0009825999709432  0.0062817063150409  0.9986492908129514
  0.0039251526161419  0.9984864541419304  0.3928647332137030
  0.0012682469139528  0.0043504352956291  0.5725185875141253
  0.0013176436253941  0.1990285652153493  0.2022792583837718
  0.0012610760474432  0.1968538349949748  0.3995018582931553
  0.0004011751797675  0.2043851810688447  0.8099214901689490
  0.9998823279045834  0.3866682734983068  0.2345248225692574
  0.0258983598920701  0.3896312140704699  0.4191206439531260
  0.9901139684113683  0.4055469523928480  0.6016660204304708
  0.0010331794899903  0.3971854446514373  0.8005217120885898
  0.0007666143460987  0.6223925915277104  0.0124298287380440
  0.0067112947288108  0.6103484643131776  0.4190406780287115
  0.9947620668370923  0.5977908889571683  0.6095071465539652
  0.9989304922760652  0.5931884997624726  0.8093879641713747
  0.0013556744775813  0.8120022006746735  0.9927011015483579
  0.0022784184764852  0.8019821129019609  0.3951869409000683
  0.0001663947855674  0.7820106320981569  0.8042155121720208
  0.1997669664886228  0.0022672518380287  0.9970232245317526
  0.2003551681715417  0.0017836224372074  0.1986688182891547
  0.2024865923282096  0.9992683009691792  0.3970992408673172
  0.2010970894295871  0.9999317355261687  0.5974189932105154
  0.2028020830651797  0.0004521759005155  0.7988337387313243
  0.2017882428377407  0.2007687700946974  0.0008550447523613
  0.2014531248375581  0.2000860168207422  0.1990436675584011
  0.2045159060457470  0.1989640617158283  0.3994283647370954
  0.2010427787538658  0.2002428100917097  0.8005084962329514
  0.2029951094991022  0.4007272414724797  0.0005887976121315
  0.1985296985484988  0.3992832325871007  0.1994307092017691
  0.2082325493800937  0.4027515947796489  0.3963234129064708
  0.1990624919136341  0.3998250732427644  0.8043094507806973
  0.2012705771690121  0.6021579024459712  0.0011439190239795
  0.2069021942180938  0.6006895599273507  0.1989127285734394
  0.2009823049597083  0.6010437647344498  0.3938735046615107
  0.1997094273070449  0.5990456435114923  0.8046819190415584
  0.1994201898697799  0.8026291893877661  0.9992503292933183
  0.1717759085748817  0.7969674282865014  0.1968938432429770
  0.1996570821160204  0.7997282389584781  0.3977688635662520
  0.2061729858852737  0.7977773323215275  0.5980619509074135
  0.1997652849645619  0.7987340404812668  0.7980706427774198
  0.4015369155832723  0.0005219966044541  0.9982751998701636
  0.4024291958688492  0.0038913254678818  0.1979705195482986
  0.4006292021667370  0.9990487870571647  0.3986570809208700
  0.4022086962740349  0.0003605060645708  0.5983186674767433
  0.4002375698698774  0.9991539816192944  0.7970579241757145
  0.4013122754779631  0.2000175884830570  0.9986024944396146
  0.4011475208906009  0.2006125256590798  0.1996261379061387
  0.4018598375793740  0.1987404425893585  0.3995022312729947
  0.4024154492692695  0.2003475518431804  0.5988456524152581
  0.4005797481333312  0.4001292012423748  0.9997447204520293
  0.4004907897681247  0.3977056269032306  0.1992780137506703
  0.4021982047441872  0.3983263442039660  0.4007071614173704
  0.4021663287118410  0.3996924413207534  0.6000671984648005
  0.3994561979920403  0.3993677518530754  0.7982860084307284
  0.4024176549609342  0.6006519455501734  0.9995717090889928
  0.4043402113129991  0.5937606502591405  0.2003500447199216
  0.4014428584169934  0.6012644621171616  0.4005855123555959
  0.4052990519726938  0.5989646073313922  0.5990570792562774
  0.4003840882682393  0.6003833811233311  0.7999699154969215
  0.3993863815366085  0.8009329580828923  0.9947336068949442
  0.4007901353883442  0.7998819400708737  0.4025631615652904
  0.4004062682620654  0.7996303043001831  0.6002264223582271
  0.4000390025155012  0.7988084678818597  0.7986862389994104
  0.6007975626889525  0.9992793824888834  0.9985809358866651
  0.6011054068982883  0.9964520574079497  0.1986317550690967
  0.6010139337914103  0.9978020791818074  0.3977274650112441
  0.6008998798789242  0.9991531810224669  0.5970196274957180
  0.6005778374535351  0.9979342769312035  0.7977591246334899
  0.5995799224588427  0.1985750761989275  0.9997129642064327
  0.6016997454893348  0.2002899830584053  0.1987025947585715
  0.6006706657304293  0.1984962014543182  0.5992522360729253
  0.6004037971708590  0.1995678294913622  0.7998369364096046
  0.6004547952521198  0.3988403619359070  0.9989231650336797
  0.6027187788909130  0.4002145261165764  0.1995655768764424
  0.6033285936182445  0.3990128390730482  0.3980503298622016
  0.6012343034389617  0.3996256342325487  0.5979969314696609
  0.5993812458208467  0.3999448135688854  0.7995991257904708
  0.6023678926881070  0.5999752530680105  0.0038080200129820
  0.6043616374391872  0.5993031121603487  0.3955451866393864
  0.6018629343158625  0.6000045918815089  0.5969305472288020
  0.6018532206851908  0.5993751644241510  0.8017428299659068
  0.6008158071287401  0.8004358165103820  0.9980187722228833
  0.5646142432135046  0.7904454156302684  0.1988104910552914
  0.5997242593449108  0.7998762839096465  0.3983124258942823
  0.6008490192709055  0.7995172365256251  0.5986058098916687
  0.5995961897847352  0.7981155920690316  0.7985416504026629
  0.8015103889258709  0.0013868718560184  0.9971129659867226
  0.8016885309614908  0.9974884514786944  0.1981676996197287
  0.8002512021368030  0.0008640930351080  0.3982080246491314
  0.8028154826738287  0.0004279628645010  0.5989077041563841
  0.7979976909967933  0.0001532729968061  0.7988371127615196
  0.7996927605937532  0.2002008147315073  0.9996031718295847
  0.7997036467721232  0.1993626130463799  0.1989429528502224
  0.8000101466043641  0.1964909311073161  0.3986137453852298
  0.7949357648210967  0.2012836530968928  0.5996477861451623
  0.8005363577636215  0.1991839521732809  0.8012647275375866
  0.8044713777536876  0.3976346002401386  0.1945269662625690
  0.7964244304670985  0.4003618148052520  0.6010852725062646
  0.7990833588695412  0.4000892865817708  0.8010547789704234
  0.8031827276810566  0.6008161259629479  0.0003701977647700
  0.7938475856367437  0.5945497677889404  0.2071981880565975
  0.8029302784142476  0.6181915851434844  0.4033942586382631
  0.7984479207501846  0.6005478583377757  0.6002923899969552
  0.8005633322387581  0.5990044205924143  0.8026420850713011
  0.8022625395165499  0.8024160270379379  0.9969835458559730
  0.8055185073994895  0.8067931896710100  0.4006722330968428
  0.7955707996840774  0.8006121744291591  0.6006431866622797
  0.8000894759215068  0.7988900218932905  0.7987748799856937
  0.0003160224157181  0.0027825156409240  0.1967588201479655
  0.0007640930221422  0.2009251795747352  0.0038937643421644
  0.2056327148643345  0.2034291411677418  0.6000501073255680
  0.4011414905602941  0.1996780628634585  0.7991411365978741
  0.6006363685988800  0.1986669263508818  0.3982685806064936
  0.7979214642461310  0.3995536520107122  0.9982750387105501
  0.6016972557576921  0.5975853775468043  0.1989930606490955
