Zr Ti V  W 
 1.0000000000000000
    15.3687751858679373   -0.0034047973547748   -0.0004629384474201
    -0.0034058626285429   15.3762737440467472   -0.0028872120149207
    -0.0004620936853672   -0.0028876454386987   15.3933118945991367
 Zr  Ti  V   W  
   2   2 106  14
Direct
  0.8015254230907946  0.9926644093772330  0.7959353811728803
  0.8141910355557930  0.3851602982656294  0.0150457353242692
  0.1964626322706054  0.4043988859529269  0.3938026104524188
  0.1985670163294123  0.7966115038901694  0.4037347589485476
  0.0004640238728887  0.0023126900287309  0.0028628252932050
  0.9999350943744183  0.0010542661055638  0.2004825258269291
  0.9988785480518568  0.9991435086547173  0.3978264053618057
  0.0014639843740292  0.0022516348846923  0.5968653196919457
  0.0049137629421996  0.0013058694221362  0.7990569051850123
  0.9963223190794817  0.2020986067984094  0.9989720575574362
  0.0003839539007466  0.1994014103897888  0.2001219674433694
  0.9986380216150059  0.1991307257135861  0.3996751555260032
  0.9999941176419838  0.2003353125806539  0.5994266754309776
  0.9986152333812176  0.1993947099167036  0.7992816613510859
  0.0115863504558204  0.3997500915218645  0.9973657788407532
  0.9949401195833224  0.4005900730867950  0.1983326104973242
  0.9970776862691231  0.3984464034818343  0.4008825755047127
  0.0038386270314368  0.3993488121731106  0.6006665589190602
  0.9969356949544758  0.4016045511336385  0.8011701642703575
  0.9998741653542622  0.6002644239154776  0.0019702915163049
  0.0039018940222728  0.6006371926903136  0.2006539857307442
  0.0014504356264097  0.6024389890621099  0.3990208981322231
  0.9986897916473557  0.5989849088423190  0.5977125659764307
  0.9991127673017617  0.6008287310271450  0.7977190065743330
  0.9996798989477015  0.8013261659265406  0.0325151383426767
  0.9964904171578164  0.8018736883777077  0.4034623402929807
  0.9994630084260860  0.8005149487606347  0.5999012001013198
  0.9997945763906844  0.8007018245775088  0.8003743981937780
  0.1991719451194569  0.0029248095949974  0.0001593560651976
  0.1989879068845766  0.9955908479804502  0.2003125376800394
  0.1993402323657009  0.0012445984028004  0.4001928206704240
  0.1998592332427740  0.0015183794392698  0.5988435865253552
  0.2004846163602330  0.9960198187975092  0.7999080957025321
  0.2007379365772363  0.2037513442572039  0.9995906867992382
  0.1997111325467128  0.2018254443392130  0.1999104445923910
  0.1993415726321131  0.1996548817433491  0.3989508798240279
  0.2026713398353095  0.2059592623741388  0.6005847297391163
  0.1992184016424833  0.1990852539413261  0.8014941493551727
  0.1995006499225798  0.4054530353277531  0.1923568911781946
  0.2000839422086868  0.4035174404588413  0.8023393671839257
  0.1997661680353697  0.5961521988311335  0.0034839441617922
  0.2008067727879981  0.5950990209087244  0.5946378650655260
  0.1993395571596072  0.6047713144602312  0.7994362763096320
  0.1993994592457835  0.7997533102340331  0.9965654313565609
  0.2073462098379940  0.7948750993501096  0.1947728413619136
  0.1997358501619450  0.7986731527112279  0.6059907215211167
  0.3989190448763244  0.0023654420930643  0.9999491246556157
  0.3975929635554604  0.9959984427398617  0.2008178342986484
  0.4031702366188413  0.0005329389564879  0.3993069333518457
  0.3986960053426956  0.0038089670164857  0.5979662770897959
  0.3997909243893481  0.9986986723532821  0.7985442742288454
  0.4027471152079120  0.1983405283892681  0.0005722762325507
  0.3981728112471632  0.1998359675781663  0.2018649588665685
  0.3999373352144410  0.1997436148869240  0.4028148440544106
  0.3990670823413411  0.1975918595736879  0.7954053509327921
  0.3978394695369359  0.3984270546144766  0.9996263855144735
  0.4018254774119271  0.4007984022658594  0.2009252853926705
  0.4022854896872101  0.3989364969149848  0.3989294009096950
  0.3949520953107241  0.3959522507819545  0.5999061988996287
  0.4034981614291932  0.4013922211114722  0.8002574956417130
  0.4002211559274555  0.5992210494425032  0.9986304809981676
  0.3965774914791836  0.6029020021642421  0.2005338301660214
  0.3960972691742733  0.6008144773507391  0.4003053271437421
  0.4020427092341813  0.6006600791245547  0.5967547729440772
  0.3996086521257488  0.6023112655556642  0.7985082887127274
  0.4016047864371745  0.8015951625968837  0.0007891201365924
  0.4012534614449637  0.8019491509901486  0.3954006937587127
  0.3993038904359002  0.8017855745226242  0.5991237274837664
  0.3966697115194353  0.8010601568345294  0.8008652064796293
  0.5996843385050961  0.0063960016635245  0.9999668594629378
  0.5996975664815581  0.9969739332237161  0.2038784658241554
  0.5982240159541091  0.9998663288392309  0.5953190928211923
  0.5961490323984752  0.9990916541177965  0.7983983740545284
  0.5975030636406770  0.1988716656418396  0.1957277968480919
  0.5999939389214236  0.1969097748583192  0.3985937888051013
  0.5951543052177239  0.2016631747758734  0.6009118009305758
  0.5994245143551310  0.2051809727355783  0.8043195525656852
  0.5979218658163545  0.3963303941118321  0.9955522411667806
  0.6021838163318077  0.4029493570715620  0.1990305072352972
  0.5992677602105411  0.3991102978562563  0.4000633492752005
  0.5987910932434745  0.4029762183221419  0.6041490407325646
  0.5992776282632398  0.5970580558375093  0.9992557472228631
  0.5969765658837047  0.6028782330838830  0.2012730433588168
  0.5993186155362776  0.5995749148391578  0.4035476682325301
  0.5990394158517189  0.5972651296738949  0.7948150066297023
  0.5991323794643544  0.8006648382133145  0.0019170764936705
  0.6005189062594591  0.8036013102866020  0.3966500241556382
  0.5982312502648678  0.7962213470655876  0.5994735885428145
  0.6022063213254789  0.7993104203063556  0.8018144521389426
  0.8008755936139734  0.9965153151749234  0.0042824754780189
  0.8012576168727551  0.9966633672278743  0.2009136544622896
  0.7966522120218631  0.0002436404365735  0.3982159065242654
  0.7994873669235583  0.0000716070273330  0.5936597678825959
  0.7937301627767781  0.1881699445301961  0.9990295004428054
  0.7990123872079216  0.2043464977539694  0.1986767399513527
  0.7986854709567335  0.1991942052592501  0.3999170108638581
  0.7987520745447398  0.2006924507039546  0.6000563781585747
  0.7991541449646030  0.2013566884385306  0.8001272172839934
  0.7996178625189962  0.3991844272101596  0.4021316879704528
  0.8007737989015883  0.3993141999915493  0.6004065085911978
  0.7974027011985363  0.4011615532423223  0.8013634295488129
  0.8006499653864869  0.5979801412612528  0.0003929494334185
  0.8009780035304619  0.5978762960005708  0.2007999901431549
  0.8008927020949922  0.6007545495706962  0.3996898607672166
  0.7965102554754929  0.5988229888289679  0.5967006932607670
  0.8004742288087333  0.6003735966619534  0.8001498921283112
  0.7994987521638682  0.7979143843699692  0.9987354531527035
  0.7931168154310235  0.7966943474799508  0.1975973083138914
  0.8008050552616243  0.7992606817885678  0.3978664651274286
  0.7992253421526281  0.7990535247397376  0.6040800270921752
  0.2038381226496455  0.4001413154612085  0.9978578684570714
  0.2003360551095817  0.4010165900030084  0.6080018739744042
  0.2000525347275949  0.5999656859984684  0.2025450029654931
  0.1988664325254429  0.5994958611977121  0.3964681878202099
  0.1989990188656580  0.7989082568438234  0.8008308499590706
  0.3989414761609666  0.1995889314297333  0.5996951512108968
  0.4027181715032654  0.7993891087058129  0.1972012493851573
  0.6009572220567180  0.0002347316906750  0.3995056433016967
  0.5990008268407810  0.2027562007736994  0.0003380464126779
  0.6007973336507594  0.4022778992576362  0.8009787992823905
  0.5975837231228696  0.5992085936979202  0.5979027744453561
  0.5972442715597723  0.7988276116428705  0.1982513580406359
  0.7980358735881189  0.4017428837236978  0.2116371525892507
  0.8004799399618661  0.7931773663381499  0.8010705097077575
