Ti V  Cr W 
 1.0000000000000000
    15.4464656596279237    0.0026393324307650   -0.0051499977500449
     0.0026392792308168   15.4360610524716844    0.0041620633854494
    -0.0051482900175055    0.0041619794273236   15.4439029048304732
 Ti  V   Cr  W  
   3  99  15   7
Direct
  0.9988591047322711  0.0004920407607842  0.1982825888581722
  0.0067640443744060  0.4003277777583285  0.4046573163055222
  0.1997020428639537  0.2024469903350473  0.0015984714780319
  0.9995816706682246  0.0006264053922636  0.4055737963077427
  0.9965718880760215  0.1982128847707986  0.0023216985072418
  0.9989829562641522  0.1988171278414890  0.3988161324705648
  0.9982676667296724  0.1968693399825978  0.5990531998971868
  0.9997167190106692  0.1959387061116422  0.8018279349765531
  0.9993326953976782  0.4003098181147632  0.2014700604387368
  0.0002839900010483  0.3983270509942001  0.6032857389286561
  0.0003084630964865  0.3987846605708627  0.7992343808563420
  0.9992294795332529  0.6005526369355851  0.2017506041054777
  0.9997733969321634  0.6022315433936869  0.4014499886454089
  0.9991414927131291  0.6015558487419855  0.5997812433558052
  0.0003757469006236  0.6008594361150781  0.7992667036344423
  0.9983949900347892  0.7996926086983414  0.0003970271047231
  0.9989749188278803  0.8004190904975431  0.1991988706794984
  0.9997923431611913  0.8006712392904738  0.3993969999509321
  0.9983663922013876  0.8028945951529838  0.5988772739698730
  0.9994936098937039  0.8033866848558252  0.8016678438553293
  0.2039086869512122  0.9988130134328604  0.9990342352145520
  0.2008113882297000  0.0012832079112957  0.1990454392221410
  0.2004833187803794  0.0005048998479702  0.3994956369861285
  0.1989423010614697  0.0002030133048458  0.5990653167378341
  0.1996387239096440  0.0002397923257025  0.8002441772915213
  0.1996611844967564  0.2000238836692912  0.2025035399669114
  0.1992987434426411  0.2006064644967014  0.3986264503208756
  0.2001616903037881  0.2011625576751394  0.5991930265871415
  0.2006777426548811  0.2007141313953064  0.7982389830206350
  0.1995627064256421  0.4003472714713630  0.1955998559774666
  0.2062548479867260  0.4009032303628424  0.3994864790451383
  0.1991781030712642  0.4002404700705475  0.6019202401495152
  0.1999050374698891  0.3992443975348219  0.8048378529649894
  0.1995737678384415  0.5975749601212054  0.0003573782269116
  0.1990130092471923  0.6007966872160256  0.2001898486900482
  0.1993437396266693  0.6006569082184855  0.3993553282785505
  0.1991648038661855  0.5996737492381627  0.6002480787177491
  0.1995842782655117  0.6002959759140041  0.7997445228140280
  0.2003466151162498  0.7996019951371396  0.0004180788613632
  0.2002870019447022  0.7997012496874768  0.1993204698976401
  0.2012299629502499  0.7999081233618671  0.3983831872054888
  0.2010002584030801  0.7991491489293558  0.5986531040876100
  0.2009305406057931  0.7989884148941581  0.8016689007951283
  0.4002430358319443  0.9997079161271852  0.9986699736200801
  0.3993366156982648  0.9998533281269993  0.2002210509604933
  0.3983953212381904  0.0007442155950899  0.5998428307252176
  0.4032997063797746  0.1997141071356051  0.9995095948007725
  0.4027932377047766  0.1988842659301715  0.1999105706218802
  0.3991974126022655  0.2026572642258729  0.4009715838596418
  0.4001155801600107  0.1991214973501474  0.6002235451847384
  0.4006733819395316  0.1999548509821736  0.7997286090376401
  0.3981144406345785  0.4004780944733419  0.9995505672396137
  0.3996598047670797  0.4004366629638024  0.2047060981243682
  0.3994254988032366  0.4004371252418336  0.5970381641053418
  0.4001440814289078  0.6000503014122072  0.1994485132142976
  0.3996255941990727  0.6003490289893733  0.6000002778059520
  0.3992116625203362  0.5993399064114637  0.7988801085091056
  0.4043020165153070  0.7990638119210465  0.0004444479794253
  0.4000204480525155  0.8004216107211708  0.2002817691013024
  0.4005042712792410  0.8008705846897979  0.3990162764871371
  0.4001528827612141  0.8007283091757331  0.5991297629632260
  0.3990342326241479  0.8003269114709066  0.7984718027246109
  0.6009470029067769  0.9961981040031733  0.9993301294718444
  0.6007793276615286  0.0036803523189377  0.1998654451543079
  0.5999367671088426  0.9991473592211871  0.4006344437851388
  0.6009805837005426  0.0015170621024114  0.7989075211260792
  0.6003027531738919  0.1975385182399185  0.0043332920783004
  0.6005046378276623  0.1983712047343674  0.3956977521041082
  0.6000830578675750  0.1998236058986380  0.5993695780424022
  0.5998546760793519  0.1989252347124811  0.8010126607269624
  0.6002237106577289  0.4021599448148099  0.9995125729053399
  0.5985778010644701  0.3956591950075427  0.1994423527518857
  0.5958794724199566  0.4013323251001673  0.3998181960445084
  0.6002266230578758  0.4002822138465499  0.6004286430218069
  0.5978354186558067  0.3995140122833170  0.8000433925866958
  0.5981582465827607  0.6043625530114085  0.0003127775960581
  0.5999533369087814  0.5993875526897838  0.2005008430648008
  0.6003824277449941  0.6018383755511124  0.3990446773196153
  0.6004797189571700  0.6004015708863235  0.5995664679171433
  0.5989626807577608  0.5995830893705175  0.7983971182284481
  0.5990116051764436  0.8009818159332912  0.3998605412541537
  0.5998325675334494  0.8007624754849784  0.5999681202384758
  0.5997103446839700  0.8013661952616520  0.8016550671431215
  0.7997408051605689  0.9998200181115828  0.2024706794371236
  0.7997188021336356  0.0006028621091472  0.4004310404698213
  0.8023743200150059  0.0006757041755004  0.7995778407296323
  0.8009999728328541  0.2049618157783195  0.0004904310486360
  0.7990965775056865  0.2019966496259505  0.4002515694073355
  0.7990028819384043  0.2014542489895342  0.5989746422735209
  0.7986869777213459  0.1994423009616506  0.8006450726572427
  0.8001535423275693  0.4010673596284383  0.1973520560103238
  0.7978944188285346  0.4005474359735883  0.3999641796650263
  0.7997991909450654  0.4001944663389523  0.6009303705199823
  0.8007038788593575  0.3996161361486298  0.8038517615151273
  0.8002962176291047  0.5960346061751493  0.0009803342426887
  0.7995949657045329  0.6005567044899832  0.2014481142071367
  0.8002168855668972  0.5998333528192065  0.5994866825972088
  0.8008335992645066  0.6001533094505824  0.7989861900242510
  0.7965474488822157  0.7971875173591554  0.0011009186292335
  0.8003002737434322  0.8007328321583339  0.1992499991261938
  0.7986194470760070  0.7991453265280981  0.5996107539988351
  0.7997349174171392  0.8003624998520783  0.8009602691332547
  0.8675450857224108  0.0004994687244992  0.9986494713967109
  0.9986325602241666  0.2022668400061309  0.2008433984948440
  0.9994360922436326  0.4011211718453754  0.0003927085239714
  0.9993169434940175  0.6006347636637119  0.9998057178705428
  0.3998184395251788  0.0010762684290044  0.4003102837955393
  0.4000289013696068  0.0000972162769060  0.7989994130231556
  0.4000545326068456  0.3998930217219666  0.7985265688345700
  0.3999088046611142  0.5999839979515024  0.9995710527993500
  0.3999679131236698  0.6007624668849457  0.4000299631384803
  0.5994561603412512  0.0002905822155288  0.5996442069299166
  0.6003199922986608  0.8013830959943835  0.2000335828940517
  0.7993147680562285  0.0002615466785589  0.5994222097064784
  0.7996802805147447  0.2003411231829300  0.2005580607370788
  0.7996224670482480  0.6005926832115428  0.3999252881010015
  0.7988665029454993  0.7999145811158860  0.3996981457160438
  0.0033570828712677  0.9995746536469841  0.6023828749576065
  0.0010422151920166  0.9997445557161199  0.7902928385140034
  0.2019413459943525  0.4020835123059306  0.0013836014538880
  0.3997498175390458  0.3983860281423086  0.4007382975806761
  0.5980002689551299  0.1983829237161355  0.1998468534707424
  0.6005355731829015  0.8011815488207615  0.9964129453399675
  0.7951554117013543  0.4014472866255992  0.9995645879554436
