Zr Ti V  Cr W 
 1.0000000000000000
    15.4155916575128540   -0.1323789993068033    0.1019241394475915
    -0.1328356310788111   15.1268203659067044   -0.0460030495529510
     0.1016149306641669   -0.0444981918016081   15.5417699927921706
 Zr  Ti  V   Cr  W  
  30   9  49   9  27
Direct
  0.9397914455636135  0.0375424362268344  0.1829311869181706
  0.0258588016232977  0.9729112326915926  0.3901304971731552
  0.9824712248894173  0.4623034829605946  0.2141083477333642
  0.9780777967594698  0.4300132898487845  0.4275960788676986
  0.0484228978063709  0.3986907281360996  0.8328978272293396
  0.9880580077078532  0.6133333900647183  0.8201182492862283
  0.0358533275438246  0.8171850078822893  0.2069985788572738
  0.2334030531475994  0.0192956002408560  0.9469604723794890
  0.2384307276885114  0.5988791298135013  0.9487418470029155
  0.2166875188710404  0.8121899538389674  0.0501879104391658
  0.2269593382131675  0.8191315289975987  0.5848731401762144
  0.1591653824557458  0.7962514667243946  0.8380901292196545
  0.4353708427047495  0.9668315797147620  0.5886951681277849
  0.4245873700951549  0.1682971787587158  0.9617862570989255
  0.4006165949876421  0.1611974836350787  0.7590098814158130
  0.4161776656858303  0.3617708787563336  0.6547097139682421
  0.4389486356401856  0.5461133987987741  0.8202796157540999
  0.4311305656692747  0.7475783143161490  0.9723910976584756
  0.3631823432811420  0.7721191199633582  0.7517193955437861
  0.5709296764013455  0.9624451293640816  0.0185330242233519
  0.5818543612470768  0.1825007295738353  0.6297459857342671
  0.5818535862578159  0.3415631283878754  0.8227306832700831
  0.5708219554623966  0.7480402990006290  0.1688205329444394
  0.6464359961937152  0.7864564678470103  0.3882990064301017
  0.5884643850655434  0.8111471967652127  0.8265337027460221
  0.7264566894552996  0.9273583409744843  0.1983092576314177
  0.8095697776151561  0.0164703872116843  0.4002483365372436
  0.8268604961296694  0.2450227087771725  0.0005023603507880
  0.8120942009117682  0.4308834635993095  0.8287377476226188
  0.8279404535817402  0.6056735053788351  0.3635298712482434
  0.2601723187278915  0.9932104767416744  0.7478073372926756
  0.4293813574410903  0.9554867100966066  0.8257794051952723
  0.3918425810077402  0.1860549775198752  0.1989360222190094
  0.3717644831671639  0.2059603401862951  0.4108450322034973
  0.3826377844344679  0.8237840249820696  0.4039994174635680
  0.5904629590783439  0.9885620000970771  0.3840692018001863
  0.5977573546076437  0.5763256988656500  0.0016123979001565
  0.7978685342405223  0.2059263418372570  0.5449635790060559
  0.7710189828987950  0.2045753934938264  0.7746770911771956
  0.0390652665954569  0.0289668409666894  0.9997022491232276
  0.0171402239005779  0.0045816165174530  0.6102005308542321
  0.0188059344291467  0.0325499260224837  0.8042579126728953
  0.9634668909566866  0.2478349671742472  0.1792666337907906
  0.0013360265626145  0.4476255006637905  0.6266646491922474
  0.0110738906583059  0.6375009437026862  0.0183485064643498
  0.9471646110581109  0.6428296017903886  0.1991658991139740
  0.0347286870694483  0.6334778607038422  0.3684289895714744
  0.0302174444192785  0.8358132403928794  0.0011499439456644
  0.1937243327148493  0.0233569011746937  0.1976885901642380
  0.2328249167484312  0.2164541453260320  0.0257692692011759
  0.1614897875765691  0.1971420930641784  0.3918859154584302
  0.1564686072877614  0.4156059667782828  0.0576436524775510
  0.1890255938620936  0.4095452071192195  0.4093767695539942
  0.1828250249110580  0.4050734491194026  0.5823552283114027
  0.2393353053185885  0.4086472431118985  0.7644342351528912
  0.2160659737353116  0.6131813208872987  0.3941157151344464
  0.2017567093597691  0.6053072064580767  0.5902796057930350
  0.1879707399810872  0.6007761890295297  0.7671901269939814
  0.1840570077329024  0.8137260523622647  0.3770854198270128
  0.3788258519056097  0.9314593754435677  0.0062641435479468
  0.3892956555587980  0.0114179771489415  0.1799945145180880
  0.3929430450198094  0.1699584696019116  0.5783395322019530
  0.3722343784552787  0.3987976816495197  0.2201018466349957
  0.3809003374570906  0.4025225821483070  0.4157208683558354
  0.3676644491678797  0.3424700288144510  0.8436286827876041
  0.3906183772279586  0.5968567509509893  0.1993383183875589
  0.3943406567783151  0.8459553667650349  0.1583547003350023
  0.6498312336655281  0.9734718416985412  0.5525857651182473
  0.5827104750487256  0.9671946382713694  0.7116802768536717
  0.5464134258359234  0.3318911959989436  0.0319286774739865
  0.5637877489907247  0.3837793980522929  0.2233934097483921
  0.6285890978786175  0.3960886648097935  0.5741557243682788
  0.6209545167193168  0.6004091130222928  0.5992238105047328
  0.6296380303625431  0.5860441632757644  0.7961274898217536
  0.6986714721242603  0.8015631549296941  0.0004981496710716
  0.8456974818059096  0.0300503856652904  0.0011853121009788
  0.8203679462167234  0.0177543056287080  0.6059773317938955
  0.8149352938013656  0.0257111548293425  0.8068796255279667
  0.7808721607002811  0.1739343986604134  0.2008699144193881
  0.7834093671106910  0.2133071907252723  0.3669518130981584
  0.7537703067335162  0.3671282423056789  0.4184037873896428
  0.8173862559422308  0.6376618777938587  0.9983857330643728
  0.8162300526215862  0.6235484784226926  0.6143125990549193
  0.8448119404547818  0.8367600115513961  0.0451011427704009
  0.8298542786491775  0.7583006922555851  0.2226644165412648
  0.8377025462523940  0.8141261499497012  0.3885539048703588
  0.8845704720212164  0.8198742541810993  0.6039455435063861
  0.7949758042952654  0.8302096073087715  0.8278993621755506
  0.0470268827260084  0.2362410721587004  0.9943852037687679
  0.0064663582981823  0.2256061342460182  0.5904331548395443
  0.9856863056418940  0.8261790922687170  0.8108422979866980
  0.2188907969603214  0.8218289026047050  0.2297182334858840
  0.3550421012049108  0.3716459340300872  0.0278002869267260
  0.5382668915621811  0.9488638068828972  0.2262122709839041
  0.5964836322389784  0.1724175442300742  0.0083101158956307
  0.5811756679200135  0.1997313784677369  0.3921688902471764
  0.8167823498689615  0.4243955986635431  0.5880110033311425
  0.9604846679727563  0.1963429375660131  0.3800650881839821
  0.9532978739960776  0.2205207744952125  0.7984248342833468
  0.9680320642306283  0.4391419988687487  0.0061357105435087
  0.0079873109844840  0.6285945897203778  0.5531686631133373
  0.0058016272106345  0.7833299202385514  0.4579124950516011
  0.2348410911411708  0.0081537567457670  0.3924452426821131
  0.2066635711573360  0.0198526438009241  0.5723303896571968
  0.1545819642785871  0.2218936312419557  0.1956310430749832
  0.2189193153415352  0.1994964257200330  0.5990172123019677
  0.1760003091971450  0.2027277970828974  0.8196583012111486
  0.1874760520818330  0.4044083461749280  0.2372896495056413
  0.1659649138723266  0.6196264883343895  0.1817253184196856
  0.4133001272804673  0.0379177013999015  0.3593650077357577
  0.4191602236518628  0.5535582163067044  0.0107814070027576
  0.4126335064476858  0.6015776564110689  0.4161964206979201
  0.4074394039168830  0.6026446931827488  0.5951332405395190
  0.4233239196246104  0.7762745195774354  0.5688182888355130
  0.5970775013820202  0.1184670720888684  0.1889340095355745
  0.6258515734369473  0.1179639028653695  0.8505115390113811
  0.5646620219467304  0.4067963001635160  0.4145436769452247
  0.6073205536476048  0.5568932233642885  0.2169416524209559
  0.5988515302376601  0.5941117565902007  0.3997317818555919
  0.6005906649044890  0.8048607359081544  0.6177307747751402
  0.7796907215143288  0.4355681288535951  0.0255059032939521
  0.7649438774350470  0.3843062026769066  0.2068462574495135
  0.7865536750739545  0.5700105969730370  0.1708365213920574
  0.7963598876912299  0.6437755234083854  0.8008557885368739
