Zr Ti V  Cr W 
 1.0000000000000000
    15.1779153877179311    0.2326082358906207    0.1035641209960643
     0.2318607410442115   14.9841365690963215   -0.0444198696559780
     0.1040755790974639   -0.0437907945080190   14.9726317970756000
 Zr  Ti  V   Cr  W  
  11  18  73  14   8
Selective dynamics
Cartesian
  0.1411859486455783 -0.7464813253311653  2.2850347797664883   T   T   T
  0.2845146632786006  4.1867047448206272  3.6014609615316431   T   T   T
  5.8754101534535179  0.6481529174921403 -0.2477787378534118   T   T   T
  5.9013970416183579  5.8587474817272245  9.4912047854810524   T   T   T
  6.5589306587557372 12.0461994603462372  0.7597577986442340   T   T   T
  9.7830962531022063  0.2842058702175675  3.9325181869510719   T   T   T
  8.8921691481255927  0.6457565328442548  9.0282150000623869   T   T   T
 11.2416104750460857  3.8566472126074123 -0.3726827032676570   T   T   T
 13.5063658005769067  2.4262109560949354  6.2176172473551103   T   T   T
 12.9558054710994259  5.9921628444107364  6.2331392747767849   T   T   T
 10.8477265560903344  6.3588532042751913 10.5046833976471081   T   T   T
  0.3409808072673576  1.0516364047470441 -0.7155219554460842   T   T   T
  0.2508043356476745 -0.0696214874896075  6.5414369896200402   T   T   T
  0.1449317474044030  2.1878617958470907  9.5096716408308666   T   T   T
  1.3614592526453766  9.1115756748222498  4.2570844514679713   T   T   T
  0.8106138858198585 11.8791635678160183  5.4336817731781411   T   T   T
  0.9598513783538271 12.4155925460731584 12.0515956656327159   T   T   T
  3.1199303882033123 -0.1237604129984630 11.9722191794285013   T   T   T
  2.7415642975129866  6.6354005038181239 -0.4704481402131598   T   T   T
  4.8929029000600792 13.1186015747504801  6.3363600065477490   T   T   T
  3.7076049477932158 11.8974803079507971  9.9939312244705185   T   T   T
  6.3171746220192029 -0.4476523964848558  3.3118203598988947   T   T   T
  5.9247230514316671  3.0791053118992626  2.7633274631953819   T   T   T
  9.4934578384213957 -1.2057074574019153  0.5148896827888534   T   T   T
  7.6383139942157552  3.6831867202343664 -0.4589716543585041   T   T   T
  9.4393473090488307  6.7368056365935622  0.1949081329731182   T   T   T
 12.9287776958576739  2.1863054261602883  2.5565199034071555   T   T   T
 11.4333422291666711  3.3407873626938716  8.6417496731958714   T   T   T
 12.4001516427629745  8.7091878198998405  8.3678099518718216   T   T   T
 -0.7694773252090454 -0.2577298415032558 11.4592020914348627   T   T   T
 -0.3661067615440653  4.3463824207456936  0.0309358337821683   T   T   T
  0.9685732865197966  3.3229358214817495  7.0556341658972785   T   T   T
 -1.2450138189087203  3.0196919908563884 11.9646921525940630   T   T   T
  0.4285254670640009  7.8512646163647242  1.8640287667935627   T   T   T
 -0.1048635284945838  6.9751219631442538  4.3260367344881310   T   T   T
 -0.5209347570466372  5.8772396622998029  8.9442026156820145   T   T   T
  0.3400535642535250  6.6414975484842849 12.0872666811811911   T   T   T
  0.1564087155330351  9.4811706666042284 -0.2969420524462377   T   T   T
  0.5393735955852423  8.6544843383231065  6.8850129476810338   T   T   T
  1.0544988311891701  9.3490314996748420  9.5060436778175816   T   T   T
 -1.1981057466635183  8.4793711165016337 11.4330552171875794   T   T   T
 -0.2456188867816324 11.5511720021721285  9.4150485017777505   T   T   T
  2.9117171602991019  1.0631052947779445  2.4644278108084809   T   T   T
  2.8153866019987666 -0.0825833395731782  4.8498388122175715   T   T   T
  2.6557243556943191 -0.5403303444256851  7.7440913469674424   T   T   T
  2.6858051919383006  3.2720780362414756  0.7415189668152057   T   T   T
  3.3636916408320792  3.5602926948937088  5.9279975815935018   T   T   T
  3.7422440426895056  3.0405317415016797  8.9928181144327599   T   T   T
  1.7221141616750233  3.6034273224893560 12.3411811687717954   T   T   T
  3.5277049345252443  5.8645251208121669  3.5444131340862604   T   T   T
  4.0710691083953812  5.8245163752482574  6.9764390420206306   T   T   T
  2.3412149619014797  5.0142893249165628  8.7837053201090249   T   T   T
  2.9259413799033602  5.6105036527047210 11.0442304794753632   T   T   T
  3.8341815878061638  9.7887535280976099  0.8484190344592011   T   T   T
  3.8989879659376609  7.4746426223533939  3.3164447108351269   T   T   T
  4.0102407936173243  9.3619332394513073  5.1285022713948623   T   T   T
  3.7627731407208831  8.6344095237940834  8.7097699727165256   T   T   T
  3.2676927498065353  9.1653941181849969 12.6202850772217285   T   T   T
  2.9538498058553793 12.6447046628093123  0.0569126258501034   T   T   T
  3.4132684893609819 12.3457864974811766  2.7899581781491545   T   T   T
  6.2028036490275431  1.2582746832936580  6.7471084389474072   T   T   T
  5.4246893175366395 -0.0927238648850532  8.9333505268731273   T   T   T
  4.8955733636597252  4.3122404932401626 -0.7178286377008514   T   T   T
  5.2589490188353452  2.9591412311669107 11.9050711796399344   T   T   T
  6.0829753923333625  6.6323314926854886  0.3073587556329351   T   T   T
  7.3682377059946447  6.7668116227465536  2.9310191800091761   T   T   T
  6.5985835842485328  5.4839783126261477  5.1027996257901433   T   T   T
  5.6095195589116482  8.7218769576178623 -1.4450802337305086   T   T   T
  7.1286762933663610  9.1743728237684188  2.9427116906120103   T   T   T
  6.5678041169633357  7.5947990622958272  6.2868146836766323   T   T   T
  6.2066599978677779  9.9499257391364520  8.4208812228148862   T   T   T
  6.1186990965899994  9.2303585484486881 10.8874558450698800   T   T   T
  5.7971873131032750 11.0923765834430110  4.0900847356414927   T   T   T
  7.3765499777989190 10.3656490884721730  6.1192386207211094   T   T   T
  7.0620608463714234 12.7480253674852975  9.2147638162945196   T   T   T
  8.0982564505475718 -0.5791286202641601  6.0260764714229254   T   T   T
  8.6690642733984333  0.9326489514818045 12.5840122804455614   T   T   T
  9.3675193531947816  3.5030522587257638  2.9995698259403190   T   T   T
  8.6828279272716209  2.6457570900258407  6.6722542387628128   T   T   T
  9.3644790606092752  3.4046195503891425 11.4724814536277151   T   T   T
  9.1995121493737848  5.1943919668466529  6.4262469041299450   T   T   T
  7.7978572324230422  5.8447624333880022 11.7647879693403965   T   T   T
  7.7728104868804362  9.1335203171450683 -0.3969779687253436   T   T   T
 10.0010865889782590  7.8738610005474472  5.5376533257508749   T   T   T
  8.8545766171103288  8.2774142494899134  9.2318305689258242   T   T   T
  9.5509784237235138  8.2362664170440567 12.3311443559710021   T   T   T
  9.9381187351641547 10.4029883739693574  0.4215300605315483   T   T   T
  9.3191150711407342 11.6260012253302101  3.3503822947311632   T   T   T
 10.2318540824403748 12.8128329613822576  6.8315496793675035   T   T   T
  8.2522981049292099 12.1745655496360676 12.4109777986823904   T   T   T
 12.4954344464265574  0.5394054762227152  0.2281716970528418   T   T   T
 12.3999664247612209 -0.0554263108023761  8.6541178258215847   T   T   T
 10.9868373368607593 -0.6939233483770486 11.7918680136473473   T   T   T
 11.5466590791871528  1.8335919549621569 11.3143769514814192   T   T   T
 12.8130728582007372  7.6128369947304657 -0.1596187322007060   T   T   T
 12.2355885100750541  6.1732478785891143  2.8574907578360040   T   T   T
 11.4223273611881257  5.7145078806402694  8.5750479207749990   T   T   T
 12.3305715931020696 10.0048002618126048  2.4293667982202591   T   T   T
 11.8690312218169236  9.5507854120530524  4.8741696072838430   T   T   T
 11.6726949622174523  9.8860041984518254 11.8535470091325941   T   T   T
 12.4104315783788550 11.9608084808080690 -1.4973008241931289   T   T   T
 13.2370878738539783 11.8929503523798825  3.8749788353470578   T   T   T
  0.7054111062778684 -1.5095799315948879  8.7416161379961306   T   T   T
 -0.3857969832583796 12.1627419654895714 -0.3394891604190622   T   T   T
  2.7652323613924956  0.9843586618181391  0.0279289927341718   T   T   T
  3.2631291613828788  3.2046389373950399  3.4373228196528225   T   T   T
  3.9719182612389154 11.6083462009823908 13.0593536389494584   T   T   T
  5.9616369012718051 12.8553532457475832 12.3678078140287671   T   T   T
  9.9575941675182538  5.6650846128231347  2.4407581618581422   T   T   T
  8.9503047038580554 11.0013494270961587  8.4876773448551450   T   T   T
 12.0820546460197153 -0.9441141172380662  2.9946546272914754   T   T   T
 13.2024394216158516 -0.6095278402648984  5.0715058742545107   T   T   T
 13.1058665801148742 10.3169878201339529  0.2335200013895111   T   T   T
 12.6073159739751191 12.0361314652921312  6.0832952818390540   T   T   T
 10.7074866607363131 12.4778563598549326  9.2216590833643739   T   T   T
 12.5078384712903947 11.9812744206826629 10.9345388444358544   T   T   T
  1.3780874231881157  5.9910192096083890  6.3596026262303500   T   T   T
  0.4060330610358085 11.0152129568710109  2.1523240619624451   T   T   T
  6.3625993815688169  0.2002481012925292 11.3530937058417205   T   T   T
  6.2374971253333902  3.9937509249445271  7.1683312356357600   T   T   T
  6.5880415197237729  2.4824780170389911  9.6210814792843760   T   T   T
  5.1446004336917879  6.2836293382965405 12.3927074591606452   T   T   T
  8.5342675818590799  4.3180659711551854  9.1405195201775751   T   T   T
 10.1227767031937539  8.3261804161260571  2.8698067250718005   T   T   T
