Zr Ti V  Cr W 
 1.0000000000000000
    15.4149939690695010   -0.0041197707411214    0.0051244012526811
    -0.0041210926464625   15.4234402589122102   -0.0060663359120509
     0.0051270839828618   -0.0060686626181498   15.4040961855710652
 Zr  Ti  V   Cr  W  
   3  13 106   1   1
Direct
  0.9771215715332068  0.7748673497893624  0.7958610577639887
  0.2057420511032028  0.4430716061723725  0.7917933184202840
  0.8069922004703101  0.6044788040058851  0.7944898654036402
  0.9982119093370464  0.3978301737816389  0.4084201883784723
  0.9942352546235839  0.5991328247675578  0.4040033628992180
  0.9773121359003613  0.6046620280361225  0.6202848795248024
  0.9968433787959137  0.8026216598883942  0.4027625614421289
  0.2046849552060747  0.9792302872672147  0.8202375706641761
  0.1973867963362827  0.2077304624701769  0.7985933495364974
  0.2074239894716946  0.5991979628893699  0.4061906631612797
  0.3928197759308741  0.8015484636664816  0.1976290103802059
  0.3908046778615940  0.8082780598966379  0.8008428448263605
  0.6082250073066688  0.8012665996858128  0.9935541431325695
  0.6059925784477862  0.7992004205492262  0.2024729241926179
  0.5984623468891574  0.7941566366931376  0.6009146248749042
  0.7949053716437080  0.9932279423243341  0.9980420122701071
  0.0073429027250460  0.9942722050710313  0.9964113740982115
  0.0009164968872666  0.9995639286103191  0.1974216734934197
  0.9989174636658608  0.0022444571891649  0.3979374081926108
  0.0007612617970176  0.0003860031295011  0.6002076316358157
  0.9966232681286464  0.9949336935316674  0.7989075021093648
  0.0012100483094877  0.1945517323897716  0.9992789429348339
  0.0004166233312131  0.1986199992671905  0.1990047776356646
  0.9996743483338605  0.1972474973539555  0.3995660778884754
  0.9999531682532653  0.1995274640079263  0.5999189993546354
  0.9978831417103247  0.1942969928006111  0.7992563052165699
  0.0018039880119407  0.3950528236471129  0.0018056370262987
  0.0007517341963046  0.3984655974209829  0.1997943130604219
  0.0029254905579548  0.3973151619974781  0.6050046678911287
  0.0026906014624013  0.3905485184710577  0.8027486187658818
  0.0028401196721259  0.5974585231095957  0.0058858406892094
  0.0013781903799626  0.5982458172535761  0.2028655893408646
  0.0162739410681709  0.5789952038354560  0.8155208342913627
  0.0038807760299905  0.7972845177733732  0.0041730367331182
  0.9999359719516450  0.7993125685607645  0.1991972472836273
  0.0014919913003293  0.8040688370242088  0.5923409324013094
  0.2005490708164898  0.9979005075504102  0.1996156672652575
  0.2008097793274477  0.9996640663842377  0.3987037487145706
  0.1997814667690359  0.0006782895129598  0.5954211536620505
  0.2013947672848772  0.2022180356747312  0.0007131554228228
  0.1998824062743528  0.1994524814458760  0.2001277117726738
  0.2003236789832010  0.2005459913515326  0.3983485628238033
  0.1997723862347593  0.1992956659397508  0.5975064472326304
  0.2029136844435879  0.4012631916087408  0.0033378595356439
  0.1997327347570216  0.4016424094214551  0.2024264368264716
  0.2023010688087858  0.3998830069751419  0.3994899366600388
  0.2001001856578963  0.4024305702230124  0.5916969308796647
  0.2038572580125150  0.5987467972201078  0.0024617213960350
  0.2010878147730644  0.6010728925978159  0.2015188888919025
  0.2053280674142968  0.6021267423893978  0.6042800587654824
  0.2039447933012382  0.6313073109097986  0.8054103240421255
  0.2005036465763258  0.8959832846423961  0.0036820932133695
  0.1954338656950208  0.7990135918236786  0.2051291613247212
  0.1998659865338437  0.8003508755433619  0.4032970982268603
  0.1907053173484188  0.7991991986854629  0.7968941212070696
  0.4016308597181266  0.9994478256444580  0.9997604757107522
  0.4000290906135240  0.0024374896011271  0.1990944199088843
  0.4014764337220216  0.0008188520528472  0.3988419112430195
  0.3995096143082009  0.0020826517071335  0.6004076608480222
  0.4022844795702333  0.0056788249821386  0.8000048603628425
  0.4003602110719791  0.1991610834166722  0.9995428235997381
  0.4002623309812771  0.2009726586515503  0.1992554571241704
  0.4011693761714951  0.2002648897770161  0.3999321163724621
  0.3993656237989739  0.2019322371613517  0.5999080292764726
  0.4021633701591769  0.2024211420487633  0.7992083239065135
  0.4022771872093173  0.3988016466068667  0.0000669607293378
  0.4010391267848308  0.4004028094686268  0.2003634050268154
  0.4014791123572650  0.4000654108315223  0.4001321556306055
  0.3985946846096523  0.3999314141790640  0.6014719260879589
  0.4066978283401373  0.4005376847525616  0.8009595197854044
  0.4033694609280541  0.6019025097428373  0.0007231409509574
  0.4013082882361967  0.5985704310501351  0.2003601234407762
  0.4035209098332792  0.6011643870180574  0.4006274294364631
  0.4035649868189553  0.6036274162946148  0.6017621087711686
  0.3997974023141812  0.5997595444676385  0.8024164154544053
  0.3966723837386833  0.8010727725483860  0.0027870794480338
  0.3999439023168767  0.8023284763419635  0.4012525837591170
  0.3942059020026971  0.8022264040268111  0.5978555806475935
  0.5972731877667851  0.0019702577589464  0.9989367882791975
  0.6004758144583120  0.0020624295090448  0.1987999372797257
  0.5992398050489149  0.0006559473891761  0.3999466898358355
  0.5997120593841899  0.0011754575864400  0.5988385449687893
  0.5987268034680011  0.0029737058038897  0.7981898422274964
  0.6015957604038631  0.2015322214132227  0.9988872702574713
  0.6014501580863854  0.2011806266217034  0.1990149739141712
  0.6004416141847195  0.2009147220998618  0.3994861539463004
  0.6012201579526664  0.2030876336732077  0.5996472421412252
  0.6013874873490364  0.2021083967529057  0.7993535900965254
  0.6025207440980699  0.4020817978472768  0.9992122383494373
  0.6018827504182360  0.4010340209311848  0.1998491079539060
  0.6004509957937458  0.4003815464445820  0.4001132234115747
  0.6006411360991091  0.4036970108518273  0.6000791039823464
  0.6048949723633050  0.4023619553417370  0.7994464042178335
  0.6021988689400252  0.6002547885145727  0.9978589602032375
  0.6002449148464325  0.5995444167848217  0.2004713172767397
  0.5974780361757943  0.6015100651630430  0.4034188467585413
  0.5961422712134834  0.6022505906226350  0.7959414983133041
  0.5994173404680643  0.8010586261570857  0.3991444320425454
  0.5955980556289239  0.8013969962034885  0.7981359550619097
  0.8009266578661812  0.9986475680341499  0.1996490515173890
  0.7986595415926541  0.9990437109018313  0.3988838674956985
  0.7991136721396599  0.9999049872098109  0.5972171192314689
  0.7987799768662615  0.0016024286941554  0.7953015304872076
  0.8014530677687624  0.1999186039931432  0.9993419470325550
  0.8013748729530716  0.2000878890936878  0.1993787907026049
  0.7994743555090289  0.2002314301385448  0.3990616565083264
  0.8009411092227433  0.2013294601241600  0.5978572085753781
  0.7993623927368267  0.1994647170109161  0.7982520152101872
  0.8024191098411776  0.4003763821252008  0.9988011854958488
  0.8017396239921476  0.4012568122208400  0.2003002160206236
  0.7987285180898043  0.4009350046592394  0.3994337685105410
  0.8040796957231591  0.4041201388494614  0.5985506997136548
  0.8027857074729756  0.3968631152921546  0.7992971523736987
  0.8017945985905882  0.5989160548482955  0.0030103024641123
  0.7996831026668958  0.6009586601694843  0.1994393059616083
  0.7950572448864560  0.6020563372792027  0.3967590593592222
  0.7856238194408617  0.6019997251011603  0.5902600638444930
  0.8089502220971588  0.7957461629908742  0.9948659365521157
  0.8044790659580745  0.7992996837879270  0.1992852734249004
  0.7969035818303147  0.8009687824342938  0.3989545369144976
  0.8031689387640217  0.7999657268580886  0.5980998209856108
  0.7814207776833180  0.8112531764977391  0.7973368330247647
  0.1971259560582500  0.8021901513215228  0.5999372224747095
  0.5975393553260429  0.5964953779965400  0.6012154573463102
