Zr Ti V  Cr W 
 1.0000000000000000
    15.3185418189025757   -0.0058579337440910    0.0011531853961578
    -0.0058580518235424   15.3152820885503385    0.0003427542276612
     0.0011540796390519    0.0003423374486165   15.3446139054441577
 Zr  Ti  V   Cr  W  
   1   2 101   1  19
Direct
  0.6013598892428841  0.9991938927988967  0.8006847731915574
  0.2011878845456902  0.7907893770530260  0.2099860526804071
  0.3990213227928918  0.7996149243938918  0.6099601021551565
  0.0002158041315184  0.9998839539842601  0.3958812644387978
  0.9990116000746037  0.0010956316679269  0.5988674163696474
  0.0007477745560565  0.0005799750988090  0.8035558556009861
  0.0032787216111277  0.1982340211457993  0.9970103571034058
  0.9987145753283081  0.2040725902644002  0.4006011433286999
  0.0046571170474415  0.2022133445381984  0.6005561443485672
  0.0008159857260108  0.2065341853115026  0.7989154873466376
  0.0000015631857138  0.3987138903506444  0.9942420064893366
  0.0004748550982322  0.3982472956915135  0.2045391276855718
  0.0035883347555835  0.6033727966779572  0.0002861361276532
  0.9965099038654764  0.6013400345162137  0.1987757322820941
  0.0004103631074640  0.5975071203724658  0.3994429086619370
  0.9994722250957699  0.5973294986711213  0.5986394813258752
  0.0006801985764248  0.5984595221965963  0.7999436326186717
  0.0001372502946294  0.8050895439273894  0.9976654443238278
  0.9996451474135887  0.8018867964793707  0.2011180659964231
  0.0025515258556563  0.7995066996681390  0.4018554639407750
  0.0000744821524938  0.7997251828203708  0.6008703367416014
  0.0013281643468648  0.7988989766221792  0.7987088078407791
  0.1953519158810238  0.0025290485868326  0.0022353287244987
  0.1956937854505120  0.0011975866650660  0.2023502124639880
  0.1995193330759966  0.9997925669487343  0.4000842553012104
  0.1953515819429083  0.0041624851968909  0.5997296742018112
  0.1973039346043120  0.0001236120286883  0.8007139524301176
  0.2023087989265741  0.2035754067117426  0.1960516489328553
  0.2037467222873687  0.1995327624817123  0.4057948687816118
  0.2049192454294091  0.2044263044721505  0.8015115302645975
  0.2029574743050738  0.3992343004784765  0.0010764460636563
  0.1987473981549738  0.4003315521270402  0.3950691173514493
  0.1973846549753638  0.3959738614364951  0.6050149284425186
  0.1984406576970719  0.5919524063111522  0.1955171917331320
  0.2009156346855093  0.6000845369457181  0.3987894947328189
  0.1983094270379696  0.5998459434494841  0.5978206319925424
  0.2003466939538479  0.5977630603636813  0.8065282300687701
  0.2057023111612202  0.7987710682038786  0.4056509492604473
  0.1969743131127044  0.7997151532142349  0.6020475395122368
  0.2051050945633391  0.7997325370867885  0.7995359414317433
  0.3972525125437530  0.0000928896543995  0.0013176919095224
  0.3971569520154257  0.9999712487351352  0.1985419010725246
  0.4000150792036327  0.9948833978019874  0.3999504033375742
  0.3987560625257354  0.0011179964400376  0.5998779311818169
  0.3940972747626117  0.0012811177142154  0.8002065751620205
  0.3954757159255268  0.2006212651013982  0.9925458279725194
  0.3999220166158616  0.1982837659061678  0.2004852531007434
  0.4002205894779835  0.1978470700213592  0.4027245512163268
  0.3963827754675669  0.1981966570911333  0.6051625603422104
  0.4009253173876852  0.4004165009350092  0.1946681150432455
  0.4026739124220879  0.4012307383432783  0.4027420390256276
  0.3990139262886103  0.4002388044127347  0.6029699153632885
  0.3945591852740349  0.5992409746019499  0.9991608655087375
  0.3987996271430148  0.6008208015633623  0.1979138213848136
  0.3999225654758242  0.6035177374333823  0.4007795569242475
  0.3985407341667071  0.5971665722874122  0.6001870704375676
  0.3998032730702017  0.6032306647292932  0.7973740334378538
  0.4026392952057266  0.8013533105634005  0.9967562545566565
  0.4022901675806098  0.7991192493350079  0.2003086962210869
  0.6007832722151323  0.9967371676946457  0.0082887044249207
  0.6037173111293576  0.0030033860899440  0.2023387030753694
  0.6000055707365557  0.0002444684538318  0.3975049401401540
  0.6014456378729337  0.0003706797512844  0.5934260755093085
  0.6010863527741425  0.1985716220594827  0.0018097861101034
  0.5972813102809884  0.2037309323333384  0.1998313899756941
  0.5990894350568805  0.2034750413981614  0.3994925204700221
  0.5999062859488797  0.2003571314446300  0.5988455898045514
  0.5946949755630421  0.2054672814107202  0.7994240070737649
  0.5953573692434583  0.4021351140845357  0.0038221736168189
  0.6014318973934453  0.3997886610105582  0.5955096325096804
  0.5973997086425765  0.4024045519445864  0.7995551134548655
  0.6013122411436850  0.6050992202589716  0.0010714044493418
  0.6040091202324414  0.5957907316176987  0.2000569499347360
  0.5994536066004267  0.5958553772522712  0.3993422849777800
  0.6026060061651231  0.5982829736053679  0.5978055233771313
  0.5999157045646648  0.5966904887769932  0.7996509974226487
  0.5999853381680967  0.7984405530454391  0.1952869017205436
  0.5943383452610880  0.7986832515501819  0.3999619487703742
  0.6016958934993766  0.7984696987562564  0.5996701038777974
  0.5953992092388422  0.7927284607378980  0.8037126184016983
  0.8034218671568618  0.0010703820756484  0.0019925122024753
  0.8040242055012063  0.9978183295212555  0.2012830589568236
  0.7998037784897442  0.0000056726253426  0.3980996321185311
  0.8027005691942127  0.0002546741642202  0.5991155491423177
  0.8050547309791704  0.0013708799887859  0.7995390649340856
  0.7998931384741589  0.2004846482232469  0.9977489705814785
  0.9337079355193082  0.1988473758589177  0.1997728884640526
  0.7994361122462507  0.1988265358476342  0.4024393720295101
  0.7995858559447379  0.1980772981719920  0.6015634435823108
  0.7980287610437621  0.2027994336384374  0.7999208190547231
  0.8012467576573687  0.3997797567889200  0.9998776457316039
  0.7981391254770268  0.4052956670625287  0.1983391278171636
  0.8008855545730232  0.3994309944158899  0.3996055350000378
  0.8033013459299302  0.4004551413526895  0.5997886284663357
  0.8030164391868738  0.4022057872379152  0.7999783134879901
  0.8028524570274110  0.6029528417638674  0.0024265893563366
  0.7996060856482412  0.6029772143020613  0.3952237804310484
  0.8006138665226090  0.6026475099759109  0.5998916230856944
  0.8000159114846316  0.5999867071389454  0.8011831381007311
  0.7946599431961325  0.8016160776378082  0.9979562923166430
  0.7990341200650171  0.7964706407616379  0.2009672407971915
  0.7970989636900428  0.7996892265705940  0.4014369522255941
  0.7997858612996184  0.8007324051950905  0.6006859582893266
  0.7987922762848081  0.7986769879666984  0.7992630693785040
  0.2011371451668601  0.8000260513441074  0.9993297065911074
  0.9987259477478506  0.0023624093387582  0.0021892661510451
  0.9996373698652460  0.9987718031211095  0.1971111698182446
  0.0003748605429901  0.4008545914343587  0.4033242009440675
  0.0011604432458215  0.3999246877926276  0.5996872368993567
  0.0045845083402410  0.4026820184618299  0.7954625095531614
  0.2003600527068069  0.1991912875692141  0.0006427293735179
  0.2010682925810495  0.1987622003135640  0.6022177835134007
  0.1991123905372808  0.3970788503295925  0.1995807468365895
  0.2014470160489816  0.4017921120958068  0.8005943006279395
  0.1986203975910884  0.5988227383991769  0.0022237234848610
  0.3994864478450448  0.2034839506865951  0.7988171652429914
  0.4004279802013634  0.4014346043827656  0.9943485940491383
  0.3968256542748119  0.3996903038824810  0.8022679714788141
  0.4009803093651400  0.7994546099160565  0.3953149196632573
  0.4021568538610463  0.8033084905560012  0.8030791648300141
  0.5998292873699920  0.4004783605325499  0.2024860229637413
  0.5993337669382059  0.3995370229333072  0.3972278393708146
  0.5984887353738566  0.8012649413041563  0.9995126255404125
  0.8013399452423168  0.6006973465162130  0.1982768368023090
