Zr Ti V  Cr W 
 1.0000000000000000
    15.5156790444203825   -0.0894881118897371    0.0217838379805832
    -0.0896445880511617   15.5356651551125911   -0.0233108486568690
     0.0218567542863321   -0.0234613794087359   15.5047409555449658
 Zr  Ti  V   Cr  W  
  13   4 102   4   1
Direct
  0.9879247020637651  0.0191248115437419  0.4276546091481868
  0.0029433595448349  0.4015248429614668  0.7946454779480066
  0.9756797460853958  0.8121142588319484  0.7935735033664699
  0.1668783576682937  0.4160128882318135  0.6267228226402110
  0.1860494252986294  0.5758612464063202  0.4556762729413808
  0.1951989321929556  0.7580438015731182  0.8370803505314292
  0.4340969074996216  0.0223071975339661  0.1808739903327252
  0.3895247920874646  0.9967670065508224  0.3991985838719696
  0.3837816701901152  0.8003212642139540  0.2059725464595669
  0.6359181156250528  0.1966225106685028  0.9643532980388330
  0.5977075538671699  0.1994046625299089  0.1945276508555433
  0.8102285232593326  0.0024147817645686  0.5898076420228177
  0.8016013515704112  0.1981079625451108  0.7975200048765627
  0.2061582185743676  0.0024004615290785  0.2109520639162838
  0.2084387932990159  0.6288564024959318  0.2278214906131180
  0.3952257456931494  0.1983773829408048  0.5935353476244115
  0.5935088648974689  0.6028581459191371  0.3982012493612561
  0.9998690884996698  0.0012325330387830  0.0051403112558963
  0.9893275539136621  0.0046871231190773  0.2054050159670714
  0.0110619612676987  0.9788475308715160  0.6275268091989384
  0.9982332673423400  0.0111780479446426  0.8081074905769442
  0.0085643803577584  0.2016205673119669  0.0012687645107338
  0.0008249277514316  0.2015633100010696  0.2025893649219241
  0.0015479733106942  0.2149379601190678  0.4018364503016016
  0.0032026066080386  0.2217456876825296  0.6046791591186722
  0.0049261889133103  0.1978955892073861  0.8020611249014019
  0.0013412241295859  0.4001465037103218  0.0018471605340948
  0.0019000837150289  0.4051843774896320  0.1973773219486640
  0.0026623734793922  0.4078104506391489  0.3953058047920358
  0.9797882301541251  0.4089869675373392  0.5884746204031068
  0.0021618131018148  0.6004829825744235  0.0011424534932109
  0.9984067025682569  0.6025280796093248  0.1972323751293888
  0.9973052129307213  0.6051686940603894  0.3909174651412934
  0.9971328817632547  0.6021009272032507  0.6044682170678520
  0.9992328874710252  0.6060125136310929  0.8017745666186504
  0.0117443756115010  0.8025885899024823  0.0024769065570844
  0.9916764941993306  0.8070444985319193  0.2007636524803604
  0.9963804756247234  0.7984528333961235  0.3970088822650353
  0.9992106759845043  0.7932851410313677  0.5914066443500361
  0.2015372114589084  0.9949144788347730  0.0026937291373226
  0.2003753281281982  0.9971064601342116  0.6071639340951603
  0.2007316155518143  0.9963879022446290  0.8059569382387249
  0.2013555288853218  0.1948468547318356  0.0040394093690986
  0.1970734595720536  0.2007321519333160  0.2025292561727860
  0.1981474868304577  0.1970175622771178  0.4048868682243768
  0.1990283886024002  0.1997157329034510  0.6028874926398831
  0.2030107393733308  0.1924078450698567  0.8013418831523424
  0.2036157870461254  0.3987087754665400  0.0082125018277005
  0.2019243873788148  0.3966173749322420  0.2008143649538423
  0.2052684482147070  0.3899055001253746  0.3925337712141549
  0.2123602417144054  0.3829123523373955  0.8196310599566956
  0.2006282596427943  0.5957197372418251  0.9923845718665876
  0.1988162561337818  0.6153548458504783  0.6397210007692482
  0.1988496994048503  0.5651875826111652  0.8008799338893243
  0.2071732221375371  0.7984098357837354  0.0372251498227770
  0.1846215403100356  0.8098577658745617  0.2096567843403004
  0.2001473735624643  0.8146732873240748  0.4011171865801809
  0.1981030684929981  0.7988162164609309  0.5954288691375336
  0.4005089928751119  0.9961852478135457  0.9888985690852244
  0.3981874230729445  0.9926049798269087  0.6063976614878159
  0.3986001968773684  0.9967018563683753  0.7970149241718948
  0.3990326103778317  0.1969552697223204  0.0003838082185128
  0.3985058104788307  0.2060712556242093  0.3963595728130040
  0.4019700524265217  0.1969917156736954  0.8010853175216350
  0.4047641152353812  0.3974130880977986  0.0000883844138668
  0.4008057731601522  0.4008061877002098  0.1974448663147251
  0.4056919795007693  0.3983669775615687  0.5956352478975400
  0.4042979074090997  0.3942808412008076  0.7976960060633516
  0.4011223796258589  0.5963106410509104  0.9989396786268586
  0.4078191980811876  0.5929743969679824  0.1980691403248504
  0.3924890497916129  0.5974626433320065  0.3984660561630411
  0.3931285918873476  0.5959316729105026  0.5995498285711741
  0.3994134944177906  0.5933678891208294  0.7985766070521435
  0.3996376620511227  0.7957344908906142  0.9941090820324929
  0.3982142308797737  0.7910091986540501  0.4091485827088666
  0.3992211232184563  0.7942611762764060  0.7967079186313453
  0.6005952647878041  0.9919206178196903  0.9862781394027280
  0.6478184997399080  0.9913995745517388  0.1993603805293876
  0.5981634995230338  0.9997541028222056  0.3992976654208368
  0.5980997228045131  0.9968708750728638  0.5947323747159117
  0.5981903753683137  0.9977226043726384  0.7910055465565113
  0.5982030515141581  0.1994208657933371  0.4002500061330836
  0.6036439395081967  0.1972569408361793  0.5925091490979704
  0.5933979889784879  0.1966000431129365  0.7749722901626351
  0.6020186178112364  0.4004320722152815  0.9984266657906148
  0.6021910125398467  0.4061563508103917  0.1973906938490654
  0.6000070781486356  0.3977826797192379  0.3942356670885797
  0.5982738615564711  0.4005561093359008  0.5951630134562856
  0.6001964593358602  0.3969029608561550  0.7966542476026904
  0.6023747693397065  0.6004639065940791  0.9941866231327381
  0.6018507909091261  0.6019282501183225  0.1953058076475329
  0.5969445448220559  0.5999667211467943  0.5992188265050510
  0.5976264128330558  0.5971076317926231  0.7960471504505902
  0.5988526089222437  0.7971765325255739  0.9971485746717854
  0.6002180249540555  0.7982035978486837  0.1959228803442033
  0.5932017925915334  0.8023450942110493  0.3951532951315090
  0.5985533973701505  0.7983582116214938  0.5952168348335081
  0.5943561413598464  0.7969821116036158  0.7955785687870943
  0.7993215995956136  0.9967544230728165  0.9965120219034764
  0.7919138005406028  0.9984401190489610  0.3817399882542000
  0.7982379310698179  0.9917730625869026  0.7988638201699431
  0.8090623664097691  0.1011914235118080  0.1002604250739249
  0.8063651267552064  0.2067168889352888  0.1994023189917694
  0.8003293318567664  0.2041309730444234  0.3935708147294013
  0.8014154528613076  0.2060848621033435  0.5931881287847856
  0.8026134148959564  0.4022449303149849  0.9950234570937372
  0.7979499696969047  0.4026209690549852  0.3955686536102183
  0.7931242535032722  0.4034950676928208  0.5949082214863081
  0.7963965662229211  0.4057083842016606  0.7963304653997315
  0.8028359512376513  0.6009543573955680  0.9953574688921296
  0.7998970499950199  0.6010517157230814  0.1957770488608084
  0.8001293728981145  0.5993933791087165  0.3988265840969609
  0.7974873428933259  0.6004921695085796  0.5972370850409314
  0.8011059345944141  0.6011565458186394  0.7965415669848837
  0.8052814785911044  0.7983962247383227  0.9953888270030589
  0.7974009998293676  0.7977340943310577  0.1958192421410814
  0.7966169733360663  0.7984941084522590  0.3951209753536430
  0.7959578916393829  0.7947096559030248  0.5937166722660560
  0.7835760259585047  0.7962382593753198  0.7943836590355685
  0.3937927809219758  0.2076961116203126  0.1992967057990314
  0.4006359398657769  0.4007188742817033  0.3971944999935236
  0.3980033403183647  0.7964532289649011  0.6002186789321010
  0.8014717677513220  0.4029463378270757  0.1967968511888113
  0.1904924259819110  0.0050574123953221  0.4144397027882261
