Zr Ti V  W 
 1.0000000000000000
    15.3704372863088707    0.0041087699184726    0.0045828320708022
     0.0041071823098185   15.3593176205705255    0.0049868964281650
     0.0045832368054306    0.0049883200619353   15.3853693029952101
 Zr  Ti  V   W  
   2   2 106  14
Direct
  0.1910346101555597  0.9681482973942437  0.1732457003751149
  0.7917661193560170  0.4009310010630579  0.8098567165254064
  0.4123748253016398  0.7993908464185516  0.8004300079857428
  0.6130791831751626  0.4011628893273523  0.9883726351389077
  0.0013824670122627  0.9997972875300328  0.0034930936123039
  0.9884077818742423  0.0058408627372064  0.2028583160506122
  0.9990561243391619  0.9972493965325835  0.4003635267969942
  0.9936431152292261  0.0005976476221736  0.6029781984709189
  0.0013040419194510  0.9991253556251726  0.8015118913383290
  0.0000975707393421  0.2005690997371209  0.0006723363536356
  0.0001117606156973  0.2030056063357055  0.2028964012493491
  0.0006512378143007  0.2004085613922544  0.4010530835861036
  0.0029183018723065  0.2009384281749564  0.5991303682465917
  0.9993941278759252  0.2009762159441028  0.8018239444071172
  0.0042175986042989  0.3997653742547498  0.0063904212231221
  0.9988670519412871  0.4014116855067777  0.3969201722243016
  0.9973119162108999  0.4000765034998695  0.5998975817476507
  0.9994229711267801  0.4010231583718874  0.8029749862012274
  0.9987557006950730  0.6056851394189667  0.0018686478561090
  0.0028459105117242  0.5982786691642602  0.2013226915681787
  0.0000459279075786  0.6033677396124826  0.4015528362168080
  0.9995385237847331  0.5994614779046747  0.6013483767485914
  0.0018484498175109  0.6000343711930970  0.8001674787448952
  0.9983318171325630  0.8030976660896538  0.2036344680865799
  0.9991939675444540  0.8003258999177143  0.5972929497971280
  0.9988907541900746  0.7996375030801565  0.8082261884015695
  0.2016120950858240  0.0041616911304154  0.9816532836873840
  0.1975376459407422  0.0000595563702535  0.4085185535516754
  0.1985021557370451  0.0045153367739239  0.6054812526634290
  0.2004060947374741  0.2028108548594029  0.9986827400106519
  0.1996103428945079  0.1941285170563957  0.1995477425548594
  0.2017805239026969  0.1992898030289492  0.4027544426532439
  0.2009373616112071  0.1965767006849329  0.7949989927785469
  0.1959388127241977  0.4040394308775989  0.1948345177708323
  0.1992303218621323  0.4018772767133209  0.4003929757203030
  0.1978808382289061  0.3969283583889845  0.6010389541916237
  0.1977697308254251  0.4040184740130656  0.8044722218492729
  0.2011557029644626  0.5986671348264232  0.9953411024393207
  0.2006431826357158  0.6020205480060075  0.3990933492112591
  0.1996527613884619  0.5986131156646192  0.6059217839627892
  0.1948095014572552  0.8023633437591464  0.4072962120491004
  0.1992369394045584  0.8001831497160987  0.6042001204267147
  0.1985746309484039  0.7985858097902288  0.8028159788299608
  0.3996383681352066  0.0021961338244335  0.9997287396868619
  0.4017290839039560  0.9990126447972960  0.1994723362637165
  0.3993472723467053  0.0029317935152690  0.3995427832104870
  0.4017864257984168  0.9992399431393210  0.5998967631487987
  0.3988411873705349  0.0011406501016086  0.7992994687026246
  0.4011061195679942  0.2009795787698023  0.0020561690558460
  0.3981711426187494  0.1984322766869310  0.2036858913155867
  0.3961401217448079  0.2003542192226475  0.5945828132118949
  0.3999093270762363  0.2003208167048202  0.7991413967390369
  0.3953144059285009  0.3981380745972861  0.0004999091152294
  0.4026759830414947  0.4002707329489705  0.1981475762455074
  0.3993306705516851  0.3971461714677961  0.3975325529339168
  0.3995346099573409  0.3996120143544067  0.5981172785647644
  0.3967127153761009  0.3988489868102232  0.7995834591310682
  0.4017050468659278  0.5987651973092206  0.9991985254050230
  0.3988245788262573  0.6036066355790171  0.2005540432309272
  0.3994887942763679  0.5995407684574817  0.4005972748984594
  0.3988029486161104  0.5996129966556802  0.5981755151827834
  0.3968904406719567  0.5981847676413161  0.7985300085174557
  0.4006031257279373  0.7998877730880023  0.0054979197561043
  0.3968195104468660  0.8012303947892200  0.3966825384969618
  0.4004241422721260  0.8015024708517240  0.5950580328398332
  0.6010717696826420  0.9999485504823897  0.9974697282342548
  0.6019847057364778  0.0013733491584833  0.1979613032616333
  0.5984598889690373  0.9998352005435629  0.4012582541565943
  0.6020575552804612  0.0011450919203410  0.6024415825870172
  0.5980542618222189  0.9990614250042332  0.8010854100097140
  0.5991064230722752  0.1990931596940785  0.9989502000468595
  0.5984130311973939  0.2026504219469840  0.1986371759695769
  0.5941542942806088  0.2012884724421088  0.4010182754838427
  0.5980881904931572  0.2008774692352493  0.6009304328912397
  0.5967499568956817  0.2009549199096250  0.7999632907693494
  0.6026334900157591  0.4003341297572625  0.1991250747807740
  0.6007762959067340  0.4014186233768348  0.3986146318651221
  0.5999427770396729  0.4003391355532789  0.5992849227303113
  0.5899435259917142  0.4007890017495522  0.7945234535726476
  0.6008332397118964  0.6019363146123673  0.9982346053163224
  0.5992129687661163  0.5976019984439835  0.1976813202188825
  0.5985933470041199  0.5998329742834750  0.4018136123015529
  0.5985780623638248  0.5997830811219583  0.6018480739820762
  0.5957968198038036  0.6005743944489873  0.8001320902499958
  0.6028229925156877  0.7998740161523000  0.9990225799648781
  0.5990960317093684  0.7994419311817555  0.1998129131635314
  0.6035378230395395  0.7988239592109607  0.4006016109936025
  0.5999172560847196  0.7993925662421296  0.6008490685756591
  0.6047169620469464  0.7993068377909588  0.8009478040826832
  0.8003050630362483  0.0001050539265102  0.0043214747126603
  0.7972060480501029  0.9972549685266432  0.4018746763676554
  0.7993666786000869  0.9995476570181636  0.7977250865406253
  0.8003659974383104  0.1995093129067444  0.0013517477347942
  0.7972404176443535  0.1973807408459492  0.2026143728260622
  0.7982233979092247  0.1988615502748781  0.4015975111160781
  0.7993671130400177  0.1965301302739599  0.6002730779224964
  0.7995141812658930  0.1952807967783089  0.8008186280229241
  0.8083008138287782  0.4007769098278670  0.0104963014747481
  0.8040250159162597  0.3997475154401480  0.2044304093753019
  0.7996543035329754  0.4005525703617123  0.4018118734210752
  0.7994290984360106  0.3985353835115834  0.5993268997503221
  0.8008963027139031  0.6025076007950075  0.0014343651215574
  0.7969907381628772  0.6007051344106450  0.2012635506866271
  0.7978990853663449  0.6046456671937668  0.4015917669376377
  0.7984607351992491  0.6001165290260728  0.6025549964664566
  0.7992018538396852  0.6061828197256364  0.7994558071482331
  0.8077319984755612  0.8021732468810547  0.0031697548130014
  0.7989744943883361  0.8044590239844041  0.2052990947522784
  0.8005495462774636  0.8051392052626625  0.5968824851815292
  0.8016509838775639  0.8015263066010101  0.8010702600341245
  0.9997169775924247  0.4008256389531780  0.2019786163809791
  0.0049948714654910  0.8008507015073182  0.0081415734962430
  0.9972570296629789  0.7979812479785933  0.4007038864237136
  0.2001070157497032  0.9979767764020578  0.7946355500696244
  0.1995057226440451  0.2016502149238244  0.6011210826186769
  0.1995396695507154  0.3998036368596760  0.9983846257021682
  0.2027488729819102  0.5925921974626568  0.1984847888563172
  0.2010649263469474  0.6000724487592771  0.7989564952067157
  0.1962482666720879  0.8024618163481436  0.9949830679228832
  0.3981980548716913  0.2000241897627280  0.3985373404069640
  0.4076685133739388  0.8030216568263535  0.2010046532865137
  0.7943805173158554  0.0023598979267460  0.2019852089353583
  0.7980220411304265  0.0010341414835519  0.6011089213457376
  0.8032469203835819  0.8012568228901282  0.4005092590014074
