Zr Ti V  Cr W 
 1.0000000000000000
    15.3205282173675101    0.0002014824685806   -0.0032720455521328
     0.0002023707323046   15.3277042438828079    0.0007193262014022
    -0.0032728540049734    0.0007198926617368   15.3420216939870571
 Zr  Ti  V   Cr  W  
   1   2 101   1  19
Direct
  0.3935606381899922  0.4177994369763325  0.8170137892312151
  0.6104172152526965  0.6088488301245361  0.0065767359473818
  0.7905310322178581  0.7880869884422828  0.0100560311354251
  0.9972208432032882  0.9981576947988443  0.9957518528140251
  0.9994491688854240  0.9989408658059089  0.1985565014268622
  0.9986027048760437  0.9982195686194855  0.3997726354823875
  0.0007592692060940  0.9950768244383099  0.6063821109027572
  0.0020432992853057  0.2012459886571201  0.9990838701569786
  0.9987830123071364  0.1995191760277745  0.2008146788733459
  0.9993089884665449  0.1987824657650478  0.4026043740595884
  0.0001792919223690  0.1996883332848757  0.6016458057748225
  0.9957610824060151  0.2119695268818699  0.7998474314727614
  0.0044121641616754  0.4003810003637246  0.9989433843267473
  0.9996305918617704  0.4001927256810248  0.1968391399023225
  0.0005414273743944  0.4007053804542144  0.3989535911340366
  0.0022654934846730  0.4036485509532032  0.6050305362880789
  0.0019054702196233  0.5997646636002538  0.9950449743071309
  0.9985838872455922  0.5982644753138679  0.1984467175701551
  0.9951769149509299  0.5980303356730445  0.4053967421075877
  0.0035314831887165  0.7978688705478409  0.9999565259704423
  0.9956909811818229  0.7982034807373193  0.1993492722924841
  0.0023353716598675  0.7989549810278762  0.4045110090074813
  0.0009672636407752  0.7943611347329086  0.7977756549096084
  0.2004736166532791  0.0018169957474305  0.0006714933440559
  0.1983850441406351  0.9998619364541499  0.1985720201521991
  0.2043248876516186  0.9955931107876208  0.3981690139530232
  0.1994572786204091  0.0052202395025331  0.6001327958579883
  0.1945032086664172  0.9997697973511778  0.8011241475491433
  0.2005507034379277  0.1983410744773964  0.0001258529386419
  0.1986955524020821  0.2005187986814683  0.2016282607942161
  0.1990491919892047  0.1996068833261080  0.4045136170497021
  0.1994432540063596  0.2001757726175606  0.7956383068503367
  0.2060708016810143  0.3980591505391334  0.9997388802371450
  0.2005353081293685  0.3996536343707635  0.2007714285789031
  0.2006993904642777  0.4001618571028778  0.3979203247936022
  0.2007649466581126  0.3948842016701731  0.5996590478359417
  0.1911825487865161  0.3993569171595099  0.8003246599183542
  0.1982720168913425  0.6008114620512182  0.0004704698904862
  0.1986797683512871  0.5989157178632886  0.2000638540637512
  0.2010317841464566  0.6026050129346491  0.4003611547917142
  0.1967336613008817  0.5976670947258770  0.5989196159819850
  0.2104649718274588  0.5972376163485430  0.7992193691871793
  0.1999545965349198  0.8002131301676690  0.0025277068558365
  0.1993683454859875  0.7985413130770661  0.2034824572451128
  0.1968316417140598  0.7999589339534033  0.5943374311529946
  0.2031679787256801  0.7987870947996472  0.7995215583524514
  0.3999914554975540  0.0013800252524805  0.0005089272203694
  0.4012492041005585  0.9995634159683398  0.2007051815409947
  0.3968286740710770  0.9989771131171973  0.5965237957319813
  0.4026773780496596  0.9963633095714621  0.8001266282996835
  0.3999688397686615  0.2029750337586788  0.9976049214850213
  0.3999666831613115  0.2001233892599205  0.2008689916421513
  0.3990881954493327  0.1959455281942768  0.4010241040342803
  0.3992916908741128  0.2001511594968351  0.6025078452734105
  0.4007396742140583  0.1984076038135940  0.7994190460739290
  0.4037696129397942  0.4013203076655970  0.2020159196379833
  0.3993250936964877  0.4015055172791017  0.4002011297978518
  0.3991735269821438  0.3996697359810246  0.6014160265358317
  0.3994207087978198  0.5980969569845366  0.9961727927283959
  0.4018337304108889  0.6008721180498308  0.1992659743943821
  0.4004956940962957  0.6003237230651144  0.4029829962059764
  0.4002257125710503  0.5982432399911150  0.6047722301279612
  0.3978922498390216  0.8013366478342712  0.9973923218062662
  0.4014725786606771  0.7974816504667572  0.1964638657232777
  0.3994750668171684  0.8010143899481650  0.6024974483960996
  0.6021262390585082  0.0031792721170751  0.0003640285621234
  0.6001101041774677  0.0006359063053655  0.1989450436987097
  0.5962951130084109  0.9981561830519509  0.3957919677709251
  0.7351983483418223  0.0029476987887926  0.6011351847983696
  0.6029161680427992  0.9991343665423246  0.8025742651981935
  0.5996587689407590  0.2009529264042691  0.9992388568480391
  0.6020335403902887  0.2029294971326243  0.2015639618497055
  0.5997568548877138  0.1993310847551793  0.4043748684011043
  0.6037872961041745  0.2003470451344195  0.7971943074764436
  0.5953345484926583  0.3984685380813668  0.0051726944167367
  0.5982455129217589  0.3989673285454219  0.3953073713121066
  0.5971204547254146  0.3952765670826213  0.6001926251401152
  0.6020701960380845  0.4016114456940801  0.8036477848151732
  0.6005918450829365  0.5955460668299776  0.2052215019713748
  0.6027194740818955  0.5993006348529895  0.4038140418289933
  0.6019080304904030  0.5978773581733536  0.5988892444323278
  0.6029583687793468  0.6002915894883221  0.7962756294541531
  0.5937328966261346  0.8045864869196856  0.0000732620644873
  0.6018585875582718  0.7975075379109818  0.1994065675703328
  0.5994129912300454  0.7993012664641840  0.4011136729894603
  0.6010193779281294  0.8006756884297365  0.5973470795733112
  0.5988027378985923  0.8029220481359381  0.7966065783106387
  0.7999721546009911  0.9945114791032564  0.1954235712764787
  0.7971759941685185  0.9975076681723459  0.3993524478047519
  0.8035051936074759  0.0004089695807598  0.8074264548079230
  0.7997129240423443  0.1994735129588634  0.9960245964692160
  0.8007769474373294  0.1994084987644371  0.2028907685176414
  0.8006911428297434  0.1973173724521918  0.4041486108076592
  0.7993939282582823  0.3980198045614262  0.0025930647770904
  0.7966937920111365  0.3996382365908895  0.1989299433407485
  0.8001249084653196  0.4026693415583353  0.3991155079467604
  0.7997508418369520  0.3942113514792773  0.5987408407802062
  0.8003974937665111  0.3990647895180346  0.8039394366888046
  0.8030323490403515  0.5942774322846500  0.9948427784891397
  0.8009539006845945  0.6023051169751057  0.2045856502075997
  0.8015256215930873  0.5958541163137503  0.5988779073289472
  0.7988483637292066  0.7960941356150869  0.3978747163735443
  0.8017430332181816  0.8031527655362554  0.5985683546554253
  0.7965185162898399  0.7941769243203559  0.7986118199502602
  0.3997603697796090  0.7988889554889760  0.3996311688995702
  0.9989921873975496  0.9857818220437622  0.8012318988622165
  0.9974033873165531  0.4079494726676520  0.8038617133959332
  0.0002208218516431  0.6025450318351703  0.6040665546318875
  0.9879069618306714  0.5971602854305837  0.7959361652741278
  0.0012951663074816  0.7957714529708463  0.6003745707277541
  0.1983351840435055  0.1996283147257215  0.5992940107779345
  0.1973637016113375  0.7995983403233381  0.3986119912673307
  0.4006288197373276  0.9997195606786614  0.3988803846048777
  0.4012029788644751  0.4010259019767872  0.0119563677024890
  0.4063699172937220  0.6149875613358146  0.8006441306383708
  0.4000223119872634  0.8014194712905098  0.7996273726121823
  0.6027462192416319  0.2030674833261290  0.6010258375487220
  0.6004595126833835  0.3989156974978313  0.2001785190194701
  0.8004598244416959  0.0069390894399959  0.0011160637173560
  0.7983483068319192  0.1995117391707711  0.6032286673941689
  0.8011033249397785  0.1994864665278766  0.7969665180121902
  0.7998472096151605  0.5995754636628766  0.4028397208336653
  0.7981179964867621  0.5970303116501118  0.7964712889468994
  0.7994185263247733  0.7993377442777285  0.2047468893085878
