Zr V  Cr W 
 1.0000000000000000
    15.4863295998759050    0.0024137293282322    0.0105674120120943
     0.0024156779473548   15.5040449564505511   -0.0174543962439357
     0.0105707746262879   -0.0174578174046017   15.4782021514271442
 Zr  V   Cr  W  
  10 107   6   1
Direct
  0.0003845316867286  0.9674078240341137  0.7582807745150245
  0.9975792732444599  0.1984531234617697  0.6069170853764893
  0.0004705395619120  0.4338387967795508  0.0381395708301458
  0.0037397020415668  0.5774890176855564  0.2208231889733456
  0.9608636773827102  0.7907843255470406  0.1949354002548838
  0.0024749960373045  0.7952914579323725  0.5999290978999482
  0.1956536185092962  0.6041146041105908  0.5997070850869874
  0.3582861422072591  0.8030550223864115  0.1997313795949022
  0.8313545827597716  0.4317608411884872  0.3976373370329965
  0.7501994287297503  0.7917434816831858  0.1990272069637593
  0.0007323496797285  0.0059470256463650  0.9986407813684313
  0.0034702083500484  0.9980539416819033  0.3936897334172828
  0.0012738042416362  0.0007203692305536  0.5717468367587000
  0.0002293045511976  0.1991217067486515  0.2015309505748909
  0.0007190500930322  0.2001018954344335  0.3994723326742169
  0.0024809686726641  0.2072153631510466  0.8090346687764161
  0.9984128191431763  0.3862449432209025  0.2297716631342082
  0.0179869924674223  0.3995580403421560  0.4066997129832733
  0.0009392562264305  0.4018077627930258  0.6011295860020868
  0.9994223531972077  0.3981738760023680  0.8020344264647691
  0.0003817195782081  0.6232794913792699  0.0136771073064210
  0.0048104789540278  0.6048630855302016  0.4176031463443678
  0.9936495647377395  0.5937937562904391  0.6097555722675148
  0.0014273115660730  0.5908682910959012  0.8098197841676481
  0.0013247387419169  0.8112520495004080  0.9932206353301261
  0.0028485061506760  0.7994481957094546  0.3963718656463040
  0.0003270273994545  0.7811206524620739  0.8047896275022411
  0.1994459693112826  0.0027905161832875  0.9981965389862917
  0.1997629221314596  0.0022394112509854  0.1986736318272792
  0.2019389175197331  0.9994994663057374  0.3965731603857471
  0.2014577903224638  0.0015883223202415  0.5969053770463270
  0.2033897695745061  0.9996282805767973  0.7994734615616076
  0.2016551768378475  0.2033032845001379  0.9988003080520796
  0.2006173986245199  0.2006277711598088  0.1991102251840171
  0.2022802577671674  0.1986705059154107  0.3983448235286130
  0.2008864178823886  0.1959354383041214  0.8002042852338226
  0.2028243905353354  0.4014772299434295  0.0009521728739228
  0.1979128824573129  0.3995496940523013  0.1989411849950229
  0.2063605081209551  0.4025143186436804  0.4000771381750572
  0.2026785982111990  0.3970680407185461  0.5978889732239028
  0.2020018031367341  0.6024632891315732  0.0012409803029989
  0.2063217846144756  0.6011789311490359  0.1996572295829092
  0.2009611026894745  0.6006866862022712  0.3939332689671631
  0.2009466637003227  0.6040155608146900  0.8062560560905804
  0.1996210113168565  0.8035768128750248  0.0008284235961897
  0.1712584914543646  0.7976875609420756  0.1979647512307818
  0.1996954287663096  0.8004334280502141  0.3977733905440381
  0.2083253638596651  0.8066617091340926  0.5989709994512591
  0.1997526517864103  0.8008591194860784  0.7995802625606735
  0.4013590110422687  0.0006963662981740  0.9987261811279621
  0.4018953982402453  0.0037212888891915  0.1987538527529298
  0.4002622682784754  0.9990658685348835  0.3992486765530749
  0.4027136421766789  0.0007971261215942  0.5985133244891312
  0.4014691842154718  0.9984163631504430  0.7975228840572632
  0.4009339181082680  0.2001071804551469  0.9988854095238711
  0.4006242653475182  0.2004033094816410  0.1996664383443423
  0.4008339475822130  0.1990998348503083  0.3995067586214077
  0.4026725302713492  0.1995074808951584  0.5992568680566638
  0.3989323896758875  0.3997730440345132  0.9976939076219729
  0.3992924202058196  0.3978681053643530  0.1991554646108741
  0.4015745495253922  0.3993626327953327  0.3996357556363956
  0.3994972930854375  0.3994286642279113  0.6021460077653686
  0.4034502104290926  0.3998570525141996  0.7992249751228807
  0.4022756941296288  0.6009745815204274  0.0000319790795684
  0.4039830144646907  0.5943148305448902  0.2004752583329928
  0.4017484924027267  0.6009660507707042  0.4005622815358409
  0.4047260723348444  0.5990766456890209  0.5991654031194851
  0.4006628257725003  0.5988027987182678  0.8006232834096634
  0.3998538618519261  0.8011365348026013  0.9951299458169378
  0.4004534653383520  0.7994989340415993  0.4032317676608980
  0.4021892123635878  0.8004796277160608  0.6008758246255503
  0.4014149224113941  0.7987743826563308  0.7990585516303566
  0.6006242751991415  0.9992035461557586  0.9986936530815278
  0.6004338013522721  0.9962133891444761  0.1989471896353552
  0.6007541554227589  0.9976938973024156  0.3980455109525310
  0.6013067722944795  0.9993923764657264  0.5971425487187463
  0.6014902739273797  0.9976494136793964  0.7977771192157176
  0.5992464194302948  0.1986352369155229  0.9997917014105812
  0.6010079229566812  0.1999943825322023  0.1988146291980406
  0.6001208544868308  0.1991361288662185  0.5989242821399011
  0.6012476147428462  0.1992474436253505  0.7996457287076973
  0.6007332321620595  0.3989807406362508  0.9991785460704163
  0.6009829424416779  0.4003286722150264  0.1992163669618357
  0.5993273512107749  0.3983606873803969  0.3980284662347619
  0.6016491505235056  0.3995024679663067  0.5972218943406210
  0.6005487867508791  0.4001332006745412  0.7988988988856394
  0.6021922555365889  0.5997298717703963  0.0037961271331965
  0.6051441132054266  0.5995035763942049  0.3955439111569054
  0.6016410612750956  0.5993562122888030  0.5969701394450909
  0.6036194916245494  0.6003608601095796  0.8013477495794830
  0.6011801133631235  0.8005505521554414  0.9985076743870079
  0.5643142783356969  0.7907123504223619  0.1993579385168656
  0.5993668045431207  0.7997955064618607  0.3987137786348220
  0.6014467909137200  0.7993619039251348  0.5984883628851895
  0.6006728773676352  0.7981149894047387  0.7986838232529240
  0.8013730883067783  0.0012723668202099  0.9972713115058771
  0.8007962992211788  0.9973903745283840  0.1984021061093964
  0.8000868807600657  0.0006821689089671  0.3981046305137796
  0.8023682900051519  0.0001356217090895  0.5989750470898008
  0.7989598072363042  0.0001143188419502  0.7988743508246313
  0.7994138486735817  0.2001080105123740  0.9993729113879111
  0.7989342348270200  0.1993884897958597  0.1985429132273852
  0.7996138192885316  0.1966866456559097  0.3985099521516135
  0.7946131083145895  0.2015764266184940  0.5993044935178420
  0.8006009803454633  0.1990068474607647  0.8011107400492117
  0.8017465660052692  0.3975591903781340  0.1954974593361728
  0.7988544244185946  0.3999936070089469  0.6002537407573246
  0.8003251610885174  0.4002515123570044  0.8001503830627172
  0.8032236177558979  0.6006435772432607  0.0004412680680392
  0.7937598447061205  0.5945672534284523  0.2081329402953176
  0.8028479569091440  0.6190412059244427  0.4040209346032871
  0.7988848497780131  0.5999056641912862  0.6008647043963971
  0.8016899244647226  0.5998046102805060  0.8026019759438141
  0.8023181571946241  0.8023840720730261  0.9980388685505932
  0.8067565098591198  0.8065133066319201  0.4016491258886621
  0.7959529506879077  0.8001902078813680  0.6007156290341061
  0.8010719251298923  0.7988038088872907  0.7990911853931155
  0.9994180464219751  0.0026415613181723  0.1974088330814693
  0.0003321925172981  0.2010657656984153  0.0034628515588351
  0.2049997350755232  0.2001743250048504  0.5997932483556195
  0.4018237781202105  0.1995307375923514  0.7995757071231192
  0.5999364379723363  0.1983855949266804  0.3982191881240408
  0.7977710020477555  0.3994902357872852  0.9983929170233883
  0.6012092954279001  0.5982329863995153  0.1989731710916976
