Zr Ti V  Cr W 
 1.0000000000000000
    14.8243720250353253    0.0364331646835319   -0.0048077270791467
     0.0360726360644600   14.6535921876343505   -0.0210146583999431
    -0.0053616735155131   -0.0212382503122032   14.6186128305967351
 Zr  Ti  V   Cr  W  
   5   2 102   3  12
Selective dynamics
Cartesian
  3.2454548790367781  5.2927584431803334  3.4080652732435648   T   T   T
  2.8778527246439789 12.6047631673853804  8.9671402025444369   T   T   T
  6.4270131146475480 11.4844940086050684  8.1763107219455105   T   T   T
  8.3420576951046961 12.1424631301000669 11.0881412804867789   T   T   T
 12.0850243694699717 11.7683695731479308  0.2520182794336588   T   T   T
  6.5901482649359773  3.4938215225347866  3.1583536585006073   T   T   T
 12.2655653759275616  5.8419905961736101 11.2823957939100463   T   T   T
 -0.5417423289692049 -0.2462130976423156 -0.9309310088760085   T   T   T
  1.6220858526781823 -0.1938219881660936  1.1794553730464898   T   T   T
  0.0451521235555067  0.7636078784805120  5.0930551628034655   T   T   T
 -0.1633032419605056 -0.9215712430037478  8.5544435148586917   T   T   T
  1.1493924542727134 -0.0091781881263608 11.6603917955067864   T   T   T
  0.4361825085668350  2.1778605851202095 -0.4846812749653821   T   T   T
  0.5075789665656620  2.8752786934222909  3.5859695666459479   T   T   T
 -0.5582450154756275  3.7106147557720979  5.7739190929640127   T   T   T
 -0.5644124263567470  3.2833180190778632  8.2943777884223984   T   T   T
 -0.7009783921856876  2.0297195659688088 11.9204069844320557   T   T   T
  0.8278724917796746  5.1641955602712288  0.1545782522812595   T   T   T
 -0.2599786069292926  5.4491340567538558  4.0082017822899845   T   T   T
  1.1040916398629697  6.4439344345095169  5.9848971063311280   T   T   T
 -0.9273332400802331  6.9335650166629499  8.8859808926090924   T   T   T
  0.0367396179520576  4.7805197119566323 12.3137881486476672   T   T   T
 -0.0029876978082815  9.5494172838250062 -0.4740282163809854   T   T   T
  0.5031479472456115  8.0752237334618044  3.6138073493190728   T   T   T
 -0.8277909401294693  9.7328568612019541  5.2943909061299586   T   T   T
  1.2545789236278699  9.6053521268573263  9.3467931794298487   T   T   T
  0.9474731094501001  8.0677276309652921 12.3634963052924753   T   T   T
  1.3965108163175370 12.5149869790595041 -0.3656535183818849   T   T   T
  0.3379215644170727 12.5841019648053951  2.0989562623974543   T   T   T
  0.7834825174177764 11.7880210741822395  6.2089113972138783   T   T   T
 -0.4189823872501764 11.2142191571080296  8.8807986589598720   T   T   T
  0.0760812955823950 12.3744303804918658 11.5340150648255850   T   T   T
  3.0769156903506980  0.3156318257405432 -1.0418470085525500   T   T   T
  3.6136560513736784 -0.7818245460105833  4.2173055592980564   T   T   T
  3.5625992678464531  2.9896462667433990  0.1527674478308146   T   T   T
  2.8841097348759805  1.5535908006845880  2.6855642935328023   T   T   T
  2.7087419930512322  2.1008707767401367  5.2159627705094502   T   T   T
  2.9642221771128741  2.6228828666541562  9.7152719642255398   T   T   T
  3.1139386667122775  6.0867957730277329 -0.0997071983806752   T   T   T
  3.5097918929191847  7.0948047679775872  6.6278635853278125   T   T   T
  1.9952940466767872  7.1489606408233062  8.6769618981043681   T   T   T
  3.4110298098818781  4.7689505277475472 10.8364804611790166   T   T   T
  3.7236187766724580  9.6538729560658467  0.2958499735371676   T   T   T
  2.6678212549470577  9.3592562289011845  2.5856689069834169   T   T   T
  2.0209719363765717  9.7735178048297158  4.9466643798181646   T   T   T
  4.4623081470016164 12.2394740460992786 -0.3430147055108955   T   T   T
  3.7102831500096842 11.7258075481000343  5.4821660872818967   T   T   T
  5.7653204200063470 -0.1518086644729190  0.3705736501847013   T   T   T
  5.1297919018739986  0.0136885430534183  2.6649988191549698   T   T   T
  5.3678331058692530 -0.5748650199831808  6.6908558823527837   T   T   T
  6.0714544759074629 -0.7740430929809594  9.7383562103329986   T   T   T
  5.4932853663031995 -0.6118432267422870 12.5875439374338978   T   T   T
  5.0858548653918865  1.9487743531880448 -1.5132938397204116   T   T   T
  6.2896454749449298  3.1504989314197371  6.5077182187763079   T   T   T
  8.4160701191158243  1.2473763361222909 12.2069678348751545   T   T   T
  5.4853141839461994  5.7669688594127395  0.2454741954781596   T   T   T
  6.6020026790364126  6.4530987986113892  2.4249512890223111   T   T   T
  5.4418758817015540  5.2928121358032083  5.6922524482062826   T   T   T
  6.0934342261088430  5.1031148373261770  8.3854542246046506   T   T   T
  5.4472012302424062  6.3440422400020573 10.7150206625982118   T   T   T
  6.5843818260692570  8.7807206538175073  1.1082372887939322   T   T   T
  6.1922564991657705  9.4760141470820525  3.4942736915234089   T   T   T
  5.5550124892119994  9.2853710800546043  6.0783775944073097   T   T   T
  5.1305465973234012  7.9458727492022669  8.5023607355695674   T   T   T
  5.8693311772100198  9.0009602362329240 11.0161031409525680   T   T   T
  6.2251573827315294 10.3235161019811752 -1.1186927055633347   T   T   T
  5.7426326415499052 12.2951764802803627  2.4983518314352535   T   T   T
  9.0180003137818829 -0.8271428747374782  1.2855921694251964   T   T   T
  8.1456893172752203 -0.8334644240636758  3.8955212508120836   T   T   T
  9.5428380453083896 -0.1421097169750795  6.4502060546640809   T   T   T
  7.9462300722136936  0.0473210594238327  8.5717052663559592   T   T   T
  8.0876087710566615  2.6181885936181848  0.5948282438675436   T   T   T
  9.0799977125766063  1.5462756277788781  2.7572943612420362   T   T   T
  8.6296990839327918  2.4728320759532858  5.4269739650881910   T   T   T
  8.6490766265940042  3.3364420035370230 10.5284898256600865   T   T   T
  9.0720722053266645  3.7274347034990734 13.1709750069540412   T   T   T
  8.8912203980805948  5.5070438346667183  2.5688854432973809   T   T   T
  8.4037167581656504  6.2997266437338135  7.3925196517309928   T   T   T
  9.3236896805916896  6.4378010857883785  9.6746567914322021   T   T   T
  7.9678305921811008  5.7199356184301262 11.8431187771505115   T   T   T
  8.7545061495225198  9.5332749663576042 -0.5464673552097755   T   T   T
  9.4603398723337406  9.0076623219793053  3.7577608516574008   T   T   T
  8.7364262175854961  7.6548152401402456  5.4355791772261357   T   T   T
  9.5412057463542936  9.3572778618731576  8.8398553203158947   T   T   T
  8.6442241048953239  8.3655281919016247 11.5600377349289296   T   T   T
  8.4752204353790184 12.0559031447986360  0.0437529957792037   T   T   T
  9.0086684724552875 11.7148114405237447  5.4669931258080213   T   T   T
  9.8183069616417313 12.0686659090806092  7.9288077141915903   T   T   T
 11.7133516123446135  0.8229651766484218 -0.2706560490906511   T   T   T
 12.9904898701552369 -1.2726888379725725  3.1903588255810358   T   T   T
 12.3508384647692235 -0.3884392197727750  5.9268854592601024   T   T   T
 12.5492728655862997  0.8394602789017936  8.6003751623861522   T   T   T
 11.1588887238860455 -0.3857681223473615 11.9859947118606094   T   T   T
 12.1635133799056785  3.2031170328394047 -0.3993131604972637   T   T   T
 11.8460424596694907  2.4488330114143979  1.9497268065464324   T   T   T
 12.4166115804258581  2.1868530102837989  4.6415819345610840   T   T   T
 12.5099683413812137  3.1444454096951358  9.8306438800185152   T   T   T
 11.1926109021637608  2.3671383499784802 11.9579422339203063   T   T   T
 10.7953319121290932  5.9647103483581123  1.0108100120736825   T   T   T
 11.2505028622971981  6.7733502328863127  3.7220241546722201   T   T   T
 11.8720189148666933  5.0760688931113513  5.7097291599400481   T   T   T
 10.8794346342275983  8.3245928114888574  0.1147202897284537   T   T   T
 12.4376117830005430  8.7601945934050054  2.5859055441770482   T   T   T
 11.0612124940254581  9.5720488279260785  6.1257449020463079   T   T   T
 11.7372939969495445  8.0595344231474826  8.3525516866343619   T   T   T
 11.1277267907882003  9.4123192899017702 12.2936555806751926   T   T   T
 10.6179765234644119 11.8176916804917767  3.4486265826015865   T   T   T
 12.7290157849942815 11.8393552382766885  5.1409242670368265   T   T   T
 11.7333162859986597 11.6841285298049709  9.3110140347230939   T   T   T
  2.9833691667193398  1.0640851623291838  8.0226028000879683   T   T   T
  3.6356196132194158 10.1454891492199231 10.1400036392317681   T   T   T
 11.8613997472213697 11.7582078688378715 11.5834292014328213   T   T   T
  2.0628847402606394 -0.5587641661425362  6.3682705933377015   T   T   T
  3.8459395639570646  0.1882032324181168 10.7938033088392977   T   T   T
  2.2583352889220265  2.4605820054988503 12.2273064734269887   T   T   T
  3.2875383840174899  9.7755602108593855  7.4829572091952947   T   T   T
  2.9895534137967874 11.9333054647519159  2.2287760584850402   T   T   T
  2.8459193939841336 12.6828002703905298 12.1401728249057008   T   T   T
  5.3660998043653132  1.6028781626946893  8.5964819906172139   T   T   T
  6.3233874060954873 11.9496785059877961  4.9260639140569600   T   T   T
  5.1810299164849694 11.7961712830393957 11.1911336608437963   T   T   T
  8.4016887494425934  6.7286750732710203 -0.2536216308176159   T   T   T
  8.1307669046914981 11.0195216860223510  2.5830152614691939   T   T   T
 11.5640634510037135  5.3017066016797960  8.4452009737716356   T   T   T
