Zr Ti V  Cr W 
 1.0000000000000000
    15.5025012111675391   -0.0012340279220979    0.0009674179831964
    -0.0012333392680093   15.5032162688686519   -0.0125459656457846
     0.0009693510165960   -0.0125545265931211   15.4792246816365271
 Zr  Ti  V   Cr  W  
   7   3 108   1   5
Direct
  0.2046167576992532  0.9979663434796335  0.1535510135206749
  0.1998761590462902  0.4012256881789762  0.8016861322116667
  0.1817437266073496  0.8049755314463809  0.4233132843591269
  0.4239690163197073  0.4029096500459750  0.7997477776234642
  0.6062599931415226  0.1823619005579102  0.9974831491409876
  0.5907916400786511  0.8000585415314855  0.4008541878841085
  0.7955296678629805  0.2024825030724306  0.5991195665166225
  0.0049741136510327  0.8012160043678995  0.5959079183021030
  0.1927080532586036  0.9650147786205633  0.6074100660440909
  0.4163045650960515  0.7897015375109194  0.2281595049863766
  0.9954642753202833  0.9995718136408144  0.9990399990063429
  0.9963182823043529  0.0010547665865916  0.1967836208859872
  0.0005609699840124  0.0018649470606695  0.3963543740478944
  0.9956604054156540  0.0023572071283022  0.5986500790300068
  0.0023321307013389  0.0008210223923839  0.7975722666797747
  0.0015276752471564  0.1996653625720136  0.9977018679539478
  0.0010807391355343  0.2011390036360267  0.1993506984171770
  0.0009901144264374  0.1997988294809270  0.3996416277080616
  0.0023321234797876  0.1991132718368474  0.7975083364544884
  0.9992219487558203  0.4005764802067702  0.0001598342844533
  0.9998094194844666  0.4010667995305913  0.1995744888041952
  0.9988531423934328  0.3996126711249698  0.3985264680033201
  0.9989217897638440  0.4015738333704914  0.5979710320546425
  0.9962720676804658  0.3992588976509839  0.7989875691666125
  0.0002138717392837  0.6002809078257271  0.9997318216322083
  0.9997680836633729  0.5997806331566841  0.1994023144313634
  0.9994304355042564  0.6014156156699891  0.3995534197751833
  0.9987402323647847  0.5982926067330603  0.5993968143022487
  0.0001761261256743  0.6022221900631382  0.7983429714050327
  0.9979025770456792  0.8003509283932000  0.9989426770685986
  0.9991664287112276  0.8001887777759465  0.1992498366028047
  0.9865859375172282  0.8015885892630125  0.3948250839876558
  0.0006634984054028  0.8017123490014398  0.8023497196796230
  0.2069711281263999  0.0067606527804291  0.3794506310760931
  0.2009467777732231  0.9983464640094548  0.8395503790905711
  0.2002482097243407  0.2031863452231142  0.9994530039467862
  0.1989076260751761  0.2047272885290975  0.1985988221196040
  0.1978384732568439  0.2019295334195083  0.3998539944929069
  0.1999363046485187  0.2011342221989881  0.6006919283598171
  0.2000340362738617  0.1931796316833516  0.8000013472249956
  0.1991578712056726  0.4019097921450903  0.0057157910460814
  0.2038728605053287  0.4018018265844829  0.2016438661608606
  0.1983949989063592  0.4023376969682325  0.3990582784885477
  0.1996485473916003  0.3999463204538551  0.5954751191803409
  0.1997338975701487  0.6011575241106901  0.0014038822955089
  0.1998110501727157  0.6010571442305849  0.2011464426927396
  0.1988250717482131  0.5995816360414076  0.4008902166662893
  0.2001768092134684  0.5972436132696646  0.6010110779362752
  0.1985484900857620  0.6057753927480357  0.8024656440994247
  0.2052673886320287  0.7967781730062883  0.0059443925182244
  0.1978079532519222  0.7963024393610799  0.2049505136815922
  0.2082112445856557  0.7848538392736667  0.6193500017925426
  0.2002243345007456  0.8038169556074111  0.8090323716957361
  0.3736372925674600  0.0006902958629733  0.0024077516484793
  0.4051146318867089  0.0039559944112084  0.2085467305773795
  0.4006756181137667  0.0022580158848704  0.5977031882364754
  0.3974902856736983  0.0029472619853291  0.7983003245934438
  0.3984180750119534  0.2017243873504521  0.9988675991909115
  0.4010249879618890  0.2069179820025293  0.2000836631717542
  0.3989809102289279  0.1989121709898812  0.4020288868226803
  0.3974966122445345  0.2021814005510363  0.5997893895239178
  0.3988398510450676  0.1970149793132561  0.7979267583354078
  0.4013347292330425  0.4006224932288551  0.0074968498387365
  0.4001366004861421  0.3991204909173848  0.3954487672014835
  0.4003569425022388  0.4030317353426429  0.5922471669453708
  0.3990421015796091  0.6008332763085540  0.9994461238207440
  0.4002367417803988  0.5939978451904949  0.2003712316928493
  0.3967422965076138  0.6037931369611150  0.3997333204337283
  0.3990952735500020  0.6003213542107085  0.5986134472255147
  0.3979204670650652  0.6054900814102561  0.7986543780215793
  0.4040462520444791  0.7989512473811238  0.9964351716082970
  0.3896688281300846  0.8121672716411412  0.4136869215565642
  0.4051710979064811  0.7998098519955403  0.6054626096488765
  0.4007565552664105  0.8044936581372945  0.8010249373422849
  0.6021398918718370  0.0022571440773680  0.1940032271850194
  0.5959974386018519  0.0066028946266838  0.3992614636516510
  0.5984487117275754  0.9954306850728235  0.6000567908526638
  0.6008697405536357  0.0011483120174522  0.8017219980451554
  0.6018278553047489  0.2031411342330926  0.2010918461091935
  0.6001740005417540  0.2023152012564731  0.3995554289993624
  0.5952995288822929  0.1997193174659347  0.5992085558559891
  0.5999943706245932  0.2014385093787647  0.7948351583682421
  0.5994036855837980  0.4001130671385494  0.9958595817760872
  0.5972818515465517  0.4012772022343025  0.1983358014034832
  0.5995997738582672  0.4004373913110081  0.3995960258909697
  0.5970527978438911  0.4032547513213432  0.6005561689338372
  0.6141751723920794  0.4015058368541320  0.7986499003572439
  0.6000349200301635  0.6039281486997582  0.9981516166510890
  0.6004875861383336  0.5999325620110999  0.1972058247522699
  0.6006424819122218  0.5949497658185908  0.4001006796635971
  0.5977378395837887  0.6053438287206186  0.5985603181958383
  0.5996662583435900  0.5998812685903108  0.7988637765557998
  0.6065131548752388  0.7984247241224914  0.1907009979864350
  0.6010805739921429  0.8008993080685995  0.7993200661200865
  0.7971805340649790  0.9999140210139413  0.9982951657912211
  0.7996725555842423  0.0010741048388191  0.1996070012651214
  0.7961110505360453  0.0006998215901989  0.3973856593071006
  0.7985906017298233  0.9955855699655833  0.5973363830864497
  0.8020649957617678  0.0010005485776576  0.7971614619075635
  0.8070136706525638  0.2023414633125699  0.9994662979929656
  0.8010762196899329  0.2020644361529956  0.1983842873092951
  0.8009432600710320  0.1999614734780423  0.3946684908454999
  0.8020412632754061  0.1998476432830574  0.8027965570048351
  0.7988617151705172  0.4011694754701415  0.0004718909896881
  0.7978917095232657  0.4014399361528890  0.1986432107070555
  0.7993118277624519  0.4009009227732525  0.3981559384643078
  0.7973375004389414  0.4066278308280906  0.5974509390051777
  0.8029173909054977  0.4014350451408859  0.7992112914146423
  0.8003455151778540  0.5997393353690759  0.9983666755673487
  0.8003036284170202  0.5993451369041681  0.2000887199281133
  0.7998337598799501  0.6010442027484588  0.3984820491820951
  0.7992402405172306  0.6017226091583457  0.5984905796156945
  0.8021049474510853  0.6012096211322391  0.7981827185341158
  0.7979140716475795  0.7986828201567879  0.9985521072537191
  0.8006668461061114  0.7997971950808828  0.1981038313930046
  0.7973030245089442  0.8010283729361984  0.3986109005512729
  0.7929178124810012  0.7992281400936480  0.5988618162086986
  0.8019817943344116  0.8005110391244051  0.7987414615918822
  0.0018990202124506  0.2003820694304763  0.5983016418753493
  0.3995225458839615  0.0069185403857168  0.4014201118274197
  0.4014171433326195  0.4015699314802964  0.2020255648783063
  0.6015121888551019  0.9847778258812735  0.9981398113786253
  0.6013194115593021  0.7985176379534306  0.9948637560494867
  0.5994079246430741  0.7994350800646672  0.6064118694111152
