Zr Ti V  Cr W 
 1.0000000000000000
    15.3990340272275770   -0.0170018773457157   -0.0022529018582575
    -0.0170107766548915   15.3787801482628375    0.0165544931564424
    -0.0022517709109467    0.0165430754876648   15.4057927644380346
 Zr  Ti  V   Cr  W  
   3  13 106   1   1
Direct
  0.1832846697637727  0.1600745007774467  0.3917474479831554
  0.2030324033230745  0.6376329407788401  0.3964223321259694
  0.3837904689862038  0.7976417861419974  0.3901795836612685
  0.0024268735879029  0.0035664484993255  0.0139363682111202
  0.9992005345364402  0.1941177745312990  0.8022431611952351
  0.2031351129664802  0.2000807050224158  0.1851712097260613
  0.2029174887116888  0.5906568123194089  0.1902776883797737
  0.2100225993542374  0.8018327974253495  0.2132373894746585
  0.3907540046478191  0.2022482692131034  0.6031126108123865
  0.6096046336032974  0.0142766679230704  0.5938772262032179
  0.6024549440308545  0.1924849708270125  0.4143160597560308
  0.5881444972334181  0.2035349496371760  0.8128077045521874
  0.7926743192446122  0.1999762871854319  0.1964242033671015
  0.7829284164904354  0.1956923522908605  0.5951405006222059
  0.7957583169418356  0.1985097575455929  0.8033819303056788
  0.7998776551893537  0.7990660148305285  0.1946782207630864
  0.0025480730578592  0.0009327680393077  0.5963565930880671
  0.0009500436303155  0.9985561557509708  0.7964964772183050
  0.0006778035051869  0.2025193310199201  0.0051677721113289
  0.9992838633544207  0.2032098691582000  0.2005933933078410
  0.9875626252740094  0.1981257889628872  0.3989871570832560
  0.9971593994886762  0.2018681754121762  0.5974269830791930
  0.0010264730639176  0.4003164019388441  0.0009170626768805
  0.0007812585088837  0.3999722048443487  0.2019120278935191
  0.0024928717575664  0.3977501690076675  0.4002691270057177
  0.9992201911685928  0.3995342330941826  0.5994725083685881
  0.0006938015783500  0.4006149165403219  0.7998150041737794
  0.0012292647967311  0.6005622720625197  0.0005961313092827
  0.0000424458498081  0.5993363397539733  0.1999446620815524
  0.9980111010480289  0.5996806403305953  0.3987685501481604
  0.0009269804925074  0.5995444569808160  0.5984914851284143
  0.0001892494727464  0.6004935655609837  0.8004317223179838
  0.0033559602050878  0.7996363593818230  0.0025393025338207
  0.0035855349350655  0.7989646344717823  0.2006921191150341
  0.9957419879610607  0.8049529374229069  0.3986652856935816
  0.0018622364115650  0.7994691985626414  0.5979967768735954
  0.0014208320131990  0.8008609036562819  0.7987874629418671
  0.2037185886984850  0.9993694229458114  0.0003247296026916
  0.2048140808486383  0.0050737785249406  0.1979567681731312
  0.0684992547257592  0.0016086859305746  0.2701171288866296
  0.2039534348235395  0.0040345850601137  0.6054246059560688
  0.2008515104910381  0.9995404556555656  0.8010632127629922
  0.1998703031424706  0.1998505158577155  0.9929064069467686
  0.1948510129218309  0.2011843428404289  0.6020076737728352
  0.2005917292244043  0.1992209714160074  0.7993540537420857
  0.2005169430405013  0.3983519320716722  0.9988467426546561
  0.2016370865388604  0.3965493922085147  0.2026313100666203
  0.1991902740554617  0.3875871096199571  0.4007182692059415
  0.2000250143716664  0.3997940709739919  0.5976920776191375
  0.2000434421618164  0.3994361705377190  0.7999136333985438
  0.2011136421895695  0.5994077620131588  0.9963279695441368
  0.2006461744882387  0.5990670966562311  0.6024183523120065
  0.2010834246273534  0.5993370040219895  0.7992724042995705
  0.2017123616483533  0.7992453244655409  0.9975014284136393
  0.1899982574480471  0.8627860962728024  0.4013015928100333
  0.2016631364817340  0.7999434790870599  0.5985742037515018
  0.2010994636380937  0.8010934355084851  0.7995984273188261
  0.4023742059594319  0.9993988232313747  0.0013059166572334
  0.4023403721536873  0.9975542064834988  0.2020574431857699
  0.4045762050940636  0.0059631030626348  0.4024976683056998
  0.4034066242537644  0.0002798744655255  0.7984242374543685
  0.4000281432888051  0.1980798040280273  0.0020935381033651
  0.4033880822432271  0.1994767297516123  0.2002264473823852
  0.3951899674346534  0.1982349765156753  0.3990112236112381
  0.3951541158131187  0.1987351083032872  0.8053617946522952
  0.4007786564250183  0.3986332101547003  0.0011169252209571
  0.4018446045327390  0.3978678914095307  0.2012260865705993
  0.3984509653855821  0.3941104045516457  0.4004883928221624
  0.3998554862076669  0.4011445106529466  0.5999932818220021
  0.4007709817736831  0.3983717327642522  0.7997409658198028
  0.4018217006248250  0.5989684512277673  0.9993946302856713
  0.4058158284070750  0.5965807893652382  0.1981958405152223
  0.4062703734232229  0.5901006309365339  0.3990903215950147
  0.4019132805545519  0.5979744970596665  0.5998153554793854
  0.4015246360356831  0.5997351561603854  0.8006313293882121
  0.4009100801851152  0.8000500380194014  0.9968153311626264
  0.4059164121400340  0.7982734802571846  0.1902897975776196
  0.4011989679730066  0.8002752181071863  0.6008115309453076
  0.4007655838800072  0.8003533297364145  0.7984015346507863
  0.6021073961833132  0.0002553042405911  0.0004067269786098
  0.6022155555303677  0.9992609113233824  0.2014481913595725
  0.6005614708731907  0.9946807546383248  0.3984695534458226
  0.6022391738900308  0.0005624726891878  0.8022084602716562
  0.6003934532404632  0.1998409164301005  0.0071926804228779
  0.5979450416776650  0.1977981058817553  0.2024649787578773
  0.5906931916548082  0.2066357660450784  0.6100606646838214
  0.6016505401076224  0.3993970902849662  0.0009605664761974
  0.6012211884911919  0.3976436410585494  0.2026541675782874
  0.6010003995280663  0.3985434234429225  0.4017954669539032
  0.5998164570900205  0.4020655771011210  0.6014088823948125
  0.6005896802629321  0.4023370463990865  0.8013747753414479
  0.6022391654722165  0.5995246990994582  0.0003125992577736
  0.6036239647880499  0.5995386456796267  0.1998824926156365
  0.6020666906466081  0.5982809643911718  0.3997811906902063
  0.6010538961464086  0.6020998023482180  0.6002768443533032
  0.6011255894559527  0.6004869164664368  0.8003789410005961
  0.6021414059779922  0.8001803438171744  0.9997860489151259
  0.5993905337783236  0.7992600808721392  0.1993984342967799
  0.5996563000776908  0.7987541755407384  0.3992833604374230
  0.5995499740890248  0.8015026830190323  0.5985432696771325
  0.6005678471166578  0.8020990465814360  0.7993301146407313
  0.8010463623732906  0.0001601236099156  0.0006505937750255
  0.8002127642553800  0.9989529007196288  0.1986087814706590
  0.8077127520032218  0.9961502456929414  0.3954642476205927
  0.8050958543342971  0.9962397871869219  0.5991903442536906
  0.8018518504270911  0.9980432602614784  0.7989747107106784
  0.8007332128162467  0.1995932445499921  0.9975746596507762
  0.7976043958176525  0.1983580986328161  0.3969360015577650
  0.8019211936296188  0.3987658948532261  0.9999823063831655
  0.8009092685662214  0.4004107920873272  0.1998301675450919
  0.8006638440265225  0.3983223246832510  0.3998747925389082
  0.7996081175403529  0.4008360927352640  0.5993696122593241
  0.8007397311816606  0.4000918325546722  0.7984228982692646
  0.8020681645778648  0.5987988361780413  0.9986872454082303
  0.8009997145791797  0.5972740768416407  0.1984384139670196
  0.8010709290031558  0.5996974350901896  0.3992656199160355
  0.8001245376150876  0.5991504362631007  0.5997498604944475
  0.8009290456417895  0.6004001133267616  0.7998722802300123
  0.8025149777137078  0.8002306646814739  0.9950971135614800
  0.7980035475009848  0.7985813557123322  0.4012344696267319
  0.8004973741420348  0.7988396117503481  0.6005900133919621
  0.8010680064444006  0.8003132643076268  0.7987286910090770
  0.4008018836839107  0.9981296171824534  0.5996637765699306
  0.9999211949364259  0.0051608243986664  0.4021631842471772
