Zr2 Ta1 Ti3 V111 Cr3 W5
1.0
  -7.5249999999999995    7.5249999999999995    7.5249999999999995
   7.5249999999999995   -7.5249999999999995    7.5249999999999995
   7.5249999999999995    7.5249999999999995   -7.5249999999999995
Zr Ta Ti V Cr W
2 1 3 111 3 5
direct
   0.8000980567285798    0.5920292923606961    0.5978952283804138 Zr
   0.4000873046564760    0.5987569516959168    0.3995565632879962 Zr
   0.2045020085358492    0.0034420398636993    0.2051665615961008 Ta
   0.8021704938411802    0.2011836895166755    0.0027365726498010 Ti
   0.7988685456294452    0.9999294027953338    0.3950123771395267 Ti
   0.6047961836256246    0.4051530488446553    0.0022876012035392 Ti
   0.8034252043752654    0.0056768590326083    0.0041704526275816 V
   0.6014360126038865    0.0002273654258808    0.0003374132686216 V
   0.8012184555052780    0.9981405783462152    0.1983905689913731 V
   0.3971452511246849    0.0004038318156226    0.0011265349038447 V
   0.6062688150215700    0.1987093459275825    0.0002627297082758 V
   0.8026265561606506    0.4008302949521659    0.0032091833548180 V
   0.6019628370304168    0.0020208922332585    0.2048526987321587 V
   0.8038994289557622    0.2059492336585477    0.2051424498726401 V
   0.2036542644851865    0.0064455280904305    0.9995974330155202 V
   0.3942571945313396    0.1959257272971345    0.9995493915687316 V
   0.7911932944105687    0.5950107876864199    0.9970715465130736 V
   0.4013057088963841    0.0054289135063892    0.2057161501010334 V
   0.5974219119709241    0.1982275378522185    0.1957470868091951 V
   0.8055119076008361    0.3985445718541164    0.1971331336048557 V
   0.6029356621324070    0.9974900647916521    0.4016687753359268 V
   0.8012404785406515    0.1959158180695061    0.3991231836442348 V
   0.7985574678052758    0.9958937762384151    0.5958495933510957 V
   0.9997319368262776    0.0021201919042627    0.0017026813903964 V
   0.2012317776328171    0.2020603750717587    0.9999997474584035 V
   0.3929488306925050    0.3986055798075417    0.9998692957504569 V
   0.5993144738788374    0.6016758965299017    0.0007922061090881 V
   0.7966920962085364    0.8017985275076376    0.9937919133282633 V
   0.3991807395854476    0.2040957571878926    0.1989573239743212 V
   0.7998686863729605    0.5995188500505835    0.1954816482388253 V
   0.4014805688005531    0.9981265448493847    0.4005133725422340 V
   0.5947261826086537    0.2002612947241038    0.3988431308243084 V
   0.7996386089606592    0.4007381273782002    0.4001984448171994 V
   0.6008711984652437    0.9993087866411942    0.5982533059205392 V
   0.7965807652241411    0.2004269841706783    0.5941717176799813 V
   0.8037648932683232    0.0045889192761436    0.8056208531937825 V
   0.9937802240606604    0.1944158466907309    0.0006179715624321 V
   0.1989268705560177    0.4010988625393928    0.0009611565177620 V
   0.4067476372270835    0.6011301991628033    0.0007459026537136 V
   0.5967895457516205    0.7930309191838372    0.9990808074709983 V
   0.0013711178615788    0.0003368289977782    0.2029082888901181 V
   0.1993289240959321    0.1959426121384107    0.1951899378499528 V
   0.5989578160523538    0.6036284995051188    0.2069984807187016 V
   0.7997406995054641    0.7988580813263356    0.1968202151571327 V
   0.2032427743724588    0.0007651829426605    0.3985527920168144 V
   0.5996793053883858    0.3977217719210764    0.3975264239720856 V
   0.8014917715866334    0.6023317686854981    0.3984470640769294 V
   0.4044923307241053    0.0075679407678833    0.6047856113614286 V
   0.6012857632588583    0.2047497455971853    0.6014741099018199 V
   0.7960273326489729    0.3924101645562567    0.5979479051610798 V
   0.6000498046658246    0.9995092585792115    0.7988883122795971 V
   0.7968746525462873    0.1981277872199642    0.7967886736173009 V
   0.0035746309438967    0.4038920684965953    0.0032018222530694 V
   0.1944571450523848    0.5977156284960907    0.9935943971339251 V
   0.3985516057616844    0.8058995600151052    0.9981160543462031 V
   0.0014791070830189    0.2040872758807270    0.2030413338653921 V
   0.1961806330093639    0.3992181028170712    0.1971800010279642 V
   0.4034327637501820    0.6004161804134110    0.2003322449770553 V
   0.5989255005573895    0.7994339961571886    0.1990300782894991 V
   0.0022713846718559    0.0020834305699148    0.4054425282570285 V
   0.1929449864239657    0.1993568352448277    0.3937693713758009 V
   0.3991118677424200    0.3970252390691930    0.3965646430685659 V
   0.6020365300841328    0.5979416688078795    0.4023514953508694 V
   0.8016015613396901    0.7991001862547418    0.4022847163951611 V
   0.1970889526982474    0.9975709245182323    0.5970464888365992 V
   0.3943735320358447    0.2001897377682665    0.5963410561563558 V
   0.6012320546217194    0.3955044474034921    0.5955113999992998 V
   0.4004587148730580    0.0045063871061669    0.8055128191470599 V
   0.5981798524673743    0.1987455092059997    0.7963129858326241 V
   0.7985966112674766    0.4003168234021199    0.8013146122067211 V
   0.0007420804687422    0.5959772714583806    0.9925533688449225 V
   0.2026382136260998    0.6065358373768261    0.2017475639105080 V
   0.4033967883587599    0.8018923174013917    0.2063471206575334 V
   0.9996664700142153    0.1997972377172086    0.3986107283090242 V
   0.1975699298205881    0.4002703217420379    0.4009034737422550 V
   0.5959262386200951    0.8022800310890437    0.3961582327935907 V
   0.0053595689751175    0.0031849265459168    0.5969934799603014 V
   0.2024647510575613    0.2011639952429215    0.5970621920498389 V
   0.4000076526841110    0.3943134767580702    0.6000525641617165 V
   0.7974755303442511    0.7976745735463928    0.5942772881068545 V
   0.2051477615974671    0.0051713439596445    0.8040577777578498 V
   0.4045953926002053    0.2067100820766554    0.8032950256616087 V
   0.5970062979815078    0.3945164312795992    0.8013913632104543 V
   0.7984541964655594    0.6028412634034329    0.8000438325344120 V
   0.0037756971215733    0.8028463233560241    0.0015676675977001 V
   0.0073152230701097    0.5995937718968846    0.2019347643245937 V
   0.1966405460726895    0.8035952525074364    0.1999899758768194 V
   0.0020277454440983    0.4048054880297832    0.4023368093841881 V
   0.1965497775754435    0.5977752643569155    0.4017522189757273 V
   0.4008531746639278    0.7996475037376523    0.4035442933328536 V
   0.0073873483334921    0.2071735116540148    0.6046260976100433 V
   0.1993108875490166    0.3980656758769848    0.5984691135740208 V
   0.3997742308918935    0.5969569858397776    0.6006480563030865 V
   0.5929094171252274    0.7915361603607596    0.5957579808426346 V
   0.0055783347884090    0.0054401378049397    0.8006300509099619 V
   0.1989953916967661    0.2000058028841211    0.7993961892603714 V
   0.3989174776109383    0.4016351380141124    0.8030561502281237 V
   0.6024283505246506    0.6065222318996302    0.8059597700741209 V
   0.8059966243104113    0.8072646733128636    0.8054112197218806 V
   0.9966951557760340    0.6026319488058209    0.3984530530596209 V
   0.1972305416462640    0.7992160672544633    0.3962613227298806 V
   0.2064845290151244    0.6035791872775396    0.6008213528389864 V
   0.3933547877794276    0.7991266861743335    0.5945379786532442 V
   0.0001708535815866    0.2002310772762646    0.7993517652287759 V
   0.1981313977447619    0.3992256899058335    0.7973722289935036 V
   0.4002972514543928    0.5986359333871180    0.7992670347076245 V
   0.6039725627165643    0.7992942464253672    0.8005016912178928 V
   0.9994360785826162    0.8000967364845520    0.3971736462670520 V
   0.9964147720223568    0.5955315605448660    0.5973039173479481 V
   0.2007303508351056    0.7997599135943767    0.6007817889245236 V
   0.9983722106613949    0.3975766440488236    0.7987914784344197 V
   0.2012484059652062    0.5988580116569574    0.8004621732135110 V
   0.3998048425011899    0.8008781581507807    0.8000153524758253 V
   0.9963986760862934    0.7955875556992198    0.5962414799139703 V
   0.9963786647538715    0.6010505926346821    0.8012831779684542 V
   0.1996511371643195    0.7968955053039959    0.8003170976080582 V
   0.9981904710026902    0.8021701317042584    0.8006574697369377 V
   0.0072385366661071    0.4047802740273392    0.2029921603941510 Cr
   0.9988139222559669    0.7999394364908312    0.1960311340505753 Cr
   0.9981418883001905    0.3971922520625227    0.6011814398497364 Cr
   0.5997089017051009    0.3991214850644405    0.1980964336036981 W
   0.3992318498247313    0.3968836948961386    0.1960434432438286 W
   0.3991041212415894    0.2004619782393053    0.3985187382480734 W
   0.2025789645656366    0.8043652411219759    0.0008064119053465 W
   0.5951634869455615    0.5993745843904881    0.6034279954686519 W
