Zr Ti V  Cr
 1.0000000000000000
    15.5054759955686290   -0.0026938295988576    0.0222345561511436
    -0.0026911951043345   15.4937529874400166   -0.0133710719798359
     0.0222461462953622   -0.0133733789628594   15.4975574155639322
 Zr  Ti  V   Cr 
   5   5 111   3
Direct
  0.0112680937035645  0.6127389246836482  0.1985806282923894
  0.3988337115779939  0.4007840261979606  0.6001040236037456
  0.5995480857543547  0.2003408362950962  0.1998753365623268
  0.6102160461153415  0.7997119693780476  0.9913914470102416
  0.7930559217005496  0.7981779007268274  0.8103433992665552
  0.9958233291383779  0.7875601428468015  0.3831043176548303
  0.1864800683603519  0.6005472237078689  0.0164970793340677
  0.2033452231158172  0.7976655571570810  0.3970497562892891
  0.5992060989156852  0.2021534107845680  0.7969456657503956
  0.8195841435603705  0.8043484658711750  0.0184787269215929
  0.9994213835917662  0.0007716639708859  0.9969777834117869
  0.0018813364347414  0.0024566908899999  0.1984747504217557
  0.9991018255272289  0.9999846855572001  0.3982290783822905
  0.9977603565620552  0.9979192116965354  0.5975227402474013
  0.9985118072019848  0.9989811277400398  0.7983286151129769
  0.0009107222465291  0.1998893471629163  0.9989364542530180
  0.0019645119675999  0.2008191593695447  0.1983294056683278
  0.9989746568248643  0.1991918733609844  0.4002872127927167
  0.9669523914997601  0.1982333664920657  0.5995880917390930
  0.9990944617471073  0.1998578489163153  0.7987198107041772
  0.9993111469296722  0.4002338295510567  0.9986687848693138
  0.0011161930687811  0.4011760127236298  0.1997542597173497
  0.9996871108990850  0.3978975195802935  0.3994045873311647
  0.9973175757920787  0.3985344297729731  0.6011966079713288
  0.9994088273763213  0.4005473664824777  0.8004398958852711
  0.9928894120593755  0.6009205569877151  0.9932844703483886
  0.0004455759096278  0.5936546298297377  0.4052863523533162
  0.9986980195391729  0.6003539422478684  0.6007412397138467
  0.9978342907275179  0.6002803256122100  0.7985935888211597
  0.0092601084579931  0.8007903378975137  0.9960320000794770
  0.0041856446007014  0.8106365323723304  0.1929385540256307
  0.9995069074910826  0.7988644511089399  0.5996427854951266
  0.0019177148257243  0.7996864223569896  0.7983027818556173
  0.1998402682874444  0.0006474205693343  0.9992647958872950
  0.2006717253314106  0.9995237265404955  0.1989365260689054
  0.1992383275054182  0.0004230082030261  0.3989385781423662
  0.1982451106213098  0.9988452252171320  0.5993273405912590
  0.1987499445591965  0.0000033380543894  0.7993149618099160
  0.1992362563060689  0.2003847554751662  0.0000368851445876
  0.1998025032582785  0.1997854271144731  0.2000778491323671
  0.1998480670818530  0.1999379196066413  0.3995991278788171
  0.1987109621928836  0.1986097761593766  0.5998981061098093
  0.1983360805720341  0.2001218884649013  0.7995956467459744
  0.1992019709131628  0.3987642172709849  0.0013845325268475
  0.2008490727149483  0.4013433905784585  0.2002274733986142
  0.1995122948716829  0.3984181005706187  0.3996837946964708
  0.1943308000789458  0.3993263508116539  0.5999411370404133
  0.1979779588914913  0.4012895515770188  0.8018915275177949
  0.2113829291013990  0.5994926117739838  0.2085213955753822
  0.2013819240200847  0.5964288380987735  0.4032526869535322
  0.1983763834244177  0.6004086153514910  0.6011998171497942
  0.1980439820913149  0.5998906423062454  0.8003189371252964
  0.2028242893539268  0.8022573483643749  0.9991855644449670
  0.2034256950139050  0.7997978748529879  0.1969510812910702
  0.1983913196452744  0.8000491613309684  0.5990694915390203
  0.1999093082197954  0.7989105992954917  0.7997652682218901
  0.4007885861532005  0.0006597549653551  0.9990545242665114
  0.4001811821469073  0.9981495775461344  0.1983041273623223
  0.4008511106860023  0.9993617390747902  0.3981556882225202
  0.3984917980339170  0.9979086773503687  0.5982551388413891
  0.3987040189510835  0.9997764315415735  0.7993887237357291
  0.3986774629392741  0.1999987926341140  0.9991229082515297
  0.3955490262815728  0.1994603484274142  0.1987092044940883
  0.3992755582688363  0.1988381002131179  0.3986995642450621
  0.3978173028038832  0.1950085710153468  0.5997577354055831
  0.3957760780117026  0.1998872867157514  0.8002201291908546
  0.3995817672250650  0.4006461660884317  0.0007234765564912
  0.3998064399455597  0.4012501988250487  0.1979437765294905
  0.4004902494225049  0.3992347311000727  0.3952717773122496
  0.3979594647686633  0.4007429679221135  0.8049912711206498
  0.4018097709159338  0.6006902680186412  0.0018824468973768
  0.4042772762713846  0.6012678864219656  0.2001471594796772
  0.4015486089946108  0.5997857269473663  0.3995843087930435
  0.3992440598253335  0.6046965026486779  0.6000018760326240
  0.3961103558754640  0.6008221784228174  0.8034667517709360
  0.3992953659981469  0.7998887280770108  0.9987227367661462
  0.4020979057279950  0.7996228566741551  0.1978397060402110
  0.4022271671458562  0.7996278491511322  0.3982786713827692
  0.3985781571301876  0.8008587934045108  0.5985636048054432
  0.3957131021767567  0.8001664597257397  0.7986578152023613
  0.6002139539585030  0.0043215788799287  0.9970707487066240
  0.6008963835971658  0.9948699575387725  0.1978184177155299
  0.6003435625406230  0.9989026778131033  0.3987174153768817
  0.5977056735992899  0.9990034894574970  0.7964327995568782
  0.5995943571523593  0.2014087301741770  0.9956346362279629
  0.6005690312656834  0.1992492230265446  0.4048273637223985
  0.5959423997221419  0.1980254427555669  0.5990148311608398
  0.6010222312065572  0.4005702890965483  0.9997212705445297
  0.6002864940819124  0.4048125726044431  0.1997362913319981
  0.6007905573817188  0.3998838024105246  0.3991039390994465
  0.6047536576796624  0.3988064986420345  0.5996390366056489
  0.5985880471957516  0.4030717890768766  0.7996825486595642
  0.5998553687526672  0.5962128199354715  0.9986764770735664
  0.6000380030835923  0.5987673200564176  0.4005887126488146
  0.5992677198462030  0.6006719653496625  0.5995701951692336
  0.5968909482001100  0.5996332669863653  0.7978982947004336
  0.6005456197219013  0.7994473566820404  0.1999821478703467
  0.5985468706605545  0.7994850914266480  0.5954658377076653
  0.5894303524500668  0.7995503793524733  0.7889527796425700
  0.8007145022155666  0.0040371692911080  0.0001088773312676
  0.8004034343652928  0.9983802404250310  0.1990411792110376
  0.7993551520408733  0.0002722113620270  0.4002745733465645
  0.7989910317966342  0.9963522326693914  0.5988479013010761
  0.7977127895590843  0.0061072621841077  0.7970095461057057
  0.8016043073311927  0.2016948363358857  0.0003052453302288
  0.8045276714446953  0.1993419331754712  0.1994988995355975
  0.8002167514770220  0.1997187379669354  0.3973999886757656
  0.8010861265479857  0.2013808833677438  0.8014511020893540
  0.8000871973422125  0.3996367811587923  0.0012118053279884
  0.8022483906680640  0.4020481691759952  0.1996738715123779
  0.7999114624458588  0.3985686063876950  0.4000522390988473
  0.8004769729833304  0.4006831866024049  0.5999755921345601
  0.7990981175992322  0.3985139696683704  0.7998350849604918
  0.7989169579534499  0.5979374007388016  0.0026338085800948
  0.7997484494167606  0.6007603800439129  0.2002435904399327
  0.7993939646118131  0.5981441066711929  0.4003261677302292
  0.7989743321169152  0.6007170978794139  0.6001251885718666
  0.7972443935908650  0.5951475385176871  0.8001986555996999
  0.8028289551549973  0.7997843521993202  0.2074893573115149
  0.7979760061327721  0.7983361056857347  0.3999741480958494
  0.7992579551109593  0.7999725020221633  0.5982871650624538
  0.5990319090680084  0.9984558760381350  0.5971756412804158
  0.6018358400467729  0.6016090830354104  0.1998996033652214
  0.6000556180497487  0.7990305801244715  0.3982928110794061
