Zr Ti V  Cr
 1.0000000000000000
    15.4889002550493640   -0.0195313770937778   -0.0155534076795571
    -0.0195267745976093   15.5102089440028070    0.0059105293967036
    -0.0155475950656657    0.0058984254639578   15.5083315327291498
 Zr  Ti  V   Cr 
   5   5 111   3
Direct
  0.9984339950714074  0.9925717970172334  0.8002149779406921
  0.2085822627202053  0.8015376541151910  0.1969291455928891
  0.2210794920821599  0.8125724467109455  0.8040240363857971
  0.3963825757470713  0.9696065491910552  0.8352533142562356
  0.3857713102736812  0.7994651390521550  0.9978750459569163
  0.1990751827378958  0.3858743442675027  0.9990725900605065
  0.2102055626319529  0.8140543784923348  0.5931987824028593
  0.3595826254051354  0.0458471177435462  0.0194291024697032
  0.3893775324527357  0.9892946426553915  0.5978066303095134
  0.8023621595812112  0.8005665799213720  0.2007205471705631
  0.9960358581966650  0.0003988275661697  0.0048892232162572
  0.9980852940507433  0.0004327681282421  0.2009595828539780
  0.9991970935224250  0.9995618711524704  0.3982318208560657
  0.9977645239640798  0.0005343617759910  0.5951584921175077
  0.9963149236047100  0.1991749434645099  0.9995472387675658
  0.0000388224681658  0.2009349201626085  0.1982793475350249
  0.9984050823084312  0.2002109284778557  0.3992703155883865
  0.9981580039406986  0.2014073791704046  0.5990042100211650
  0.9994333763944860  0.2024662423805439  0.8007945817653649
  0.9970958530226596  0.3993341489254096  0.0002207316398990
  0.9986542545763667  0.4001667204522735  0.2000800954242493
  0.9994357701057246  0.4007119837481773  0.3994780653278207
  0.9997950649926554  0.4007342366349403  0.5987706249931946
  0.9993975821379945  0.4010400970081904  0.7992496913377188
  0.9989779656753530  0.5984750997090644  0.0001159024210440
  0.0007448783167018  0.5994529869376577  0.1996816877193262
  0.0005944806059656  0.6008208865771829  0.3996152094278402
  0.0021229536089567  0.6013399337940410  0.5995195033963786
  0.0023988781428165  0.5990584676141604  0.8000304666857189
  0.9940386201695028  0.7983695154528432  0.9998535396011138
  0.9996096305474635  0.7994340256163236  0.2012527963367224
  0.0001539223240186  0.7991793731836841  0.4000759889802702
  0.0022961884352017  0.8008067691542666  0.6000906833158219
  0.0031186544863993  0.7925062420603550  0.7983799272887497
  0.1922731342634539  0.9966796175346672  0.0006814101340725
  0.1987044191543987  0.0062178236034064  0.1983450012249234
  0.1982285754427492  0.0008508608203046  0.3994506166878224
  0.1941219222030872  0.0082278543650826  0.5990164200636351
  0.1967918252949550  0.0167291567134811  0.8022447694034378
  0.1995943058901533  0.2009752007658796  0.2038124201197364
  0.1998190416804900  0.1997471279210075  0.4007213642022796
  0.1988831851206938  0.2029836202249347  0.5989422891068753
  0.2005115240408767  0.2048369611142464  0.7967417054518560
  0.1997740517631612  0.3984651165989198  0.2015295179117957
  0.1995628394256213  0.3996316192657242  0.4002578743202722
  0.2000364239342002  0.4011579380241639  0.5984160384114338
  0.1999451046628766  0.4007340529395964  0.7977678241650262
  0.1982374445783373  0.5987564485526098  0.9992989516602828
  0.2005365138311031  0.5952660068196113  0.1994953642926086
  0.1996886261096910  0.6004879802633794  0.4002507514505328
  0.2014925863921447  0.6011933802497654  0.6007689955119282
  0.2011594658710441  0.5976376773735106  0.7999832980225686
  0.1847061221936445  0.7976802756188138  0.0025680904559066
  0.1999855612016612  0.8009188644217724  0.3995007512880569
  0.3986561725371530  0.9987972001588654  0.2071020578147490
  0.3982228376169999  0.9990258114620648  0.3984494211022829
  0.4003387029729158  0.2026174454090948  0.9974610277461390
  0.3984699615523096  0.2010554284672035  0.1992476841495032
  0.4001425904017561  0.1990185552636123  0.4007132574491360
  0.3994986578798809  0.1982262788131078  0.6008674335337344
  0.3993249255036194  0.2037122557913914  0.7990748240007340
  0.4005142390357366  0.3986171499912448  0.0003607163629084
  0.4005952308676984  0.3999246015528262  0.2008300761768097
  0.3999126128911319  0.3994849830896237  0.3994463739372501
  0.4007785532921125  0.3986512794892794  0.5979829208983790
  0.4018631491558257  0.3992539132690202  0.7976399148624528
  0.3981561358693133  0.5932341077092096  0.0003132820612151
  0.4003696428089857  0.5984006067609363  0.1993711118833804
  0.3995694112484195  0.5991741024705278  0.3989930234076206
  0.4001965979853504  0.5965732432680978  0.5977045683090697
  0.4015724610113164  0.5927047152865422  0.7996961567069910
  0.4083187415897098  0.7978921334341798  0.2053265935902403
  0.4020572244644321  0.7977120755099698  0.4010486898791186
  0.4076684053906155  0.7929558740071611  0.5955322570548208
  0.4185507495080294  0.7786105712696725  0.7896155689903019
  0.5963955363526717  0.9989032416341386  0.9984701854780499
  0.5981458404775921  0.9999748599812066  0.1981331225035651
  0.5989832962715593  0.9995076730147584  0.3989886151506197
  0.5991684564947422  0.9986473141673872  0.5987782590217594
  0.6001854053894256  0.9997373082194446  0.7977266566985809
  0.5986827589476229  0.1986273544043259  0.9982420732456093
  0.5987979514899238  0.1993543118999193  0.1995601087358466
  0.5988872188541700  0.1983987448603610  0.3995133215182581
  0.5993522662573180  0.1980302337833304  0.5991490213029053
  0.5998603320240902  0.3989481939702828  0.9988821907014305
  0.5998941327899772  0.3987247033549944  0.1990979397519886
  0.6002253153564634  0.3994934130568990  0.3990785811911266
  0.6001538867974376  0.3987480666321042  0.5988224447612512
  0.6015596604681541  0.3986001002987428  0.7992672060100853
  0.5984382582404422  0.6004193275494843  0.9986655042419316
  0.5996737568021977  0.5998560882660703  0.1982584011175557
  0.6003690267353826  0.6001321210427794  0.3987485577427380
  0.6015706376368914  0.5989139242262606  0.5993409782020405
  0.6028006984145096  0.5976245787175299  0.7995064574413372
  0.6003642898282971  0.7989459548138377  0.9980224618913082
  0.5995295333107614  0.8002815286701388  0.1972651244518986
  0.6012278099205145  0.8002443271592026  0.3990225722544395
  0.6044832850395786  0.7993140206574887  0.5980903374981390
  0.6061571073619323  0.7986640819121237  0.7979207858218718
  0.7965338890927667  0.0002895423694220  0.0002819122456499
  0.7979475321024910  0.0030335014778955  0.1998882532289759
  0.7991431534283827  0.0001156460301117  0.3990927395617073
  0.7989293207248859  0.0005625227674209  0.5987961307970427
  0.7955058795824584  0.0012044794828969  0.7998678439985379
  0.7981459026561356  0.2003723244585917  0.1997271838714752
  0.7991941789818457  0.1996218880995529  0.5995914018408979
  0.7989643256879645  0.2006853829327238  0.7995718556132322
  0.7980861726761905  0.3994172540721749  0.9994472349165908
  0.7992324197175545  0.3992045330791835  0.1998810560929810
  0.7995736629739058  0.3997716932937398  0.3995145366712345
  0.8000127003446770  0.3995273087604250  0.5991563118743496
  0.8004186440842710  0.3999165817748944  0.7993497076755131
  0.7996361771429426  0.5996186347547470  0.9993370909018200
  0.7994439437384051  0.5975386550821394  0.1991417163540967
  0.8005831880053843  0.5999411921229735  0.3994694850555714
  0.8016323096779204  0.5999669168694309  0.5996080365145061
  0.8012706620300655  0.5991964379997526  0.7993538907299157
  0.7982664724425614  0.7998152476134213  0.9967168738670040
  0.7999784810230188  0.8000442059798338  0.4018451578887282
  0.8022675797139328  0.8001387512779684  0.5992154186006543
  0.8024203482713231  0.7991724001893867  0.7985309675055675
  0.5996082598383651  0.1988521254165265  0.7987505758666489
  0.7975122736372360  0.2001825530878486  0.9994534371100690
  0.7987997538188361  0.2000062405726275  0.3997338135611829
