Zr Ti V  W 
 1.0000000000000000
    15.3704372863088707    0.0041087699184726    0.0045828320708022
     0.0041071823098185   15.3593176205705255    0.0049868964281650
     0.0045832368054306    0.0049883200619353   15.3853693029952101
 Zr  Ti  V   W  
   2   2 106  14
Direct
  0.1973014584017385  0.9924807558917157  0.1910923446130326
  0.7917810853654539  0.4015262971118212  0.8102764872582736
  0.4056706552692774  0.7984908202489527  0.8059473668883594
  0.6132630834489731  0.4012271489973823  0.9887530606926924
  0.9917582620679164  0.0022465793330593  0.2028038944214374
  0.9988309030689909  0.9954990328012965  0.4006347519414220
  0.9942864131124153  0.0001610198186108  0.6017265497922040
  0.0028317070677266  0.9988736956931655  0.7997055127501141
  0.0006187096707803  0.1998161697584276  0.0010174734459945
  0.0010349787734273  0.2026746910909428  0.2020148997756423
  0.0009843737452695  0.1994168071303238  0.4004428776721951
  0.0030028407771425  0.2007298921452593  0.5982569313498484
  0.9995450647295006  0.2005392813283769  0.8015940956941617
  0.0045525959666646  0.3980989204438170  0.0066416568835822
  0.9988473494202511  0.4003631073234268  0.3964706695070060
  0.9977479974236104  0.3999725845105790  0.5997522676596966
  0.9994244339056569  0.4009392522057475  0.8029118681018251
  0.9988276643658558  0.6038615218768579  0.0009873513409599
  0.0038325270600277  0.5963956719628059  0.2014632006864381
  0.9999564467957626  0.6016661288925405  0.4025486385303936
  0.9985675058416297  0.5991060781668611  0.6024309172516341
  0.0022215748868486  0.6005472112720837  0.8007273335072811
  0.0035997028561490  0.8003691601190954  0.2033294165881462
  0.9988804105780198  0.7992177808368456  0.5949410467768292
  0.9995120898075288  0.7998087496155510  0.8048295828378504
  0.2011717867869056  0.0048330702813422  0.9892478232289444
  0.1980994261680958  0.9992967354459291  0.4049456683031312
  0.1983433086115111  0.0036764716897615  0.6047176887845694
  0.2008520408846614  0.2039071564807200  0.9977320592257442
  0.2016133840062000  0.2021502001971162  0.2004935990186177
  0.2032105368948918  0.2001982615912772  0.4038270477559997
  0.2014674910829475  0.1968605120529625  0.7948370906547664
  0.1969700524333675  0.4055362512260037  0.1960292102217885
  0.1995187652410082  0.4022596649958239  0.3992806025552959
  0.1979771039422722  0.3965603449762148  0.6019494561956287
  0.1979426393800549  0.4040082102978009  0.8038928745083646
  0.2009862052907279  0.5946796769338977  0.9937497975699563
  0.2007840511872386  0.5991077367061156  0.4104460656477439
  0.1994108578297955  0.5988864867110597  0.6074899113670382
  0.0651366667971975  0.9322953801994924  0.0010520601323032
  0.1945757399793496  0.7994787989448351  0.3985835095909120
  0.1990074994036976  0.8012817847922393  0.5992112120564465
  0.1984643907205737  0.8001492705481723  0.7965904827770841
  0.4001879941631568  0.0003305349956722  0.9991644742129046
  0.4056875975076129  0.9966025669014870  0.1993136147098831
  0.4005460435305587  0.0030739194688877  0.3992764960812793
  0.4011057422924941  0.9990517383681262  0.5990478891059865
  0.3975124302582504  0.0010250745082859  0.7992178986845992
  0.4021327121961824  0.2007010059034285  0.0018270646572054
  0.3999940060887441  0.1985442340984978  0.2037136742966837
  0.3967028629991471  0.2004502445241651  0.5945090345469528
  0.4005982280017198  0.2005280117655706  0.7986194736488977
  0.3962743110876379  0.3980594402039533  0.0006634606066281
  0.4026178120895269  0.4013936162196894  0.1984464264167785
  0.3999004334780776  0.3970312271579849  0.3966339055934484
  0.3990910363623417  0.4001135754503181  0.5977719519816056
  0.3968985957751855  0.3995339172449228  0.7996411308104293
  0.4020265555194608  0.6001419597157108  0.9994372741000295
  0.3979592851551489  0.6029977662208070  0.2006499235307735
  0.3996179832687314  0.5990733163665716  0.4004500104848175
  0.3990832783260851  0.6000000372165798  0.5992140119074085
  0.3963143279219249  0.5993744255198231  0.7999194612221839
  0.4046531337748410  0.8005733794953721  0.0071376753385316
  0.4006861754402796  0.8014815188942610  0.3946426409519167
  0.3992601478097580  0.8010491554555839  0.5924396798923894
  0.6009572831329176  0.0007182402649186  0.9965988724693827
  0.6039604668799545  0.9998916117565010  0.1981362192241368
  0.5998685003729712  0.0003431263220219  0.4008239818645314
  0.6019249360273096  0.0007087422312081  0.6025324789945248
  0.5975669358879768  0.9993297211482177  0.8002575411220183
  0.5998448486402576  0.1991747830262955  0.9989780274595427
  0.5993229982350587  0.2023074093095275  0.1988357782963541
  0.5954111130834749  0.2009734680313539  0.4002738460023846
  0.5983304083737964  0.2007366793620258  0.6003821317174309
  0.5974755012417572  0.2012257092855107  0.7994856260644247
  0.6029324366454769  0.4012370216795265  0.1990331677250694
  0.6012484288708849  0.4008647014522567  0.3985859918185398
  0.5997034928561173  0.4003258045935414  0.5989292664507335
  0.5899201428405597  0.4008975921115344  0.7942982410396219
  0.6008434498161686  0.6008690531975583  0.9985065193754084
  0.5982679161625187  0.5985819819917910  0.1983733328573664
  0.5991498729212444  0.5988064570047197  0.4022157523543444
  0.5983825056196378  0.5999613682537486  0.6023063661482499
  0.5959464633323694  0.6006413883003403  0.8002336067499560
  0.6014300656863112  0.7993536355399353  0.0004390554872675
  0.5949848687315957  0.7988580329249184  0.2001040082729180
  0.6022975634471738  0.7983520526390965  0.3988083369278503
  0.5986057343041256  0.7994816914681213  0.5997305752343606
  0.6020780112081607  0.7995636755529152  0.8006762540044396
  0.7982821387549369  0.0002022838187421  0.0013197520967220
  0.7979345580259730  0.9968614373922733  0.4064414595800677
  0.8006490152085138  0.9991324368990184  0.7978810615809809
  0.8006606799389921  0.1994859646742427  0.0009110013662805
  0.7988605037002308  0.1962910702085542  0.2026239390954256
  0.7985548065592989  0.1978978359043945  0.4012995917209444
  0.7993759074266380  0.1966920016998953  0.6005359531241342
  0.7999755444590292  0.1956597632607348  0.8005418430124567
  0.8084066017840895  0.3994624218282692  0.0109109080587724
  0.8044665892496435  0.3998405165425835  0.2047442920235972
  0.7999738861003299  0.3997717475681744  0.4018729728201987
  0.7993398768806003  0.3984568927397399  0.5993463772354385
  0.7996418797958011  0.6000420316576974  0.0014869770851733
  0.7985226523892979  0.6009880569208854  0.2016181469104414
  0.7980683248157647  0.6043771697079502  0.4018386710966977
  0.7984312955725116  0.5997289574075469  0.6032314463386402
  0.7994803009136736  0.6061940282283770  0.8000341570076017
  0.8026320753812568  0.8007205642388688  0.0033529910472344
  0.7974032403206244  0.8036050114833603  0.2055332357216829
  0.7989784831075566  0.8044659328479125  0.5974031750595401
  0.8000971613875419  0.8013449116892228  0.8000269507710653
  0.0009349315768443  0.4011998504751816  0.2022280715234279
  0.9933186791970047  0.7973048909185828  0.0036914403584287
  0.9958001551932657  0.7970643729191502  0.4001604516936474
  0.1996912015950388  0.9975674096540469  0.7970299010944242
  0.1997220742139625  0.2011014949189466  0.6002601022414991
  0.2003364263394303  0.4005139634910420  0.9987644676085231
  0.2021828418516924  0.6011678992721868  0.1883629915038859
  0.2002888588340990  0.6028720820332303  0.7998913757198155
  0.2016290900797278  0.7893382247057400  0.2046375272351859
  0.3996550298963261  0.2001195947453066  0.3990024788119919
  0.3951967644891405  0.8013299681512216  0.2010985018380085
  0.7976937189663872  0.0008656712905835  0.1958563836379787
  0.7983682787546201  0.0006701568019689  0.6028964332441286
  0.8018023877861492  0.8009374841101010  0.4002305399998846
