Zr2 Ta1 Ti3 V111 Cr3 W5
1.0
  -7.5249999999999995    7.5249999999999995    7.5249999999999995
   7.5249999999999995   -7.5249999999999995    7.5249999999999995
   7.5249999999999995    7.5249999999999995   -7.5249999999999995
Zr Ta Ti V Cr W
2 1 3 111 3 5
direct
   0.5950605110919707    0.5954099715611799    0.5986703057504608 Zr
   0.3933872830587859    0.5930396563136477    0.5975953079605435 Zr
   0.7944837300455665    0.1968446001733433    0.4014415783560602 Ta
   0.2013237641089670    0.0022132557629501    0.1994367878575947 Ti
   0.0030331562915517    0.2013923004197513    0.4019218033693202 Ti
   0.1986900604311900    0.3957011192186412    0.8028750658227393 Ti
   0.7990176966870923    0.9990108124151558    0.9999071114020759 V
   0.6027848215544210    0.9998604741959247    0.0067789439726872 V
   0.8017847331263801    0.2015039631114627    0.9991939197776541 V
   0.8036984510164473    0.9992529834767303    0.2030496308991716 V
   0.3972933698783270    0.9978078239870833    0.0034955733513223 V
   0.5982184140944771    0.1964345945785259    0.9960173430145719 V
   0.8012889792825770    0.4070896427953617    0.9994100122715046 V
   0.6063431094160914    0.0057654130000045    0.2072635625151611 V
   0.8002251770956792    0.2009625369231123    0.1937368568150533 V
   0.7974855444326373    0.0012406350401965    0.3955301508366644 V
   0.1980479883619807    0.9972248472425802    0.0055443121944519 V
   0.4002488858668128    0.1983988359520428    0.0019335876385977 V
   0.6048391257611713    0.3997299464143539    0.0023871829809158 V
   0.7971700999731294    0.5969304053695310    0.9968342883320401 V
   0.4007252251845816    0.0000739146966047    0.1996989322164165 V
   0.6079981291059247    0.2032756242548983    0.2021579524919783 V
   0.8032879408214773    0.4025233547550631    0.1971384334197756 V
   0.5994062281361833    0.9996250378593172    0.3975204857882730 V
   0.8016758872331546    0.0008891541296880    0.5974695916846831 V
   0.2010843791109682    0.1980155446314057    0.9986202912631365 V
   0.3971387262816765    0.4053939162551842    0.0031794173380783 V
   0.6016059605632582    0.5985995538522986    0.9952433148411368 V
   0.7979043387754898    0.8042453513251846    0.0061882847796734 V
   0.4001148097196509    0.2038806715999119    0.2008174083080446 V
   0.5980395548508786    0.3993092012317955    0.2039250269003372 V
   0.7988469000883746    0.6000465552879680    0.2010761419455241 V
   0.3940313701555748    0.9988219379309222    0.4000907322804878 V
   0.5975491037294558    0.1980182911778954    0.3963641128616375 V
   0.7974348647880751    0.3978933151672931    0.3982031153927966 V
   0.5982617455190130    0.0031736856757518    0.5977245256709417 V
   0.7975698872064088    0.1970487921343377    0.5936263878613054 V
   0.8028799814176204    0.0036910897970532    0.7989503536844385 V
   0.9942341801067009    0.2024680746171669    0.0017019719428718 V
   0.1995116970361115    0.3999777226449793    0.9990976551900191 V
   0.3993611652053335    0.5989000139043480    0.0004198610118825 V
   0.5999609160209417    0.8029102626014559    0.9999786224064707 V
   0.0018472670922948    0.9949169516335270    0.2012627089381803 V
   0.1971621377544870    0.2008904385430204    0.1977403873263412 V
   0.4008419542716975    0.3996284502619728    0.2012582172881698 V
   0.6052066827204806    0.6039012452341805    0.2002339191461416 V
   0.8004225428127364    0.8029883562772963    0.2027980639167897 V
   0.2055029281422318    0.0051245342138466    0.4041235796167632 V
   0.3914778534823184    0.1972193078393080    0.3967615529337788 V
   0.7934182529551003    0.5931265707262768    0.3955505196728959 V
   0.3946008991909067    0.0002372558270544    0.5973212551244828 V
   0.6015126351287589    0.2024542293894474    0.6000057400918335 V
   0.7978868289732801    0.4005775513155257    0.5984437549141213 V
   0.6024923360874194    0.0022266693513373    0.8019133937166705 V
   0.7990329833503880    0.1974314766775075    0.7940093580981983 V
   0.0062245904199942    0.4010298765969968    0.0070794956897883 V
   0.1953375976064452    0.5936138993132347    0.9923032162753855 V
   0.3984660174156983    0.8024909985250325    0.9990203691275493 V
   0.9996560971723348    0.2031127923571999    0.2011624610075994 V
   0.1969134816590720    0.3989426067056065    0.2019384187616844 V
   0.4012513426723395    0.5976812257533856    0.2040830671533735 V
   0.6006602287896620    0.8029433158520842    0.2047848380929712 V
   0.9980314505445316    0.9973934129160918    0.3996441817483513 V
   0.2001264760434404    0.2023902198453718    0.4016462672941220 V
   0.3952075902318045    0.4003298575961062    0.3974277011096158 V
   0.5940905964097002    0.5959471953259818    0.3945367435949158 V
   0.8054302452130053    0.8008711699003728    0.4027530444302103 V
   0.1961844462286651    0.0007846792721140    0.5953978801380726 V
   0.3980391636876320    0.2052092113334672    0.6030818336316170 V
   0.7979261047300101    0.5969208566694881    0.6036243994140611 V
   0.4007374944819614    0.9997410211598972    0.7985609065953473 V
   0.5942870123596357    0.1910850186868172    0.7934036072872790 V
   0.7935936961314407    0.3946045338422490    0.7916399606955443 V
   0.0013021780970859    0.6008971766225721    0.9995144101701785 V
   0.1977196386249592    0.7993221420431178    0.9920981680032537 V
   0.0008069760614986    0.3984784789062311    0.2005819718778459 V
   0.1966502577773803    0.5944087275548736    0.2004118005856849 V
   0.3965600174012953    0.7916791300356316    0.1989354584458071 V
   0.1994244808999586    0.4001281247062105    0.4015506066439443 V
   0.4009445103992728    0.5988858855963903    0.3991108041386484 V
   0.6012827927479336    0.8051791342791887    0.4056578898101599 V
   0.0049759132447412    0.0068417707399795    0.6007193939648422 V
   0.2047277047789063    0.1953765639841209    0.6003842569083788 V
   0.4009206541617422    0.4059351297398487    0.5995059423734492 V
   0.8012588686149001    0.8016868959049489    0.6021008200719138 V
   0.1993491965269647    0.9966692591142543    0.8021603183723349 V
   0.3917863079856834    0.1982180377599835    0.7978887884948347 V
   0.6009121055229161    0.4042592488317920    0.8024322000443492 V
   0.7950536775671460    0.5999730635851004    0.8016593851189495 V
   0.0008243542630172    0.8016845852990737    0.9974887887600384 V
   0.9990018896570039    0.6006665284178128    0.1984468452516404 V
   0.2041627680174045    0.8004812070208914    0.2045831313031625 V
   0.1999154005057090    0.6015268226584030    0.3998600369243425 V
   0.3998949053671609    0.8006874505440378    0.3978879772740849 V
   0.0018003559640228    0.2047298527200725    0.5972642551840730 V
   0.6035191803224271    0.8053146383529370    0.6060299968006310 V
   0.0019434174895827    0.0020381283126599    0.7979501677944977 V
   0.1948778248230874    0.1944494316067154    0.7937247488190993 V
   0.6020663040104105    0.6014354022974062    0.7998685509425273 V
   0.8048178544305209    0.7958298020019201    0.7996795587276581 V
   0.9970643168284403    0.5973089239566582    0.4004153382423326 V
   0.2008226768933534    0.7999841803817910    0.4011171542814303 V
   0.9949281245639898    0.3988544913470588    0.5993925915145900 V
   0.2026207908850963    0.6041539115155129    0.5991819086367881 V
   0.4042569908311817    0.7963131915617869    0.5962808918039952 V
   0.9963971808551060    0.1978040451847569    0.7995058178833518 V
   0.4012467960974366    0.6053242050463973    0.7989337407137916 V
   0.5984071383471987    0.8022516324043167    0.8028794014731330 V
   0.9992939707871928    0.8030810020120950    0.4038879666414287 V
   0.0032942242814859    0.6044168122827900    0.5993436571473226 V
   0.0008666146115075    0.4046404203718419    0.7992322388870390 V
   0.2035466704305728    0.6011775070068874    0.8029367998488450 V
   0.3983036873863431    0.7976882016326446    0.7987206167969012 V
   0.9980236362065344    0.7990089728635260    0.5930252080739252 V
   0.9979620081188635    0.5972288473562986    0.8037376888429865 V
   0.2018003675954519    0.8033283186650123    0.7988533156043169 V
   0.9981640488400785    0.8001296499046440    0.7961938676052529 V
   0.9983250980508913    0.9996906150135756    0.9952073016447993 Cr
   0.0035491925203888    0.4079773056882607    0.4010385257890709 Cr
   0.1990497801116344    0.8012203386754497    0.6028613691960980 Cr
   0.5969718640792542    0.4007915243277575    0.3938024692978407 W
   0.6057547979529047    0.4050417822893999    0.6046448394320374 W
   0.2068907315556902    0.4027260274498476    0.6023952425727901 W
   0.3989905036720967    0.3935631729113996    0.7964190985819126 W
   0.9988460675663386    0.8041187410000621    0.2014575847320877 W
