Zr Ti V  W 
 1.0000000000000000
    15.3704372863088707    0.0041087699184726    0.0045828320708022
     0.0041071823098185   15.3593176205705255    0.0049868964281650
     0.0045832368054306    0.0049883200619353   15.3853693029952101
 Zr  Ti  V   W  
   1   2 107  14
Direct
  0.7911116592664389  0.4021707417683594  0.8093829857297025
  0.4089511047122791  0.7975537013432664  0.8040020857308359
  0.6125928533041081  0.4014912393243021  0.9885761934350206
  0.1950697080123590  0.9976145707265700  0.1941947522602969
  0.9948426356750140  0.0016317806278523  0.2051492354172822
  0.9991385440891773  0.9967753024228129  0.4007246055380622
  0.9946492546921181  0.0001157311337785  0.6012578268919965
  0.0034590538440027  0.9986753534955112  0.7971142104754514
  0.0005672869838404  0.2010312521910812  0.0016529143420816
  0.0010870907261744  0.2018202939094146  0.2021675135711160
  0.0006653485322581  0.2003112324073490  0.4010290986213436
  0.0033323276346586  0.2012456498925407  0.5986546518998611
  0.0000345885584285  0.1997093151820571  0.8026229083864298
  0.0038923852546386  0.3986894422382083  0.0063545223954601
  0.9985111803531951  0.4010683856430294  0.3971417577381147
  0.9976631141016322  0.3999071516026529  0.5999435912343899
  0.9992686095272496  0.4009797196083559  0.8025249931534332
  0.9982740865616305  0.6051172147526602  0.0003166791662744
  0.0043256262486975  0.5959254500708989  0.2013825016993490
  0.9996136647101755  0.6023045882250707  0.4026441615173389
  0.9996266536055524  0.5992133694543715  0.6012414342156556
  0.0029123323677445  0.6004982054214660  0.7998246044416522
  0.0038893741829913  0.8002272668521654  0.2029431456214002
  0.9995871566279630  0.7990731907279841  0.5944984130089740
  0.0000622249112163  0.7997123842503372  0.8048727973698848
  0.2032122950656225  0.0018884731404571  0.9940209258282242
  0.1983298340216967  0.9988016149693959  0.4020483927911649
  0.1987965672654503  0.0027268919645862  0.6053592409251797
  0.2000976791855389  0.2030585177476968  0.9987853134968235
  0.2004564552552164  0.1988175698819032  0.2002409254537632
  0.2026936758552258  0.1987038532385624  0.4031270082181810
  0.2014932951888048  0.1960155780390170  0.7959791394628807
  0.1963331894110876  0.4044791963170239  0.1954208642368085
  0.1995515784908126  0.4013990555312550  0.3991385145613816
  0.1980248693384414  0.3967521582124950  0.6007380391512490
  0.1978561081397612  0.4047747775531518  0.8047179571799846
  0.2012302037788996  0.5963358089730042  0.9968909597628366
  0.2010024625050517  0.5994501309385146  0.3984574265613719
  0.1997865428133060  0.5990576584012985  0.6048163356913367
  0.1972452524964279  0.8009476042547597  0.0030310896086110
  0.1963924076074027  0.8006752010943217  0.3967015117517179
  0.1998502385093843  0.8002587076331019  0.5987250276763569
  0.1990841395124822  0.7988732189764700  0.8003290317723931
  0.4003587142142228  0.0011448651294113  0.9994682771897423
  0.3997055398930665  0.9964266512360630  0.1993010900917357
  0.4004290408969637  0.0023776926982472  0.3992674606102110
  0.4005852282278840  0.9985986816194078  0.5992791748628388
  0.3971448144918804  0.0005419408351881  0.7997190672371325
  0.4019523706053313  0.2011138450269700  0.0020497433794956
  0.3982138539214789  0.1978720289222279  0.2036293019704781
  0.3964344608568192  0.2002812162251625  0.5948048201598735
  0.4002978535290214  0.2004122404081108  0.7986301054843873
  0.3958591219686780  0.3984038371345469  0.0002010755859673
  0.4015714716013579  0.4008644874494204  0.1982258865562349
  0.4001256217994154  0.3967508950589710  0.3975333108479014
  0.3991223603140788  0.3997518277480924  0.5978606582507848
  0.3965572243386791  0.3992334911823096  0.7993233395348173
  0.4016291884009142  0.5991377653403063  0.9992002698617654
  0.3968393941813337  0.6031947408152486  0.2005744290441948
  0.4001306847665200  0.5987280310001235  0.4003895610281721
  0.3983698781480257  0.5996646058384270  0.5983471098859793
  0.3957717676999374  0.5992446319704836  0.7994981549867723
  0.4025166745293831  0.8005563624092495  0.0072389924564611
  0.4015667320241100  0.8012657755348803  0.3959956458465669
  0.4003204275911947  0.8007042994357669  0.5932378850071217
  0.5998514529775882  0.0003816559454095  0.9970104731024532
  0.6025422707820366  0.9995840915178686  0.1981552493367067
  0.5993600890256299  0.0001771036660625  0.4002117629984374
  0.6020573309599279  0.0007605917571177  0.6021624158661947
  0.5972649375275434  0.9989445872578315  0.7999749602125393
  0.5992180364931617  0.1998852349359570  0.9989931372701931
  0.5980525903215727  0.2022358886951082  0.1987264814270995
  0.5947940869704085  0.2013231766939915  0.4007640959347419
  0.5979368747636871  0.2009353680362108  0.6004619056765060
  0.5974557813249692  0.2009787776295241  0.7996938804852396
  0.6018796510700539  0.4012305096043799  0.1991091410544470
  0.6010054692253214  0.4010174688145406  0.3984005950240630
  0.5996104148191733  0.4005403161377057  0.5989144194635790
  0.5896475828388457  0.4012970081453198  0.7941870470270758
  0.5998407066086866  0.6009836521215129  0.9982988530541966
  0.5975841102599444  0.5986067570966503  0.1981052564402528
  0.5992694604185446  0.5989983485068278  0.4016421896965487
  0.5983218047425041  0.6000330285920801  0.6016868194565108
  0.5953084356267377  0.6011641332990830  0.7998149702645913
  0.6007914796623380  0.7988635684023153  0.9998154451136970
  0.5949364178367016  0.7987723371285037  0.1995828966314278
  0.6031942712876051  0.7982060484399820  0.3986170717702732
  0.5995172395407138  0.7995513166295720  0.5993471344069670
  0.6030025282441901  0.7996378380151374  0.8001972337241038
  0.7955713394460244  0.9997902404662371  0.0029321405091896
  0.7981028180453085  0.9968223819373236  0.4025607118772029
  0.8017275013855061  0.9990398440640027  0.7991034860726756
  0.8009004887132699  0.1979458816073189  0.0017081367355551
  0.7985388996404335  0.1960375630944323  0.2027024383371967
  0.7979084973562822  0.1985857310136414  0.4015056069203291
  0.7994567433660337  0.1964546482314664  0.6007060281724739
  0.8001800377607365  0.1956388578712733  0.8010835440641513
  0.8076230885389025  0.3999436607293586  0.0105745881782362
  0.8040161289226082  0.3996959077648297  0.2045427357622447
  0.7996215463388032  0.4001056173187089  0.4016018058329083
  0.7992405023898634  0.3989518223254266  0.5989793247214644
  0.7991499270148212  0.6008158666598553  0.0013445047379727
  0.7980796442517762  0.6009678468962715  0.2011241035962012
  0.7982679654541113  0.6046676910439674  0.4015315502827115
  0.7985985995379473  0.6001170702750298  0.6027252089457033
  0.7992486441499720  0.6066196430506751  0.7994903492373131
  0.8022878622630201  0.8017032728314321  0.0031204728479732
  0.7986100124676569  0.8032384234403467  0.2050898003581571
  0.7999598102699873  0.8050633936016655  0.5965376814849680
  0.8011777173095738  0.8016885962918771  0.8002718945623255
  0.0008481536465219  0.4012231558143846  0.2024232253332289
  0.9979235684540810  0.7950939755716490  0.0046461572244038
  0.9979667151271230  0.7982900860368772  0.3994838080744433
  0.1994351054978608  0.9970161850745280  0.8001330113052284
  0.1995746107372934  0.2004003505988446  0.6006889794602599
  0.2000479001917544  0.4007983855650499  0.9997534463239962
  0.2015997160083117  0.6023072911358132  0.1971848221147337
  0.2006189333613760  0.6014471846014889  0.8003938645780767
  0.2010664269169274  0.7953654765576679  0.1992371266061304
  0.3990116653410886  0.1994471898217110  0.3986481536669619
  0.3956630819109846  0.8006430097883132  0.2019309692738024
  0.7991711444001428  0.0004763779441737  0.1988442875342828
  0.7983451559919543  0.0008183163082869  0.6010953780198923
  0.8030889676940984  0.8007773382709845  0.3996458626214281
