Ti V  Cr W 
 1.0000000000000000
    15.4073529780286407    0.0026422717652441    0.0115039126781883
     0.0026423919818586   15.4169890810637895    0.0057190451176722
     0.0115025714523025    0.0057202193077188   15.4178430470237693
 Ti  V   Cr  W  
  13 101   9   1
Direct
  0.9975309187983989  0.4070493120081348  0.5976060371484970
  0.9995065556294550  0.4055624354360485  0.8084740439000234
  0.9959996268714951  0.5992857479166289  0.0034980406543255
  0.9952438456539532  0.6008055792566426  0.4110735013514610
  0.1967895184309023  0.8078773022481446  0.8028426793867471
  0.4028803871715034  0.9996884615236167  0.3606928290101249
  0.3980474082516247  0.5988548051278652  0.9964534240427998
  0.6021798142079836  0.3985819592001552  0.3922932513993027
  0.6031895268001728  0.6063881281657337  0.3974071801697528
  0.6017237730434325  0.7961557834360461  0.0033555645576939
  0.8059551571594827  0.9996546463911259  0.9963002032738709
  0.8085451033888419  0.5986049192634166  0.1903835305043564
  0.8063903094312702  0.5946517015390129  0.5975544891042824
  0.0043350753531157  0.9989519922135880  0.0011696404220345
  0.0025720013354737  0.9999874024162931  0.1994540278836580
  0.9999235645577772  0.9989002614735573  0.4004336878866828
  0.0013223783657086  0.9996949196825683  0.6013012154829762
  0.0012117353259856  0.9987842590731657  0.8009709688172716
  0.0004770747574371  0.1993887272101026  0.9996428295329667
  0.9994895143672847  0.1991782378213952  0.2001315288354961
  0.9999318516773195  0.1997565733649946  0.3991357494718936
  0.9969067961916305  0.1994167017375697  0.6025335149986306
  0.9992029271916438  0.3985636779766570  0.0025075455573268
  0.0001645862069305  0.3997977704885823  0.2013540880990284
  0.0030426402251211  0.5998574626267785  0.2020848308050704
  0.0049119867309708  0.6027582858486361  0.6061368130758565
  0.9996824779492450  0.8008062721198201  0.0012756960242766
  0.0006145904069742  0.7992234404689577  0.2021171189684598
  0.9989717743471016  0.8008714576419035  0.4004799537240524
  0.0002625486716212  0.8010228870877446  0.6008527574082364
  0.9971952850848941  0.7991916933904991  0.8015921620320573
  0.2017180284612154  0.0012931695918553  0.0014619237067404
  0.1980613208579203  0.0002189309494427  0.4001730767098264
  0.2018889153882946  0.0009050750169851  0.5989852621504042
  0.1997724051504782  0.0024900997792695  0.8006609470224906
  0.1997715247710154  0.2002775554573161  0.0002089905425762
  0.1998832377013580  0.2013176539315147  0.2000484136457310
  0.1994869115546994  0.1996811467578805  0.4022548369953574
  0.1988918836972809  0.2018421099662823  0.6000884038246824
  0.1996386308854831  0.2016740333583171  0.7994412425983042
  0.1998554216032719  0.4001363378508375  0.0007770343620463
  0.1997243991503352  0.4013877962569378  0.2002513938390089
  0.1979323726015459  0.4006509275535341  0.3989519478950823
  0.2007482200997640  0.4008514645517449  0.6006983097981623
  0.2006514395815653  0.4017584115601420  0.8006211643406851
  0.1999386726757262  0.6007123089213064  0.9998516404554268
  0.1996850754168688  0.5995620792114533  0.2020207691171929
  0.2005620139281684  0.5992366806210528  0.4017146821857559
  0.1996395991424213  0.6000672566806832  0.7999242165787355
  0.1997470515676133  0.7997064415456373  0.0040004057934144
  0.2009552652305227  0.7994176388947056  0.2008946771351241
  0.1996323918919000  0.8001425704381335  0.4002900131995930
  0.2007221180027944  0.7987697628750102  0.5991915664255741
  0.4004729172867421  0.9997903790734909  0.9976340032785023
  0.4008662819445103  0.9998743925716682  0.6047624166667002
  0.4003049586608772  0.9996664060329655  0.8005703576215767
  0.3994730109473471  0.1984649521050171  0.0014926360026855
  0.4010493771110992  0.2024617276284530  0.2000445059923158
  0.3997326057018210  0.2023310695641231  0.3992436118026956
  0.4010282100770926  0.1997557971363197  0.5993234742837520
  0.4011407502281377  0.2012469902780170  0.7999869805864702
  0.4006741476973494  0.3983146404508591  0.9997383194838967
  0.3998005167476898  0.4007547840731243  0.1997392202673170
  0.3988853525431237  0.4010133188165798  0.4005991595853917
  0.4004435146981946  0.4009969789287313  0.7992405404269163
  0.4008559640639003  0.5996576441493666  0.2010984496797832
  0.3991868553853856  0.5986032060960238  0.4009026965408997
  0.4002077951849029  0.6000584742162092  0.6005002581652877
  0.3988109810540210  0.8033430992570314  0.0027986147262232
  0.4009219883472197  0.7968333810178631  0.2000468665215443
  0.4006910290764041  0.7973191304913630  0.3988113881274340
  0.4000359963578812  0.8006952975027420  0.5980956869743411
  0.4030211961301860  0.7972996534822686  0.8014709931840738
  0.6051886039527378  0.9990474959311095  0.1967735985909546
  0.6019014305430997  0.9990469729553564  0.3966936951954050
  0.5982056324090105  0.9995070190657465  0.5980834270187992
  0.6013843868446490  0.9991438509300306  0.8014748387878042
  0.6015990657505514  0.1996615341668127  0.9990666567469300
  0.6004020763151244  0.1984180887123536  0.1985041700255959
  0.6001983884890051  0.1987631649977068  0.4003698020756705
  0.6032081057080672  0.2001608085437415  0.5997029444506115
  0.5998677827638472  0.2007866256975440  0.7995241681137374
  0.6000911536825678  0.3995523082447676  0.9987527091905702
  0.6008998971478957  0.4007831731253442  0.1965695643422776
  0.5984515175365238  0.4027457396267323  0.6002545346691702
  0.6004396345457693  0.4014084979121083  0.7999373729607251
  0.6007145457073196  0.5970782316319185  0.9974539928233086
  0.5995919621442368  0.6007114448466985  0.1955817087845010
  0.6004182607542048  0.6001139057337138  0.7985607329505440
  0.6007683376062700  0.8002392448593738  0.2007196197541488
  0.6014000081727195  0.8017142028571363  0.4012891153888464
  0.6008131837656409  0.7987142300356282  0.5999291597569432
  0.6014155647373988  0.7998719431177687  0.7991347679066191
  0.8012129049604799  0.9993158484573271  0.2008310116679545
  0.8013655234275181  0.9995857444698621  0.3990539687080768
  0.7998997782258342  0.0026659832203031  0.5991649799456147
  0.8009609755350562  0.9990876714790787  0.7977684131865715
  0.8008307283580021  0.2014164432714124  0.9976403368921098
  0.8009067835211475  0.2004268427082680  0.2010494064358253
  0.8009128048328064  0.1997085191990668  0.4035383155944917
  0.8010083274858807  0.1997649028672439  0.7952953482515356
  0.7998412956386883  0.3987082320198892  0.0000045415115915
  0.8000341628752043  0.3984095151874557  0.1994879677407083
  0.8024397882905907  0.3998752460156091  0.3981181434348860
  0.7967993418117162  0.3935177309909682  0.5991027913533576
  0.7985371860300721  0.4010653218688793  0.7996687014476620
  0.7971365869688342  0.5988622920897573  0.9940518124244891
  0.7990221565083182  0.5988308689537439  0.3990134814220476
  0.8016063918226418  0.5991836093515244  0.7985339944868826
  0.8018656602688872  0.7973908388445844  0.0000479171401591
  0.8010865712183791  0.8009602821785969  0.2001463522267594
  0.8000533440284727  0.7991156020848653  0.4001568447371058
  0.8001146295363419  0.8009118461630507  0.5995224143394287
  0.7992078158203261  0.7993679794251618  0.7991017247553589
  0.0001742635101118  0.1989871279415356  0.8008438563147483
  0.9998528856567792  0.3971993727309363  0.3982200112406824
  0.0001142598590952  0.6046379353299177  0.8000588320263041
  0.2006469537875274  0.9998661759876944  0.1994642627791175
  0.2017432310483231  0.6001992831196554  0.6004498677233649
  0.3996158048906192  0.3999387503003948  0.5993340780929851
  0.4001657685166698  0.5996939025365584  0.7969021331142379
  0.5984723100176685  0.0017665441440677  0.0001430425832019
  0.5991922723534238  0.6003361379491819  0.6019226769720571
  0.7995773567294024  0.1991531535981482  0.5979168465631028
