Zr Ti V  Cr W 
 1.0000000000000000
    15.4426403378846846   -0.0320005039046650   -0.0557208927597321
    -0.0320601671519035   15.4795610846132128    0.0067732802617652
    -0.0556571551947803    0.0068453986319217   15.4616290361641866
 Zr  Ti  V   Cr  W  
  16   2 101   1   4
Direct
  0.9913684419334707  0.7676387596036047  0.8034589186786263
  0.2304425321162700  0.1980341788346092  0.0336542349826980
  0.2039093957894844  0.2031059381933646  0.2463338727115525
  0.2063325524184599  0.2035982766339897  0.4520675409346349
  0.1533166301238421  0.1984471000382440  0.8237701081565229
  0.2077211372718665  0.7980381851812673  0.4031969625747625
  0.3688902324043764  0.1908628026703550  0.8127064926096188
  0.4051320772969967  0.5995215922145850  0.2019988727735019
  0.4090811133330926  0.5984232813224544  0.4261663223653167
  0.5888575998344383  0.0271472647795850  0.5828925420451606
  0.6141053007443992  0.2388236209657937  0.6004606921031344
  0.5954953456624005  0.3968389105531607  0.9981877912847952
  0.5909968541021158  0.4505992538275272  0.5969554842926850
  0.6020473836894835  0.6198215320909873  0.9902907164271183
  0.7866607566960833  0.0116742333015683  0.4090776136161456
  0.8073576593371911  0.3598194585167936  0.5639412662750483
  0.5882044481455057  0.6402509925200844  0.5907999307703409
  0.8151449676813365  0.9832344783758734  0.6169846867463932
  0.0005044101883080  0.9999525978162862  0.9977952692165719
  0.0027541218851427  0.0012853934423684  0.1984170061816402
  0.0020583943404691  0.0003079285422318  0.3970496521634490
  0.0068038417350285  0.9977111687618353  0.5981590886057330
  0.0000042259049149  0.0095898471551985  0.7972374751312059
  0.9868676658476359  0.1995856006169690  0.0001164873577653
  0.0000839455774732  0.2011496861059193  0.1987993140588059
  0.0039745293897139  0.1992546791399847  0.4003578382971005
  0.9979865254527803  0.1970816415962915  0.6032423805840808
  0.9697095947116147  0.2032017079148317  0.7998983015709228
  0.0029822760241733  0.3969604657930023  0.9960716952239155
  0.0051961602955469  0.4000840331528185  0.1963564345739846
  0.0029578311016924  0.4010015650778354  0.3991349891512476
  0.0065041135763986  0.3956868815372946  0.5987693069826403
  0.9985489503532187  0.6002320527988773  0.9917943391520571
  0.0010027587090370  0.5993324026878731  0.1969519256347258
  0.0007632951534947  0.5988902369585206  0.4008494927349153
  0.9977262095996011  0.5970435939824205  0.6022370264470940
  0.0050749698010473  0.8021484248106953  0.0022852884226763
  0.0009768049742860  0.7993872947047777  0.1977625851938255
  0.9992113632668523  0.8011693739843340  0.3993012929940766
  0.0015035332630779  0.8002557411572467  0.5970172977711997
  0.1989143948849680  0.9990241441780798  0.9940463941715147
  0.2026491789654887  0.0015222812811340  0.1937149867980425
  0.2009799302431905  0.0050050589011219  0.3977210947228051
  0.1995017965923187  0.9997244283856810  0.5991650389591893
  0.2003747204343074  0.9949414960872364  0.7969766801291779
  0.1985819997209620  0.1993728964379271  0.6343213367319593
  0.1968729840282041  0.4009381960703100  0.9986337412720839
  0.2040895834534470  0.4026322718453861  0.1969556866804123
  0.2060817750699864  0.4004813277943046  0.3987046546859805
  0.2015560125410720  0.3991892899294048  0.5998527481509356
  0.1996006646050050  0.3986177335998816  0.7991367555058009
  0.2001930201583708  0.6005923018025712  0.9994692090928391
  0.1970798483364178  0.6014113096749854  0.1990548688281587
  0.1972616376301430  0.5943192965058591  0.4012408132984706
  0.1987180246987859  0.6002832657500673  0.5985579693656605
  0.1904310099003080  0.5972166222780825  0.7991571310922115
  0.2035088329609052  0.8011669122488088  0.9993401792352676
  0.2038463303272300  0.8002824207828501  0.1976596392460191
  0.1992457022926224  0.7996261871040987  0.6057717780317147
  0.2020123650423448  0.7956678053257485  0.7998900881141836
  0.3973896402315233  0.0109030003333450  0.9935946801868079
  0.4013991122842165  0.0035637961190433  0.1976949173655070
  0.3997234628433046  0.0021583918390993  0.4020597534443491
  0.3915678422882814  0.0014882764850386  0.6004669579767282
  0.3996010580010909  0.9901050803716042  0.7958791091075930
  0.4269143850065988  0.2099934892577741  0.0090440389250905
  0.4094364103743738  0.1995559562305635  0.2062629100900938
  0.4052695379405780  0.2004383357881483  0.4030562872221695
  0.4028760714847841  0.1983349329145652  0.6037467982513526
  0.3910084512722868  0.3998600810498366  0.0016980699288667
  0.4020994790813243  0.3952425163716695  0.2030909222943117
  0.4070485119465074  0.3955575170333687  0.4032983538938144
  0.3958915214256868  0.3988441437919814  0.6007559725952151
  0.3957724620226534  0.6006606522992382  0.9960865279886882
  0.3909108898175959  0.6012975851007757  0.6155453636874663
  0.4017514823413266  0.5986674708307681  0.8026213638024182
  0.4022256726133536  0.8034104695405088  0.9991010593272673
  0.4043708707503934  0.8071808286598557  0.1979674693686416
  0.4098612318848902  0.8052645980259451  0.3979193958654103
  0.3985529362556122  0.8029489615005688  0.5975307970590127
  0.4002377872633822  0.7961838364045604  0.7996442871485209
  0.6004210247797227  0.0021600119617014  0.9946506586638827
  0.6008267864512690  0.0006074495967687  0.1916956165293797
  0.5898794852562266  0.0007257436610602  0.3818161080192174
  0.5954865973894684  0.9984831352686492  0.7965983076074314
  0.6031182926470232  0.1960839361724996  0.9984031736302351
  0.6062639491495337  0.2011814859757212  0.1983712757861274
  0.6046531784626636  0.1942816855207258  0.3940552126394444
  0.5835438062459936  0.1986532370485900  0.7945282095124759
  0.6018907873918806  0.4009143701365934  0.2038367898867587
  0.6071200131034910  0.3958274211470990  0.4009079765918294
  0.5968998735754247  0.4013104534688980  0.7934288168492925
  0.6096854261591993  0.6005388410365837  0.2017187804195835
  0.6129709646638237  0.6014425402940793  0.4006752406096897
  0.5972598276819410  0.8130512368947814  0.9978032872300078
  0.6047439126294284  0.7988694692281860  0.1956824649196361
  0.6079500011627686  0.8078546197018811  0.3963103676841696
  0.6018184072373844  0.8220078120139204  0.5972850792222042
  0.5993735428637613  0.7953515493023046  0.7965705755338943
  0.8013209891388194  0.9986608591082945  0.9973251934143877
  0.8032637139840496  0.9988611350628913  0.1932822731430691
  0.7955215361085907  0.9893701665379517  0.8076348234483335
  0.7941977562914859  0.1956266304817268  0.9949687229818019
  0.8015579792937609  0.2003419657445570  0.2000296252458175
  0.8032107519693699  0.2128471342576655  0.3989566720543959
  0.7788491108994547  0.1945681061614286  0.7897979165284168
  0.8043097568333744  0.3959479188005954  0.9956733670216361
  0.8021889974743392  0.3991997995401056  0.1884936562830042
  0.8053576574633308  0.4048013746896112  0.3747024843555343
  0.7959611277601228  0.3937114918273493  0.8020203824461516
  0.8016955228401091  0.5935555672057856  0.9959693689470022
  0.8050648257380876  0.6023617021047065  0.1912290723957039
  0.8054963249204937  0.5983379723425356  0.3960862620736167
  0.7958144725541282  0.5939597832028811  0.5939519785813199
  0.7939890731401872  0.5913998885891225  0.7943925033764588
  0.8027883157837721  0.8015767306602207  0.2013899363555200
  0.8021010008068479  0.7980182352916745  0.3971655756163558
  0.8007873465162355  0.7910168429416322  0.5960824474557964
  0.7937795483875458  0.7943923836683556  0.7936447154383620
  0.3960984361801244  0.4030713919494265  0.8007748518982437
  0.9969825243428334  0.3902273998193379  0.7944550618639047
  0.9942036108402137  0.5716515388513403  0.7955185178547787
  0.6006121222264460  0.5918161241654497  0.7890375033922966
  0.7989959215763699  0.1616224580140465  0.5940543981072375
