Zr Ti V  Cr W 
 1.0000000000000000
    14.5389912424876915   -0.0374494556866657   -0.0589183043242261
    -0.0374453500442430   14.6354780942986213    0.0461660729105062
    -0.0592018380882507    0.0471780306618269   14.7165872119283581
 Zr  Ti  V   Cr  W  
  30   8  50   9  27
Selective dynamics
Cartesian
 -0.7835854118847670  0.6049458405464555  2.9112433418125421   T   T   T
  1.1248150159024548 -0.4335648292649805  5.8775126961137518   T   T   T
 -0.5218211788271013 -0.3693566566855489 12.4854487911044210   T   T   T
  0.9592638360080634  3.5016884390541150  2.7102007550507174   T   T   T
 -0.2505879592465735  2.9881914235897740  6.1575060048755494   T   T   T
  0.9229249080307429  2.8327979778322510 12.5126756106457826   T   T   T
 -0.9253558290462137  5.7825441668883908 12.5229159237437759   T   T   T
 -1.0262260540332508  9.3383281583128355 11.8586702777612203   T   T   T
 -0.1032325263356742 11.9363064109558508  3.6321871466849127   T   T   T
  3.4697274821211845  2.6812836682969432  0.0821210489893547   T   T   T
  3.5855449467120484  3.0500130774560605 10.4845321223401609   T   T   T
  2.4956843793359123  9.5638013228921341  2.9132304559937729   T   T   T
  5.7843212765210099 -0.8027297241884209 -0.7390144139766506   T   T   T
  5.2783423854989291  7.6095556456812723  3.9677625913552150   T   T   T
  6.0290224459308916 10.4125670706337754  6.3120354117899282   T   T   T
  4.3779717496388093  9.7382415248181680  9.4497299374833670   T   T   T
  5.4463035408661877 11.5912439078366969  2.9775419331825628   T   T   T
  8.3471922269608552  0.5704878236865947  6.1058452951532729   T   T   T
  8.9030859619262817  2.0352068046765988  9.2051633565705231   T   T   T
  9.0787524459889912  2.8884894174066158 12.5576884527288062   T   T   T
  7.8574150134543181  6.0647237506176079  2.1369209092335080   T   T   T
  8.4188516094517443  8.4191967032030277 -0.6302128062499919   T   T   T
  8.8539437697649781 12.2701138147937243 -0.1685423855236541   T   T   T
  9.3797724516340768 12.0869004835329115  6.4854531915184390   T   T   T
  7.2258646466354941 11.3187111589389495 11.6025913178250004   T   T   T
 11.9537004235996704 -0.3316129024478811  5.3770058871701281   T   T   T
 12.0427422256420460  2.7480470341790793 10.9524662970690372   T   T   T
 10.9775338248503616  7.7217127875738871  2.0710418587287416   T   T   T
 10.0950241206938607  8.8231563341047483 11.0293167290318852   T   T   T
 11.4855659724384243 11.9148175168929846  2.0920057586996621   T   T   T
  0.0759810704628318  6.7978362626360447  2.7315964697370667   T   T   T
  3.0147645768479685  2.6631732651043372  5.0066295733071522   T   T   T
  3.0442056190697180  8.0589732596318502  6.3524259687519109   T   T   T
  6.4436862286243839  0.7397568556210805 11.0421669562481579   T   T   T
  4.9408117595150873  5.9974915308316854  0.0536677369977901   T   T   T
  9.2813408504922510  8.7180727640465872  7.8127839535913450   T   T   T
 11.1294300486788966 -0.5210969060770442  9.2855442424519605   T   T   T
 11.4483800357131820  9.7157331804685452 -0.4788790306503973   T   T   T
 -0.4702673492999198 -0.4771611549861351  8.5561723558337164   T   T   T
  0.1328297551086612  3.8542206332627522  9.1859407965732380   T   T   T
  1.4078960073094251  6.0054418878085212  7.9417929686840409   T   T   T
  0.5982201547579628  8.4286656851552131  0.1166180884675242   T   T   T
 -0.5589629464212231  9.4653848490976120  2.0275465482620154   T   T   T
  0.4800264565476733  9.8191636543270580  6.3023726888068250   T   T   T
 -1.1184079153598621  9.9588147091922821  8.5241679174381435   T   T   T
  1.3235780719488719 11.9314921369853053 12.8605448763687207   T   T   T
  2.1729475960221931  0.6084963764757021  2.5120897601465999   T   T   T
  3.3116104370994854  1.1668976176640236  7.5900835433184026   T   T   T
  4.0740173605546595  2.3383348671103308  2.7266162403443088   T   T   T
  3.3264929436705102  5.3075313265795963  3.2149177259179491   T   T   T
  2.9799785740447997  8.0259575797010765 -0.4081227501372039   T   T   T
  2.4728710794312554  7.4164618994854417 11.3379170243395695   T   T   T
  2.6343975684083993  9.7726952902035791 12.0505911972273889   T   T   T
  3.2783379594000222 11.6923808631544439  0.1669727304957188   T   T   T
  3.5866308740163615 12.9804424297459988  7.4362624347662862   T   T   T
  2.2469458059479854 12.5600767895842509 10.4115265479328407   T   T   T
  6.1859245468524504  0.0895479783520905  3.0339308030532841   T   T   T
  5.7783403520534140  1.3562710617140408  4.9544130427674045   T   T   T
  7.0588980239410315  2.4274712953708981 -0.4229416880915622   T   T   T
  5.5774435433899976  3.0489350185206434  6.6306271195411099   T   T   T
  5.7871664417543567  4.0183785588013725  8.7188341267799032   T   T   T
  6.0462298928178813  7.0989701874907079  7.8845758812572484   T   T   T
  4.7721320669304301  6.0990129562306867 11.6755026521754406   T   T   T
  4.9817250483883457  8.7400425982040097  0.8966960889337517   T   T   T
  5.8151406283653513 13.3522226200595107  6.1448660674982127   T   T   T
  9.6021913449065099  0.7684710588524043 -0.2577591036260113   T   T   T
  7.8029151882761827  0.3839470546398327  1.3009089362149355   T   T   T
  8.9612909133740750 -0.9177538519020256 11.2459918347028562   T   T   T
  8.1462586765263172  2.1942923082623147  3.2749629186353912   T   T   T
  8.7089958578103719  3.9999638675765197  5.0749671695579259   T   T   T
  8.3839009491733592  5.2316475278177927  7.4243620365122762   T   T   T
  7.9688310479287630  5.4788393173555390  9.8907638106076234   T   T   T
  8.5524256345435905 10.5708397321877445  3.3229208193267636   T   T   T
  9.4442213626090137  8.8127167168395033  4.9689845624594247   T   T   T
  6.5052747898264078  7.9428826898831186 10.4079161926207444   T   T   T
  8.8195255462619127 13.2939491976268673  3.2354618339379200   T   T   T
  7.4746483102585417 10.5092246056424123  8.9286035289318360   T   T   T
 12.8741041426780871 -0.6406475753559905  0.4437917356384625   T   T   T
 12.1167188578201603  1.8419745435691626  0.3049218099654038   T   T   T
 11.2352566549496835  2.7159172848697875  3.4666886310182137   T   T   T
 10.9181446382091565  3.2337212205495227  6.3263306764730745   T   T   T
 10.3734170420738590  5.5156010733532890 -0.1589746474461215   T   T   T
 12.0284371988304812  4.2405495824026831  1.4223460703984740   T   T   T
 13.2774716188091926  5.9270661690531847  5.2464762859026290   T   T   T
 11.6015720490433356  6.2208387809082772  9.6543451080514675   T   T   T
 12.1485151512189695  9.6530023969938945  5.7605545836952787   T   T   T
 12.9694058335490503 11.8995500354707211  7.2182166061548791   T   T   T
 11.1938575249492231 12.1622636294878816 11.6739019739003940   T   T   T
 -0.5009969263354995  3.5883461993212258  0.3121409894660825   T   T   T
  3.8150625122841983 -0.3163783485599871  1.2123355021855247   T   T   T
  2.7108398395195175  5.4027241357307014 12.7051228232628564   T   T   T
  2.7804676524608545 12.6327361163516549  2.5175006232829835   T   T   T
  4.1921527115194195 -0.2466941306360167 10.9413320377504402   T   T   T
  6.5494436430493224  3.0479448178883879  1.8140239872110366   T   T   T
  6.7564064561466770  5.3015969785918147  5.9131146435094575   T   T   T
  7.1923154203136210  6.4135273761526657 12.0197366986589067   T   T   T
 11.7745297478261790 12.3530857881490004 -0.7183230416044536   T   T   T
  1.0806798956003314 -1.3012958637521073  0.7112723923160948   T   T   T
  0.7080263030642346  1.2462626639243466  0.3046386066819349   T   T   T
  1.6484439450270512  5.4109508698146387  5.3084323950902732   T   T   T
 -0.5444744840116341 11.3127673524064338  0.0889948165792215   T   T   T
  1.1154292225400995 11.8727259390584763  7.9182971379514075   T   T   T
 -0.9259836725000272 12.1636222160548861 10.1311387130141473   T   T   T
  3.8301409979356924 -0.3562558689369846  4.4026565571514791   T   T   T
  2.5772890155883030 -0.3333479909272162 13.1715643295299607   T   T   T
  2.6692979469574691  3.7205359177335273  7.7299348923549314   T   T   T
  1.7942990530237735  5.2202494209017702  0.3466273283744117   T   T   T
  4.2218587223193884  5.3342868604063662  6.3012917726809690   T   T   T
  3.9049745628766726  6.2342992626332547  8.9553540089532504   T   T   T
  2.8979860517898111 11.8332425692391983  5.2719518793065987   T   T   T
  5.7857571352978416  0.7873151265125459  8.2300251235966844   T   T   T
  5.6105675332627190  4.0938696535666557  4.0361385825250924   T   T   T
  5.1155285186921864  8.6038390969292706 12.5929671032839448   T   T   T
  5.7984672381971665 10.8053972897754402 -0.5426244778550167   T   T   T
  5.3516139063370858 12.6690301344669702  9.3160422228021282   T   T   T
  4.1758654027392446 11.8761852749642802 12.0554985055331887   T   T   T
  8.0073547564808045 -1.1897011689432175  8.7667687289726377   T   T   T
  9.4172397378104087  3.0067743221997221  1.0606371706590563   T   T   T
  7.8324469369821550  5.0187414039146967 -0.5112346217932358   T   T   T
 10.6502589318276151  0.5006968134499759  2.2526716882456501   T   T   T
 11.1497594614972897  0.0881643180117914 12.6974186678358638   T   T   T
 12.2385480809236782  1.9071708758890384  8.1174249725012348   T   T   T
 10.0398894406612875  5.5811625322127636 12.0109635567888340   T   T   T
 10.4719915180497214 11.4267725194969856  9.3786270181681957   T   T   T
