Zr Ti V  Cr W 
 1.0000000000000000
    15.4218125631900325   -0.0059686382723848    0.0062585989012477
    -0.0059677460242910   15.4281327699692579    0.0068346148581175
     0.0062604253005019    0.0068382331099848   15.4329886035241781
 Zr  Ti  V   Cr  W  
   1   3 110   3   7
Direct
  0.3988794329140400  0.8024956271452240  0.5981184767919578
  0.2013908988006029  0.6056866971247977  0.1901128886472969
  0.1981242683799749  0.7899726960641141  0.0070596474672333
  0.6002302062991638  0.5977586425805712  0.5815980626731040
  0.0007248130606654  0.9984155723552832  0.0007918246502907
  0.0038825119094619  0.0029875628262954  0.1986991801726887
  0.9995127612214822  0.0012417275472950  0.6024546521549761
  0.0003889095643428  0.9979952875142628  0.8012938128139799
  0.9999938161655656  0.1993401576849794  0.0038180079465162
  0.9996334649717724  0.2008227757321135  0.3969616558365806
  0.0023387532411470  0.1995475539673428  0.5981260873293331
  0.9988489527941765  0.1990207384556472  0.8010992912326510
  0.0049018854950777  0.4003647167238690  0.9996339746421204
  0.0015226868173918  0.3971614897160647  0.2009251039731433
  0.0009556036233005  0.4035405561170154  0.3994010020199533
  0.0005769845698745  0.3994740778325660  0.5991538595767857
  0.9991857857519469  0.4007201318438905  0.8002186778498607
  0.0000942278382026  0.6002268191961951  0.9995367132326286
  0.9985891543688262  0.5984528050208949  0.1995870882519397
  0.0011661902665071  0.6039004513852694  0.3990259371596032
  0.0006802339895988  0.5985972787964757  0.6007857386574480
  0.9993616144475724  0.6009655488217300  0.7990538198675269
  0.9986182698307988  0.7990101138673760  0.0011829689662719
  0.9996479385294017  0.8003459016942812  0.5969608613996215
  0.9999377884653157  0.7988230676455944  0.8005812305450989
  0.2011608884807079  0.0015388045503065  0.9988201511094754
  0.2005113196970818  0.0011283659382260  0.2000216514929380
  0.2015192218933222  0.9993734037901782  0.4013069568439182
  0.1995499834539900  0.0052826149811592  0.6007538292533410
  0.2006386337603496  0.9981725196180919  0.8012273042901733
  0.2001296283472952  0.2020832908429109  0.9981974830829441
  0.1956597675156748  0.2001091877744742  0.2017260264398418
  0.1995428400026842  0.1997050963358104  0.4035428292436480
  0.2002430542695496  0.1991349479231810  0.7958171321749058
  0.2005731696148789  0.3977272483401573  0.1954262602480582
  0.2006296230236109  0.4023244808308040  0.3986897135763039
  0.1999472271562505  0.3949030862049208  0.6003673731204849
  0.2008261335534076  0.3996495711360895  0.8022902535267679
  0.2007241331824553  0.5909233357013044  0.9934545046279788
  0.1999225830385812  0.5964573989382917  0.5999215501081263
  0.2011076000696975  0.5990001631634460  0.7972264962035875
  0.1994746627952319  0.8028060481811864  0.2038596523293563
  0.1946440651778307  0.7987937233865161  0.4005725234846300
  0.1956404022215837  0.8003377066554261  0.6011021282450136
  0.1998137011784173  0.7975344794951451  0.7990369959131250
  0.3986678772672186  0.9990053663346824  0.0002372966018431
  0.3996050542724206  0.0003516183930461  0.1990584613342055
  0.3989635342284885  0.9978067446302923  0.3988648692338585
  0.3997236345581514  0.0045707012499879  0.6004806091223917
  0.4007517920816627  0.9974767808428161  0.8021604436629467
  0.4006923059397007  0.1992547833465400  0.0005661349165654
  0.3997432000375782  0.1990285666148167  0.2007084677748754
  0.3995785977196382  0.2008948968285447  0.3978960567370414
  0.3995564824097538  0.2008885471060070  0.5993981306802489
  0.4012497669643215  0.1992445474507119  0.8009423926026028
  0.3963297721822304  0.3992003785798169  0.0003855846269075
  0.3997623596754129  0.3997295906215164  0.2005994647402363
  0.3992324607422067  0.4017797723378356  0.3981590495534289
  0.3989888214519136  0.3991860178414674  0.6002896572756330
  0.4007744888716460  0.4001605728993112  0.8002263020894304
  0.3994690932668948  0.5992063221880923  0.0007197409816827
  0.4018280399194240  0.6005004150797945  0.1996008314285994
  0.3983884236084230  0.5996871992420044  0.3990939765774316
  0.3977345357986846  0.5955946955637945  0.5999624087825626
  0.4053081664554842  0.5998589370214398  0.7991446741470792
  0.4011439244924068  0.7985371772983256  0.0020392461193595
  0.3999605361640969  0.8002229813452859  0.2003362473757496
  0.3985200477673525  0.7978536318753754  0.3949022463235110
  0.3995698615181913  0.7988475463571517  0.8042547656548180
  0.6006411465606072  0.9994613677125461  0.9997742740663982
  0.5970632616792737  0.0001167762156569  0.2001981921687401
  0.6000302205985387  0.9984835825379611  0.3994885474363347
  0.5997267712030288  0.0048232699546070  0.6013116666927590
  0.5998975789393528  0.9977119455129798  0.8004906334484445
  0.5999933654283606  0.2000370933427486  0.9985714855819615
  0.6039299757319787  0.1991857368433904  0.2014919473286628
  0.5996390694129295  0.2001966461973108  0.4034026599621103
  0.6004332902370418  0.1994349641943044  0.7965163047653777
  0.5982870509224990  0.3982094586778329  0.0005303390088487
  0.5992326649323103  0.3989063805168752  0.1998929869978823
  0.5992407849154937  0.4018361064585382  0.4008202845337172
  0.5998994377316957  0.3933577609362771  0.6003684639815534
  0.6004692437771381  0.4030968824376722  0.7995514153452360
  0.5997348897677786  0.5988954953640673  0.0010101158802036
  0.6002451948029149  0.5989093677441528  0.1992419340703456
  0.5997351185506825  0.6004155467621883  0.3953148864124147
  0.5999777604605303  0.7996401661978815  0.0020479495688759
  0.6023442890262055  0.8015706985371938  0.2008133101612747
  0.6003854748590089  0.7988812435266738  0.4009419175754895
  0.6043878026571865  0.8032156995062426  0.5999484273378407
  0.6012942335997830  0.7949198444261970  0.7998964526003743
  0.7999477136273966  0.9992773659657385  0.9976880178380242
  0.9659838012136763  0.9962584372332306  0.3654009451174905
  0.7982935027642525  0.9989589766657068  0.4031211731550356
  0.8008110799183084  0.0017266656568189  0.6007256393804834
  0.7999149779235450  0.9985210673495190  0.8011918700400387
  0.7998587459698088  0.1993571502537066  0.0020164380102810
  0.8002971700053477  0.1992995794613535  0.3982966892823785
  0.7973352330735101  0.2001938061936220  0.5997245922237534
  0.8016967977870509  0.3998936821029253  0.9988830444019895
  0.7994961863846610  0.3970759768246391  0.1998382938928094
  0.8007292681344406  0.4021296979516004  0.4008748029824932
  0.8017052579108874  0.3979662894665205  0.6011762741821953
  0.8012484982167842  0.3993793800175567  0.8006346135377236
  0.8012017633185745  0.5981476444847625  0.0010711193024848
  0.8004855521804931  0.5980715819630068  0.1994898239060577
  0.7991840054625060  0.5993583854988221  0.4005239757140851
  0.8018004939068458  0.5980137215465582  0.6000936006328315
  0.7964787991486368  0.5996647317122762  0.7995046912644334
  0.8010567111935588  0.8002198468103529  0.0023109271295023
  0.7994002513743965  0.7973211568289671  0.2003755403153427
  0.8032942355169483  0.7999636707527191  0.3985379853307757
  0.8008431262128278  0.8003320672870892  0.6021345851438834
  0.8009788957493611  0.7988414918182191  0.7998884083890725
  0.9991206408660863  0.8014599429294670  0.2009353925453272
  0.1997437831041499  0.5995450986950036  0.4009960504591641
  0.8001774187139963  0.1997146704122875  0.8006104275185292
  0.9973166903698141  0.1974411361685843  0.2013761205069891
  0.9976607904440394  0.7998236838455111  0.4022625076316787
  0.2004043112532480  0.2006840540423845  0.5998936057091977
  0.2009077525747889  0.3968729722713080  0.9977174334850907
  0.5984156927374163  0.1999086324232476  0.5988588881974902
  0.6009462799914618  0.5989007991311124  0.8078338886755997
  0.8031176184302985  0.2047644933191991  0.2010501481453253
