Zr Ti V  Cr
 1.0000000000000000
    15.4866812533483102   -0.0138389071891856   -0.0042650055420354
    -0.0138393523722023   15.4879634038831639    0.0014184031787679
    -0.0042741725747290    0.0014267905633447   15.4705250654031623
 Zr  Ti  V   Cr 
   5   5 111   3
Direct
  0.9982715535665813  0.6001518580837235  0.9991952333158495
  0.4334539444302248  0.7960481292332648  0.4125059864231732
  0.6023174007710366  0.6008261373582237  0.5945686573716107
  0.7849474166485005  0.9653903176893589  0.6001836837178839
  0.7854147962815963  0.7504472363837688  0.5994774230535492
  0.2012358293063225  0.0008942986232685  0.5980065827595930
  0.5970220247858495  0.8016687090298907  0.2268479448472132
  0.5850292830690319  0.8333677810387692  0.6027999733296313
  0.8012160512006485  0.2059604075260677  0.2052150701838194
  0.7966501700176681  0.3984246145895582  0.3916721193365342
  0.9984629003885694  0.0016796155726714  0.9996602528446876
  0.9995239536274763  0.9998028230353594  0.1998763882457988
  0.9989048334180870  0.0013717083397783  0.3994598593901223
  0.9983031166785411  0.0004716159008065  0.7984391490343302
  0.9990506452234741  0.1990230398263941  0.0005732156701729
  0.0016991351741014  0.1998772663585006  0.2006489755626705
  0.9994513996626123  0.1992709955582168  0.4001991058414701
  0.0000787703677263  0.1987341139565619  0.6984657872269661
  0.0000416253876125  0.3950709882107372  0.9986771740708622
  0.0006016698941007  0.4001804439367612  0.1995260795138339
  0.0024733549866431  0.3992155293239363  0.3993524985380106
  0.0032935413278189  0.3979269537826667  0.5989613810887008
  0.9995326468931370  0.4006925183594582  0.7980616636474349
  0.0001686269628796  0.6003458451664346  0.2042233874386391
  0.0002891025456368  0.5992971430425915  0.3995241494382313
  0.0008996586172650  0.5993453627249814  0.5968404217033552
  0.9996900504750560  0.6014111207536985  0.7941786432436920
  0.9994793380316445  0.8052481925628718  0.9997219519219754
  0.9997569556096193  0.8006678658344071  0.1995189094944609
  0.0033450893691054  0.8005311874535375  0.3996643568378438
  0.9957986298326474  0.7984141095020512  0.5989586512613042
  0.9989881787428877  0.8007845618257993  0.7990288831515533
  0.1998565287243913  0.0010589653996437  0.0004137408301019
  0.1993711208978091  0.0006050483369198  0.1997330757161803
  0.1996046500035074  0.0000685850233801  0.3979576166337688
  0.1979475356147389  0.0015351781853840  0.8014001050052701
  0.1999539260792944  0.2006444532559619  0.9994438073815121
  0.2002532813214870  0.2009395805718520  0.1998578731018311
  0.1995014592270550  0.2014982400160828  0.3999590634630432
  0.2015252368450763  0.2034193711644768  0.6000824625120758
  0.2000217267701977  0.2012951440064571  0.7995037020814064
  0.2006476323557330  0.4002930531977240  0.9993104499348374
  0.2006106685280319  0.4012029451625698  0.1989139719223259
  0.2008975637227456  0.4009352561106932  0.3989033069404231
  0.2006330445501501  0.4020403588965106  0.5991399386011952
  0.1998115653853656  0.4011464501132846  0.7997963958244024
  0.2043035553414412  0.6012775293186948  0.9992140364642097
  0.2005009483444868  0.6010487019106833  0.2001239572174999
  0.2020088886387234  0.6009032661898545  0.3986868851524680
  0.1997390178087394  0.6011021910787725  0.5979854480707520
  0.2005029790828601  0.6011476983694070  0.7981837989794923
  0.2007433621714336  0.8015132990286514  0.9998788343218287
  0.2002947801264617  0.8002849835994701  0.2002137442807931
  0.2014979301430515  0.8003884760914536  0.4001648010907566
  0.1972293734630204  0.7993180454522527  0.5999553770601450
  0.1986550642427007  0.8007387255702321  0.8006691746814237
  0.4005911778128723  0.0014215133780947  0.0007651158264225
  0.3988620280877269  0.0009425157598337  0.1996164878710844
  0.3989845829593667  0.0048265265793734  0.3988886296914695
  0.3960341833100856  0.0039749508009121  0.5998560691502427
  0.3988994108200469  0.0017168209813178  0.8021610423481784
  0.3990346869621698  0.2016830808018694  0.1998883766827786
  0.4010131331253624  0.2009918726327608  0.4004972795708319
  0.3989559843933125  0.2043371954295005  0.6002650747981521
  0.4005238425140554  0.2016042856634645  0.7999170935113082
  0.4010345888428947  0.4009714022144126  0.9991922023946880
  0.3996560602207710  0.4006809446831081  0.1989703858789503
  0.4018057545136668  0.4000888833452671  0.3994220172649520
  0.4000707278610487  0.4030775629395497  0.6001426638137245
  0.4002090004348776  0.4029489734741088  0.7992685276653418
  0.4015991887726910  0.6016948853132296  0.9994127200570846
  0.4000431577483026  0.6003452751883955  0.1983664211133397
  0.4008264724271376  0.5951331744732171  0.3989423080607001
  0.3965054200430930  0.6030233103370507  0.5977654541176448
  0.4013742076150465  0.6026417471052603  0.7984446995058777
  0.4015047788166511  0.8014484769850889  0.0010442227564207
  0.3982363490001855  0.8007126642378863  0.2001746797211746
  0.3926887297699376  0.8036012293961682  0.6092364713853134
  0.3994805973990314  0.8011633724525007  0.8013903800490416
  0.5984837855864166  0.0006942296168475  0.0015930940268570
  0.5990903056890960  0.0039214539091044  0.2002748842249906
  0.6001822612956749  0.9995542014872320  0.3997157463810231
  0.5905253160975803  0.0175520690549813  0.5998959436046108
  0.5992070462258039  0.0032022856588354  0.7983136778573129
  0.5994459111657565  0.2009657225031299  0.0008556519670957
  0.6010337268099076  0.2002259394607015  0.3988569216000875
  0.5982140916856559  0.2045506659123850  0.5987893077937653
  0.5991929422103793  0.2018516447577083  0.8003515864053826
  0.5994710219723727  0.4004705569673888  0.9998997883161930
  0.5994748558111698  0.4000993676430328  0.1992196489622435
  0.5989884774502902  0.3999798625277179  0.3984570457945878
  0.5986876069510459  0.3987020429089119  0.5984814538962018
  0.6004921998759104  0.4015407123434564  0.8006866207409478
  0.5992459014962321  0.6026029953939044  0.0004700058349503
  0.6006083774898461  0.5989212115491329  0.1986747206343502
  0.6017019645606444  0.6009085943880322  0.3924384813144237
  0.5997282204106539  0.6022914724559787  0.8003099116062831
  0.5996223927216914  0.8024777562663922  0.9927968827785238
  0.6254294594018709  0.8016249005744563  0.4194302535314041
  0.5996568835956705  0.8025040468747009  0.7981076463795378
  0.7973921483423062  0.0009168377920130  0.0022018070729783
  0.7978949838051200  0.9975567814129315  0.1987692435595554
  0.8004393400464431  0.9986241566398466  0.3957842374243891
  0.7995842084422138  0.0004107130025885  0.8040440568538297
  0.7994517948708667  0.2004980695769971  0.9985773157549879
  0.7992164163270417  0.1945546737803872  0.4032822184771468
  0.7985237644893338  0.1977084337181989  0.6006406173632168
  0.7980524274038697  0.1990511165277355  0.7994021444231969
  0.7983903700213081  0.4000122413827095  0.9979904454347456
  0.8003582795458377  0.4029490631130956  0.1956668251878543
  0.8028944569985428  0.3932764227021369  0.6001113893988301
  0.8002296031906772  0.4006232838770571  0.7997955829471137
  0.7945630335192797  0.6007957155327414  0.9988885013889350
  0.7993731982319794  0.6003771947202312  0.1982671078154466
  0.8012879811921531  0.6005018383787013  0.3978002919656516
  0.8066393075441209  0.5675754487719992  0.5958382288784444
  0.7995029057688259  0.6005280225843128  0.7976250253149242
  0.7967136741463439  0.8001476426861468  0.0010662142612510
  0.8015982583771660  0.7986184254966757  0.1992761230331274
  0.8100310839520147  0.7998317814616573  0.3960820208711823
  0.8000933776609195  0.8022818298247478  0.8004614776901035
  0.9957801975203557  0.9980189303570296  0.5985801839222320
  0.3996425300541668  0.2010198803785593  0.9997828947628620
  0.5967924510999324  0.2007663239122233  0.2004249702573828
