Zr Ti V  Cr W 
 1.0000000000000000
    15.4774007178547244   -0.0057270445464663    0.0060485456842571
    -0.0057275938548885   15.4869400142696509   -0.0016006725836938
     0.0060484205712483   -0.0016004018593464   15.4828342852602923
 Zr  Ti  V   Cr  W  
   2   1 107  10   4
Direct
  0.0026154023496141  0.4010438777171147  0.0010030265645229
  0.4011179319664573  0.5967846062044315  0.8024701466366946
  0.7988571648778526  0.1928609462328179  0.5994989881968952
  0.9996392026061536  0.0001724780760288  0.2038514569809572
  0.9998466741643482  0.0001063408125039  0.3997933885655564
  0.9970274761891503  0.9993323742568618  0.5991817117524674
  0.0007412497663313  0.0001272679598942  0.7969168268112381
  0.0012217877094978  0.1950909735096061  0.0013041363027784
  0.0002573029574011  0.1984855031213691  0.1995941751494658
  0.0001109524722515  0.2004387460896793  0.3997150753469796
  0.0037042313681076  0.2000290627096392  0.5987584348177553
  0.0018394120755138  0.1979914815982561  0.8008604301961459
  0.9995857903134889  0.3996206913707307  0.2051836532604737
  0.9999257781492868  0.3998496301146449  0.4018728128706702
  0.0013563949764976  0.4004412469191906  0.5984829810938328
  0.9951816187481705  0.4003735221598707  0.7945864951892113
  0.9995722131708435  0.6077238861008991  0.0005144329928772
  0.0001798416761274  0.5999583170445359  0.2011651388540745
  0.9993124805439579  0.6001893765404135  0.3998078492810642
  0.0005272738817472  0.6011756641448457  0.5989702578253602
  0.0006013520163564  0.6009218777581461  0.7981161569779891
  0.9999165674298048  0.8012881339769479  0.1972138063867008
  0.0004517272319272  0.8001333993564018  0.3995635332527858
  0.0017672537333817  0.7986337009278045  0.6001291094369917
  0.9993456399020271  0.8012098126281655  0.8020831301383458
  0.2031627551704425  0.9997573510137170  0.9990988400598786
  0.1995573249019938  0.0001875820836943  0.1992667821793116
  0.2000134756105000  0.0002949091545719  0.4011335072532287
  0.1991685630331636  0.0004993318199402  0.7993238459613567
  0.2010445328322609  0.1987464089459778  0.0002098384436726
  0.2008427931836665  0.2006878013215971  0.1999564808982317
  0.2001382229442388  0.1996868633020965  0.3995604787050491
  0.2001063072672669  0.1987358712964295  0.6001952748730370
  0.1997252433449096  0.1999451124801633  0.8006108070325220
  0.2059478884633321  0.4006287581491106  0.9993453752058202
  0.2020106654839926  0.4001594520793504  0.2017536966313022
  0.1999986774295747  0.4003415214462812  0.4010559908588601
  0.2048594018422996  0.4003771912506339  0.6005499153479811
  0.1979325804882874  0.3989624568508641  0.7991611548776791
  0.2009801132491626  0.6010403719759255  0.0000484648511552
  0.2001949936377259  0.5991741996657548  0.2002638921724901
  0.1990967703766327  0.6003910230257965  0.3993232222438998
  0.1963108340056311  0.5995217674716758  0.7996955133002996
  0.1983059145555177  0.8011407007732477  0.9988640469901259
  0.2009260178840211  0.7998923286018333  0.2000545323928735
  0.2001724431697115  0.8004002725568434  0.4003946373262665
  0.2002312092453250  0.8002388211691076  0.5999190717068917
  0.4008920768503920  0.0008182853552218  0.0001430354982270
  0.4007312592776969  0.0004313152643294  0.2009883129916206
  0.4005096023104553  0.0007237370878618  0.4013057391129674
  0.4007030691191885  0.0007170623831894  0.5996289360222896
  0.4004713814822612  0.0006854360537918  0.7979896888055745
  0.4007953260195107  0.2004499045586624  0.0004570618493914
  0.4007040507654852  0.2005426738365451  0.2002393089261860
  0.3999725851610046  0.1999426221721172  0.3993045615397003
  0.4001084188170200  0.2026643747977361  0.5994375168013807
  0.4000794952153869  0.1986105985511672  0.8007609082300301
  0.4020178282769986  0.3985822135194561  0.0000833040243293
  0.4007932305970064  0.3998238705914102  0.4041448115175968
  0.4022022451235693  0.3937857669243962  0.7951416721328852
  0.4000449348899281  0.6007865762861390  0.0054902917124555
  0.4002667172534889  0.5994568710981117  0.2020292845957775
  0.3996708823632852  0.6006993397696666  0.3996760450645285
  0.3998644461549153  0.5966787955010685  0.5963795283827659
  0.3994936448582487  0.8015211601519528  0.0009512677843476
  0.3998191471438259  0.8006209508697867  0.2003166786385301
  0.3996340781697639  0.8003083621879763  0.4000225011164845
  0.6008313839537114  0.9992686067124709  0.9993210722467852
  0.6008157414740416  0.0008377733153965  0.2003303169217233
  0.6003751764502196  0.0003097022061367  0.3993929088447793
  0.6029430558089127  0.9993051426322161  0.5996228081061080
  0.5997968757740313  0.0008790794358544  0.7997739152497028
  0.6005090755570157  0.2002019277805890  0.1993350508214390
  0.6009295980501984  0.2003957113686406  0.3981803908831588
  0.5983826177861422  0.1989029878556284  0.5987380527336696
  0.5997557138429110  0.1988928453850420  0.8008735365866758
  0.5980126229269631  0.4007934184643909  0.9999669178892991
  0.6005432338529765  0.3995128623288185  0.2002746933914946
  0.6010805967309685  0.3997817256905331  0.3998852170733337
  0.5962956781447614  0.4006648713851513  0.5996917212643855
  0.6060311155769544  0.3990060657168101  0.8002063422130394
  0.6008735326698195  0.6017349597211323  0.0016232744141093
  0.6003525733735360  0.5995447976026849  0.2003865829189852
  0.6010189054644725  0.6002208208365797  0.3992440588610150
  0.6004295856755448  0.6023020211023591  0.5990487057898229
  0.6049064310668805  0.6015632810226603  0.8001551497501299
  0.5991998991231660  0.8000004265880232  0.9997370793394007
  0.6003559906272607  0.8004652625904290  0.1990691178245025
  0.5992656714438700  0.8005820179037667  0.3999365850659187
  0.5983600892746067  0.7989226200184457  0.6003987206371625
  0.6015006177106844  0.8011657749117121  0.8007006862570188
  0.7969036867333787  0.0018131737563059  0.9985836262458111
  0.7999966139599127  0.0008591238861377  0.4034164159671526
  0.8011404771417774  0.0016126673102536  0.7971561296189906
  0.8008196727853222  0.1971760193711040  0.0008607443926529
  0.8003139843726966  0.2008322986857771  0.1988620671105795
  0.8006111086887765  0.2034946876346390  0.8022715286346723
  0.7952154465539268  0.4002139154469191  0.9948374842991192
  0.7997170960247334  0.3997366531898019  0.1992008938224384
  0.7997209955198047  0.3990849832027551  0.4020049120813436
  0.7987349958143793  0.4010469134289207  0.6036149466334497
  0.7995927861735920  0.5988234385619324  0.0005386393724920
  0.8001326847948541  0.5992411506501791  0.2000120176178289
  0.8002928509343074  0.5995169770572374  0.4003315614647534
  0.7999688437528955  0.6006060911915040  0.5985883566333664
  0.8672896714706539  0.8671454457685193  0.9991421006871358
  0.7997139998717572  0.8000406843540901  0.2017471553353781
  0.8000156475763222  0.7996037598396154  0.3992372956243009
  0.8003026767370045  0.8015762184662286  0.6004675896744496
  0.8001869963880793  0.8003727823525484  0.7989146355488072
  0.2003780366814201  0.9993893283788637  0.6000522754862256
  0.1997532792940702  0.6007476518069924  0.5995059847909623
  0.2001141692029225  0.8005871260993226  0.7988596364266864
  0.4012135883966341  0.3998683246565749  0.2018683024259368
  0.3992961577014178  0.7998158388368368  0.6000345758571495
  0.3998181731588382  0.8030601976118968  0.7997701560544246
  0.5996069634934216  0.1999914848912862  0.0005402483586490
  0.8002210458625824  0.0001429409025784  0.2000780047693656
  0.8004477935548886  0.2002143182884119  0.3970865930692934
  0.8014178893452040  0.6005026245726738  0.7993238805862483
  0.0003165719354709  0.7985194127022505  0.9999287673406876
  0.4009290698536764  0.3992962361524538  0.6004490216247641
  0.7997677927768553  0.9961245083205669  0.6004041004459276
  0.8003862406616918  0.3965410624127156  0.7994131506702208
