Zr Ti V  W 
 1.0000000000000000
    15.3251724423404525    0.0070128769391973   -0.0004714545103314
     0.0070165878469139   15.3328247917111025   -0.0066220456422159
    -0.0004713462084994   -0.0066216079972265   15.3468382774047818
 Zr  Ti  V   W  
   2   2 106  14
Direct
  0.2339703758887842  0.6337105910255300  0.0002189462178213
  0.3990019724440506  0.8014164900027563  0.0016888206895176
  0.9952272219768238  0.0046019762010463  0.5945962192190968
  0.7956199665732825  0.4021123042746439  0.2069346699405395
  0.9968431007173261  0.0040126404642971  0.0038223303267615
  0.9985517850811892  0.9985544004065546  0.8019752951339144
  0.0005786624085251  0.2037514802201539  0.0005125265959061
  0.9994490398249463  0.1965636439821263  0.1995286052425229
  0.0046380784862177  0.1958636093352668  0.4002314347126568
  0.9996958383783556  0.2026493915106420  0.5991598204771471
  0.0008169243799455  0.1978490466377937  0.7984227447853729
  0.9992618156307400  0.3996162155785344  0.1965165698344864
  0.9991230270021669  0.3987929671464851  0.3969697160654310
  0.9952147562009593  0.3990167160728567  0.6020061621851484
  0.9984129130930296  0.4005071725389933  0.8034987770186912
  0.0019577808006779  0.5946747368445451  0.0026338870568413
  0.0037083870032981  0.5999499049166784  0.2010322625252485
  0.0031462424987690  0.6006730381755397  0.3976438920900157
  0.0010860764157975  0.5974216456929351  0.5960763852098300
  0.0014901314876077  0.5998959146146189  0.7998241376035967
  0.0046292599202026  0.7974713616822701  0.9987366972284968
  0.0014731540091790  0.8034728746282737  0.4034040568259563
  0.9995369391685535  0.7976068382279168  0.6008043440305375
  0.9992724840353420  0.7987715999235550  0.8008639526051904
  0.1981129024137226  0.0090922070486941  0.9994916352414726
  0.1971567996057372  0.9985777009416489  0.1981070627433499
  0.1957187335434718  0.0015718066362641  0.3990630715115797
  0.2010066250995673  0.0000531999718123  0.5991609395397481
  0.1982951827576571  0.9943304123198854  0.7982362811887185
  0.2015577046314254  0.2021052310365900  0.9969473937330038
  0.2026668389850445  0.1991311235626691  0.2057961008959595
  0.2041142086082751  0.2004771135248236  0.5969623728491324
  0.2006750771644719  0.1967044612960854  0.7959855246010370
  0.1951014324761721  0.3976961243087157  0.9977519538588149
  0.1982216489661068  0.4006314196148776  0.1983676064370979
  0.1968727035030991  0.3961016634925724  0.4012619008141080
  0.1974633720905397  0.3998270169740539  0.6021443098993929
  0.1987215808362447  0.4035323435619919  0.7996184844633726
  0.2043292074379564  0.6003294133368627  0.2047006648217693
  0.2035514411825268  0.6013069390990560  0.4004577818877102
  0.2015090629614468  0.5991955077492637  0.5990272113286401
  0.2004619953106666  0.6049619774225313  0.7942436221463458
  0.1880054508995480  0.8205256346851921  0.9930351691517163
  0.2002352790396610  0.7989638369103070  0.1937114130093202
  0.1989996405857074  0.8016518925070115  0.4039520095339448
  0.1999580916421259  0.8016649589896420  0.6071102871618774
  0.3992018268158210  0.0075776538688589  0.0015943240471852
  0.3987439381375849  0.9961594909902627  0.1998017461638209
  0.3978429005402639  0.9971471208871977  0.3969649572342159
  0.3999831230574222  0.0037757347944332  0.5962411112674321
  0.3991172311653662  0.9981352933348494  0.8002829104353554
  0.4003227309763042  0.2020959500669172  0.0006241269587333
  0.4003074932514968  0.2020108277669495  0.2013659970864677
  0.3959700234212525  0.2005205596033618  0.4014461603925256
  0.3981157695858940  0.1988255278043007  0.7950361578714222
  0.3977406910352534  0.3982721118135099  0.9993184672437764
  0.3992313722501744  0.4040406800675644  0.1980168172259193
  0.3996389022316375  0.4035142978199824  0.3991194307123814
  0.3999815147959570  0.3971951738517694  0.6007415285749965
  0.4021891859609457  0.4018164849286192  0.8007842629052545
  0.4203869359504571  0.5898472996381051  0.0077550812305145
  0.4001251203884637  0.5960834333304571  0.5914841409905832
  0.3985371557134348  0.5997498216092196  0.8063842325753724
  0.4015621379037980  0.7964411986898271  0.2065637678628825
  0.3987737337417340  0.7970300052112794  0.4020623860947477
  0.4009241330968638  0.7989837173054544  0.5995915156293554
  0.3988091288429034  0.7988406938958043  0.7937333150185857
  0.6006344953794343  0.0013056488917911  0.9995422044598583
  0.5994533411666274  0.9991414320240306  0.1998441098429303
  0.6000560800244363  0.9991808402125200  0.3991214895759743
  0.5996292744322640  0.0041062007118461  0.5997434140672957
  0.5983815424866821  0.9933772231592934  0.8005629639052427
  0.5998414664095896  0.2000494216502160  0.9981857002557220
  0.5981726711598006  0.1988000586459609  0.2008029382628003
  0.5984045607884069  0.1988156010388818  0.4033543067696194
  0.5984032481488932  0.2021927648435811  0.7971466497572698
  0.6048527637282644  0.3973040857417370  0.9942342782126051
  0.5991722546292804  0.3989292064178993  0.1987557192090705
  0.6016616278101105  0.3985240836953986  0.3996944391852926
  0.6043195359770333  0.3954462014534939  0.6060378044984815
  0.6081529570820250  0.5993729886793986  0.0012419023552479
  0.5960081443539246  0.6002413477900869  0.2010296090575767
  0.5958683021979803  0.5991980043213205  0.4012002040746375
  0.5979795549720656  0.5972905845372091  0.5994523006314800
  0.5976445323036073  0.6009373598905452  0.8000564154008092
  0.6029844341558549  0.8006352285050183  0.9948341524770581
  0.6026188028608624  0.8005189859040461  0.1979074323128124
  0.6012162776298982  0.8010567044766121  0.4062580090523197
  0.5996787327058001  0.8003368398252014  0.6059652769088003
  0.8000672113427485  0.0045668773280592  0.0001747983846718
  0.8009611575192581  0.9955952126843223  0.1990293280206401
  0.8051408456708858  0.9989493172429913  0.4004992342114386
  0.7973995273826628  0.0007557633415132  0.5981703102401280
  0.7998764927642620  0.9950571247154328  0.8008704478723143
  0.8000762872654267  0.2009770420846434  0.9993991015917776
  0.7974982984950303  0.1977944894053056  0.2026705620317067
  0.7995383296710515  0.1997240411134105  0.4004297951984666
  0.7956446231851818  0.2020267724203614  0.5990088578042082
  0.7988426377454619  0.1966027730398045  0.7979728980064488
  0.8041962511480273  0.3994123711869160  0.9967283289527303
  0.8011656963225641  0.4001453381873105  0.4062783795312864
  0.7966375799964845  0.4021286547358350  0.7965932434973290
  0.8039308254478915  0.5963401904050176  0.0024945681564272
  0.7974684085967153  0.6055959747578458  0.2016777747715944
  0.8004736467755987  0.5999396789001350  0.3989897246863242
  0.8000413390040590  0.5953806676849239  0.5968502476454712
  0.8001652399112716  0.6045772464040680  0.7994581437365358
  0.9324692734125390  0.8003047243123698  0.1319892729535871
  0.7996780483547835  0.7986564422012757  0.4005095680190428
  0.7995720831957184  0.7981275494971735  0.6048027191435954
  0.9988749235804623  0.9987210175498971  0.1987203516155923
  0.0005698406248684  0.0004878605641617  0.3913034784001728
  0.0000193441380900  0.3993198979340754  0.9998453452983278
  0.2012731768336473  0.2003126381774992  0.4012804019653033
  0.2032551753229466  0.7974251676138463  0.8043278613936004
  0.4024688462556827  0.2005159919351468  0.5973810433467817
  0.3983698694672121  0.6021059518111245  0.1982555371804454
  0.3998314831478320  0.5989727914761376  0.3957461646435002
  0.5963916936774052  0.2002338569012911  0.6003748286885597
  0.5996611642061450  0.4032802730916830  0.8007363557472160
  0.5986113670332223  0.7974370116206928  0.8010247384069163
  0.7995416337990763  0.3988148338463658  0.6015369375933216
  0.7978526138394306  0.7987834713654139  0.2035741659625296
  0.7968508254918650  0.7982243093081330  0.7977876327065915
