Zr Ti V  W 
 1.0000000000000000
    15.3687751858679373   -0.0034047973547748   -0.0004629384474201
    -0.0034058626285429   15.3762737440467472   -0.0028872120149207
    -0.0004620936853672   -0.0028876454386987   15.3933118945991367
 Zr  Ti  V   W  
   2   2 106  14
Direct
  0.8028954003109176  0.9921663216454571  0.7984620320688668
  0.8166788197064988  0.3868917047947366  0.0149620954471854
  0.1961911632468698  0.4038939594660056  0.3926776636159149
  0.2019732710686017  0.7978217971958365  0.4069715376933532
  0.9999553336549986  0.0031825783669999  0.0019989875494248
  0.0004454477570805  0.9996820082120197  0.2007212455823250
  0.0019450930341369  0.0016848863318850  0.5978977791529365
  0.0053274054766559  0.0011800539613005  0.7993234270568704
  0.9965616781117194  0.2022241832620471  0.9989936908059587
  0.0003142498953219  0.1988690363761572  0.2001485685588363
  0.9988550083792198  0.1991078869674012  0.3993635497417532
  0.9999308693151701  0.1997367804433179  0.5990470301295729
  0.9986049001775039  0.1993568041962715  0.7993526622712184
  0.0127587435717326  0.3994824733751652  0.9974024221318046
  0.9956757159324863  0.4004279136175208  0.1980260669520966
  0.9969710751316933  0.3978879429618519  0.4005085841828304
  0.0038509765724620  0.3995045166422994  0.6007343487744942
  0.9970365168056038  0.4011291197686638  0.8013960674331577
  0.9996010828999387  0.5989854025013567  0.0004506057066931
  0.0050726798662275  0.6017247855757297  0.2005651274561518
  0.0018238089197589  0.6010510484078333  0.3997965751962111
  0.9998214397852419  0.5993877152137598  0.5981431459056769
  0.9994347454434065  0.6004147314859634  0.7979844162598360
  0.9996504195065870  0.8016588908729312  0.0002366236643880
  0.9960948345982582  0.8002267612648668  0.1997534049881299
  0.9851458179107859  0.8000976446185316  0.4008627509488050
  0.9984075247971391  0.8005210353145547  0.5992245702950949
  0.0002655477083634  0.8003418966040181  0.8012653203183299
  0.1992410727390046  0.0031989755992847  0.9998999539228360
  0.1988502683846202  0.9971116460408405  0.2005334345625730
  0.1985132384520847  0.9998676461730559  0.4003653762788319
  0.1993607712385700  0.0009204189577504  0.5988937366220725
  0.2008071635734051  0.9956281836290568  0.8000977702288982
  0.2007177874105340  0.2036528302269311  0.9995134969198048
  0.1996967646758856  0.2011876308600153  0.1997568968707813
  0.1988515764201211  0.1987695257592326  0.3988047979364365
  0.2027750678123384  0.2054218681151738  0.6003115102728901
  0.1989535387481593  0.1987285202168656  0.8013922981411181
  0.1996010918525472  0.4049278378880383  0.1923152484180000
  0.2000704011418162  0.4033699086275766  0.8023227207953911
  0.2001952945928427  0.5957586276045358  0.0035069006765890
  0.2009307871752933  0.5948995459816725  0.5951603825109764
  0.1998569011314685  0.6046107665626763  0.7995792560076642
  0.1989201595413147  0.7993148488606582  0.9961258040049330
  0.2035020895090755  0.7949816831654974  0.1949924621203836
  0.1992275182005064  0.7984877653954293  0.6062919153563242
  0.3988301327667236  0.0021006216685584  0.9999934367338154
  0.3965712036337174  0.9957372903448272  0.2007632616991237
  0.4035685706666165  0.0006878253836675  0.3991998814627669
  0.3986027457022154  0.0032947140001200  0.5982750797782270
  0.3998347252124003  0.9984281463612112  0.7989025499823148
  0.4026821442368445  0.1981490402879453  0.0006339600905189
  0.3980086387422449  0.1998799371682446  0.2016711445111148
  0.3998167221256432  0.1992273848803755  0.4026353529229226
  0.3988093588670554  0.1972869385768180  0.7954537336981129
  0.3982291384299169  0.3983997838081718  0.9997211198715845
  0.4020712786748060  0.4006588333869295  0.2009396253177968
  0.4023047403569242  0.3989956406821354  0.3988815734505698
  0.3950736437748480  0.3956951191846332  0.5999900236342046
  0.4033842746168666  0.4012135761677394  0.8003290669596137
  0.4005476044594287  0.5992283466774868  0.9990272721844641
  0.3965294976042169  0.6033304443271834  0.2006712316167636
  0.3956072274721027  0.6009262523948370  0.4000359606264138
  0.4026086359344452  0.6004126098390787  0.5969560802805993
  0.3998202226393092  0.6020715839763991  0.7990155876184408
  0.4012850411255130  0.8015240785113964  0.0016956258453273
  0.4014259913226499  0.8021757125668414  0.3951056695952834
  0.3987047803046876  0.8013927515207175  0.5992367862763696
  0.3970176930065020  0.8008334258345280  0.8009692303610293
  0.5996636352667910  0.0067203090369474  0.0002542045992575
  0.6001431678065678  0.9970066954991349  0.2029822553415210
  0.5986878996055786  0.9996978791268643  0.5957892671628184
  0.5967588354487693  0.9988427329554451  0.7982654904835017
  0.5975341777846902  0.1990016514772850  0.1953236308623705
  0.5997124259046348  0.1969574651075608  0.3981491257031905
  0.5952396098500219  0.2016340747712360  0.6008047635253236
  0.5992533619595541  0.2052127749868473  0.8041032472761905
  0.5985849573585571  0.3965879545446155  0.9949224129637553
  0.6024377179127389  0.4035552177480760  0.1986425629051706
  0.5990965881657780  0.3994673806903669  0.3996653924539465
  0.5989879764546461  0.4036548810591773  0.6034292385092700
  0.5999224432748035  0.5970118029896975  0.9992223629841663
  0.5977916464359593  0.6031724563947289  0.2008265577652097
  0.6016103228416305  0.6019297441698991  0.4029990571888424
  0.5993663636783105  0.5974109780192808  0.7944224284762826
  0.5991114740195029  0.8004634694059601  0.0018635261242754
  0.5976820412346588  0.8036556543172735  0.3951279374547783
  0.5989657682565812  0.7965625974991007  0.5980463129835714
  0.6014203255143129  0.7989646122361160  0.8024475615102267
  0.8004504643728176  0.9979331029077586  0.0051626440892814
  0.8008750831249997  0.9964687178910052  0.2025562459636290
  0.7967300745827167  0.0036565481023680  0.3988411747777265
  0.7997728271458593  0.9994876443259486  0.5933870432731716
  0.7938333999296880  0.1895002894271456  0.9991562447744728
  0.7993653573822163  0.2049392794176943  0.1981478052036303
  0.7986923866700479  0.1998442263839998  0.3996124291395003
  0.7987311346023793  0.2010434093191082  0.6001354016152718
  0.7991041285339232  0.2009618134512470  0.8000004849528037
  0.7995019425214606  0.3997286224879679  0.4016567163886099
  0.8011618562659483  0.3997926475379044  0.6001184166469932
  0.7973550919005814  0.4010609041160103  0.8010542329654216
  0.8011480358486870  0.5976012578821503  0.9998658852169600
  0.8002898250663053  0.5987671325895164  0.2013680648293164
  0.8024909061966072  0.5997130358311265  0.3993516613882870
  0.7974264401406038  0.6006176596495925  0.5960650019149130
  0.8008025845841510  0.5997583684469094  0.8000660377178920
  0.7988184377570015  0.7985294702121472  0.9974824381844668
  0.7945278880041293  0.7969334336860194  0.1938295702085157
  0.9645252297052864  0.9652972283595863  0.3991427271760351
  0.7994215145518745  0.8002266657624657  0.6076717817960365
  0.2044251241909032  0.3998283296415163  0.9979259336047425
  0.2003561193871511  0.4005058494716733  0.6080683187844061
  0.2003113667207708  0.6001168278486760  0.2024217320341558
  0.1988390907725420  0.5997223956813147  0.3969819871134805
  0.1993385342252912  0.7986573198887191  0.8012782724314780
  0.3988999510565902  0.1992697649776452  0.5997105202640099
  0.4020070484221272  0.7995033650369558  0.1972909834559589
  0.6020845117142176  0.9993461201522011  0.3992757598675118
  0.5989691285985663  0.2029288780790998  0.9999159069799707
  0.6006582443474359  0.4022972365507793  0.8002786661534873
  0.5984081206235244  0.5998381350432517  0.5972199033114775
  0.5967633308912802  0.7993412846552802  0.1982989179248754
  0.7987009013432267  0.4021441390458940  0.2111130568022299
  0.8002765329353672  0.7924862194551860  0.8016880842212822
