Zr2 Ti3 V51 Cr6 W2
1.0
   9.8306188331670761    0.0000000000000000   -3.4756486192295029
  -4.9153094149490668    8.5135656453880859   -3.4756486192295029
   0.0000000000000000    0.0000000000000000   10.4269458600000000
Zr Ti V Cr W
2 3 51 6 2
direct
   0.2500000000000000    0.0000000000000000    0.7500000000000000 Zr
   0.5000000000000000    0.0000000000000000    0.0000000000000000 Zr
   0.2500000000000000    0.2500000000000000    0.7500000000000000 Ti
   0.2500000000000000    0.7500000000000000    0.5000000000000000 Ti
   0.7500000000000000    0.5000000000000000    0.5000000000000000 Ti
   0.0000000000000000    0.0000000000000000    0.0000000000000000 V
   0.0000000000000000    0.0000000000000000    0.2500000000000000 V
   0.0000000000000000    0.0000000000000000    0.5000000000000000 V
   0.0000000000000000    0.0000000000000000    0.7500000000000000 V
   0.0000000000000000    0.2500000000000000    0.0000000000000000 V
   0.0000000000000000    0.2500000000000000    0.5000000000000000 V
   0.0000000000000000    0.5000000000000000    0.0000000000000000 V
   0.0000000000000000    0.5000000000000000    0.2500000000000000 V
   0.0000000000000000    0.5000000000000000    0.5000000000000000 V
   0.0000000000000000    0.5000000000000000    0.7500000000000000 V
   0.0000000000000000    0.7500000000000000    0.0000000000000000 V
   0.0000000000000000    0.7500000000000000    0.2500000000000000 V
   0.0000000000000000    0.7500000000000000    0.5000000000000000 V
   0.0000000000000000    0.7500000000000000    0.7500000000000000 V
   0.2500000000000000    0.0000000000000000    0.2500000000000000 V
   0.2500000000000000    0.0000000000000000    0.5000000000000000 V
   0.2500000000000000    0.2500000000000000    0.0000000000000000 V
   0.2500000000000000    0.2500000000000000    0.2500000000000000 V
   0.2500000000000000    0.5000000000000000    0.0000000000000000 V
   0.2500000000000000    0.5000000000000000    0.2500000000000000 V
   0.2500000000000000    0.5000000000000000    0.5000000000000000 V
   0.2500000000000000    0.7500000000000000    0.0000000000000000 V
   0.2500000000000000    0.7500000000000000    0.2500000000000000 V
   0.2500000000000000    0.7500000000000000    0.7500000000000000 V
   0.5000000000000000    0.0000000000000000    0.2500000000000000 V
   0.5000000000000000    0.0000000000000000    0.5000000000000000 V
   0.5000000000000000    0.2500000000000000    0.0000000000000000 V
   0.5000000000000000    0.2500000000000000    0.5000000000000000 V
   0.5000000000000000    0.2500000000000000    0.7500000000000000 V
   0.5000000000000000    0.5000000000000000    0.0000000000000000 V
   0.5000000000000000    0.5000000000000000    0.2500000000000000 V
   0.5000000000000000    0.5000000000000000    0.5000000000000000 V
   0.5000000000000000    0.5000000000000000    0.7500000000000000 V
   0.5000000000000000    0.7500000000000000    0.0000000000000000 V
   0.5000000000000000    0.7500000000000000    0.2500000000000000 V
   0.5000000000000000    0.7500000000000000    0.5000000000000000 V
   0.5000000000000000    0.7500000000000000    0.7500000000000000 V
   0.7500000000000000    0.0000000000000000    0.0000000000000000 V
   0.7500000000000000    0.0000000000000000    0.2500000000000000 V
   0.7500000000000000    0.0000000000000000    0.7500000000000000 V
   0.7500000000000000    0.2500000000000000    0.0000000000000000 V
   0.7500000000000000    0.2500000000000000    0.2500000000000000 V
   0.7500000000000000    0.2500000000000000    0.5000000000000000 V
   0.7500000000000000    0.2500000000000000    0.7500000000000000 V
   0.7500000000000000    0.5000000000000000    0.0000000000000000 V
   0.7500000000000000    0.5000000000000000    0.2500000000000000 V
   0.7500000000000000    0.5000000000000000    0.7500000000000000 V
   0.7500000000000000    0.7500000000000000    0.0000000000000000 V
   0.7500000000000000    0.7500000000000000    0.2500000000000000 V
   0.7500000000000000    0.7500000000000000    0.5000000000000000 V
   0.7500000000000000    0.7500000000000000    0.7500000000000000 V
   0.0000000000000000    0.2500000000000000    0.2500000000000000 Cr
   0.2500000000000000    0.0000000000000000    0.0000000000000000 Cr
   0.2500000000000000    0.2500000000000000    0.5000000000000000 Cr
   0.2500000000000000    0.5000000000000000    0.7500000000000000 Cr
   0.5000000000000000    0.0000000000000000    0.7500000000000000 Cr
   0.7500000000000000    0.0000000000000000    0.5000000000000000 Cr
   0.0000000000000000    0.2500000000000000    0.7500000000000000 W
   0.5000000000000000    0.2500000000000000    0.2500000000000000 W
