Zr Ti V  Cr W 
 1.0000000000000000
    15.4771126092992706   -0.0171409429028663   -0.0108832458615090
    -0.0171377985850307   15.4835452709138899    0.0089453070842751
    -0.0108770206815257    0.0089383803551370   15.5150560916889226
 Zr  Ti  V   Cr  W  
  10   1 106   6   1
Direct
  0.9983080708066193  0.0312312004831085  0.9588640261459349
  0.9975896024797556  0.2040591566010861  0.7924888241417600
  0.9910279435839709  0.3838094415082943  0.6020887604437436
  0.9922784869897537  0.7902933351472174  0.5931554432685268
  0.1715143855206735  0.9959227907482270  0.3098016225639433
  0.3717488891017481  0.9967037333767634  0.4092319031840759
  0.4043510105027248  0.2027834957747523  0.0018191183971679
  0.8113463474502701  0.3977543452371555  0.4169493502055790
  0.7727736263216254  0.4017793710080791  0.6347012803671486
  0.8094895774517293  0.6268320333442543  0.4183209056552629
  0.5979766288273356  0.7992152817858440  0.5992533154032629
  0.9940298786994933  0.9967125170377662  0.3940361606272545
  0.9991292653734269  0.9954120886080003  0.5884637127314504
  0.0015132972920988  0.9921567616143441  0.7753937946075994
  0.0022151661386576  0.2162294315958540  0.0043778011597121
  0.0005751394392069  0.2047782412505918  0.1998630132987662
  0.0041623992005477  0.1971128460513701  0.3969822513328837
  0.0020016157848902  0.1866873138762324  0.5895590111763680
  0.0030951711752467  0.4073497288840470  0.0072792491980969
  0.0145310224441529  0.3959836212585264  0.3919710318195086
  0.0024145088608429  0.4069935577698695  0.8101817714193686
  0.0013191859885763  0.6037905867324949  0.0007209662075023
  0.0000083385916250  0.5933486751866619  0.2019677351035606
  0.0103578329893310  0.5958507658448915  0.4002991798641485
  0.9982611249458981  0.5910713927899622  0.5989817016341216
  0.0012229548651160  0.5997316784060343  0.7977293594314561
  0.9990084134327053  0.7995970589800430  0.0009833862259243
  0.9984935402769390  0.7982017154442667  0.1956644133440844
  0.9983190983007207  0.7964272467141713  0.3922934962609240
  0.9986891805436136  0.7976484039509794  0.8013082601387993
  0.2018368076550841  0.0011228407696195  0.9966412479213236
  0.1995337456965175  0.8347733309010300  0.0317060256195969
  0.1977432125958374  0.9963867248902523  0.5681893710460918
  0.1978052915420863  0.9982616022534950  0.8009030735842390
  0.1984554491598538  0.1991868767979669  0.0007710824532667
  0.2022680405960475  0.1979584950492885  0.1986020287636969
  0.2093099094033487  0.1926117642034159  0.4041659328427677
  0.2007132730043498  0.1966290652980618  0.6013311168828610
  0.2020607225453324  0.4019052736119463  0.0009173468642224
  0.1993441767767060  0.3976624987590298  0.2011535971349883
  0.2059433316836237  0.3976747561990194  0.4028383090061746
  0.2012378007777872  0.3959773976348415  0.6016619233107238
  0.2001971764124232  0.3981241981123041  0.8019512863876124
  0.2022666660287958  0.6004236003064457  0.9990184361277725
  0.2010170075830123  0.5997271936365609  0.2016123116243930
  0.2038343352626220  0.5985777775624738  0.4024595935345823
  0.2004814481780171  0.5996117847288193  0.8005071343517165
  0.1988197220088376  0.7958608113904624  0.2003161179048607
  0.2031503707234279  0.7985214930036009  0.4029316351703136
  0.1993140252404135  0.7965255275277480  0.6001800599478083
  0.1984806911595160  0.7994407706036969  0.7978769670184291
  0.3995276681093342  0.9968596892130892  0.0015477471406840
  0.3993275951846109  0.9987622645122853  0.6080474258213464
  0.3987762410739267  0.9986011878967166  0.8000419686900049
  0.4019818129155515  0.2005674729307696  0.2054246309545774
  0.4058531503676860  0.2027185826234476  0.4028228884246243
  0.4012545604866336  0.1998396616523488  0.7981279327906201
  0.4008515458763267  0.4056811957963739  0.0031359536297146
  0.4007572438325967  0.4014777919567683  0.2028990481004769
  0.4013260830989286  0.3996736872596328  0.4018234396322742
  0.3969073111700948  0.3994591499264534  0.6033918612840796
  0.4006062512547293  0.4001574806503468  0.8024156766383760
  0.4009676208462000  0.6023336857584519  0.0016976333725669
  0.4008027770030779  0.5983314908970175  0.2026825607081404
  0.3999196035316293  0.5992583485325175  0.6025720428143511
  0.4004360949412833  0.5997507925817952  0.8004545449777912
  0.4004825309784208  0.7997926273672294  0.0011643877152643
  0.3996121854088920  0.7978452561134733  0.2007663090667804
  0.4027015804899771  0.7941748167462677  0.4018697735519106
  0.3981531940971398  0.7980764651267571  0.6026487968989491
  0.3989637150316364  0.7989231879070934  0.8021272977236742
  0.5991949547732316  0.0010292051220726  0.0015100364311904
  0.5950442750091059  0.0008614177392341  0.2010846474960519
  0.6008410184698372  0.0012731753101987  0.4020727713566195
  0.5983778695552228  0.0033683055747371  0.6005050382453465
  0.5993201569149139  0.0014469980579583  0.8012365448303657
  0.6074921139777558  0.2014747884764013  0.0020006328223057
  0.6025375914617442  0.2001538116227920  0.2027678183838779
  0.6027100250438573  0.2009131423037011  0.4033021745882374
  0.6023901825716855  0.2021962788520487  0.6015375950079498
  0.6010778806153283  0.2005484758725910  0.8009605667827502
  0.6028157843285433  0.4016411603254266  0.0042416603585706
  0.6030230046886410  0.3999108030632607  0.2037274303275081
  0.6005158472825882  0.4005652587543623  0.4008935392602836
  0.5861531225923285  0.3993809556774460  0.6000172941801004
  0.5987859797867133  0.4005164844122995  0.8055294383469120
  0.6011281658612956  0.6005820165980403  0.0026719568496279
  0.6015692864922678  0.5993001600654649  0.2039161883839359
  0.6014297017719067  0.5997107668106416  0.4032288885720404
  0.6005930944338657  0.5963932790940752  0.6018465442800895
  0.5994717297822487  0.5997220534348759  0.8023831606530998
  0.6001266579140359  0.8004617800665194  0.0024860646477907
  0.5994470842386973  0.8003452307956912  0.2013079261559442
  0.5987976092275678  0.8005493929777112  0.3984468927524480
  0.6008873603652477  0.7998816949613144  0.8041659656994021
  0.7965933071285690  0.0002109625302344  0.0004758383830756
  0.7970049379709637  0.0005251012964285  0.1974825595033225
  0.7979127125314763  0.0015449789946418  0.3994240126692937
  0.7985839537397688  0.9999410621938900  0.6020216703571317
  0.8006634403577076  0.9994198039507185  0.7994227225269614
  0.8043275425341454  0.1990461957998638  0.0015795672220306
  0.8006480032988331  0.1991639797621349  0.2031636098527756
  0.8025636202351700  0.1936972038140969  0.4015249159771270
  0.8019747891041964  0.1971498062725763  0.6011065841419841
  0.7961636439174615  0.2018922931745966  0.8004877731884859
  0.8005530729799097  0.4014487724461112  0.0072061371197207
  0.8048330700863123  0.3992914895123342  0.2024456610677413
  0.8020648400985265  0.4007372005257062  0.8212809989903226
  0.7999555094102111  0.6024617712369751  0.0021756113664644
  0.8009730695031038  0.6017682731767174  0.2050044808848306
  0.7992942492195801  0.6048858234568298  0.6153165156499788
  0.8006697166973750  0.6010324009128616  0.8049342114732855
  0.8000527556645354  0.8025892523922684  0.0019164597786268
  0.7988279991002220  0.8009330355735534  0.2017905614952027
  0.7978216670879564  0.8154439962853706  0.3986621990862853
  0.7908576196675822  0.8028105938557302  0.6025571420583623
  0.7994763962564695  0.8011128351163591  0.8035224822308837
  0.9947135829000971  0.0015260826044172  0.1936361058704099
  0.2042547685450123  0.1981424227987701  0.7996597502597906
  0.1992722316016594  0.5950841094301363  0.6012326374238824
  0.3971959014725356  0.9991141135761799  0.2003391784911054
  0.4016466970999181  0.1987460454733398  0.6021472623070011
  0.4010757315087684  0.5985076091378271  0.4030847781501428
  0.0010226020047572  0.3998952639249889  0.2010913343725619
