Zr V  Cr W 
 1.0000000000000000
    15.4863295998759050    0.0024137293282322    0.0105674120120943
     0.0024156779473548   15.5040449564505511   -0.0174543962439357
     0.0105707746262879   -0.0174578174046017   15.4782021514271442
 Zr  V   Cr  W  
  10 107   6   1
Direct
  0.0005258714467986  0.9688746283982366  0.7582472080374550
  0.9981247993128369  0.2004615367263349  0.6083584335782742
  0.0003054234927384  0.4334601223399951  0.0400653434899265
  0.0040916201909197  0.5785619742833995  0.2206318856245378
  0.9611626094467278  0.7919008340668213  0.1937962755634613
  0.0036852002962053  0.7970560138233531  0.5986480857952992
  0.1987067988131532  0.5868001335690409  0.5992061305244641
  0.3586090245112776  0.8034041867719288  0.1995438609886817
  0.8336588227879507  0.4309785340497155  0.3977315160432024
  0.7505745773007950  0.7915031815141850  0.1982005186160707
  0.0010326652087275  0.0065255643795674  0.9987440642549775
  0.0036136952128669  0.9988606510619202  0.3935780050488546
  0.0011306001152377  0.0024264602122608  0.5710261761683155
  0.0008858655127526  0.1995133523468282  0.2021854211636172
  0.0008008281429131  0.2000770310503903  0.4004427271979775
  0.0009329954472752  0.2051512125793246  0.8095374215525414
  0.9997055970623072  0.3867320948862837  0.2318157329125926
  0.0214716817824063  0.3987600740396649  0.4102918025386930
  0.9933339478977687  0.4034855616977660  0.6003145544740303
  0.0012700993418489  0.3975438464470344  0.8000815502303494
  0.0010831210166489  0.6230523789088979  0.0125820454799532
  0.0061506742631217  0.6065468173392548  0.4181005309046945
  0.9947161182486715  0.5967464638876012  0.6093408185266019
  0.9995628691943136  0.5925100951554952  0.8095231680739833
  0.0014821654751485  0.8122102547483292  0.9928073758286359
  0.0025475213488877  0.8004738691946772  0.3951025876612452
  0.0002538626715599  0.7822492395237883  0.8044678922634960
  0.1997158754390395  0.0025606085345979  0.9974052145267153
  0.2001846122981639  0.0020624584817101  0.1987362608032066
  0.2021039625650581  0.9996110893094365  0.3972037890021557
  0.2013415376769820  0.9988674206058410  0.5974117486008893
  0.2031592924357873  0.0005198417782055  0.7989965614196841
  0.2017126028244075  0.2013633554899958  0.0005063185326925
  0.2011043591664139  0.2003305362312665  0.1990816482162071
  0.2028337019762692  0.2000356996488108  0.3999568701387395
  0.2013560447116247  0.1998720049821329  0.8005427724313978
  0.2032543553442364  0.4011022194398822  0.0007449107589135
  0.1987419588460801  0.3995464406547101  0.1994854030191005
  0.2064983874727493  0.4033299267310336  0.3980155430626820
  0.1998104972693627  0.4001302506539121  0.7699289218485004
  0.2016259830278665  0.6024318014853839  0.0017493925439362
  0.2070915721683632  0.6010003665308626  0.1990243932311116
  0.2013406758831671  0.6017943551452335  0.3936513762643297
  0.2005936034389039  0.6008324018916599  0.8059240615472228
  0.1996426247576456  0.8029755055378585  0.9999671752996139
  0.1715898572170897  0.7972517029146396  0.1972125496886117
  0.1995403031895552  0.8001225296082184  0.3975218280864509
  0.2075824877528332  0.7967288633448149  0.5985266310631902
  0.1996334964793628  0.7999776734652047  0.7990550121180655
  0.4015265685316354  0.0007814544537852  0.9984970630622806
  0.4021213226159992  0.0041515749998005  0.1983282277890179
  0.4003548426933456  0.9992768726745298  0.3988802616872353
  0.4021571589878046  0.0005753334064553  0.5983743528855624
  0.4005447153758528  0.9993473000924629  0.7971353831043094
  0.4013548826797818  0.2003425703037930  0.9988396556115191
  0.4009002325208783  0.2008098369100667  0.1998810083684508
  0.4004373348184480  0.1991834611764265  0.3999501763932007
  0.4019012418316776  0.2007290033572046  0.5990803016514834
  0.4004346988662026  0.4003584778527738  0.9995267392961164
  0.4000850371031496  0.3980695571582049  0.1994032941081600
  0.4010164792747629  0.3990840912423827  0.4011492901813334
  0.4019141935644691  0.4003936113119770  0.6007781371406818
  0.4000804324619163  0.3999024360471331  0.7984211538052789
  0.4027297343255822  0.6010685912322228  0.9999754703444457
  0.4044070663742682  0.5942540405707570  0.2007485627836089
  0.4017781404311754  0.6015775789500628  0.4005270725311371
  0.4058238780748666  0.5994840085222440  0.5993910326476911
  0.4012880739488486  0.6005786141366596  0.8007901097629689
  0.3995664206888789  0.8011532349672807  0.9950034849601812
  0.4008315591204321  0.8002507594246926  0.4026803463752202
  0.4017136317101005  0.8003813974591337  0.6003964182281627
  0.4005876142440004  0.7993790840390411  0.7989444948214747
  0.6007458900294904  0.9994047244989490  0.9985663083139235
  0.6008639449866038  0.9965045943079678  0.1987038621200186
  0.6007620417699285  0.9978873784306788  0.3978021573416844
  0.6009010330966716  0.9992085100928169  0.5970392577114290
  0.6007662434044593  0.9980012035472048  0.7977475345527888
  0.5995360023101036  0.1987287850825229  0.9998436671346366
  0.6013157255922973  0.2004231491277691  0.1988646737626888
  0.6001265781881274  0.1986535710644101  0.5992519616263369
  0.6004908987227983  0.1996918376096930  0.7999386159267176
  0.6006177638109462  0.3991448050930420  0.9990170834675339
  0.6019510941118130  0.4004182630156202  0.1995300472668622
  0.6009753788289165  0.3986985608525959  0.3980158954867327
  0.6009662729155165  0.3997093626737780  0.5979583369461839
  0.5997986069734143  0.4001254070123920  0.7995504060596367
  0.6027228128612202  0.6001348752361270  0.0039658970222116
  0.6047382753018176  0.5992311537324009  0.3955680765133598
  0.6023596372451211  0.5998872885474766  0.5969176131685943
  0.6025123432937027  0.5997437876609173  0.8017130119092052
  0.6011139212568860  0.8006618161388757  0.9980840159373316
  0.5646943457422714  0.7907822344506803  0.1987469784480186
  0.5998158103114853  0.7998751331937184  0.3982548298917820
  0.6013462327981904  0.7994022233184962  0.5984325675753380
  0.6000200144935781  0.7982380889794854  0.7985420146030906
  0.8016590656465102  0.0014550014173407  0.9970481548611240
  0.8013084319015238  0.9976594245577652  0.1981261282343930
  0.8000810384376966  0.0007574123308240  0.3980418965213215
  0.8023944246380855  0.0000814612821804  0.5989070208677314
  0.7982800145570922  0.0000969268232020  0.7987651455916408
  0.7996515773711826  0.2004019494760640  0.9996122255699522
  0.7993196343090446  0.1995193167709224  0.1988033424943488
  0.7992933093936664  0.1967563944055955  0.3984727179930905
  0.7942455534178093  0.2014181582150176  0.5995683390492538
  0.8002991591361966  0.1991959751080171  0.8014611004052564
  0.8034533707839785  0.3978466261906514  0.1946944018449001
  0.7969667188160641  0.4003811188615261  0.6008127784688514
  0.7996337793410797  0.4002142058678920  0.8006350539229472
  0.8036219555328539  0.6009212699387683  0.0003724905849118
  0.7943190520154012  0.5945038467562649  0.2078010056044181
  0.8030908439087313  0.6184075086968039  0.4036071702786641
  0.7987430604675099  0.6004172971847553  0.6003510287841408
  0.8011373070285785  0.5992184309715092  0.8025338856714734
  0.8024688426909313  0.8025255864566246  0.9971887428777089
  0.8063711595860410  0.8064217431737700  0.4009994389018733
  0.7962533104631213  0.8003943347716125  0.6005902479207887
  0.8005368912636410  0.7988465817872946  0.7987528241628716
  0.0000748802152457  0.0032582853474383  0.1972843405291033
  0.0006748803494787  0.2013167194397301  0.0037248384145695
  0.2048264414490499  0.2041394023370936  0.6002119881440164
  0.4012650112807834  0.1999736496054041  0.7993139275062964
  0.5997270757331058  0.1986662263986694  0.3983438050145507
  0.7980055050825483  0.3997101778078206  0.9983347804446610
  0.6017614033604981  0.5980511526255139  0.1989902535138114
