Zr Ti V  Cr W 
 1.0000000000000000
    14.6291969937352828    0.2723161038436708   -0.1337668554964891
     0.2745387445774136   14.8226786160325830   -0.1302807046786989
    -0.1338435036276657   -0.1295236624833550   14.7254693214477790
 Zr  Ti  V   Cr  W  
   4   3 106   4   7
Selective dynamics
Cartesian
 14.5434033440664408 11.9410207679927609 11.8897894129679340   F   F   F
  2.6481255375401651 11.7798018660582997 -0.1615414657579306   F   F   F
  6.0889323918375275  3.0799396836643491 11.3054131849980806   F   F   F
  9.4346402227559540  9.7509933749331008  9.3119763377081970   F   F   F
  0.0529067821280900 14.5152773506482706 14.8022762729187125   F   F   F
  5.8381195981903966  9.2374761575426163  3.2904579186314593   F   F   F
 11.6744867181177963 15.8016207018924675  8.1463519243851259   F   F   F
  1.2082167232751662 15.2672531422114268  2.6536565578163152   F   F   F
 14.0757820992776868  0.4301718788560083  5.7937689769308003   F   F   F
  0.3883186757928369 13.9461221245969451  9.2549448120167828   F   F   F
 13.6616660097899505  0.6442758118639647 11.1902862843651540   F   F   F
  0.6606329026783258  3.3557928990663632 14.9095581508754922   F   F   F
 -0.4205889723636935  2.4272686396721341  2.8324707418321418   F   F   F
  0.2850192046467863  3.6687991779664655  4.8024724739208171   F   F   F
 14.6165616567408083  3.0957909562607275  8.4209362127646674   F   F   F
 14.7875259213371635  2.8087339658217485 12.2769819515718979   F   F   F
 14.8305674888118038  6.6757467940302906  0.1415801612079436   F   F   F
 15.6732774566874298  6.0322417450286450  2.1673452088440897   F   F   F
 13.8051009315102160  6.1667214641753381  5.8077439513356817   F   F   F
 15.3692654682070966  6.1022066554458343  7.7301887077854872   F   F   F
 14.0090562859452099  5.5476119847821375 12.4875321268635240   F   F   F
  0.1263938959571780  9.1535267055488028 14.5498071745704003   F   F   F
 14.0054082513953855  8.6368397198310607  3.2816441210308307   F   F   F
 -0.7037197837500935  8.8317209420285092  6.4713086193808920   F   F   F
  0.1380944020188597  9.2611574055456405  9.3259257004212728   F   F   F
 -0.2606226703580498  7.5107881703737327 11.0039004515559764   F   F   F
 -0.9458937005584898 11.2379365035611851  0.7901052448218233   F   F   F
  0.1771339173808330 11.8032965731505151  2.4943805195670428   F   F   F
 14.6515779744145540 11.6204864837605850  5.2906296884404833   F   F   F
 14.2550379168250725 12.3053817782056516  7.9624363109436791   F   F   F
  3.8083639243250533 15.3228704108746285 -0.0093024152344343   F   F   F
  3.3642932009117881 15.4947571532955681  5.6177589634625873   F   F   F
  2.4447879188028092 14.5612057181131682  8.4466871301662518   F   F   F
  3.4101373256155370  3.0895373851333070  2.8316003187825318   F   F   F
  2.1077126459715649  2.7460800098924052  6.4454371535481778   F   F   F
  3.4778047867704962  3.4363384792663489  8.4692862666668098   F   F   F
  2.9583352137750385  3.6471094386859617 13.0990299230171878   F   F   F
  4.3008903006536796  6.1592455104057606  0.6709904030204303   F   F   F
  3.5715295538888023  6.0218665190838472  5.4315244959517042   F   F   F
  3.1378199990889168  7.0406850186896532  9.0847186569876097   F   F   F
  2.9494077421859584  5.2903819889071162 10.8358317128535973   F   F   F
  2.2148351176459888  7.8485967788186537 15.3560297894736237   F   F   F
  2.9360775687954814  9.3830551596323506  2.7266778082732834   F   F   F
  2.7312742544369861  8.8195111612524482  5.0398937462459523   F   F   F
  2.9814373341155371  9.2129018976653096  8.2101021117300199   F   F   F
  2.7511589306091340  9.2768553107047698 11.9069419926197710   F   F   F
  3.6260343357310019 12.3053408902794956  3.4783805394121083   F   F   F
  2.1596336840499730 12.5935294316337494  5.3343967325547892   F   F   F
  2.8300024469421650 11.4676679779910415  7.7889432186205916   F   F   F
  3.1550674623216954 11.3990822489801662 10.5736160334103513   F   F   F
  6.8007961571100637 15.5420441902014588 14.0798472563197787   F   F   F
  6.0891338346794690 15.2254821472554926  2.9051052021289689   F   F   F
  5.0162754181705376 -0.5723030048505610  6.4284223025853624   F   F   F
  5.7813489271315071  0.6991713734266033  8.2857878806200560   F   F   F
  5.1872565077358121 -0.4288983441219533 11.7008102940501555   F   F   F
  3.2862960509130867  3.4778572104261718  0.7763217768672113   F   F   F
  5.8653107608893231  3.0761750585660725  5.5238740093818191   F   F   F
  6.2878406390330071  4.1418804795544384  7.5695903913947662   F   F   F
  6.2287217769264727  5.5150270479462069  2.8113546281397972   F   F   F
  6.2440988319778867  6.4777572363410680  6.6131655290302556   F   F   F
  6.1454147920883662  5.9554070942932293  9.0865271214288637   F   F   F
  5.3606483370543856  6.5089480886244715 12.0012462601780321   F   F   F
  5.4805521366736931  9.2311857289241477 14.3338261133737728   F   F   F
  5.5430242784646522  8.7545409424770799  6.8130425753197867   F   F   F
  5.6377966107704394  9.5908771241775792  9.7178015757032306   F   F   F
  6.8701466428776943  8.0607071387815505 11.1972918347393033   F   F   F
  5.8827447052036357 12.8393761352530174 14.9371555007088528   F   F   F
  5.5696421191734853 11.7769136065111848  2.2455863747449003   F   F   F
  6.7657902064584379 12.2516590190814405  5.3721575191189430   F   F   F
  6.3900151081231824 11.7526489931252094  8.8134445156848287   F   F   F
  4.9438067390043603 12.1664351513006110 12.1796642825309807   F   F   F
  9.4151117430597253 14.0385344794768052 14.1504797917698664   F   F   F
  8.0900550997863245 -0.2596119356511413  2.8894139887797534   F   F   F
  8.7485078920945369 15.3898079529799450  5.6124920830050415   F   F   F
  8.8136257377997431  0.8512386080813166  7.8073967985386892   F   F   F
  8.6857884148689006  0.7561204331595038 10.8521807916163624   F   F   F
  8.7987412618297647  2.7413706124181068 14.1246761936583827   F   F   F
  9.0913757447416348  1.8178028730883924  2.2554069412698556   F   F   F
  9.2218122619626044  3.9512176763768401  4.5410408770996211   F   F   F
  8.3957955541920111  3.2345917872866283  8.1987902935542269   F   F   F
  9.9801132844491853  2.7560051664351315 11.3291352241205683   F   F   F
  9.6278810307344820  5.0876641986824769 14.7361998082105821   F   F   F
  8.4064333480000943  4.6292923264872998  2.1170758881076073   F   F   F
  9.0182582857469598  7.1214337318857615  6.8632256751641556   F   F   F
  8.4281346743999457  4.5477170139458671 11.8453292119896130   F   F   F
  8.0527354146385832  7.2477301262491904  1.3350277181821424   F   F   F
  9.4077317300988668  8.1114464433128983  3.3109646922482265   F   F   F
  9.0206870674138191  9.3145815260721143  5.4590933189395576   F   F   F
  8.6705521559887746  8.1114959757120495 12.7563137440500576   F   F   F
  8.7014498285675490 10.6657629720938374 15.6085651473654323   F   F   F
  9.2591924522650721 11.8593478618835668  6.4205018465845107   F   F   F
  8.9899692984026007 13.3680720704424836  8.8408789020373053   F   F   F
  7.8854992562293162 11.5647301084210614 12.0792742256315062   F   F   F
 11.9248953131042192 -0.1695058087930338  2.7569555295267665   F   F   F
 12.6311143842571738 14.5858161802368063  4.6515708719415594   F   F   F
 12.1495601225080456 14.6657655473002198 11.8384240984546167   F   F   F
 11.7263426360186855  2.7706312902823766 14.3605449960720541   F   F   F
 11.2918981698797722  2.7229049887121786  4.9550206725288577   F   F   F
 12.8390621116008692  3.3723815907535997 10.7329581514330297   F   F   F
 11.9889710536699425  5.5716703726320018  2.7457321903115472   F   F   F
 10.9116351511499552  7.1511542255350733  4.9419281604257970   F   F   F
  9.8866506672760828  6.2219459572333538  9.9311172454578482   F   F   F
 11.6581688088106947  5.8049383673398571 12.3962142166953289   F   F   F
 11.4609898040880047  8.3053645639881637 15.1729674286898142   F   F   F
 12.3176920763361544  9.2969325956238347  2.2303781871656647   F   F   F
 11.9641755657006659  9.3444874420240076  6.6385295432495024   F   F   F
 12.0243487202961941  7.1845536390880964  8.9633372527045250   F   F   F
 12.0689691188659847  9.4418552479007491 11.7958313174001468   F   F   F
 11.8371213944695519 12.1812388504832398 14.5025234273217549   F   F   F
 11.3693936767683326 11.2089315005036720  3.3846255350070122   F   F   F
 11.3513838981441939 12.9613045985125392  5.7735548925221893   F   F   F
 12.1421420869855616 12.0889104655202111  9.1589198819419835   F   F   F
 10.8685645314831962 11.0771441761016440 12.4798434976410952   F   F   F
  3.0973688296807653 -0.5009959190724629  2.3309772077769515   F   F   F
  3.3833741503423278 15.4645642253643274 10.7359464802118882   F   F   F
  9.2440465233758626 12.6136353325090944  2.6963707138320179   F   F   F
 12.3694828808953599  3.4945070574228714  8.4895117005005147   F   F   F
  3.4864705220018082  6.7737469784420608  2.9792577360499801   F   F   F
  6.8956047589284966  2.6286217339640938  3.2988465369500748   F   F   F
  6.9269194037577844  5.3911759561002910 14.3391698568849897   F   F   F
  7.8065327438877494  6.5876713527134241  4.4767783717133289   F   F   F
 11.1943719284262713  0.6486848373579359  0.4106201074986481   F   F   F
 11.0910248877626874  3.2898358529439640  2.0388208383344786   F   F   F
 12.6583214939018980  5.0564454520225182 15.1529308806154610   F   F   F
