Zr9 Ti16 V88 Cr2 W9
1.0
  12.6684183398854717   -0.0307505724529021   -4.4332041932590505
  -6.3522987228625292   11.0024455963999124   -4.4090858170264262
  -0.0126403058899142    0.0077772339306734   13.2640939031610330
Zr Ti V Cr W
9 16 88 2 9
direct
   0.9941641067474186    0.6002817060500159    0.4074426728499558 Zr
   0.0038296782822987    0.8081534065779711    0.2020145374299139 Zr
   0.1942356015452670    0.9949636049809196    0.5867422329932493 Zr
   0.2109590968995878    0.0068968958691879    0.8202689453214431 Zr
   0.1989388233812926    0.3961388391906211    0.1990220833516187 Zr
   0.1999895936055707    0.5924266659717317    0.9952240438220229 Zr
   0.4044502712281861    0.6022542043090032    0.2085534547027958 Zr
   0.3944237794903694    0.5949654745573711    0.7964765974389334 Zr
   0.5867573289389558    0.1929923352108116    0.0050471742450674 Zr
   0.9957516011717445    0.1929835440093889    0.1925404370111999 Ti
   0.9966924392814619    0.2009589766856790    0.3995100136289584 Ti
   0.0009849893322274    0.4014460459971434    0.5987526036068502 Ti
   0.1984419529847062    0.8041633192844155    0.9965699937878627 Ti
   0.2011904719091632    0.8006592121443306    0.4004346292321715 Ti
   0.4155004299227056    0.0003890857769075    0.5847994325918302 Ti
   0.3996582769467005    0.9856810674411934    0.7871452748973764 Ti
   0.3982360008804821    0.1768941945298051    0.1734955710881903 Ti
   0.3988588382099389    0.2004747136435477    0.3927255996645072 Ti
   0.4088624501844343    0.3881145952676092    0.2101537686610602 Ti
   0.6002592392784382    0.2031260351306378    0.7927317843784629 Ti
   0.6013959222061266    0.4111091631075382    0.0003775048429364 Ti
   0.6194685628842864    0.4107881493202198    0.2181870870409090 Ti
   0.6038552682575602    0.4020247949314306    0.5986500151806066 Ti
   0.7980061937754033    0.9961596146521321    0.7978074304106639 Ti
   0.8038547118225932    0.3986032239358803    0.4058917355020665 Ti
   0.9913613398727061    0.9983399593224240    0.9974277577972265 V
   0.9967073792277287    0.0048260390520568    0.2003770829724853 V
   0.9951533580466467    0.9996143199273538    0.3982775776117002 V
   0.9881062082425216    0.9949904398056999    0.5982721858419381 V
   0.9926536478537255    0.9937590523131860    0.7983408904098633 V
   0.9928817160078469    0.1935132871723680    0.9858854539491630 V
   0.9932507989598959    0.1928447305528637    0.7946390782389529 V
   0.9931431258890409    0.3923173894564274    0.9892448399296372 V
   0.9861735215963180    0.3881547904129006    0.7932439597361939 V
   0.9933082803090322    0.5981565128057779    0.9910952569669845 V
   0.0037750867001341    0.6125976484699821    0.6231643979715159 V
   0.9926923800054341    0.5958984118440599    0.7970260028690562 V
   0.9897969751724428    0.7951587538855537    0.9811692149634003 V
   0.9729758781956624    0.7988472128774015    0.3985726915962451 V
   0.9888327638119297    0.7990949459485210    0.6074224168691824 V
   0.1740062948399894    0.9940777103003745    0.0010437575791893 V
   0.1966020099656950    0.9968894497281482    0.1945613105164864 V
   0.2169935657709167    0.0234874787610749    0.3968905961371159 V
   0.1891445559334829    0.1952069565750505    0.9940588257463220 V
   0.2001838909594826    0.1862023240833736    0.1961403103472832 V
   0.1986870007831428    0.2026889603259608    0.3966988467615494 V
   0.2001805904262494    0.2060201236876397    0.5954004913087360 V
   0.1969446413855232    0.2058040144161485    0.7973619618777940 V
   0.1834894871594584    0.3737961519406666    0.9739475417404072 V
   0.1979316599299567    0.4007358363125936    0.4106079256471662 V
   0.1991870766558315    0.3905979896823621    0.5900248728323093 V
   0.1930222942354714    0.3911247271292343    0.7915043148521711 V
   0.1969036963920054    0.6137296017993574    0.2123323540381986 V
   0.1981910479708978    0.5983049746508947    0.6006242202273060 V
   0.1931439151236334    0.6086742962090232    0.7945818145382654 V
   0.2129364661049348    0.8006926120638985    0.2026811166741926 V
   0.2004112282255542    0.7885039673674957    0.6115172572308268 V
   0.1988627770924375    0.7922301366262205    0.7965441233819717 V
   0.4018022405904695    0.9859233275315193    0.0038482212156456 V
   0.4068534851566127    0.9963213938279593    0.2069466718095889 V
   0.4049634992545512    0.0001480697956999    0.3904214426455249 V
   0.3981873414951163    0.2335866949362210    0.0021009084794834 V
   0.4048446463983339    0.2091141875288724    0.6014022976035059 V
   0.3951249621718236    0.2141769681273760    0.7994723363467620 V
   0.3944384121845891    0.4048297891600551    0.9939611211918503 V
   0.4052485226123869    0.4088390687449002    0.4125858776279741 V
   0.3987765194517303    0.3985931168536634    0.5951015722373756 V
   0.3984780857605024    0.3915312996731588    0.7950964795430935 V
   0.4187345429330156    0.5999319136417605    0.0079754995360093 V
   0.4119711058255152    0.6100153984461920    0.4216504725474376 V
   0.4064926395599037    0.6024456750383379    0.5964662286902876 V
   0.4029387162722160    0.8023134809683324    0.0017060393210007 V
   0.4089062197710759    0.8131877196574772    0.2103155846736565 V
   0.4089002073719172    0.8085223504188273    0.4065469991867754 V
   0.4046298272337671    0.7986927775951819    0.6033579080155500 V
   0.4025815084504424    0.8018915639437253    0.8047071612601560 V
   0.6027208000559936    0.9943114024241215    0.9999447405189283 V
   0.6059523446062742    0.0044128457202214    0.4067282683657933 V
   0.6104309610194828    0.0008696749533624    0.5999114674596929 V
   0.6115158050166595    0.1950078041280782    0.2151621251632311 V
   0.6071882387933177    0.2035103971836115    0.4027595893462341 V
   0.6024952855726398    0.1966410402321991    0.5913554776243577 V
   0.5979712609238221    0.4029069439391018    0.4029122524138969 V
   0.5965313716309250    0.4027637759812250    0.7948400998403948 V
   0.6105678312667417    0.6059578504377052    0.0028443606519281 V
   0.6126950570398162    0.6090652280581150    0.2050312732558995 V
   0.6076660033171213    0.6046146238055085    0.4095731179399912 V
   0.6062420180368749    0.6056370953748825    0.6025285794311086 V
   0.6118232507148158    0.8092061902212643    0.4118122510338232 V
   0.6002774201749445    0.7964822323440486    0.5975638226239317 V
   0.6053034374956885    0.7997143640556812    0.7972788854324919 V
   0.7944728015149931    0.9914818558593275    0.9991111225777355 V
   0.8053103975294302    0.0031884142110542    0.2020946126326010 V
   0.8039472344857148    0.0027634849919661    0.4035228051987316 V
   0.7977592070751454    0.9994089566245004    0.5970333264538019 V
   0.8011827970432943    0.1945007232918317    0.9942756732330269 V
   0.8020025634492413    0.2005287804797004    0.2048181329809164 V
   0.7950204250796373    0.1962211037012868    0.4022503242807981 V
   0.8002367468549387    0.2011007927292261    0.6003896641386683 V
   0.8019781942457241    0.2008703531300163    0.7940992645889042 V
   0.8036286229702868    0.3937333668853641    0.1932184626759883 V
   0.8026440376685610    0.3994108148765630    0.6069536759205736 V
   0.7974520215823174    0.3971253133430892    0.7954231412948184 V
   0.7948063484289404    0.5950255980928232    0.9914691953642522 V
   0.8010733665111273    0.6075349774936750    0.2037331438317316 V
   0.7975523922914034    0.6173629284153784    0.4171958812479172 V
   0.8012784923022109    0.6050109999036255    0.6085381586080766 V
   0.8019583747961117    0.6004238000531896    0.8004629266878582 V
   0.8036844169549550    0.7999321843892206    0.9970761288019721 V
   0.7990975935300298    0.8062898517428650    0.2031069125422677 V
   0.8003169097620970    0.8056398520696446    0.4069494242674170 V
   0.7986511543977658    0.8014856020340020    0.6051760129373049 V
   0.8036543855082102    0.7984350399807436    0.8003776302020860 V
   0.9990649444730100    0.3911078071154170    0.3920074896682784 Cr
   0.9905795720039566    0.7984983321528990    0.8004871666653636 Cr
   0.9967066513934940    0.1949848660361236    0.6001938030811060 W
   0.9943426686384701    0.3975490128742981    0.2002005574266757 W
   0.9957261804739117    0.5950743535058942    0.1910067572462587 W
   0.2074724733888681    0.6023897036508348    0.4064862712896026 W
   0.6054410896730199    0.9993009944953651    0.2031971712910890 W
   0.6023521360260312    0.9962076919124602    0.7982089507547602 W
   0.6068724102436998    0.6009526235882542    0.7978729324277323 W
   0.6062186874261467    0.8026282426066796    0.2073610990019144 W
   0.8009433165518702    0.3983454672518932    0.9942400081490300 W
