Zr Ti V  Cr W 
 1.0000000000000000
    15.4244097105604929   -0.0012107223225386   -0.0042394490092486
    -0.0012099076426666   15.4412294863263000   -0.0024734284807045
    -0.0042424892746054   -0.0024736538270091   15.4407019588637713
 Zr  Ti  V   Cr  W  
   1   3 110   3   7
Direct
  0.4027147721344795  0.4038429691746765  0.1971148443039039
  0.9996409461682121  0.3905722261782945  0.9994215952440951
  0.1990706887736821  0.9972891020108934  0.4003150961258895
  0.8019706862254082  0.6025784092315758  0.2075342286798469
  0.9991738574296347  0.0012574642460825  0.0014592023397269
  0.0001747953187744  0.0002435278894156  0.2010947026846257
  0.9972894903417239  0.9996334283084383  0.3991664749184338
  0.9993620149332711  0.0016365996769900  0.6011555795662747
  0.9996729795117026  0.0001885990300459  0.7998498557231751
  0.9999255563836780  0.2006697529764587  0.4000489521231210
  0.9999530183296538  0.1990586543330456  0.6010993014360070
  0.9996164197426961  0.1994389565639609  0.8025197826116166
  0.9996199748233739  0.3977058106630296  0.2015127276325066
  0.9996368742834363  0.3991975867870812  0.4008212372085541
  0.9995526799660549  0.3977135619166587  0.6006909365733166
  0.0002664237835980  0.3993162319716856  0.7976744522763057
  0.9965227209234616  0.6348713996294132  0.0353778770713635
  0.0020542908107644  0.5956607162664626  0.1992709505058186
  0.9986348979503483  0.6003265260148639  0.3981800561617228
  0.9995619138703038  0.5995272484439774  0.6017658524616079
  0.0003612162746927  0.5990944248531914  0.7992293036803765
  0.9998627067335242  0.8013516786802483  0.9996997416133178
  0.0037499709694973  0.8016545967981321  0.4025627792807666
  0.9994066146883104  0.8013032786696038  0.6014383915085261
  0.0008068991741113  0.8005989994248859  0.8005361615735814
  0.1999746058823842  0.9991981777610001  0.0005307344888128
  0.1996021480595826  0.9986964208156168  0.1988289920475935
  0.1996980476605296  0.0000108446469278  0.6019211499778536
  0.2005669957395934  0.9996312924278585  0.8002161746024959
  0.1962271452798033  0.2002676531778869  0.0000739989826404
  0.2010593483614117  0.2003827475920976  0.2008622005221761
  0.1993099621228230  0.2031519636207342  0.3995768383795297
  0.1999908496283571  0.2003309084262117  0.5998282675709578
  0.2022069588680157  0.2007465168641996  0.7991182794476048
  0.2006885939618447  0.4007308862661520  0.9997142712469902
  0.1964289456103727  0.3995848505822496  0.2007789405740891
  0.1983725808180080  0.4047419670252949  0.4010929381783820
  0.1998623348883665  0.4002634293980906  0.6001339515292318
  0.2006550302177880  0.4008544279052932  0.7987614512504616
  0.1980479435166922  0.6000527912444239  0.0009892709482161
  0.2002853711088916  0.6005766313731101  0.2035943032544532
  0.1992086571762006  0.5988412707347134  0.5965848311957130
  0.1996573284618851  0.6001315716746297  0.8006648501602970
  0.1972390512362055  0.7989591164173456  0.0032070463647444
  0.2021442771719564  0.8012711848729831  0.2053795218265397
  0.2000227300571764  0.8005360059678379  0.5964990560234081
  0.2001816256914455  0.7988765410264749  0.7988014600687000
  0.3992841371163217  0.9992202989387835  0.0002528715275974
  0.4010489806480441  0.9996196476308218  0.1998071277742751
  0.4018458408672880  0.9992100363065336  0.3997159477501888
  0.3996602931464325  0.0002753278843015  0.5998984686246094
  0.3992788330371317  0.9992694968761796  0.8003842436033821
  0.3986392736286323  0.2000644469984972  0.0003086521948135
  0.4001677430558851  0.1968507991264992  0.1991750780004939
  0.3997300884593186  0.2004169311010560  0.3998960774143382
  0.3992511296026400  0.1995971104523981  0.5993296791399169
  0.4037067538780222  0.2003371261898504  0.8005226717494244
  0.4002461872744716  0.3996754654732821  0.9935609101650363
  0.4004639012451664  0.4002798696814133  0.4038516193230431
  0.4001686588012407  0.3997425852645120  0.6006783780063892
  0.3997576350201948  0.4007844165516243  0.7987780810571457
  0.4000731369173020  0.5998007489556599  0.0031266395070116
  0.3955986724297008  0.5989442225326110  0.3961415032212470
  0.4003071171866639  0.5999959444698798  0.6001558971628426
  0.4000184486286820  0.5997263484695068  0.8011589206031483
  0.3997916546031430  0.7998248810957254  0.9997671352794669
  0.4006065044208014  0.7998212890674512  0.1994743902053765
  0.3963158199066593  0.8001965810421916  0.4003486897595924
  0.4000950696942862  0.8001938547257196  0.6003543418767729
  0.3991334759193613  0.7995725130615094  0.8002836982427139
  0.6010710433136616  0.9992299473846613  0.0008994875554720
  0.5999153967940641  0.0004199502585651  0.2000170276973477
  0.6004557425977037  0.9996260985616339  0.4002514033176586
  0.6000730612575900  0.9997180997146256  0.5993565072418434
  0.5994972038569799  0.0025747948667400  0.8000243918003022
  0.6014935538142840  0.2007266234174990  0.9961031142668882
  0.6002726188853531  0.1989029676674646  0.1985619914329823
  0.6004436517379209  0.2008198825965496  0.4005419399671897
  0.5997342170834045  0.2000479640896373  0.6040507442296834
  0.6010298912755537  0.3995702669892056  0.9999772476199459
  0.6054773870857288  0.3973053824488353  0.1995966390450533
  0.6002883940000197  0.3999347128546835  0.4003048600832436
  0.5999867324184486  0.3998973718818944  0.5994547532413466
  0.6038869919073099  0.5995348237433930  0.0002243071674533
  0.5952440108117829  0.6002632369179867  0.2002720401516409
  0.6031401143930892  0.6005947739284335  0.4001351950401066
  0.5982885958538534  0.5998136460266479  0.6003769363555087
  0.5983681484423050  0.6008761683886398  0.7990499077168586
  0.5998844604463363  0.8001249191291023  0.9996732759251288
  0.5982842656084826  0.7997741906488692  0.4005042984255116
  0.5990040072671948  0.8007559067543961  0.5998783122327143
  0.5991791948755917  0.8015434269445626  0.7998132878434588
  0.7998234920056482  0.9979578175954466  0.0010209868773258
  0.8002462213545650  0.9984975470640506  0.2006075420595183
  0.7997147826558081  0.9990330099720968  0.3997997877205187
  0.7997072508520029  0.9993222125738488  0.5988747315900845
  0.8002646098861551  0.9983978415853155  0.8004556800480433
  0.8046120431880566  0.2013468273534043  0.0006903743550634
  0.7990773382975278  0.2000891224167232  0.2004243161025170
  0.8001047654628974  0.2012891410064711  0.3997505334980713
  0.8005383874208581  0.2006150322264527  0.5995235925904442
  0.7955329744518063  0.2012455228030863  0.7995264013373282
  0.7984031914691718  0.4048356884957431  0.0003167228197589
  0.8008145015935537  0.3983226196153751  0.2001942967531323
  0.8007873531612717  0.4049079634208717  0.4003483214090038
  0.7996436021138892  0.4001357833961872  0.6002841351450542
  0.8004015376918716  0.4009143874825786  0.7984323837606099
  0.7997056545614477  0.5998076868973673  0.5987152950843783
  0.7992511604502648  0.5997101685022160  0.8003637408241090
  0.8010169364589086  0.7954426471358257  0.0016634247265612
  0.7985559818213214  0.8018002798143615  0.2004437138998729
  0.8026390701103782  0.7957017920624303  0.3988210592378068
  0.7996167530540551  0.7999613382530679  0.6000501864102280
  0.7992580009270428  0.7996704595284604  0.7985570721343235
  0.9998815174373401  0.1986043602408741  0.2001223787495128
  0.5999254865111655  0.4003308211725524  0.7996176499573084
  0.5992944733837173  0.8010885360612842  0.2002964203872917
  0.9999183451564386  0.1964363387299224  0.9973237689576405
  0.1976133636351767  0.6014836009162737  0.4009185130006984
  0.1984998630417873  0.7931500162394378  0.4004811568743536
  0.3994049272567294  0.6044685567630751  0.1997267574408305
  0.6001216038550635  0.1974317476094044  0.8008044169852447
  0.7979685145702528  0.5997177250566695  0.9947295495068922
  0.8002090820299516  0.6007311655574653  0.4045596293084391
