Zr Ti V  Cr W 
 1.0000000000000000
    12.2882735461728885    0.0000000000000000   -4.3445607757035454
    -6.1441367710433559   10.6419570608175889   -4.3445607757035454
     0.0000000000000000    0.0000000000000000   13.0336823299999995
 Zr  Ti  V   Cr  W  
  11  14  87  10   2
Direct
  0.9894734036957220  0.7952521035855170  0.1750208593227110
  0.2029328149636603  0.0066905670655236  0.4028918207833482
  0.1975991855150176  0.5969851435308602  0.4003262437311921
  0.1886920073890215  0.7982198127218434  0.0000735358311881
  0.4015358800887301  0.0035881874420905  0.2152449985888590
  0.4010678732812077  0.6062267183151183  0.8162097943981211
  0.5967531615533093  0.4087228855281850  0.1992881427750911
  0.8003805629860621  0.9870461421324281  0.5615804598230878
  0.8034544404104474  0.2093016558888577  0.6050945933877824
  0.7989436812494977  0.5922087137421604  0.7994788488344055
  0.8069307501487942  0.7957103335079104  0.3946256005369514
  0.9911558239831912  0.0293630566242455  0.2190398321688437
  0.9999402641937456  0.2032192408198565  0.7995972629105086
  0.1989481276689467  0.3958481102703101  0.3994888989915540
  0.3910897167118486  0.9943447517862252  0.5964015859502069
  0.4103983018254010  0.0116884136952291  0.8117435088547994
  0.3949446653900637  0.2037559835730794  0.8018359681541799
  0.3962392101564334  0.5899589858490694  0.1943739841419994
  0.3957724240899725  0.8024175647369636  0.7972734419050639
  0.6005821709967081  0.9942021614108064  0.3943229319499258
  0.6038432632309289  0.1979037583735251  0.8089813616859722
  0.6302388729670113  0.8225586917393292  0.0265121107345195
  0.8028597390527379  0.0102245035898528  0.0497575758075302
  0.8064276429437516  0.3914224271316450  0.1955603467341973
  0.7991156245707657  0.8267826037922734  0.9878223791368620
  0.9958222652144605  0.0134865507757678  0.4185038664548255
  0.0199435141568501  0.0050719752041744  0.6168712395731887
  0.0011828193193653  0.9983459327894317  0.8031155062755216
  0.9981722305497843  0.1968229950927866  0.0011504560656621
  0.0103931581367949  0.2177559354042774  0.4080991501118655
  0.0092278576054985  0.2040870875723664  0.5960771047998754
  0.9951104326703482  0.3916223259803230  0.9975983145941529
  0.9958318384977618  0.4009589027610688  0.3989084693650800
  0.0053494897280083  0.4036470076443004  0.6043772281220674
  0.9975578459718399  0.5892138159556054  0.9958462924924175
  0.9921487698324941  0.5836250660037080  0.1903915304322175
  0.9945540386837832  0.5994304211088595  0.4036073320183701
  0.0004085593395142  0.6002901735425341  0.6061000170664362
  0.0061990799313981  0.7943515212697744  0.4014079780669945
  0.0024154935379638  0.7959427732920576  0.6058142274053567
  0.9982138723239249  0.7998018133330791  0.8014075440330474
  0.2028933444116819  0.0137573247989081  0.0056685105551258
  0.1979555988064559  0.0177844506356872  0.2044028927234885
  0.1887668984550643  0.9956611031183775  0.6027171369455339
  0.1990501064024215  0.0007670166416925  0.8064144447973712
  0.1983912426819599  0.2016549272808148  0.0012778476059175
  0.1987091271318604  0.2065440163544193  0.2058824335108525
  0.2164600569688387  0.2215216664391725  0.4181509615521714
  0.2022099858116174  0.2077166226170163  0.6081817293038442
  0.2012021117437320  0.2034528204268796  0.8045421206143758
  0.1953323727035691  0.3911897245398528  0.9988697334901788
  0.1958382217942230  0.3978062590091390  0.1943168030572132
  0.1973257302000133  0.3994719320587754  0.6020612891482924
  0.1957503046026737  0.3989266030733071  0.8042323623189123
  0.1969828194669169  0.5862345806401118  0.9975573583140567
  0.1894922703102815  0.5913017244869511  0.1869450964698586
  0.1902238657287658  0.5957239309423743  0.6035473814775106
  0.1887389753569667  0.5997057519876108  0.8024009349183480
  0.2045481091662281  0.7881521003110354  0.2096295756058423
  0.1886599737092715  0.7896930908428254  0.3940291153950086
  0.1976600250921115  0.7982938987687891  0.6020628300965174
  0.1961059901078049  0.8018764674720613  0.7966081561445314
  0.3989499438053692  0.9999148536303250  0.0008344910738962
  0.4189562710447337  0.0064152567383090  0.4227002844267084
  0.3943120061006570  0.1953785861637313  0.0013636613136233
  0.3975455700992681  0.2087466989483306  0.2067156224933605
  0.4050999795718762  0.2119685742302131  0.4086299727091773
  0.4077511328856855  0.2170769268095144  0.6079722295164526
  0.3946908667336047  0.3985193890096725  0.9960817307819542
  0.3874648260957568  0.3924598778467939  0.1997020689482086
  0.4043367758483991  0.4061928223448415  0.4054018056405621
  0.3971416078932181  0.3973515194054303  0.8011850972170472
  0.4095685861733486  0.6006364640557104  0.4065147659306737
  0.4057652252439996  0.6043574985777938  0.6039250715190914
  0.4016094676969361  0.7957634810668530  0.0063156444444440
  0.4004493998903352  0.7883985756724898  0.2005963482141832
  0.4010251649115267  0.7992353966656263  0.4024267593615707
  0.4136159733335725  0.8038786777562225  0.6059072796866736
  0.5972485458976160  0.0086595648236503  0.0020684917594471
  0.6000503597362721  0.9945483760403593  0.1946028774814817
  0.6006528699880358  0.9975074502917100  0.6058818786516418
  0.6071238324308426  0.9947519441680306  0.8056090679771588
  0.6066195152532980  0.2149209007721127  0.4120260909485204
  0.5987468681767631  0.2066507766279576  0.6074391789490204
  0.6018714798870025  0.3943537986491180  0.9972096648385947
  0.5991411724169041  0.4035042028260672  0.4072993438903972
  0.5901028708746298  0.3973935796140131  0.5962865458862838
  0.5939715822946160  0.3964797781027084  0.8018716478879261
  0.5949033580564039  0.5932909948717311  0.0013986716044902
  0.5994411405018556  0.6085246240894503  0.1910727951430414
  0.6014238208721376  0.5979087884905520  0.4046552938720495
  0.6006633289796779  0.6009554358936361  0.6010953940315908
  0.5852400901687932  0.5867631569226549  0.7889811262060068
  0.5856021402860896  0.7842578104067227  0.3974664550549961
  0.6028994167091570  0.7977969216946882  0.6031563786096664
  0.6053809547777830  0.7997751907823596  0.7982222328434752
  0.8007468712918152  0.0085171109437204  0.3210867168864474
  0.7996784091645694  0.0008795380935046  0.8023936443897485
  0.8000350392907193  0.2027482383850768  0.0033840062985081
  0.8078118180944834  0.1865252653031300  0.2055050808585334
  0.8068518561317269  0.2138783088830193  0.4020625619201155
  0.7989104626228215  0.1956682959591370  0.8090486629284175
  0.8047681572928981  0.4032398973598523  0.4053457857876015
  0.8024395675813213  0.4073131400298151  0.6018214030571611
  0.7985861476832705  0.3885251022953546  0.8079503435767619
  0.7866930142398211  0.5760392419057766  0.9958939285206855
  0.8015505519398145  0.5991293929491786  0.1963801002786806
  0.8093370325300193  0.5973588180523851  0.4066598783280223
  0.8000528494186114  0.5981933723891686  0.5942755416707025
  0.7888275765765225  0.7975667398356576  0.1872258827687445
  0.8032313319167916  0.7934034027625887  0.6094878916961846
  0.7987233215031085  0.8038911539567520  0.7951807949546353
  0.0034449383704783  0.2150690585971237  0.2007113676368991
  0.9965757465050941  0.3856943035224003  0.1924015876723162
  0.0071884097231255  0.4075839368456564  0.8071503801082143
  0.0011865496687072  0.5857734695107308  0.7968697463396637
  0.0007926015436147  0.7998987964110467  0.9888100464007573
  0.4010538191949738  0.4052045540500696  0.6030837591957736
  0.3958983897526045  0.5949019414737027  0.0041488852100747
  0.6022341526521200  0.1973577519164691  0.0088438349464861
  0.5935400336140634  0.7933523265101563  0.2040895406014630
  0.8026602185597157  0.3977638001597066  0.0006810520388627
  0.0015843104806127  0.9990365087575644  0.0024214845857282
  0.6020826728051345  0.1991491454563789  0.2031490643685055
