Zr Ti V  Cr W 
 1.0000000000000000
    15.4119853477336850    0.0092002105036784    0.0075686985216924
     0.0091978282521091   15.4168317070722267    0.0033033723005877
     0.0075647771218920    0.0033039266611125   15.4231482065347798
 Zr  Ti  V   Cr  W  
   1   3 110   3   7
Direct
  0.3992783624717675  0.2014178522250992  0.5987886552864123
  0.0031718997292411  0.1982600565245383  0.0013852196247350
  0.1961125384259992  0.3985197226564755  0.1947443931092006
  0.3728362102759465  0.9986219881161141  0.0026558803867084
  0.9994645826880406  0.9976276676491386  0.9999197764432233
  0.0008248737872221  0.9992566995384259  0.1981383531582712
  0.0001565365293281  0.9986713071162050  0.3998455924241950
  0.9981648514803275  0.9992480714449801  0.5990427855279841
  0.0009756645837096  0.9997669890659517  0.8005926557226859
  0.0004219505949923  0.1996729544652668  0.2020293768722676
  0.0046385470025868  0.1991976295196538  0.3990656278538805
  0.9973212399515389  0.2000786301830789  0.6002139808842136
  0.0002607251479918  0.1989822735316103  0.7995738639341531
  0.0002520521595049  0.4015077162901474  0.9991414593290986
  0.9983298168514102  0.4004496267982995  0.1992399331014372
  0.0008240631703780  0.4010918903275213  0.3994348751514128
  0.0023975344692027  0.4011868562913549  0.6011490808693623
  0.0000289154969595  0.4000518264931506  0.8005085315165277
  0.9996437969156886  0.5989335099243067  0.0005999447079635
  0.0007791817607120  0.6006372247104292  0.2007820317729362
  0.0015557270656646  0.6005249705331881  0.3990839186552654
  0.9980633026457061  0.5994094995032009  0.5988445169059217
  0.9989707533416859  0.6000929063073438  0.8003476068034591
  0.0006564147569466  0.7989708250499094  0.0006968567123611
  0.0014873158860131  0.7999360033737267  0.1995925802911177
  0.0028460543223703  0.7996891274659240  0.3995941293321845
  0.9995851434074055  0.7986893382823190  0.5988671214301845
  0.0042000292418944  0.7992220355258316  0.8002869476629973
  0.1994737509163614  0.0007181678956412  0.2003181551461874
  0.2005169547224977  0.0050838395138089  0.4009393659630524
  0.1980924657194452  0.0020740626619333  0.6000279974535091
  0.2000750996863921  0.9978577394479738  0.7969230387054149
  0.2042697429898493  0.2036940166738693  0.0019316549778233
  0.2006169193258424  0.1982085097241280  0.2033910010202460
  0.1944448103367131  0.2039496238837434  0.5962800543093391
  0.1991760191050614  0.1974198049395402  0.8026960320662613
  0.2004598084356735  0.4001176299678407  0.9945042358420451
  0.2004229356134414  0.3954806474145697  0.4059728378763887
  0.1999206363173118  0.3992389940731849  0.7952509954811369
  0.2011297639958305  0.5975588767243180  0.0004171676436271
  0.2000752255915619  0.6017425097067222  0.1995301159201348
  0.2044377544220608  0.5991473458908342  0.4002704294872008
  0.1996085307420282  0.5948725596367889  0.6000740144849351
  0.2009596816983525  0.6037136991767535  0.7995738205586976
  0.2002249786833827  0.8655727087201852  0.9970682893586468
  0.1994388930169347  0.8019533583793761  0.1987312635663853
  0.2035474313855805  0.8022417304270826  0.4015131348927211
  0.1996975143177954  0.7988132958389387  0.6040094078902774
  0.3996935200577122  0.9990925355389665  0.2014331156890381
  0.4010522227765997  0.9953668809985611  0.3991152341036498
  0.4019448874690237  0.9955909934944837  0.5983381000043918
  0.3998505922132989  0.9989975416839136  0.7968986276047422
  0.4031161754999194  0.2029556392551636  0.0022073667931332
  0.4016996775058633  0.2009376957624814  0.1994824015493299
  0.3972818660051485  0.1999015373464263  0.3933963177047702
  0.4010462000882125  0.1988275268136678  0.8047185325968227
  0.3998345763122331  0.4026161039860083  0.0006628918301615
  0.4012925846597199  0.4021682023752247  0.1998931296238481
  0.4000387917252745  0.4056981749836442  0.3978170130675632
  0.3958929497737061  0.4061514071206361  0.6007459901020056
  0.3985589718696625  0.4015590543881367  0.8005917239084460
  0.4011563099883712  0.5999210501172704  0.0022132266477601
  0.4008162395947939  0.6004985467461962  0.2043027594395487
  0.4053922243810907  0.6011552239610983  0.5956979641963168
  0.4006317411484857  0.6009102855373571  0.8003890503987766
  0.4007681485920817  0.7973523826247846  0.0023758280985280
  0.4005793941893712  0.8005579422460750  0.2025693913222519
  0.3998145623973541  0.7988888471892764  0.5956164409838715
  0.3970654223951329  0.7997118490280751  0.8001717980258380
  0.6037643642573884  0.0043523873319717  0.9990441460145887
  0.6008443262381991  0.0008222543302897  0.1988570196717872
  0.5999687027511894  0.0010012123597554  0.4006771328183893
  0.6024537891422964  0.9991043281766322  0.6004708231699176
  0.5995954162268354  0.9998279440428038  0.7996734224473084
  0.6009568341958997  0.2001202624736141  0.1966888786023212
  0.5993986170033601  0.1999425582742330  0.3983184836974982
  0.6011115743005027  0.2000007898611184  0.8040077043909403
  0.6003998508099511  0.3964933568740333  0.9986310547141434
  0.6018003112445492  0.3998740672458388  0.2002122192765351
  0.5996910745896172  0.3984568269187730  0.4006930649825357
  0.6013116550030289  0.4026064343895567  0.6013298045582469
  0.5993501092647939  0.3991328377274848  0.7993551555272473
  0.6001105568669913  0.5979455206773060  0.9993338567325527
  0.6015954115739903  0.5996793111433227  0.1996085107464584
  0.5970868967511955  0.5993046884151413  0.4039872415534425
  0.5996739983579681  0.5999832317797494  0.7972691595590728
  0.5986429959458482  0.8018954526558512  0.9993579516527492
  0.6012883655341619  0.8008024871135174  0.1993425310841602
  0.5964889462358225  0.8017896303898973  0.3996002628159212
  0.6010974723271637  0.7961488150102315  0.6012484979979051
  0.5984408829706558  0.8009001492684913  0.8005212097818709
  0.8012911464767205  0.9994425558234912  0.9995934768108549
  0.8020334463901105  0.9996087881366696  0.2009048301352878
  0.8000195945605036  0.9996228173576296  0.5999569032748079
  0.8016518392254973  0.9990155726786535  0.7986546262036837
  0.7954514796288223  0.2002575751486243  0.0006270975403326
  0.8014072917106660  0.1996171309755257  0.2011229068874993
  0.8008737314653303  0.2001875899954358  0.4000389465860817
  0.8010675175242830  0.2007225745375580  0.5993304154708013
  0.8011890657086640  0.1991388638707938  0.8000040355833729
  0.8007117262716203  0.3991264796682119  0.9996742934434829
  0.8014087280763088  0.4002671839889682  0.2006559006416548
  0.8012967409035906  0.3990916359806494  0.4000812215741027
  0.8021801484376032  0.3993149693856430  0.5996885367503392
  0.7987297493185008  0.5988934821465526  0.0000808637681626
  0.7997406762339162  0.5996491763041375  0.2010362931261551
  0.7993514424075061  0.6000099919060240  0.3996256487665746
  0.7967845244875768  0.5989086969811153  0.5993452466929358
  0.8004266939698607  0.6001297349130719  0.8002591037616416
  0.8001838773644331  0.7987336219839435  0.9997263898546813
  0.8003295530429207  0.8000453917229968  0.2003467912329178
  0.7996611557303763  0.7998739064537341  0.3995499243306871
  0.8003606348708455  0.7993526598652707  0.5993274617164759
  0.8013908064209521  0.8005830213249251  0.8003769464009645
  0.6040900177178702  0.2006994819229747  0.6010114428541812
  0.7998898987744641  0.0000318290563461  0.4001145332553686
  0.8005258635070452  0.3996298587371354  0.7995328423499779
  0.2023956047210063  0.2005144229108706  0.4011163095785149
  0.1993477309497355  0.3989366886340807  0.6014547238279371
  0.2007761700759896  0.8015524114052615  0.7986336607401958
  0.4014708631241695  0.6044270773761223  0.3995902798164187
  0.3984259507865447  0.7979855823839119  0.3988784605578823
  0.5989181725988741  0.2001105867072419  0.0001050914336007
  0.6016315102962170  0.5986038742654225  0.6012762397777848
