Zr2 Ta1 Ti3 V111 Cr3 W5
1.0
  -7.5249999999999995    7.5249999999999995    7.5249999999999995
   7.5249999999999995   -7.5249999999999995    7.5249999999999995
   7.5249999999999995    7.5249999999999995   -7.5249999999999995
Zr Ta Ti V Cr W
2 1 3 111 3 5
direct
   0.5967101524786947    0.9988745994504307    0.5936175952938050 Zr
   0.5954493016868064    0.8036390648929617    0.0017447002565756 Zr
   0.5971874722492208    0.1979752327065022    0.0021404916411276 Ta
   0.5993208663636708    0.3990865038963840    0.3995377566162752 Ti
   0.3999187822068034    0.2043938046424608    0.8043982525524925 Ti
   0.8017566610573170    0.5954560189641166    0.7960299178274167 Ti
   0.8020957668237690    0.0037109442400645    0.0033197998195456 V
   0.6074642276034650    0.0074385020639310    0.0021202214305247 V
   0.8010091045315475    0.2071513723920486    0.0033283000218242 V
   0.7969598080277285    0.0020012436479407    0.2052933862255902 V
   0.8007417542144821    0.3971924120026796    0.0047822280617035 V
   0.5995395652858027    0.9989048088909072    0.1985682502808982 V
   0.8032457289171281    0.2004477875316662    0.1975846334711903 V
   0.8005238295058390    0.0019628438275137    0.3992796902827744 V
   0.2040382935356878    0.0035715915976524    0.9959435208798145 V
   0.3991917324242338    0.1997752314167673    0.0003831926455581 V
   0.5912639938810211    0.3941068804466846    0.9954516983836734 V
   0.7968907842675503    0.5977440877096826    0.0027771775052243 V
   0.3914105471810040    0.9932529461842402    0.1949449659024665 V
   0.6039676415890736    0.2062869094159081    0.2027821991467684 V
   0.7950945813856805    0.3926655279224958    0.1959630794059004 V
   0.6002675345640189    0.0027771624462386    0.3996994082905876 V
   0.7981616456799431    0.2013666105815449    0.4056360843257012 V
   0.8016729885832816    0.0022471821862545    0.6064793695461422 V
   0.2026874307244288    0.1944941578970670    0.9961639594912861 V
   0.3992535364685171    0.3942292431618231    0.9998962178500523 V
   0.6021667835681029    0.6006860654503257    0.0018705135971883 V
   0.8043323326952713    0.8008069785126821    0.0057863114453101 V
   0.2008310685146903    0.0038629792723131    0.2031496849001946 V
   0.4014486837218021    0.1997470320930820    0.2012675791879870 V
   0.6011973250015604    0.3994194277961133    0.1966570842939302 V
   0.4007362077997012    0.0019844510771054    0.4019861533877729 V
   0.5971224021220055    0.2049263232396937    0.3997110135837714 V
   0.8031737086919766    0.4036846641928745    0.4043026429781282 V
   0.7999002023625537    0.2011486488101646    0.6032539161078601 V
   0.7954615272601399    0.9938851867016923    0.7920456294254803 V
   0.0016128658426764    0.2029672296943654    0.9995704336649838 V
   0.3941005186463448    0.5941531585482727    0.9955763467707947 V
   0.0036766747362779    0.9986876898090655    0.2024384984558684 V
   0.2041604292742808    0.1975903967904940    0.2016700428258588 V
   0.4043948460326105    0.3992446328603628    0.1986621407449639 V
   0.6047771943630190    0.6036973757430517    0.2010644085975756 V
   0.8012643494736384    0.8012010274373071    0.2035266383893896 V
   0.2039986879888505    0.0067630596758177    0.4035907488501360 V
   0.4006258277295565    0.1965584767734816    0.3990042195764725 V
   0.7996385689475944    0.6007718192916005    0.4010526751003208 V
   0.5939969050357318    0.1968261322765373    0.6027535741370699 V
   0.8068193450985113    0.4059852480939310    0.6005567542325766 V
   0.5947542230823427    0.9952757265814115    0.7973039663536849 V
   0.7997642666618212    0.1958919791513685    0.7973207514576059 V
   0.0033536360960132    0.4042046357805555    0.0005003450966082 V
   0.2009175906830723    0.5984889253213669    0.0015145598994320 V
   0.3968541847280347    0.8016411100346054    0.9986315044538830 V
   0.9986293442154878    0.1994642171911123    0.2014331563970876 V
   0.2002774283562044    0.3995469548229647    0.1993650116501899 V
   0.3987092859236103    0.5972562454833780    0.1971633231315961 V
   0.5944815976704798    0.7962112989137204    0.1982869485780583 V
   0.0053553202690752    0.0075617267364511    0.4071372996998653 V
   0.1981729302384665    0.2023405483509754    0.4024128811103493 V
   0.4008906100414424    0.3990721762035692    0.4044611193930591 V
   0.6028113852400052    0.5996383711982621    0.3956022548875225 V
   0.7960571201033599    0.8035610771176894    0.3979641105624429 V
   0.1976689391422076    0.0022204222042044    0.6035501320262903 V
   0.3995583450479060    0.2005456806461254    0.5986847834242355 V
   0.6008944645143508    0.4050398042613581    0.5980864548966439 V
   0.8021573874218909    0.5980898952639682    0.5945955398377389 V
   0.3998214326998495    0.0000525527081041    0.8007296535765782 V
   0.6050909594732118    0.2002066830028575    0.8014832264536645 V
   0.8016037289476320    0.4013012507494240    0.8012450768530853 V
   0.9980047690534173    0.6000399491742621    0.9987219973246306 V
   0.2001367574905641    0.7943538882934199    0.9978346576003447 V
   0.9979450052993148    0.3984613135078111    0.1956559781747091 V
   0.1991294062394980    0.5994617105526490    0.1992365562122148 V
   0.4027747991951081    0.8080590075064343    0.2041136215665639 V
   0.0025438117181070    0.1970788901441186    0.3975580505368752 V
   0.1921801265697716    0.3987639524265022    0.3982586262192627 V
   0.3988001080914484    0.5992602189686984    0.3973184056630655 V
   0.6014827210326094    0.8008415360296057    0.4016826869257463 V
   0.9990839577840842    0.0054283989783307    0.6049713566546303 V
   0.2064096487170019    0.2018754060122059    0.6056126164492532 V
   0.4030846388845675    0.4055169193405009    0.6004350865697087 V
   0.6034729564061510    0.6015543517179820    0.6014522040048156 V
   0.7917196794333161    0.7944697772496763    0.5921615887467588 V
   0.2020657142479816    0.0016194433511184    0.8036945231887147 V
   0.6003229820041678    0.4019136631285216    0.8014439076033821 V
   0.0019498540209597    0.6037510448896098    0.2034640331098396 V
   0.2069070603198881    0.8055209501993240    0.2009376275019530 V
   0.9934871152497287    0.4002364800034713    0.3964380082221411 V
   0.2001671702301567    0.5999771659776125    0.4008907523166591 V
   0.3988313485013212    0.7967266140873709    0.3951785147781277 V
   0.0021030255725832    0.2018028347986823    0.6055160817029779 V
   0.3998380171516026    0.6039254169839793    0.6036845311266020 V
   0.0010255728151001    0.0002959560622988    0.8005552989855478 V
   0.1973582960546998    0.2023782496461332    0.7992046265165308 V
   0.4033880218596925    0.3977032603850040    0.7972116784953912 V
   0.5955721094081369    0.6009404432399912    0.8040671761064553 V
   0.8042153369424343    0.8086904580835883    0.8055715140611093 V
   0.0056432840577724    0.8053327587385142    0.2028553762479415 V
   0.9972759452617880    0.5988561624478648    0.3988598679895448 V
   0.2033783735501461    0.8015759967572679    0.4046144218257268 V
   0.0023038584861532    0.4005702341048235    0.6044165889495080 V
   0.2004660991070157    0.5997525902019938    0.6024582073500246 V
   0.3995689532936217    0.7982518571380133    0.5953547481829545 V
   0.9994516198880292    0.2003699529281328    0.8007318905113914 V
   0.2007989992669231    0.4033344806747168    0.8004132327038752 V
   0.3992185457469959    0.6070727440906006    0.7993465357747518 V
   0.6043647551303628    0.8045747469763427    0.7994381643769884 V
   0.0090345104300648    0.8053825530450646    0.4067392216155693 V
   0.9984565816540361    0.5929044618999475    0.5950402196885830 V
   0.1991825444354304    0.7989426968014310    0.5996191955254034 V
   0.0053944078123931    0.3982415819007320    0.7994241131588151 V
   0.2005206182601963    0.6058924423661454    0.8039914874030495 V
   0.4014443092492735    0.8058131221833646    0.8020674827850842 V
   0.0078036113843889    0.8017937780564617    0.6016094647041388 V
   0.0011022517652625    0.5973542274827141    0.7971842821075417 V
   0.1989940538904924    0.7990848557115809    0.7994110747931904 V
   0.9948775776044660    0.7977722185907001    0.7961565923587943 V
   0.2000557510023567    0.4022403240256170    0.0012375379277144 Cr
   0.4008308131087069    0.0033411907199629    0.6023082080734117 Cr
   0.9998503172599637    0.7983907390647336    0.0003800011039951 Cr
   0.4013280100729636    0.0003133499848203    0.9996844582315154 W
   0.9999935650905686    0.0033099219383324    0.0018654621201386 W
   0.7992785054690523    0.5926004013284649    0.1983752008933735 W
   0.2003489917572023    0.4038888750302805    0.6015153201066871 W
   0.5998126695650502    0.8017827284017589    0.6059979302649751 W
