Zr Ti V  Cr W 
 1.0000000000000000
    15.5156790444203825   -0.0894881118897371    0.0217838379805832
    -0.0896445880511617   15.5356651551125911   -0.0233108486568690
     0.0218567542863321   -0.0234613794087359   15.5047409555449658
 Zr  Ti  V   Cr  W  
  13   4 102   4   1
Direct
  0.9924088073522001  0.0095950977992381  0.4184187066702575
  0.0022426762873567  0.4005090867478257  0.7960771713013798
  0.9745960478506300  0.8133256739322473  0.7931830074005755
  0.1680811275804866  0.4142473748857337  0.6298723012153005
  0.1860366264338563  0.5754472271411774  0.4586614032063639
  0.1933146402059145  0.7596382171166609  0.8353176861336308
  0.3991700927224796  0.0296912621186554  0.1958690452708144
  0.3927926713881196  0.0034000774745566  0.4147743022218182
  0.3920784859385825  0.7964708137677521  0.2032031841141057
  0.6220693246699379  0.1934375559622806  0.9599730368780865
  0.5946876621628707  0.1950788644259316  0.1905280311838414
  0.8138256652417425  0.0024733876438507  0.5919150556948910
  0.7944751675902766  0.1981221213604234  0.7958445679004259
  0.1840156479701622  0.0090410128711578  0.2005555567598654
  0.2120562689676171  0.6314519394235855  0.2302795417834922
  0.3928103526898585  0.1916611657815345  0.5853687476181744
  0.5953262100918166  0.6030485037174002  0.3986724176170608
  0.0069615139534868  0.0021112366077543  0.0030602114572754
  0.9920460200097670  0.0046938949713566  0.2034799826667011
  0.0121228019128378  0.9789183144378226  0.6230345599163837
  0.9999916871337176  0.0116611053248294  0.8078710165167257
  0.0097598997888710  0.2042780165597798  0.9997750986035768
  0.0009134689189667  0.2037121248618893  0.2030388288303677
  0.9994319739599842  0.2114005685519331  0.4016281032917427
  0.0020330631809629  0.2224481998476734  0.6038167147749619
  0.0020743939998197  0.1979597206474643  0.8011578572147683
  0.0042023861088977  0.4030231862828431  0.0026793359798035
  0.0020131347225791  0.4061761714909347  0.1988622581400528
  0.0027754818544843  0.4071639392212968  0.3961233371688897
  0.9807164982055554  0.4090978792767295  0.5894103482623556
  0.0038471668679714  0.6014066619280265  0.0012782046712587
  0.0003637017191913  0.6038863534174401  0.1983486912433531
  0.9991254597584145  0.6059439609269105  0.3924078935595375
  0.9985974678509765  0.6020216925463666  0.6031520896098095
  0.0003583464536157  0.6064500143420857  0.8012808414744221
  0.0106546535066092  0.8023283975785830  0.0023947930951602
  0.9953752902443167  0.8052542694258449  0.2010533588559061
  0.9985254622178115  0.8006124357581361  0.3969314445621246
  0.0017381278823685  0.7924673632688721  0.5917152039403234
  0.2031022902688322  0.9895607957376651  0.0019108548768290
  0.2019326233527080  0.9968946387132530  0.6065258061157618
  0.2014907051779366  0.9987745808115015  0.8063177678396519
  0.1954150171553438  0.2034708449365302  0.2017684275128608
  0.1973149514669043  0.1978019102462202  0.4029823135747461
  0.1972776377306418  0.1991968750236171  0.6001859151333185
  0.2011797204274524  0.1928608529486279  0.7956055101607350
  0.2036199873787335  0.4006688359918426  0.0094507579016808
  0.2021569533133203  0.3985045325287157  0.2019949655404005
  0.2051225588921532  0.3908081675644762  0.3943091332323619
  0.2093370131990107  0.3499973636436335  0.8528676277784834
  0.2025080770000054  0.5970684154077451  0.9939076161705646
  0.2004501955909374  0.6149757661767374  0.6413693321687420
  0.2008381262887368  0.5630240657167307  0.8008688248549010
  0.2090938982449687  0.7951514340135308  0.0343869974016239
  0.1902423924027321  0.8123624957610081  0.2094917798378846
  0.2040666987387393  0.8186560155009499  0.4004794347847404
  0.1999196720522662  0.7984927695805225  0.5954758640279048
  0.4013797785733282  0.9955940357142299  0.9932509336888304
  0.3997154490071746  0.9892989388813911  0.6137091900535173
  0.3991291217055103  0.9953428584825111  0.8007728784982214
  0.3979841780525593  0.1967067376199670  0.9959093478155989
  0.3992830806584312  0.2080638150189077  0.3900201548107201
  0.3979332052324888  0.1964624971351241  0.7983592292253854
  0.4044517393456053  0.3961452292105955  0.9980000563921099
  0.4016683648943259  0.4011711587338867  0.1960441973277135
  0.4056646494184584  0.3973557693850586  0.5936912186122707
  0.4039731585279656  0.3936857491681461  0.7950287289476454
  0.4034646328389795  0.5955892333856629  0.9982056846201270
  0.4114181156013362  0.5911203274478237  0.1975088663897835
  0.3943339972065695  0.5984989221186819  0.3986246979882733
  0.3948007173632243  0.5957897638387232  0.5992810988262388
  0.4016173294626618  0.5920205562577493  0.7985637062309148
  0.4030384634279024  0.7947265098429871  0.9942832409147763
  0.4008284162421838  0.7942643493038624  0.4078707095659069
  0.3996683942349747  0.7932035092947252  0.7978145919381017
  0.6022738685486027  0.9900771945666663  0.9964899558145248
  0.6051229960194897  0.9879142520370564  0.1960689864595904
  0.5979206549849579  0.9994832897096061  0.3975143428013457
  0.6003354191275276  0.9963164714644813  0.5974382889082509
  0.6002207003946370  0.9991662726319799  0.7967297357698159
  0.5984356144631574  0.1998484837721754  0.3980745641483833
  0.6017034485924216  0.1962393196883183  0.5912387866112750
  0.5878475295304183  0.1962862106928509  0.7680006866855340
  0.6029989219416728  0.4010772937130536  0.9974704721999343
  0.6041770942593128  0.4040714211906445  0.1964960541683607
  0.5999212132737678  0.3969314631229608  0.3933330714674813
  0.5983950190991583  0.3996613417389139  0.5947516611081684
  0.6013151124709745  0.3954145151999707  0.7969051621498784
  0.6048192577632767  0.5995879435250355  0.9938913914008306
  0.6050845400493676  0.6000366823403336  0.1955048867897022
  0.5985372654461589  0.5994512184286658  0.5992941563345415
  0.5994142833863397  0.5968214233894589  0.7958465916474539
  0.6019497673056392  0.7962084814301977  0.9974896982789805
  0.6036115200778380  0.7948334877749391  0.1971162917380501
  0.5960007609472018  0.8022995434990610  0.3962062834603334
  0.5999812134792175  0.7984883844635605  0.5967787885362391
  0.5949424217925244  0.7972055131311659  0.7970445299315474
  0.8037960888965052  0.9996829467674918  0.9988318973617161
  0.8000000694502976  0.0007832381985655  0.1952418762477440
  0.7907646393005493  0.0009568271139189  0.3894911396662010
  0.7993509593783072  0.9924049024548471  0.8019967494261179
  0.8186521414189274  0.2020595347210110  0.0066905167861233
  0.8044437658275870  0.2032247092076509  0.1993033582722655
  0.7982959478313501  0.2049195418204744  0.3932221782977311
  0.8012565892768790  0.2059977463658413  0.5909233457649773
  0.8046870028288398  0.4021234780916614  0.9970381144788700
  0.7986389033793779  0.4032116113315087  0.3955652014142841
  0.7932651788877511  0.4035830750296843  0.5957288357677262
  0.7970446759115016  0.4054792397600712  0.7975050505776128
  0.8048689843143442  0.6017074515911948  0.9965446487291558
  0.8020777708350870  0.6017335727001045  0.1964267461986275
  0.8020065005714607  0.6002165627181567  0.3988713437541140
  0.7986885608314257  0.6004804692899920  0.5977682507726123
  0.8020993273626142  0.6013244300140130  0.7975732182131845
  0.8071355784583517  0.7994691797055763  0.9954346410496439
  0.8001714253295262  0.8001686996395619  0.1970874202123765
  0.7974750645756735  0.7997901241800210  0.3963707586813230
  0.7975044245246388  0.7949235201737832  0.5955378935750923
  0.7829610591981280  0.7971708824798819  0.7959484079592030
  0.3919528059603045  0.2117886022901098  0.1936691827513313
  0.4011811780459534  0.4016347781782396  0.3960112982998860
  0.3994984213910893  0.7947644719485258  0.6010168658505397
  0.8020864818536021  0.4024568810666944  0.1973843988990522
  0.1934189560943078  0.0064392816103091  0.4099232675800758
