Ti V  Cr W 
 1.0000000000000000
    15.3720038313806135    0.0023998420144863    0.0001449001601191
     0.0024007571799185   15.3633006247875361   -0.0006442210894229
     0.0001450310074229   -0.0006449824026597   15.3697544548857330
 Ti  V   Cr  W  
  15 105   1   3
Direct
  0.0053150032330109  0.3944439711755700  0.6010774654124350
  0.9913755496780734  0.8002849816548264  0.2037243491797812
  0.0089937636464648  0.7987539614409265  0.6024388897994182
  0.2010489637157609  0.2038684825821662  0.3930921381202022
  0.1964471178791304  0.2044585138363079  0.6050621409344151
  0.1982231479366977  0.3950622993068181  0.2011083471796027
  0.2029125221052947  0.7973243983355374  0.2013246267674696
  0.3908243134684496  0.9980349790410663  0.8037715094242424
  0.4020181581851471  0.5983374068291933  0.8012915899045960
  0.5972692144582855  0.9952104255148875  0.9961744174841995
  0.7929219343873312  0.1983083207932486  0.7951853488072846
  0.7997223182707988  0.4042867035799417  0.1934492812962637
  0.8019737481370732  0.5931310490677589  0.0031998524877030
  0.8068739004420213  0.7976674150336600  0.3916347343436250
  0.7986056382585147  0.7967358565919062  0.6043056301358056
  0.0005455720767948  0.0014813866019627  0.0000790080800306
  0.9985404277564117  0.0013829753894281  0.2015407991112191
  0.9980934928219432  0.0001365857867712  0.4005956114711278
  0.0008645343843807  0.0007893351465653  0.5993375629273916
  0.0000576403682639  0.9996070182314338  0.7987143255552893
  0.9981863555572842  0.1995599493668021  0.9999960527589258
  0.9989556021197642  0.1995506073355897  0.2004653982153344
  0.9977414692322126  0.1968566928710347  0.5981063878358164
  0.0026038889235058  0.1986644621402528  0.8006703114248566
  0.9974097145007234  0.3986712126308685  0.0005244159913096
  0.9999384064640706  0.3992187402035475  0.2010103953115494
  0.0001735742829068  0.3982665819690925  0.3978701133893812
  0.9999038594019382  0.3988148547089052  0.8018784894422887
  0.0023649836801476  0.6003704762195564  0.0018694187389541
  0.9996255302500576  0.5976077048895767  0.2015671484874151
  0.9999233818168898  0.5990051901101852  0.4006084516900048
  0.0007374795017820  0.5992040463372047  0.5988046557661180
  0.9990148240488367  0.5999193130250130  0.7993769704103233
  0.9996265096958344  0.7992223250840358  0.9996230865436322
  0.0032693258242724  0.7996982194125326  0.4013334024850949
  0.0001392882584555  0.8007193203692671  0.8026139544081130
  0.1980067899987646  0.9974869428796110  0.0013268036580147
  0.1976277945535040  0.0007033259630718  0.2004620179953569
  0.1992104854636783  0.9988973762685628  0.3998454761753137
  0.1999178577575098  0.9994127500548992  0.5977652488877285
  0.1991993747780451  0.0672678289710537  0.8673329203490155
  0.1993106780719742  0.1975966840264142  0.1996589034504385
  0.2010895679383572  0.2008973083042910  0.8005866011515580
  0.1986229649974987  0.4018074080640375  0.9997194762361085
  0.1992719521246869  0.4028981571823806  0.4051991714889212
  0.2036903986926346  0.4043944844993711  0.6025243742184871
  0.2000307697737216  0.4006304556598791  0.8024665938414239
  0.1991773363459255  0.5997058018275813  0.0009663251444980
  0.1990235953580442  0.5999977625940863  0.2019243297020984
  0.1985706288692964  0.6009097088004056  0.4006178275337954
  0.2004891237351741  0.6021529406707892  0.6008260466037608
  0.1972443780069042  0.6001907038923572  0.7999011761645406
  0.1992640082586987  0.7998241832656640  0.9977620112208976
  0.2006735417822637  0.8003179122574878  0.4035990040018227
  0.2050118506843623  0.8007820445778056  0.6022995096105511
  0.2005710411362705  0.7983874020022643  0.7999931400558733
  0.3946206561760783  0.0011375019598711  0.0043054977255075
  0.3982426573749823  0.0002607316228753  0.2012382958397987
  0.4025711814109401  0.0000403267084148  0.3999201421739971
  0.3988402435525017  0.0004633453002354  0.5980438524885021
  0.4018546888807146  0.2001161702108354  0.9998336784035328
  0.3988866358315027  0.2005475221873478  0.1969450003542540
  0.4020337785529826  0.2009601776565600  0.3997615257582057
  0.4010935099697341  0.2006085137862907  0.5995601969930887
  0.4007066304385306  0.2018863270996320  0.8008837248244493
  0.3981359789277708  0.4001469858202826  0.0010976074129952
  0.4021234154081921  0.3999623749601361  0.2006230620644750
  0.4002665423992612  0.4001676814283023  0.4001098088822185
  0.4013124502973310  0.4012777435779485  0.6002191444565519
  0.4006063968693380  0.3994983721071107  0.8009736270871175
  0.3994834330856574  0.5991877875079391  0.0036395613409681
  0.3995837963341842  0.5997336851564146  0.2012700849263278
  0.3996801977842940  0.6000921371960374  0.3994066452237898
  0.4010434408335116  0.6004571340832702  0.5968614492045161
  0.4000359870010997  0.7995058771394640  0.0002804246987556
  0.4012538796091693  0.7997479188221097  0.1993694372847972
  0.3995860251235838  0.7995803543992391  0.3991561663068767
  0.4013794256591771  0.7995470470182098  0.6013863649757880
  0.4009548880965386  0.8002510523758621  0.8009827861393453
  0.5992039424526679  0.9994180820586008  0.2045598409783923
  0.6007846016865466  0.9998000763279546  0.5946331506654258
  0.6049597731975632  0.0042385317272317  0.7943017861956342
  0.5995013030137620  0.2017005118184952  0.9944920784199611
  0.5992317010739756  0.1994963470234703  0.1977941955436576
  0.6005116747880190  0.1970723677765039  0.4004501749443061
  0.6010108176350282  0.2004960897571171  0.6031444476515939
  0.6046598819161345  0.4013263165016459  0.9997083423387105
  0.5976076100450126  0.4007981821858466  0.2000578830189626
  0.6010826318112251  0.3986706016432885  0.4004224521590992
  0.6010508038187777  0.4009672009945446  0.5999096357551542
  0.6006802099868835  0.3967907209774612  0.7995219254150515
  0.5972065467066914  0.6003229866607420  0.9996251621106622
  0.6001261718223802  0.6014726243050991  0.2017899796940496
  0.6017458153186340  0.6017511682965599  0.4001922790094442
  0.6010956305698172  0.6006612888828167  0.5991091914240693
  0.6032948669780996  0.6008210149597601  0.7989701698580253
  0.5998691311537725  0.7976548872152126  0.9984089844779458
  0.5988675351283076  0.8003330121034503  0.1980483760014017
  0.5990152821503423  0.8043945339584045  0.4000347684098857
  0.5993268220619298  0.8005425568080838  0.6001743832364574
  0.6000790292269494  0.8029362095056406  0.7997075399726402
  0.8023106626110383  0.9995728454244311  0.9996553659532401
  0.7990096177101504  0.0002190821619427  0.1986147187769520
  0.7965950257383912  0.0013777204131940  0.3990774804261869
  0.8024861560333842  0.9999419537019478  0.5978374390367583
  0.8017566766821553  0.9972042392408444  0.7987803777502331
  0.7996913622312403  0.2023906830306774  0.0012774046212712
  0.7981401508481132  0.1988673055662694  0.1985167529325380
  0.7995468090113825  0.2016961975927933  0.3974233107017597
  0.8008071171475900  0.2014965070391792  0.5966057407954183
  0.8004822685475079  0.4000989197642718  0.4007243590727338
  0.8003199725697144  0.3998278547658352  0.6003747491237371
  0.8007945408608558  0.4030899980309294  0.8015972582855142
  0.7990910867869634  0.6038281047956378  0.2033259880677755
  0.8015683624768126  0.5970268741796810  0.4003112486301844
  0.8019790251332519  0.5973380201013433  0.5993603735808037
  0.8007678082378578  0.6008220512403730  0.7977390494763308
  0.7993665207689792  0.7999688699667283  0.9988216785298538
  0.7952557465290907  0.7999042441217106  0.1938721219391145
  0.8002173101951368  0.7986841257281198  0.8027397534217708
  0.9962766535286895  0.1997240431220288  0.3992119830375370
  0.6002790095118562  0.0009302195571721  0.3993803698327981
  0.5959293368577343  0.1996755711042793  0.7975867264022641
  0.8006962087561600  0.3984679583536738  0.9959344953298461
