Zr2 Ta1 Ti3 V111 Cr3 W5
1.0
  -7.5249999999999995    7.5249999999999995    7.5249999999999995
   7.5249999999999995   -7.5249999999999995    7.5249999999999995
   7.5249999999999995    7.5249999999999995   -7.5249999999999995
Zr Ta Ti V Cr W
2 1 3 111 3 5
direct
   0.6034878692531707    0.9959404211222121    0.2031259669468460 Zr
   0.1996419848737772    0.7951068266639205    0.1994013845079832 Zr
   0.1990226552701382    0.8013846992293134    0.7998847020866233 Ta
   0.8011760326021296    0.8030982067602986    0.0018650447498334 Ti
   0.4018978040731729    0.5946835929863130    0.5992005236445861 Ti
   0.3949644168728679    0.3966517273384072    0.7966625626740635 Ti
   0.7973217993277804    0.0055961243709198    0.9984554013514828 V
   0.6021024865659260    0.0043488941270891    0.0075695912599000 V
   0.7975299780135588    0.1999291098086613    0.9993916399337784 V
   0.7970895428660751    0.9953515703907798    0.1968902380415612 V
   0.3995134278956202    0.0008782289011782    0.0025898705796224 V
   0.5983808342211985    0.2014017787294716    0.9987208177155061 V
   0.8047224867464304    0.4008593405422028    0.0042024394117976 V
   0.7968282278979248    0.1948801376811508    0.1912535856692425 V
   0.8037896816924029    0.0066728470236140    0.4044795536816927 V
   0.1966382166923268    0.9970312461369569    0.9991743028999187 V
   0.4006228597354977    0.2013460799206253    0.0010361407467012 V
   0.6058674717420743    0.4032084114701960    0.0014255516957533 V
   0.8027777166397904    0.5994318041971445    0.9999943146010989 V
   0.3999600955788283    0.0007389806900251    0.2005854047141392 V
   0.6011487393199477    0.1991698665962943    0.2008070976313476 V
   0.8026958445446173    0.4004884213479597    0.2042541429502890 V
   0.6027186876232710    0.0070964816506109    0.4040866156699051 V
   0.7964436087070624    0.1973749549008709    0.3997421067432095 V
   0.7937097498443487    0.0007915949856833    0.5978022829471997 V
   0.0078377784662543    0.0047378005622005    0.0054349923035530 V
   0.2027964257871170    0.2024504621644315    0.0017802194313151 V
   0.4024705696414798    0.4034439642078979    0.0078672012666433 V
   0.6010012835958478    0.6008385634456018    0.0013741506782655 V
   0.1974224856388574    0.9971510130603262    0.1988982782273320 V
   0.3975023940777165    0.1988671573160978    0.1972572466397038 V
   0.6012335718002582    0.4014496394146756    0.2008240052849463 V
   0.7982502078996352    0.5991295448341414    0.1986864301003919 V
   0.3979012745724418    0.9995689005533345    0.4042613082497022 V
   0.6002871122618949    0.2011881975065223    0.4007131586467559 V
   0.7931073135335354    0.3955499440672923    0.3958095103123251 V
   0.5996015008136124    0.9976087558088885    0.5979431417291599 V
   0.8013619229192450    0.2012227640619230    0.6029148323185877 V
   0.8036959139966932    0.0013760565740717    0.8011303005689506 V
   0.0056845422840202    0.2001521195873004    0.0035219802703736 V
   0.2001693193309361    0.3978964397702345    0.9985626310640601 V
   0.4016561173477933    0.5990739694966057    0.0005395721147902 V
   0.5978270258745589    0.7972825801060883    0.9975998812841101 V
   0.0003204911378924    0.9971727874189256    0.1977006196381962 V
   0.4028375186885849    0.4037425780999745    0.2054467736978119 V
   0.6041949673144398    0.6044045776482601    0.2024069098279549 V
   0.8045446214941476    0.8072357312491754    0.2071795060140724 V
   0.3968443968069892    0.2038285041649632    0.3990373027549994 V
   0.7925939601833328    0.5988550377109814    0.3978953925274577 V
   0.4001069289192249    0.0038033866032274    0.5974993553616081 V
   0.5995690556677795    0.1985234862033849    0.5929289499981888 V
   0.8008009582712485    0.3987713186190041    0.5982952933924346 V
   0.6033987211203079    0.0013176271490248    0.8030089514586154 V
   0.8001007098089024    0.1994911744238892    0.8007120753566922 V
   0.9945392246745399    0.3939566805257748    0.9961636799108198 V
   0.1980042884189766    0.6030120543177496    0.0022104200891310 V
   0.4026038866098641    0.8027566489150390    0.9969607126859932 V
   0.9998078816385806    0.1962116683382852    0.1947928096105794 V
   0.1969963705528883    0.3935878429437600    0.1965971965538247 V
   0.4019557363631589    0.6065324632030091    0.2067787362890642 V
   0.6020730449178220    0.7981163776198057    0.2010262093038502 V
   0.9982939127429052    0.0005489071105262    0.3947505598440550 V
   0.1932714025451137    0.1967441344481279    0.3957445708821973 V
   0.3980442312573960    0.3997684273225500    0.3919986544613501 V
   0.5979040928800861    0.5957089287846434    0.3997769276802192 V
   0.8046975187399354    0.8015912582187538    0.4085169359209398 V
   0.1941355787724691    0.9990857262427686    0.5937839546285378 V
   0.4041177549890656    0.2023014654881208    0.6026633257255574 V
   0.6048602771995680    0.4008507800854283    0.6076042962943580 V
   0.7943238343042966    0.5969840305372753    0.5995967135281044 V
   0.3986542670262587    0.0014910845621473    0.8006914045842022 V
   0.6036599120124397    0.2036128858558478    0.8016940004398608 V
   0.8053003448551905    0.3998079666570934    0.8015422707794179 V
   0.0009098041819396    0.6002467046492521    0.0007354882611065 V
   0.2012188118631453    0.7958086398623914    0.0012654119882433 V
   0.9974600997100346    0.3990585398886904    0.1962869147030850 V
   0.1967614200417587    0.5932484088403197    0.1952866507559432 V
   0.3952809234661619    0.7975381117448060    0.1964470823353231 V
   0.0010116944028305    0.1987315671279829    0.4017398378288417 V
   0.1990977167053960    0.3995559811448855    0.3980212369612984 V
   0.4012873806452883    0.6080146289324208    0.4017042643043715 V
   0.5988937475667027    0.8017931526667350    0.4057184562710502 V
   0.9955146133804935    0.0018402278319642    0.5994856588506434 V
   0.4026057099993602    0.4051195524770184    0.6042480938996669 V
   0.6024192325223846    0.6023391048732261    0.5980475556000537 V
   0.8004086382045058    0.7991998782393981    0.6037218486425545 V
   0.3988727927842116    0.1987074513095052    0.7932758518990046 V
   0.6025911822773505    0.4023524172346908    0.7988129627201946 V
   0.0040576991169191    0.8018828640143808    0.0003897893093281 V
   0.0031268656688768    0.5976136700497692    0.1981842569015850 V
   0.0018373579059905    0.4029239535446093    0.4000893889437144 V
   0.2057515657823406    0.6057892977037256    0.4017119883343944 V
   0.3984098744301554    0.8015097812750714    0.3967148673819852 V
   0.0019849532333628    0.2017678951930360    0.5985729234157493 V
   0.5958492089925321    0.7983277386328553    0.5950212412957587 V
   0.0007527003304029    0.0014624728998471    0.8047530498502599 V
   0.1947580763929559    0.1983094936360222    0.7984918414091546 V
   0.6060207218762402    0.6067984894019065    0.8059319492593650 V
   0.7990779542351805    0.7993148809538715    0.7994850374119997 V
   0.0000111141760347    0.7981330411385403    0.1987979127615881 V
   0.9986172861841860    0.5966606234411381    0.3979128425504381 V
   0.1985848669963822    0.7934011459028535    0.3982555078898194 V
   0.9960455677805509    0.3960448705626136    0.5956512208883089 V
   0.1976552082652962    0.5979218202731318    0.5973818291968240 V
   0.4016482198680691    0.7988821517194015    0.5987877893315336 V
   0.0023157832098439    0.2004134453213235    0.8031794386032056 V
   0.1985087119890363    0.3980847546535924    0.7943379558031493 V
   0.3980991526535689    0.5998891467844129    0.7979760357150234 V
   0.5969505785377534    0.7950046700566527    0.7988615820509757 V
   0.9954338943021905    0.7963094087057232    0.3976277919800783 V
   0.0011218528507698    0.5936721994803327    0.5976804020127402 V
   0.1930993834520426    0.7969943353641580    0.5939811117007832 V
   0.9948592461557153    0.3997246238149935    0.7942658540110307 V
   0.1980604820718315    0.5998616333237727    0.8021896795495855 V
   0.3983728282746800    0.7999494591121865    0.7981176976830890 V
   0.9982805666464604    0.5971353101497944    0.7986856976413281 V
   0.9989144745153860    0.8009737905269867    0.7994145160696169 V
   0.1955642808992157    0.2014878972572579    0.2009582696736473 Cr
   0.2038874128392645    0.0018813464828765    0.7984183371728006 Cr
   0.0007060649659193    0.8011394616565364    0.6015838452582440 Cr
   0.1968300122299201    0.0005203644670364    0.3997887691757660 W
   0.6029804537604223    0.3966128165727725    0.3959757446265142 W
   0.1964682022680023    0.1986596027084147    0.5915549054069307 W
   0.8026600119206652    0.5986973829546216    0.7999036392190757 W
   0.1986685764700434    0.3979712615420518    0.6024511954595602 W
