Zr Ti V  Cr W 
 1.0000000000000000
    14.7950063398329057    0.0210691055900105    0.0767261510216739
     0.0216690833162692   14.5930716728344088    0.0210622997999242
     0.0775011507031275    0.0210317730875284   14.6384325517569032
 Zr  Ti  V   Cr  W  
   4   3 107   3   7
Selective dynamics
Cartesian
  0.6729801186717437  0.0969850167842715  2.6066197828365372   T   T   T
  6.1071473093770923  6.0201033830964938  2.6849356197766894   T   T   T
  8.8662559060986723  5.4823093459255823  9.3193639585756340   T   T   T
  9.2113456464852899  8.9411161277208890  8.4094831309209859   T   T   T
  0.4430213658713939  5.7634736120329144  6.3041470005767737   T   T   T
 12.1286946327883562 12.3083748183632071  5.3986243523547879   T   T   T
 11.9645473089989771 11.5666372075417776  9.2782806980793353   T   T   T
  0.2299629888702687 -1.0110904763789932  6.0063791425850903   T   T   T
 -1.0759859508912448  0.1132844011551809  8.1638466824810099   T   T   T
 -0.1226039752453779 -0.2135349769350222 11.7212399449058697   T   T   T
  0.4170272671706288  2.6951807881463918 -0.1713820849981889   T   T   T
  0.1487177275358426  3.6305378864532027  3.4487780024882269   T   T   T
 -0.0795548046217896  3.4001006938348213  7.7601178970892457   T   T   T
 -0.0287783654600768  3.1900222410878945 10.2882341576666576   T   T   T
  0.9197960326127695  6.2060402329985767  1.9001679217980374   T   T   T
  0.0620702997335457  6.7287440581947209  9.0052298067519825   T   T   T
 -0.5630364818476221  5.5674863320697314 13.4230000939985015   T   T   T
 -0.0715419722364555  8.2306758918844256 -0.3143076423025866   T   T   T
  0.6573331972751799  8.8690568063133437  3.6496705635077955   T   T   T
  0.4677528871397744  8.6703432987921598  6.7665575764030477   T   T   T
  0.4755527502772465  9.7680127825210157  9.2227518112600588   T   T   T
 -0.3847390878723553 12.4148287042007741 -0.0099667077170842   T   T   T
 -0.4139416041012750 11.3500958175487625  2.7109350695504912   T   T   T
  0.4202464004895947 11.1051534040997470  6.6515108464933963   T   T   T
  0.0344006827111217 11.0731370031751784 11.6871089345808468   T   T   T
  2.8553252617309313  0.3706734325955687 -0.4826492146293097   T   T   T
  2.9906267712444401  0.6481504862277163  5.1393135987973126   T   T   T
  1.8289267508774574  0.2562608831192874  8.5715749507215513   T   T   T
  3.7068623118264146 -0.2305114674215414 11.5610607777121359   T   T   T
  3.4039312901334946  3.6429412588493286 -1.0595589074606095   T   T   T
  3.4559160639108741  3.0856290773702053  2.7269873858189095   T   T   T
  2.4359531847496956  3.4730634494462880  6.0625590605223723   T   T   T
  3.9768653495773232  1.9093777399807430  8.5956925010525040   T   T   T
  2.1927390455120062  3.1941122276125475 11.5506846924779563   T   T   T
  3.4650394441645060  5.8026687558648611  0.4191967963299547   T   T   T
  2.4478303696821149  5.4327856615809980  3.6528838538818298   T   T   T
  3.9572159219736487  7.1965245692054767  5.2277509485036520   T   T   T
  2.5399041771879043  4.4122426377786157  9.0635047647938034   T   T   T
  2.3385320122088982  5.9156497056098161 11.2705648354758274   T   T   T
  2.6868332986672434  8.5785449501316737  0.5544477464688337   T   T   T
  3.7399606882024368  8.4239142420134101  2.7044573928914475   T   T   T
  2.8218750373269126  8.4996747134122206  6.8041563145014150   T   T   T
  2.3876348988960090  8.0585331247115555 10.0175016271417103   T   T   T
  2.8200343555616083  8.8328388191925562 12.7641596680581237   T   T   T
  1.9780893773091697 11.2456549915868198  0.6637911124187211   T   T   T
  3.6866588698541132 12.7832725239016938  2.1394502857348239   T   T   T
  3.1291504549575562 11.4350670207219629  5.1262273215566285   T   T   T
  3.1433670110641154 11.8644014959710180  8.8076536839479171   T   T   T
  2.1757027411107077 12.3086708104122415 11.6397189936358014   T   T   T
  5.6982245646312517 -0.6270279485550814  0.5135306838443857   T   T   T
  6.0860868743669156 -0.6660426383803579  3.0388100961753950   T   T   T
  6.4626599057645127  0.1375911715101109  6.9869504249360181   T   T   T
  5.5572296427442245 -0.0175914403775526  9.7493405262462147   T   T   T
  6.3622352286448107  0.2934937840151986 12.5013931322760463   T   T   T
  5.5157613409145831  3.0050314427197824  0.4050692069155752   T   T   T
  6.1267973925425849  2.1384578949077313  3.2195302895765869   T   T   T
  5.3179443412760934  3.6007022462303233  5.5097682159411132   T   T   T
  6.2328300152060239  2.8686946956670636  8.9413125484950058   T   T   T
  5.5736599647526424  2.3782020297379320 11.5232474527704305   T   T   T
  5.4928519120192076  6.5204345587687600 -0.9889674618312398   T   T   T
  5.7451552099038263  4.7328839181475200  7.3668746036845318   T   T   T
  5.2363451257910070  6.6622487987894816  8.9122134919470817   T   T   T
  5.9150163037561132  4.6340455918840329 11.3401692207937614   T   T   T
  6.3429294563244349  8.6277442089889416  0.0263076143275441   T   T   T
  5.9508558420416966  9.2146534006930043  6.6479041900363729   T   T   T
  4.8505822758481303  9.2211881932574151  9.2060843961878103   T   T   T
  6.5729559198384218  8.3781126348926538 10.8146822938355420   T   T   T
  4.5926360201131091 11.5493981340999117 -0.0557548660020489   T   T   T
  5.5808275081612857 11.4500836027500998  2.6538164786355321   T   T   T
  5.3036466889294012 12.3050268630583695  5.3143295260396126   T   T   T
  6.9022852749443198 11.4110886852512312  7.8618338313304577   T   T   T
  5.6535387578673033 11.0224933382419987 11.8921424758773835   T   T   T
  8.9311412226861560 -0.1419755832680878  0.1023617110761132   T   T   T
  8.4155202651314376  0.7668377852151090  3.6801819147284487   T   T   T
  8.7043219368043854 -0.5084277567874284  6.1337478225781865   T   T   T
  8.2868071317622700  0.2089763428133733  9.0957065437700884   T   T   T
  8.4451136089931698 -0.9836542499230299 11.5182402433887052   T   T   T
  7.7345832126756235  1.9476355556715708 -0.0512045359067526   T   T   T
  8.3550402563422512  2.9997566222637282  2.8087999594227613   T   T   T
  8.4880410444816174  3.2878125193524284  6.3206748825583157   T   T   T
  9.0675004739872591  3.0431374179614474  7.5565239193419282   T   T   T
  9.2847463438445157  2.6655883896645016 11.7819568901124310   T   T   T
  8.1462337663728075  5.8462226959874837 -0.3491768226945955   T   T   T
  9.7522816728265997  5.3018921858540526  3.2542303759903786   T   T   T
  7.8198110504357619  6.6281111425490549  5.8426413062673292   T   T   T
 10.2623223244581876  5.8176648034288272 12.7643881346133501   T   T   T
  9.7505570027185797  9.2174264357533868  0.1430140154248525   T   T   T
  8.2577295863653415  8.7769319041128551  2.8032562506474457   T   T   T
 10.3004169857466366  9.2736389536455128  4.4436101536715809   T   T   T
  8.8006663652855277  8.1001055913638886 11.8762173426978759   T   T   T
  8.3657140889141424 11.0718567587670655 -0.1911317264691251   T   T   T
  9.3279737129876015 12.2519619878308053  2.6640392089672109   T   T   T
  9.1862554493908757 11.4391046846714719 10.9631808788173810   T   T   T
 12.4649697791709002  0.0103116201385895  0.2185923199069117   T   T   T
 11.0736659615724218  0.7596484135426889  3.2710686217030140   T   T   T
 12.1151065922734489  1.2543943722531155  6.0372806912247814   T   T   T
 10.8409222768038234 -0.1904708803958630  7.6844669397555592   T   T   T
 11.2672901377584793 -0.4638259083587273 11.5179772454620366   T   T   T
 10.9844100456471256  3.0338595261130092  0.5403308163191302   T   T   T
 12.7538217041720436  2.6825885689703677  2.8238626539849001   T   T   T
 12.5293806458336565  3.5299287711676346  5.3769166096721426   T   T   T
 11.4820091978637109  2.8917111119637284  9.1021680333040695   T   T   T
 12.4675256047852479  3.1526739994260784 12.4121961561029224   T   T   T
 12.6702551276702682  6.9263257260948619  3.2939575440867781   T   T   T
 11.0782124165608327  6.3410567464020327  6.3450502252338090   T   T   T
 12.6617749557244341  5.2510224381158626  8.7041960571263601   T   T   T
 12.3118241148556748  5.5655732180530091 11.2865448165665345   T   T   T
 11.3667391929506127  7.3605146004879689  0.4328430675905763   T   T   T
 12.1234772640958806  9.8668836050435935  2.7915786071363802   T   T   T
 12.5184161233953368  8.7315536901744384  6.5408768953668179   T   T   T
 11.9725541266227129  7.7381323928055075  9.8487772624216490   T   T   T
 12.3526612243861020  9.3534337159249770 11.8793870701926618   T   T   T
 12.2878368942159444 11.1082884637607506  0.5511919255652863   T   T   T
 12.5529953400881737 11.8939175269527357 12.6909071542147700   T   T   T
  0.1281211226996100  0.3182256919238683 -0.5379059204723863   T   T   T
 -0.7314972544867692  5.4962326069333924  0.4002587615157577   T   T   T
  8.5339047260746934 10.5351962235560404  5.7681075648649314   T   T   T
 -0.0031824443227065  1.7349157603611769  5.5714890557627852   T   T   T
 -0.0721315184369843  8.1586686710544374 11.2216426220794130   T   T   T
  0.5616592286032627 12.5311077803910536  9.1093904102676291   T   T   T
  3.9957692634999424  0.8035758234183084  1.9171451414256249   T   T   T
  5.9503552686837669  9.2062892157718199  3.9272874924324546   T   T   T
  9.3150567181787789 12.3523818636396037  8.2874627010396971   T   T   T
 12.4777256614470264 13.0402924990363775  2.3840976690470139   T   T   T
