Zr Ti V  W 
 1.0000000000000000
    15.4549315649027950   -0.0222495129286640   -0.0105509386160289
    -0.0223053274730288   15.4776580052303601    0.0156777599783081
    -0.0105831741986949    0.0157005871891177   15.5087905410777189
 Zr  Ti  V   W  
   8   6 108   2
Direct
  0.9970302464498344  0.0002049384182872  0.4252169853933331
  0.9978970440230142  0.6427990414417506  0.9627778950901965
  0.0097966398692001  0.8085570925346118  0.8019152135330404
  0.2148539377407009  0.1866071364220284  0.9850651528846925
  0.2205585082486018  0.5734189131573175  0.9951401610067326
  0.1886748192740219  0.7901129437356645  0.9904798148838942
  0.6121890010177120  0.2049427582714710  0.9958348364428987
  0.5996565132016226  0.1968771715149457  0.4025915246363750
  0.9992465633670289  0.9909075587261554  0.6267266494697726
  0.9882356003778383  0.4039673535033902  0.4238988730892682
  0.3892598336125024  0.2000741035825322  0.8072192742674384
  0.8055308607218022  0.4015201344741969  0.5892815887175830
  0.8015540236336026  0.5942139313237281  0.4086192071607014
  0.8106718238905825  0.5955598817835337  0.8070969355934081
  0.0001873024060772  0.0125476423925957  0.0065952931738351
  0.9993738996045990  0.0035148627765171  0.2067072691252194
  0.0001813801413163  0.0111855153304361  0.8129357083945922
  0.0013588940094045  0.2072575989569529  0.9966656808669594
  0.0014436571465739  0.2057854263899338  0.2012110399824350
  0.9995285692967811  0.2022904921951978  0.4011184036594874
  0.0000050249459710  0.2022780698619975  0.5996082857488708
  0.9987399629128978  0.2059380217088697  0.7967450607816980
  0.0089663717040271  0.4027479442616013  0.0020156132818933
  0.0046288046956033  0.3992009876948124  0.6101683275029308
  0.9990123852970740  0.5947837540481217  0.2066158063970026
  0.0023857615761295  0.6031102319636755  0.3995535854613740
  0.0032194180447910  0.6000289443410560  0.5933477390314362
  0.0061196108418150  0.5984629244716118  0.7784435128779009
  0.9865342401519226  0.8280137486199581  0.0119944744596038
  0.9977579777573380  0.7976814118227411  0.2022411678028279
  0.9965884838436504  0.7970519016017613  0.3988743764353889
  0.9990341683484913  0.7967535811484746  0.5947010935988317
  0.1988698749653182  0.9934321808083834  0.9988403487284143
  0.1983810615085200  0.9982393758764261  0.1982180440682413
  0.2021917342741658  0.9976943126691965  0.3999282376349736
  0.2004062935309808  0.9998569130096854  0.5989877538029746
  0.1983973101619892  0.0002136317714336  0.7981431546362419
  0.1996535801450920  0.1982242728913682  0.1994344218022585
  0.1980099252655033  0.1994086990516123  0.3968655213893680
  0.1988779999877478  0.1992547530507242  0.5948003400283821
  0.1927653008603616  0.2018634780735960  0.7865423812186840
  0.2044685446777756  0.3886505664709564  0.9985398380018262
  0.1950256858043443  0.3983399816010971  0.2001353628372471
  0.1991444933759751  0.3996941597168490  0.4021471181351838
  0.2025124054543103  0.3993947683373806  0.6009130351736294
  0.2007044847248861  0.4024072642597142  0.8005387845267840
  0.1981728494619666  0.5985785416376304  0.2002731736738467
  0.2016075255606790  0.5987129486605312  0.3991806238864210
  0.2020342330213916  0.5985178778413670  0.5958893214497689
  0.1998379644214116  0.6032830974269416  0.7926118576753559
  0.1970681528395383  0.7974332903182700  0.2012651887438718
  0.2003637517494639  0.7989957134018311  0.3977764107979030
  0.1999746869795982  0.7988989686895445  0.5937567626065298
  0.2097599078198938  0.8017714706966791  0.7865875788518604
  0.3980939338300008  0.9963228881458450  0.0012111770861074
  0.3985668089449267  0.9991399496865350  0.2000071121310994
  0.3983227174222421  0.9986168860947470  0.3994759954367823
  0.3993791863032089  0.0006804181323577  0.6023407680931693
  0.3994522346648783  0.9990458098237343  0.8011042911092479
  0.4092650790660365  0.1984003153476479  0.0056643871536575
  0.3982253992278620  0.1998219458782982  0.2017740614998670
  0.3958060803027997  0.1991355415586648  0.4012502856455876
  0.3982467291648040  0.1994271165476189  0.5980991217550062
  0.4049800600101979  0.3980859860681853  0.0019064858099938
  0.3985625643022098  0.3990322641227968  0.2007246335371846
  0.3976548752716693  0.4000217605098713  0.3987424712051179
  0.4021010328711532  0.3989799615780140  0.6017561568283946
  0.4000240880776000  0.4013429039326804  0.8010824622826572
  0.4125903301498637  0.6023238230643437  0.9997955163941391
  0.3980590619147982  0.5977504306729102  0.1983656499821091
  0.4000073973934921  0.5988606377761965  0.4003985501796636
  0.3992955570556155  0.5991086468457302  0.6008156951483113
  0.3996051800248108  0.6003148733880733  0.8011189385438878
  0.3995528819156752  0.7984803283141331  0.0000094436759860
  0.3959691385189313  0.7986838106098652  0.1978714123373968
  0.4028216620666719  0.7985245578719985  0.3995358053819953
  0.4004829679729982  0.7991031133353721  0.5996185783783242
  0.4015631515810217  0.8009369069259596  0.7999543677901508
  0.5991449707452007  0.9967296027296115  0.9996480452074533
  0.5981491007633697  0.9990996814191201  0.1996624730324874
  0.5968160761189071  0.9911631534916919  0.4023254759142704
  0.5990681482945613  0.9989104817942674  0.6029838050330075
  0.5978924254886155  0.0011084535773900  0.8002561513237274
  0.6007472960319525  0.2002444112493149  0.2002372898718730
  0.6000160918118660  0.2010918962202800  0.6045553299737211
  0.6033240002032526  0.2012421939720733  0.7944925470944176
  0.6004348362137536  0.4064236560605603  0.0005295751828482
  0.6006696914867709  0.4018777221172538  0.1994655975110814
  0.5978363271003867  0.4042465938997740  0.4004270026394976
  0.6003253957915613  0.4012522868628743  0.6000268709426003
  0.6018252752780522  0.4023425321326035  0.7997341347172838
  0.6046251157264479  0.6018673499593944  0.9990267573763513
  0.5997968076868239  0.5991187730937848  0.2009933511378683
  0.5980813319258962  0.6025474525445045  0.4007548281557078
  0.6009209296152748  0.5998217224172345  0.6030416707868581
  0.5991566869073394  0.6005794041291579  0.7996657622993710
  0.5976981963396827  0.8010753516207811  0.0012025162903881
  0.5993591722680492  0.7979397886501164  0.2045239460984665
  0.5999194780112781  0.7995606357987679  0.5960829306951448
  0.6011569150000523  0.7992377216070824  0.7978294798003974
  0.7964937996632810  0.0033888272540210  0.0003050999946017
  0.7998843324471206  0.0001116639293071  0.2009965179544572
  0.7939314181086174  0.9983978507068039  0.4004750203139444
  0.7980055762715058  0.0016375186527169  0.6020614042881964
  0.8014726979883137  0.0011525460921000  0.8008668298620493
  0.8081571707008645  0.1966691448964721  0.0005181219205933
  0.8015452969252773  0.1999149424905573  0.1998747726989627
  0.8033402317244140  0.1957326251518812  0.3981692587418220
  0.8013353108558886  0.1983282691758045  0.5982883013459228
  0.8020001568325195  0.2019519314052852  0.7971843460206927
  0.0000110210463415  0.4047720100095501  0.8054151958657024
  0.8022359668431884  0.3991001845446227  0.1996096553409271
  0.7940083163750343  0.3959017569695263  0.3940417449755009
  0.8020844788806820  0.3987876882928261  0.8099553843678754
  0.7966721452140239  0.6092268246418387  0.0040812912584059
  0.8006525832694269  0.5983999379379389  0.1973223444461766
  0.8020615769845092  0.6026209846331532  0.6038394301372229
  0.7955807019169195  0.8052267910821513  0.0005812559135137
  0.7989784005716564  0.7991949601444805  0.2024886946090200
  0.7948500878765864  0.8002626169255347  0.4005186286507899
  0.8002436957264145  0.8004032040626841  0.6007184854263624
  0.7980581756800094  0.8040545279246653  0.7990327147352474
  0.9975937209532950  0.4013052414704755  0.1948574209007340
  0.5987284240819694  0.7972360289777534  0.4005803065036314
