Zr Ti V  W 
 1.0000000000000000
    15.3704372863088707    0.0041087699184726    0.0045828320708022
     0.0041071823098185   15.3593176205705255    0.0049868964281650
     0.0045832368054306    0.0049883200619353   15.3853693029952101
 Zr  Ti  V   W  
   1   2 107  14
Direct
  0.7916630960780099  0.4017107878365655  0.8100004077572962
  0.4089415843797790  0.7975123272461782  0.8048938938566587
  0.6130910136172176  0.4011638527628131  0.9887855968165580
  0.0002984409084231  0.9977867572834886  0.0022267907899463
  0.9934768679680497  0.0027786838702397  0.2006603976559440
  0.0012853461141480  0.9967995678001000  0.3984474432556348
  0.9943778867387658  0.0000660366804437  0.6020419710990677
  0.0024866280802422  0.9984570559903084  0.8012848570720081
  0.0000655080667456  0.1992857777028764  0.0009148123076446
  0.0010306850426166  0.2022483240618844  0.2019725231585202
  0.0008426752227160  0.2000779540641216  0.4004272143115757
  0.0025055329483494  0.2007368799146214  0.5991731938042079
  0.9991837851592478  0.2009708914931779  0.8015822382545230
  0.0038281627848047  0.3994034868427820  0.0059410696889766
  0.9987474923161672  0.4012871039979973  0.3970074354141313
  0.9975290681289438  0.4001428532281428  0.6000693342234226
  0.9993840218934017  0.4010752364303626  0.8028386066467746
  0.9982905361952554  0.6052610620905046  0.0001210146114214
  0.0026117352657127  0.5966223527099223  0.2004591949996221
  0.9997702157133299  0.6030833214790293  0.4021111545760762
  0.9993635930040382  0.5996960108947905  0.6014611071624624
  0.0025919059337887  0.6007862360312914  0.8001940745019680
  0.0031413475523905  0.7995388753337547  0.2010235469626357
  0.9989846774801693  0.7997155725883812  0.5947534208605124
  0.9993628282650541  0.7992276446009983  0.8062495654300398
  0.1999977625516737  0.0015899101711701  0.9935867245216214
  0.1984495333695923  0.9992480324003599  0.4062914947419498
  0.1982274578235000  0.0027433909110277  0.6060764759575242
  0.1999093172951666  0.2023062794809331  0.9996624876922436
  0.1999906492963024  0.1671498446955564  0.2003972205039490
  0.2023685386037190  0.1982674580792188  0.4036940481355580
  0.2008942917060970  0.1960613772840958  0.7956940739606335
  0.1964465769925589  0.4053997374424910  0.1955176810782672
  0.1995012029227411  0.4014901921833950  0.3998882384905580
  0.1978198207478850  0.3965714844162653  0.6013530965323901
  0.1977869580854089  0.4043511655989374  0.8047992122319096
  0.2004926811654621  0.5965723758875185  0.9957545051085033
  0.2009971876178378  0.5994202738624945  0.4004444385089712
  0.1996155004027936  0.5988566805571834  0.6048680774962785
  0.1959634117760531  0.8000361941086677  0.0020251295202312
  0.1963844517693194  0.8006154673438070  0.3994989262532797
  0.1994063824694267  0.8001375733244842  0.6004601461875685
  0.1983563613704214  0.7988446969156833  0.7999614335165487
  0.3987745048591977  0.0006566799139697  0.0010120813345284
  0.4038687831984307  0.9964141233209346  0.1993600814157854
  0.3994039531484290  0.0023376719149580  0.3988588993030901
  0.4009857891002576  0.9985552290208309  0.6002587037083849
  0.3972169557442697  0.0004730863909497  0.8004072143367590
  0.4005173857013112  0.2003304518786004  0.0023709902072805
  0.3980579916559284  0.1968045475975283  0.2035548565896205
  0.3964114027944649  0.2002890781442737  0.5951317105542382
  0.3999479155233701  0.2003135075867030  0.7991543023548321
  0.3958606758072005  0.3983021077710281  0.0003292977888395
  0.4023162763189074  0.4010227929262123  0.1981959083741106
  0.4001035247394516  0.3968465043887320  0.3977321795639235
  0.3992950203124869  0.3998910005571077  0.5983863143180456
  0.3966416379630082  0.3992337226122262  0.7997528292375358
  0.4015111767234578  0.5994972715119266  0.9987740460384803
  0.3985420839141685  0.6028973261442814  0.2005491111464822
  0.4003802382326574  0.5987621843957597  0.4010764470634937
  0.3985719644683733  0.5998638091784573  0.5989268069061987
  0.3957833027197983  0.5990603590444222  0.7995821331825202
  0.4017232657069565  0.8009667340470099  0.0073401636852673
  0.4013765075792403  0.8013199666172099  0.3964742207027972
  0.4003162344569687  0.8007582997549192  0.5940886882545239
  0.6008290315407313  0.0005141471851302  0.9973043344105053
  0.6030810752333723  0.0001100671008569  0.1981588348688367
  0.5993951436604940  0.0003614689684490  0.4015597265508342
  0.6019483279611587  0.0008225628559220  0.6024956136468143
  0.5976681251660603  0.9991944294396935  0.8007058899675805
  0.5991332720559667  0.1993484339253030  0.9988695970441710
  0.5983003489344531  0.2026345024350220  0.1988269171490609
  0.5945665889962564  0.2014568426576241  0.4011081702867937
  0.5979823407346341  0.2009919591281295  0.6009403911314084
  0.5967315553672721  0.2012732306300616  0.7997979945747433
  0.6025252430890498  0.4014532149453462  0.1991490816828551
  0.6012659654042656  0.4013469600948983  0.3985594008126663
  0.5998496384175956  0.4006137624870581  0.5991814094414321
  0.5898172012488792  0.4011389413579300  0.7944431982560068
  0.6002852647084349  0.6015142883039882  0.9981693720820797
  0.5983809070887193  0.5987328755919924  0.1977774265867550
  0.5994631563717032  0.5993610573492834  0.4018546811453098
  0.5985220445167908  0.6000166683104000  0.6020043058225601
  0.5955336694837202  0.6009426839794081  0.7998604362726599
  0.6016793789767121  0.7996486970974911  0.9992677981065768
  0.5963767473577742  0.7991627716485830  0.1996400999306903
  0.6034523184512973  0.7985458111005311  0.3994024696077840
  0.5997345344247516  0.7995105896013077  0.5999826174452002
  0.6029750404356423  0.7995035482881028  0.8004103061862894
  0.7991364562431473  0.0003801142469979  0.0041410906060819
  0.7983154789146145  0.9973139038439079  0.4018363840549804
  0.7996307305208469  0.9995761758155064  0.7974513707892636
  0.7996993502676693  0.1998610959140703  0.0010578139916724
  0.7978532001720661  0.1972025989637378  0.2028704215296547
  0.7982667614702618  0.1989261289908446  0.4018935531835065
  0.7992116506145889  0.1965467560960053  0.6003438645223717
  0.7995174649055073  0.1956233729921921  0.8007080043612349
  0.8080579081553733  0.4001822755201985  0.0106840484910096
  0.8043214057244590  0.4002266076180864  0.2046635548408240
  0.7999003464889365  0.4004340198136175  0.4019321376744389
  0.7993566602462400  0.3988197948486651  0.5993726915583953
  0.7996327878076148  0.6015000927747786  0.0011561816852736
  0.7978365651850619  0.6009836847423980  0.2011349755960362
  0.7984260452355439  0.6050028098186290  0.4017513210297766
  0.7986556343582474  0.6001435439274104  0.6028820348441596
  0.7992737589302826  0.6065066034621804  0.7994268903565885
  0.8035064248206952  0.8014479394050372  0.0031177278228912
  0.7977581223457532  0.8038623322755426  0.2051289265851090
  0.7998864513939037  0.8049746432806421  0.5963038938313561
  0.8007230332816268  0.8016484022780400  0.8000934534285643
  0.0008780912990147  0.4015042018608528  0.2018278430741208
  0.9983569733255402  0.8004499156652668  0.0042081796220107
  0.9981773525709277  0.7991233325735957  0.3982675739927842
  0.1999807136131058  0.9979967035424685  0.8000645452946583
  0.1993177526299446  0.2004532094545781  0.6011209869169042
  0.1997525648686572  0.4005351908927236  0.9996434240402303
  0.2022571773669528  0.6023392438836792  0.1980529671747708
  0.2005821508904752  0.6008212291643817  0.7994675494616998
  0.2030094186885692  0.7895478586828559  0.1999353818951006
  0.3984802208063309  0.1994133275553027  0.3984767836189451
  0.3981229278915935  0.8003757818883661  0.2018398351077691
  0.7983146777996435  0.0017972937979458  0.2017966985674569
  0.7985373427156903  0.0009152133444256  0.6010950302533322
  0.8034309640148916  0.8011016189939849  0.3998707051375929
