Zr Ti V  Cr W 
 1.0000000000000000
    15.4774007178547244   -0.0057270445464663    0.0060485456842571
    -0.0057275938548885   15.4869400142696509   -0.0016006725836938
     0.0060484205712483   -0.0016004018593464   15.4828342852602923
 Zr  Ti  V   Cr  W  
   2   1 107  10   4
Direct
  0.0030326170258472  0.4003624348938231  0.0009821212286878
  0.4009051917081999  0.5965305649092011  0.8023871218256665
  0.7991120987183790  0.1927309312571228  0.5996392820039771
  0.9996748811612045  0.0000220420701638  0.2016933213249028
  0.9998712354774838  0.0001332796736377  0.3992461014554983
  0.9972224897612662  0.9994219680372577  0.5994657320827070
  0.0008292279173838  0.0001875604976230  0.7984995122586220
  0.0014249418864223  0.1946046317542564  0.0011729764616089
  0.0003954440518124  0.1988958817815343  0.1998081207833416
  0.0000836127520459  0.2000264723715778  0.3993765208324728
  0.0037424422450184  0.1997820558444180  0.5988634783802440
  0.0018709099921102  0.1984544893111073  0.8003815941706900
  0.9996677931508928  0.3995345746277876  0.2051399529482114
  0.0000155873345575  0.3996893145809400  0.4019115290617544
  0.0013339836161606  0.4003722635256395  0.5984673832853475
  0.9953612711970514  0.4001916193264460  0.7946327861157664
  0.9989256987519698  0.6075713746712685  0.0004732742212721
  0.0003203527407578  0.6000419931427339  0.2008382354827825
  0.9993456748442252  0.6001650060544740  0.3996688070335770
  0.0005736831344736  0.6011963013141048  0.5990300902733823
  0.0005618120630635  0.6010640742974053  0.7984518258468984
  0.9994330366721738  0.8007146538539361  0.1971261961301272
  0.0007382027248202  0.8004832341504999  0.3995092877392439
  0.0020915401719639  0.7989489960852127  0.6000326946457639
  0.9989501237368543  0.8006280669622462  0.8020229416209015
  0.2015196021454103  0.0000162575386733  0.9991458436060364
  0.2001553726643507  0.0003881700341148  0.1999279293672895
  0.1996487667058727  0.0004079069507883  0.4008591955912137
  0.1997564204775246  0.0006211013108706  0.7986692178498900
  0.2012567211563666  0.1991503485135666  0.0002108984024332
  0.2007191513727434  0.2006233069200867  0.1999825721616101
  0.2000711549489261  0.1997582573130748  0.3996254394176077
  0.2000213556598935  0.1987295660586020  0.6001257376900258
  0.1996893176602712  0.2000050604371059  0.8006411861440178
  0.2059352324663511  0.4003527388919170  0.9993848940698359
  0.2020172605409009  0.4001893982103383  0.2017861225627140
  0.1999721517700236  0.4002174211566795  0.4010724428769210
  0.2048124347169608  0.4002900495465136  0.6005782951274642
  0.1978585157656948  0.3989495455153818  0.7991578914978620
  0.2006695636704301  0.6007714512543494  0.0000706733752920
  0.2001356685783604  0.5991224650638125  0.2002469195560725
  0.1990267014706114  0.6003380295872816  0.3993299402349920
  0.1962097106743231  0.5994267307013953  0.7997087701325066
  0.1981127083036707  0.8006655813301219  0.9988557098461834
  0.2010738374170200  0.7999977569578872  0.2005624293443241
  0.2001242876363386  0.8004000038910819  0.4004843267690344
  0.2002727288799914  0.8003788109556340  0.5998728457497101
  0.4001617704740795  0.0009313897560985  0.0000830309116786
  0.4006183470516520  0.0005219916832149  0.2007488296428769
  0.4005116227684642  0.0008174753727210  0.4012878137261316
  0.4006156286737896  0.0007911869418439  0.5996153146797697
  0.4003233038349720  0.0007561539565166  0.7982303865795675
  0.4005337299547940  0.2001633844210965  0.0004972179534431
  0.4006774822757944  0.2006027792874945  0.2002246252306468
  0.3998237010745110  0.1998526228806867  0.3992608723363077
  0.3999981522867592  0.2026290110648666  0.5995192548510307
  0.4000077620246396  0.1986152443013278  0.8007925488103498
  0.4019470007849446  0.3985514659984039  0.0000934367020666
  0.4007416263367357  0.3997752930990000  0.4041714443760188
  0.4020397879332983  0.3936180199866378  0.7951183826801919
  0.3997724013221001  0.6006916403105629  0.0054008653183360
  0.4002881890187698  0.5994563185016839  0.2019635391395501
  0.3995354066139694  0.6006580405760732  0.3996721720522350
  0.3997559193259375  0.5966547157990476  0.5963455812738130
  0.3988011861664663  0.8017348426740375  0.0010030058588280
  0.3996046843874888  0.8007114573441992  0.2003818207626147
  0.3994889694360063  0.8003972969390597  0.3999873370334221
  0.6015426769750084  0.9988042458085870  0.9993791279977144
  0.6009951945459265  0.0008573303297441  0.2000711354525524
  0.6004667346920299  0.0003714998526723  0.3991957267794511
  0.6028577950635686  0.9994536093422773  0.5996144781544916
  0.5998977964432876  0.0009442598647260  0.8000933061480973
  0.6004802371749354  0.2001131991530500  0.1993037597835791
  0.6009341032474247  0.2004185384376653  0.3981805053160408
  0.5983216602709608  0.1988704095046179  0.5987934723565730
  0.5997289542653419  0.1989525227620126  0.8008784545868990
  0.5976502401500284  0.4004586408279210  0.9999756069016660
  0.6005389061994718  0.3994834348059575  0.2002830435539333
  0.6009839870183656  0.3996715836126823  0.3999470780834678
  0.5963461630996307  0.4006131133831955  0.5997338778236434
  0.6059796672080535  0.3990330233587278  0.8002603295344458
  0.6016443405238147  0.6022415216233618  0.0017881850136023
  0.6002143095961119  0.5995095851800850  0.2003920649386286
  0.6010388924821344  0.6001488983078184  0.3991794537339303
  0.6004485925783876  0.6022948076397617  0.5991696941256963
  0.6047503671343496  0.6018253016059876  0.8003195320877875
  0.5981566108431782  0.8003731673811114  0.9998445038051051
  0.6007388185626882  0.8005898406483917  0.1986127688525557
  0.5988375945006059  0.8005529854059030  0.4002419143016688
  0.5979208652616487  0.7990423896044132  0.6002475622490259
  0.6020030488758519  0.8012789692460889  0.8012999377073916
  0.7986542684468777  0.0032413208625166  0.9985209638067719
  0.8002368875979107  0.0010857188686229  0.4034136612386841
  0.8005173907995372  0.0011816048910582  0.7969695761667960
  0.8003624601275394  0.1979175551486791  0.0008668769573994
  0.8003689226275627  0.2010674822877935  0.1990365955364093
  0.8007988175983626  0.2037706767602370  0.8020931846996976
  0.7954081779384554  0.3995166177297156  0.9948977862538889
  0.7998110660273736  0.3996657160642924  0.1995556290663834
  0.7997686960853420  0.3990198142970937  0.4019752189717860
  0.7987797657716432  0.4008711057449507  0.6036017705277158
  0.8001133711547586  0.5964313294244672  0.0005831851220284
  0.8002029158221017  0.5997467057496852  0.1994196774780692
  0.8003871886687374  0.5991810307535218  0.4005164884183206
  0.8000538903931872  0.6004683093198826  0.5985313093346410
  0.9654120966333136  0.9641436674728835  0.9993200783404762
  0.7996051271154550  0.7999074489639263  0.2037119883219667
  0.8000122979987302  0.7996518725238009  0.3996742700513451
  0.8003710324490594  0.8016309592746446  0.6001982900496240
  0.8000679610287380  0.8004047369263517  0.7971373628104822
  0.2002820138014740  0.9994881671762975  0.5999205424596361
  0.1996763112670563  0.6007222129304568  0.5994923686902811
  0.2002032764271590  0.8005816934886404  0.7986587394962702
  0.4011147605556874  0.3998005766917642  0.2018796061550477
  0.3990860544149417  0.7998626026466613  0.6001018401434641
  0.3998525102652881  0.8030568007391818  0.7997419430246560
  0.5995112276012012  0.1997831524587970  0.0005417334766711
  0.8002099169506369  0.0002058737474247  0.2002047518702582
  0.8004759606543960  0.2002814315687570  0.3971982684058798
  0.8014569726390327  0.6003004749571405  0.7995597569925367
  0.0028743444720164  0.8007312638617190  0.9998162092211822
  0.4008767932849964  0.3992406724571967  0.6004493066209641
  0.8000620172788275  0.9964827933434837  0.6003986249806472
  0.8004734702332300  0.3967080386330452  0.7993754544360686
