Zr Ti V  Cr W 
 1.0000000000000000
    14.5214331911485957   -0.1030050066882034    0.0032642114627901
    -0.1032524360332880   14.5310239414293036   -0.0150897614118206
     0.0037027598956272   -0.0147878899465374   14.8066548791565520
 Zr  Ti  V   Cr  W  
   3  14  76  15  16
Selective dynamics
Cartesian
  0.1003511881758362  3.4929410925324418 -0.0305795344488616   T   T   T
  2.3329384798488624 11.9804036830098113  2.6792378166006618   T   T   T
  6.1688557247977691  3.1273950914042841  5.3238299628308194   T   T   T
 -1.0680614848265271 -0.8902141668608641 12.1540388939221291   T   T   T
 -0.0683402541462391 12.3689948749733514  5.4415893931495241   T   T   T
 -0.8627739828686307 11.4623787554850196  9.0909421534175117   T   T   T
  3.1966741849710649  0.1193827253537763  0.5420588445807064   T   T   T
  3.0731800290306999 -0.1173200066840664 11.2586289843097624   T   T   T
  2.9666175871147948  5.6717792266949196  0.2347744805703771   T   T   T
  3.2250337817139796  4.9415502603617263  4.0054741441457420   T   T   T
  6.5690336279721366  6.4187783967879275  3.4977374692509868   T   T   T
  5.9789953335775188  7.7097211195172592 -0.1972632058539230   T   T   T
  9.9090715698778791  6.2987211583467850  2.8282401849900314   T   T   T
  9.3188133704551230  5.4498726243306868  5.5314842049099049   T   T   T
 10.1832291325132935  9.4956761553279510  0.9152351979819333   T   T   T
  9.1791023258757232 12.0336561784597844  3.0340798495325338   T   T   T
 11.4948179562694524  2.7645046933191213  9.5924994304535023   T   T   T
  0.0830227256582895  0.3789432448614983  2.5187376663484748   T   T   T
 -0.1305704387147050  0.8240598300434134  5.6131868792495689   T   T   T
  0.5223391492495887 -0.0286673240187010  8.0888661416533871   T   T   T
  0.4512580465276075  3.6989545175717140  3.3881155697198624   T   T   T
  0.3734076384710563  6.1034530065584276  2.1790088733596766   T   T   T
  0.5976448834558036  5.5253691078135745  6.6966443500938837   T   T   T
  0.1385498389228895  5.8240398463099634 12.0347993795760342   T   T   T
 -1.3933858275995117  9.7457979416243887  0.4145004915543928   T   T   T
 -0.3560461934248759  9.2806360807822568  7.2697354575183164   T   T   T
 -0.7238793616931543  7.6416539234155332  9.8769277815036354   T   T   T
 -1.1819542312318922  8.5008386932950248 12.5644635401442706   T   T   T
 -1.1509055003924338 11.3660585457374701  2.9408065454782850   T   T   T
  3.4156543230965322  1.1080891392605854  3.7923762101950937   T   T   T
  2.6617258989622021  2.6632533925270252  6.8799444146788531   T   T   T
  1.8045241127486791  3.0316230873756691  9.8374728082346934   T   T   T
  2.6705821659561582  2.7638294219906694 12.3374191954669659   T   T   T
  4.2798700369140033  6.2371881215259117  6.6915985420723345   T   T   T
  2.4875151553219346  5.4790992488078851  9.1149192863990525   T   T   T
  4.4861607837573425  5.7862107710312092 11.0172438676116560   T   T   T
  3.0006076772964567  9.0088192096494044 -0.2757262673894716   T   T   T
  3.3334056650891277  8.3116777845647380  2.3019989014148980   T   T   T
  1.5605370234948008  9.0290407309091485  4.7167706695564950   T   T   T
  2.7075965080071374  9.2646772825376669  8.4360554734806605   T   T   T
  2.1336362982396406  7.9537082205553640 11.8476076702750248   T   T   T
  1.4922791863032543 11.0877138437128959 -0.8489599951623537   T   T   T
  3.9250036830156336 11.5885965285900898  6.0139315926866193   T   T   T
  2.9314864916125352 12.7816227797619764  8.3490392521572332   T   T   T
  3.8811033473011474 11.3374413045217377 11.3862842511118263   T   T   T
  5.2162248724289331 -0.6527495103665452  5.0714865858838181   T   T   T
  5.3963329690217803  0.1081287000434546  7.4716264870163016   T   T   T
  5.6432695181777728 -1.2613627910094354 12.7144847359354287   T   T   T
  5.5311476981071763  2.5463917773672464  1.0175954103732541   T   T   T
  5.9393559266984370  1.7321151283783645 10.1519556821120691   T   T   T
  6.7267433052447281  4.7637152606739699  1.0684729320868569   T   T   T
  6.8880955621915332  6.5861261953491335  6.7740978097434130   T   T   T
  5.6034935453925936  5.0726753683293406  8.6557336946012544   T   T   T
  6.2616771417870458  4.1909398535944788 13.1895940515702250   T   T   T
  5.1300135717081803  9.9349391872728052  3.7498002213652168   T   T   T
  5.6745335689462229  8.9525094506608482  6.0595339915534918   T   T   T
  6.1185393650617215  8.8765851685164154 11.2210788952956868   T   T   T
  4.7566485930286415 11.7455198583850020  0.3618499832181167   T   T   T
  6.0762659752751924 11.4471679139938871  8.4234805570513238   T   T   T
  8.1236504955927256  0.5760098656120048  2.1805232119698239   T   T   T
  8.8017394671749596  0.4345505142659567  5.3073786862983932   T   T   T
  8.3202356681111329 -0.0751762214864561  8.8811258737367993   T   T   T
  7.9784275711268942  0.1754053654375038 12.7623208843768019   T   T   T
  8.7969983725892504  1.9713578053720267 -0.1871203411451189   T   T   T
  7.9165248505858177  3.1112345198184732  2.6599395401117554   T   T   T
  9.1131750589749601  3.3088457320937823  7.2663042387045973   T   T   T
  8.3783530867725755  2.9213368788366960 11.6731248699543375   T   T   T
  8.8672380106074549  5.0211090398139184 -0.7189809458612597   T   T   T
  8.9294477066610174  6.1705042799818974  8.5025366000288418   T   T   T
  8.8734841380905909  9.0481901896385004  4.6648027437994859   T   T   T
  7.6405405762485588  9.4930464080160455  7.5532872435723020   T   T   T
  8.4256111096696173  8.2368474725555654  9.8321475222359176   T   T   T
  8.7866087513703501  8.3580843667653344 12.1428670175619295   T   T   T
  8.0668108374541259 11.3267780489941092  0.1066942049367223   T   T   T
  8.9732657028936575 12.3924454437805505  6.3674691659283660   T   T   T
  8.4951987152071045 12.0108971382362615 11.3929112975754805   T   T   T
 11.0113295268119096  0.4967406459597526  2.4675384508200433   T   T   T
 11.9339330950554796 -0.3855664561492099  7.4816032515320066   T   T   T
 10.5518553375060176  0.1079671155228141 12.5303161626915607   T   T   T
 11.1777068024629394  3.1875313196466908 -0.6109546434002191   T   T   T
 12.0887236616540328  2.7690241716903370  1.9036325988785252   T   T   T
 11.7680201698036768  2.2557332387534985  5.6612140180937187   T   T   T
 12.4643601720360806  2.1904704664606633 12.1188379768438121   T   T   T
 12.4550414488028807  6.1229838293488381 -0.2186638640955593   T   T   T
 12.7460556744525118  6.0910707406075781  3.8104759564331041   T   T   T
 12.4209108117368139  6.0186725514195372  7.2235653558712407   T   T   T
 11.1978667768000868  5.7179150076042520 11.4356639038324577   T   T   T
 12.6586821713860314  8.2104770557167353  5.2364518126206994   T   T   T
 11.2478846886899362  8.3140575313211666  8.4279811100163098   T   T   T
 11.1000720126797567  9.3627711390224082 11.4965320835647944   T   T   T
 11.9698336378989580 12.7491332610580343  1.6372882468942449   T   T   T
 11.7902515146488405 10.9107218249968358  5.3610998395348481   T   T   T
 10.3537775634665419 10.7518144088142993  8.8248744251499094   T   T   T
  0.0373742719256701  0.4648799732666754 -0.7787913192158591   T   T   T
  0.2269878852833961  3.2312845163001249  5.9297747186175691   T   T   T
 -0.6533098728110395  2.4475438767211144  8.2227084037996612   T   T   T
 -0.4105925099665163  1.8955217891750908 10.4670513476571276   T   T   T
 -0.3244368825611943  8.6520064747086600  2.4550079239992240   T   T   T
 -1.3894020444535211 11.0196262046316988 12.4842404664522242   T   T   T
  2.9351412775415069  0.6459475448214391  8.1883986443305083   T   T   T
  3.6745931679943267  2.9223160667442678 -0.4117982139142221   T   T   T
  5.6075502648848019  1.0290341280148139  2.7683143928764791   T   T   T
  6.5293532290394349 10.4920534451138838  2.2581305393203519   T   T   T
  6.3652022652309768 11.0535857930449666 12.3064210609312532   T   T   T
  8.3982674392247052  3.9730887367223753  9.6103948882755912   T   T   T
  8.5259810458931256 12.0814849561476763  8.8628045168000931   T   T   T
 11.0350536666182286  5.4273338995975786  9.0729166234819179   T   T   T
 11.1213319612656765  9.5595945425493216 -1.1419144073463303   T   T   T
  0.6848261042030769  7.7218927480927526 -0.3856542689521674   T   T   T
 -0.7237349043572631  4.6902216064684206  9.6471259150825439   T   T   T
 -0.3469335530988856 12.5746764120818195  0.2283659802054570   T   T   T
  2.3777056905615659 -0.5336905366590831  5.7034243202577395   T   T   T
  2.6326467376514184  3.0544064648870548  1.9268795633787488   T   T   T
  6.4879412905520253 -0.1102622905118538  0.2789241379021722   T   T   T
  6.0472368198345219 -1.5349727600586858  2.5905170936341659   T   T   T
  5.6088416632242328  1.5129327922543168 12.9423393645638196   T   T   T
  5.7373681435106025  7.7823704937811300  8.7477565180701671   T   T   T
  6.6635777914009360 11.6523076410865833  5.0981214948253646   T   T   T
  9.4466298237980464 -0.6994249649254488  0.2241592663382811   T   T   T
  7.6486967733675657  5.9558858532642205 11.2100643703921143   T   T   T
 12.1241316763047635  0.6989083729853270 -0.1136822280900269   T   T   T
 11.7190787693719187 -0.8736541699448365  4.6278685778006876   T   T   T
 11.6335921625103040  9.1781758663732678  2.7829198701204669   T   T   T
 11.0589668980584896 12.0736393247420377 11.1401429930290465   T   T   T
