Zr Ti V  W 
 1.0000000000000000
    15.3704372863088707    0.0041087699184726    0.0045828320708022
     0.0041071823098185   15.3593176205705255    0.0049868964281650
     0.0045832368054306    0.0049883200619353   15.3853693029952101
 Zr  Ti  V   W  
   1   2 107  14
Direct
  0.7913279505246242  0.4020228443287432  0.8095851423266178
  0.4089383455775579  0.7975075774429573  0.8043656532520752
  0.6128225161262147  0.4014530082480347  0.9886282643199753
  0.1302887767737502  0.9977344859307338  0.1303668861152487
  0.9940763000961024  0.0020129410501528  0.2036934898833444
  0.9999852922831231  0.9968058653429847  0.3998531389172656
  0.9945149247152903  0.0001065956102062  0.6015979643564495
  0.0031091814557087  0.9986108448623763  0.7985333696717034
  0.0003308638570721  0.2004935377777110  0.0013640249732154
  0.0012157445562248  0.2019211779547046  0.2021310931602700
  0.0006318452433371  0.2002839280180359  0.4008905190069995
  0.0030754998555342  0.2010835399460286  0.5988012728606791
  0.9997830303048663  0.2001370039528263  0.8023368178327841
  0.0039086125770340  0.3989355326437942  0.0062154905192414
  0.9985910596279480  0.4011469189586191  0.3970559087829787
  0.9976067554840831  0.3999963654995308  0.6000082036308996
  0.9993235846440879  0.4010381036517148  0.8026214693080558
  0.9983358349242323  0.6052022412735083  0.0002991364389814
  0.0036519609031291  0.5961454019875450  0.2010769459258203
  0.9996856678985612  0.6025938858581800  0.4024174582352674
  0.9995320276846376  0.5993743089767095  0.6013047566009191
  0.0028019625833255  0.6005966706716237  0.7999671101732339
  0.0035678838766641  0.8000869633463566  0.2023081985815175
  0.9993785543473763  0.7993009445084255  0.5945870439835792
  0.9998197970502724  0.7995572318886105  0.8053680385303106
  0.2021859158516101  0.0017945409851542  0.9936877689569246
  0.1984095737612851  0.9989438057283374  0.4039066087523442
  0.1985939549398108  0.0027867202387277  0.6056173451309306
  0.2000453966169208  0.2027879285150866  0.9994068729814685
  0.2003527417791022  0.1998369601669082  0.2004731184585944
  0.2026082312286895  0.1985124197581598  0.4031093855702455
  0.2012982425942313  0.1961399807326594  0.7958348569520398
  0.1962710978891396  0.4045429306982289  0.1954443667548160
  0.1995460697846418  0.4014915268814969  0.3995019341978109
  0.1979414419126755  0.3966827859902338  0.6008798432041430
  0.1978336633431687  0.4045696348838106  0.8047135191560473
  0.2009956360363604  0.5964041079183199  0.9964517979907540
  0.2010134892292552  0.5994264590149175  0.3991819441088341
  0.1997281131068196  0.5989906063954069  0.6048392062735155
  0.1968744049816099  0.8007501510481009  0.0026159551780147
  0.1964229159199685  0.8007087088023636  0.3977458854853019
  0.1996956302561067  0.8001943228106224  0.5993973695260725
  0.1988238575524844  0.7988416528113045  0.8001525475273851
  0.3997548784206761  0.0010003467689654  0.0000919637984068
  0.4014258470202566  0.9963771868990411  0.1993533837257130
  0.3999941633434118  0.0023481967613823  0.3990797567325559
  0.4007694371657470  0.9986174893735098  0.5996650690641849
  0.3972005039108250  0.0005304418052761  0.7999510947450800
  0.4015600450461896  0.2008719571600517  0.0020914580428599
  0.3980057273249640  0.1974170274339832  0.2036478710505506
  0.3964219345332614  0.2002817294730104  0.5948849981097545
  0.4001610814565058  0.2003789698300276  0.7988969361274808
  0.3958375260152870  0.3983693429516227  0.0002437336009020
  0.4019083276344753  0.4009521836417097  0.1982242532418195
  0.4001240899913748  0.3967754359587661  0.3976077502380950
  0.3991873274267506  0.3997616394056028  0.5980526566480403
  0.3965671689438766  0.3992315331281112  0.7994643367216725
  0.4015496928744001  0.5992681900988406  0.9990488906906131
  0.3974276326276339  0.6030080167162444  0.2005788182002157
  0.4002114473476710  0.5987586882179861  0.4006425950103619
  0.3984372567315076  0.5997112078098419  0.5985544117767034
  0.3957746103865538  0.5991562838606976  0.7995267340868275
  0.4022437111027377  0.8006942530055715  0.0072997915461133
  0.4015090736523682  0.8012520438470698  0.3961652620793311
  0.4003250880424176  0.8007306034807447  0.5935364353681014
  0.6002187084424457  0.0004484474959892  0.9970896960303295
  0.6027038534828224  0.9997988209731666  0.1981597054626557
  0.5993731731436178  0.0002862575165532  0.4007121314682486
  0.6020113275508961  0.0007930339861972  0.6022874155068657
  0.5973973709347592  0.9990440813245461  0.8002292476563925
  0.5991973024475732  0.1997444573221870  0.9989673926105944
  0.5981421505814987  0.2024307470002302  0.1987689539312864
  0.5947335764133608  0.2013840387972069  0.4008900539068955
  0.5979612869532797  0.2009787028121104  0.6006310486531996
  0.5972230102552984  0.2011029608365684  0.7997237796206760
  0.6020521548322508  0.4013025360428921  0.1991076281004593
  0.6010997422657052  0.4011278134668120  0.3984574837729905
  0.5996860909872924  0.4005653223535164  0.5990025894573092
  0.5897033748457403  0.4012505044773323  0.7942709480028461
  0.5999773434846783  0.6011727722927348  0.9982530613981111
  0.5978414425147982  0.5986415774991787  0.1979906104880919
  0.5993324456782803  0.5991223619099839  0.4017186739759909
  0.5983889757548080  0.6000144018104959  0.6017971604167796
  0.5953727095202660  0.6010855900387144  0.7998269800433723
  0.6010854933777997  0.7991488925904454  0.9996029643050408
  0.5954523500394066  0.7988917164121530  0.1996038871149218
  0.6032790361523351  0.7983524653316405  0.3989088933126609
  0.5995932291909167  0.7995315799534775  0.5995715244431628
  0.6029995452460305  0.7995867733683123  0.8002577584899897
  0.7967535967661621  0.9999902074855174  0.0033122893675083
  0.7981368744071610  0.9969853682512572  0.4023890371000765
  0.8010606279905716  0.9992330640403987  0.7986174357337671
  0.8005474223088721  0.1985893811958719  0.0015160016178140
  0.7982059716077947  0.1964922822300731  0.2027705522168124
  0.7981098279331157  0.1986974894882713  0.4016448417877990
  0.7993623905306918  0.1964930386069059  0.6006068421745760
  0.7999616605012229  0.1956550214862655  0.8009564831538432
  0.8078114570303899  0.4000405184895734  0.0106308173816898
  0.8040485523956129  0.3998554694959588  0.2045855077283212
  0.7997088165562374  0.4002505241591929  0.4016992859633431
  0.7992812588453490  0.3988993107996313  0.5990956793253593
  0.7993285829817677  0.6010354309683396  0.0012728387218934
  0.7979521035424252  0.6009802354477891  0.2011243824905205
  0.7983204251858698  0.6047877711685224  0.4016176912852968
  0.7986247983614652  0.6001197678501541  0.6027728995114652
  0.7992659859353352  0.6065796370799971  0.7994691132419907
  0.8027139323314324  0.8016140010732318  0.0031178655192509
  0.7982160965241969  0.8034241557220161  0.2051192714228294
  0.7999330664780203  0.8050341608738558  0.5964748212053558
  0.8010199016277432  0.8016625912466294  0.8002065633285433
  0.0007020010050345  0.4013822297404729  0.2021827215812611
  0.9980969686559974  0.7969124798137218  0.0045165614451271
  0.9980480304912013  0.7985789725577301  0.3990859183062114
  0.1996244035684312  0.9974119354852501  0.8001414538296590
  0.1995108519103188  0.2004647860382937  0.6008362669256201
  0.1999508408086809  0.4007912975093345  0.9996390662040867
  0.2017809590356449  0.6022693069417858  0.1974977786477202
  0.2006008524319433  0.6011992932525321  0.8000391519019232
  0.2017860573168290  0.7929863595165075  0.1994977933055935
  0.3988768046558194  0.1994376982510458  0.3986397872853503
  0.3965356460974713  0.8005706660641827  0.2019095381556710
  0.7988694393126484  0.0009605471226520  0.1998480610788113
  0.7983881188427379  0.0008581489057440  0.6011358793243455
  0.8032150697146176  0.8008994389907416  0.3997306250176657
