Ti V  Cr W 
 1.0000000000000000
    15.4533176427851515   -0.0008865403605514   -0.0001136557864103
    -0.0008863085543239   15.4597859856343174    0.0001179633137350
    -0.0001136322034286    0.0001178166101631   15.4536212137375468
 Ti  V   Cr  W  
   3 114   3   4
Direct
  0.2010621560316828  0.7992139317560537  0.8038461602843843
  0.5939501425668033  0.7997100830352177  0.8021667810557864
  0.7999166849255508  0.7965853001834777  0.3995824159758627
  0.9995461185691689  0.0037957727784916  0.0000248554597639
  0.9998628486960371  0.9987485053365062  0.2000363583470098
  0.9988169860202737  0.0005456512439876  0.3997313491913324
  0.9997996852027328  0.0003925866868112  0.5995653995947471
  0.0011664684238748  0.9999429525518676  0.7986522119845817
  0.9993393566145699  0.1996527324751809  0.1961172872351056
  0.9993732599665597  0.2005056030284477  0.3986000961584120
  0.9996983347275671  0.1997062712817023  0.6006248154735048
  0.9991246813531889  0.1999815815769450  0.8037364298887404
  0.9996443756009784  0.3959508331272760  0.9997694493505269
  0.9999044850241362  0.4008785276067375  0.2000730042530932
  0.0000373966391147  0.3997998700803654  0.5999947511760998
  0.9996933647678303  0.4005169723608200  0.7995466037192797
  0.9999135158554664  0.5988946460416927  0.0000148721625930
  0.0001072804509770  0.6005887603730139  0.1993243455385251
  0.9999195490350731  0.5998130608411544  0.3999294805716582
  0.0001402349416193  0.5998331181764806  0.5997682371350687
  0.0012822926805616  0.5994562929177664  0.7998399926205251
  0.0010244405492699  0.8008855773210370  0.0004256213819282
  0.0004169512026475  0.8004330789837898  0.1991097857720721
  0.9999829005607453  0.8000618086458480  0.3999932221047400
  0.9984593329875446  0.7999035859124545  0.7998144667230878
  0.1998572799050658  0.0009779048147761  0.9991528040729636
  0.2010143335827574  0.9998845044132800  0.2016889328922723
  0.1968965040705252  0.0003588505755379  0.4004409260412490
  0.2009265388396434  0.9994517046990922  0.5990587693067737
  0.2001512054218954  0.0013610441562961  0.7993163941498722
  0.1965995983880708  0.2002412615644645  0.0001511469808080
  0.2006441896729510  0.2000885835024600  0.1996682535051161
  0.2001803574888503  0.1991901598795744  0.3995635537737591
  0.1994293665258737  0.2003023479477498  0.6003607803713735
  0.2006564550722628  0.2004143039959833  0.8000512747920480
  0.2003722098765024  0.3994353151891180  0.9999602483688771
  0.2005206793794026  0.4008072601978316  0.2004284464023135
  0.1992455997449586  0.3998320158114855  0.4001537650318187
  0.1998334651156606  0.3996369938485670  0.5996002913815576
  0.2003797759864941  0.4002115892066185  0.7993875399397542
  0.1994670029608887  0.5987677340211309  0.9994102387766474
  0.1991873361938521  0.5999476973618643  0.2001992590317096
  0.1991793061503301  0.5991453263112198  0.4003653454758437
  0.1998670674140926  0.6005414504739446  0.6001506776801052
  0.2000453492408271  0.5981083394058948  0.8001843104200198
  0.1988236368838001  0.8004051956254487  0.0020439417828206
  0.2031765813122023  0.7996817175907887  0.2002344554248762
  0.1990749875541562  0.8009484864871165  0.4005549919929378
  0.1998760478711478  0.7998630049648732  0.5982837818187078
  0.3995401507915297  0.0000388297666377  0.9988320222722610
  0.3998347094281808  0.9957039279666975  0.1979196950397618
  0.3997787060832979  0.8311255297011001  0.3969937352072149
  0.4004200242062701  0.9990953752373504  0.6008585492019556
  0.3999196655356425  0.9994485576019398  0.7993387130954162
  0.4032758080355626  0.1997917809670190  0.9997246886746890
  0.3995243244634859  0.1977220939958215  0.2000838540073614
  0.4001695988277342  0.2016810426166160  0.3992333603588410
  0.4004808298123897  0.1984946025516525  0.5997861229486653
  0.3996309807974086  0.2005927406142758  0.8004455194660758
  0.3993640094450938  0.4002871621267259  0.0000949982637042
  0.3996467847881865  0.4021575477004360  0.1998400355204738
  0.3999621578102387  0.4003000901699625  0.3996862856790439
  0.4001851823272302  0.4007671250451238  0.6001668145227470
  0.3998220122308150  0.4005292575788913  0.7994118705684008
  0.4003388103494084  0.5996042731360149  0.9991189782707816
  0.4003320696146075  0.6043018900469903  0.1993032292392492
  0.3997833538369102  0.5989179052387209  0.4005030513791191
  0.4004380271237947  0.6012933809883437  0.6004254907208401
  0.4003807867586908  0.6002074438120752  0.8000807249993583
  0.4004122836519096  0.8002776878072180  0.0037190130987175
  0.3995668756235810  0.8009079573685801  0.5976107257748258
  0.4005173412319123  0.7994983877217298  0.8012138908980350
  0.6013763292308584  0.0052749207012425  0.9999571576823432
  0.5996351568131644  0.0002159423792298  0.2011972167591979
  0.6006663916374315  0.0012086895265893  0.3995393759567948
  0.5996166084676856  0.0007961515621286  0.5985602838405389
  0.6007651496170496  0.0020857592812210  0.7994148801635487
  0.6006779779547734  0.1996510460182498  0.1958129881088035
  0.5994222416619223  0.1998483419104565  0.3987372487305832
  0.6007206806973999  0.1998850017232188  0.6008660191706877
  0.6007864625697369  0.2003143894161894  0.8035401989263714
  0.6003937285285708  0.3956014139366483  0.0000256583838896
  0.5995407989332873  0.4006700865458817  0.2002426647594673
  0.6003072454009732  0.3990348437523089  0.3996274821329581
  0.6000118155218863  0.3991959435150728  0.5998275504443777
  0.6004454965665097  0.4002203219360883  0.7995586415224178
  0.6007729878440053  0.5974402928069882  0.0001675799214476
  0.6004078607141530  0.5998384074790041  0.1995439540916986
  0.6002401508952584  0.5984209370674449  0.3997320380779565
  0.6002345099214232  0.5999341945534018  0.5997573076434511
  0.6005202144620856  0.5973722313607366  0.8003503426331731
  0.6007766579175340  0.8009243722473880  0.0019917789588921
  0.5974851052798585  0.8006159588747637  0.1997801041678051
  0.5991132737246564  0.8010237323648428  0.4003628039447076
  0.6000177119729302  0.8005891529748961  0.5973228649545884
  0.7999774592363476  0.9994477984244409  0.9996885238639769
  0.7998366720713108  0.9979980206257825  0.2005399970411365
  0.8003603102105835  0.9996005097965398  0.5989313711910927
  0.7998069102073637  0.9946868719649862  0.7984826476929839
  0.8002055517989849  0.1993207426318190  0.9989572228276125
  0.8000289312719813  0.2005513995521888  0.2000183733801477
  0.8003201640457863  0.2008968268904146  0.3991219459814082
  0.8003108141211406  0.1999745143301921  0.6008488534406615
  0.8001661657770254  0.1990742169478029  0.7991753998398692
  0.8002212243051064  0.4011872131865774  0.9991708506124094
  0.8000737624911357  0.4018775602812155  0.2006842887299208
  0.8000598081765414  0.3999688218827786  0.4001201508137872
  0.8003693256646452  0.4006926863223262  0.6000198849234237
  0.8002535547339535  0.4025745327227837  0.7985743385932332
  0.8000772836903133  0.5994838501448461  0.9995116211674570
  0.7999876180893337  0.6011396147348752  0.1990240273321581
  0.8001293463060465  0.5981984329322108  0.4004308122922782
  0.8004454598280697  0.6003902895427164  0.5997969989359146
  0.7998485355496208  0.6045334664233416  0.7998901114967634
  0.7998558564541003  0.8005169471269016  0.9963248385176321
  0.7992323525388159  0.7998983880502253  0.1968885741570399
  0.8000490013349817  0.8002728558648360  0.6051559500844330
  0.9997674360499905  0.3995296728944326  0.3996619348442464
  0.0007517766342942  0.8002430923770798  0.5995242835198310
  0.7999724498729626  0.0023652271068331  0.4000280890047638
  0.9986059309339201  0.1998888377804827  0.9996836889134445
  0.4000892652422949  0.8004690719084324  0.2000027324923632
  0.6012130214340786  0.2006389870005766  0.9999947116482306
  0.8046610012043484  0.7996288596813375  0.8009944352506363
