Zr Ti V  Cr W 
 1.0000000000000000
    15.4771126092992706   -0.0171409429028663   -0.0108832458615090
    -0.0171377985850307   15.4835452709138899    0.0089453070842751
    -0.0108770206815257    0.0089383803551370   15.5150560916889226
 Zr  Ti  V   Cr  W  
  10   1 106   6   1
Direct
  0.9971313182585494  0.0321671192567882  0.9597621709906358
  0.9989624905636336  0.2034369741784205  0.7918396485958625
  0.9919723834261859  0.3822764089432595  0.6013523578813099
  0.9803586696741778  0.7860980148608726  0.5715038832396682
  0.1562726805100778  0.9954532209530803  0.3583842813980387
  0.3639630109073995  0.9963268401882431  0.4095094664234719
  0.4044233444052074  0.2031598304519391  0.0007647938057112
  0.8119024624929757  0.3933647974371557  0.4171577458666400
  0.7738446656016786  0.4040408411315439  0.6341634419926292
  0.8034849512990812  0.6204012956703813  0.4116523274263940
  0.5979056010841592  0.7985014897821058  0.5990320797566153
  0.9751136778092337  0.9979261021351056  0.3924841215302025
  0.0005892267721239  0.9934722702574343  0.5875463765551914
  0.0024624493365917  0.9898314169750313  0.7766206024990282
  0.0014908733228551  0.2161226462638696  0.0050879094292461
  0.0008019588690559  0.2063347484536049  0.1998563216728891
  0.0038503612700126  0.1947126379119435  0.3956625788094051
  0.0028508866465003  0.1852052709887455  0.5882385438641471
  0.0031138226967333  0.4071023759282422  0.0070219754923468
  0.0136492833014225  0.3969801808487984  0.3919896119783094
  0.0027511713228969  0.4067226728068052  0.8098121455307490
  0.0009589280620944  0.6028492341643676  0.0018788975665418
  0.0010768090519298  0.5954033926880961  0.2021742280398328
  0.0084223248071409  0.6006158787201319  0.4023230417634026
  0.9994308711958297  0.5896690529276826  0.6006558745133865
  0.0018630621415102  0.5999711358430484  0.7983444963842179
  0.0020394344774426  0.7999724687588220  0.0028030966733066
  0.9964967225326685  0.7990834020632995  0.1956572008339211
  0.0087762170750427  0.8035332694104786  0.3807291765161518
  0.0001571434148368  0.7976276641523976  0.8028162681797627
  0.2013842413884979  0.9997878859210914  0.9937638811529977
  0.2033810169076814  0.9967646890408602  0.5956833689540341
  0.2009555803793991  0.9987470221106649  0.7981128983327296
  0.1977692661050199  0.2001194784517301  0.9971611106074927
  0.2023119066564757  0.1991584816549985  0.1975889043333250
  0.2067373090011740  0.1938750922323551  0.4006569807267260
  0.2012705487974003  0.1959484602340714  0.5987259271502479
  0.2022465317167466  0.4010924255185034  0.9993525586606775
  0.1995777671471128  0.3990463376081316  0.1996781801569908
  0.2047936782965732  0.3980245380754407  0.4021880491242030
  0.2017855911091712  0.3953260653753630  0.6003653703499512
  0.2009375096786558  0.3985477222791411  0.8010458154805552
  0.2022810553304741  0.6019222367019996  0.0003548660339479
  0.2009924337101749  0.6000235479912689  0.2017054740497175
  0.2033470423544455  0.6006419204295654  0.4011722593904651
  0.2012521809758002  0.5989266231425654  0.7999704022820490
  0.2007330821621907  0.8022146049163560  0.9991853283112611
  0.2014920693714784  0.9688582543012663  0.1868585171743926
  0.2043704492664669  0.7989908225676052  0.4053467932458877
  0.1979787680036178  0.7972305696857281  0.6017317823860892
  0.1991150981991494  0.7980762557123336  0.7996286595622675
  0.4018242696829500  0.9974250546987762  0.9991233118211542
  0.4025026407230354  0.9983800491377751  0.6072629763912488
  0.4021325095407141  0.9988844870874478  0.8007987927925553
  0.4026216052402429  0.2011234944028051  0.2046736494936463
  0.4029977854820973  0.2016361630259639  0.4007961350927563
  0.4023089790536702  0.1998820356508173  0.7965458215053463
  0.4012555838647188  0.4057075683754259  0.0021692868548624
  0.4008895550462640  0.4018274355646092  0.2022036839100556
  0.4005224369213936  0.3998395590210106  0.4011967206179801
  0.3973204438549049  0.3990045277448827  0.6028229227088031
  0.4016036453039724  0.4002936293834572  0.8014832992384864
  0.4015461138755592  0.6020358509813062  0.0013229326695728
  0.3998594923516485  0.6004416240319694  0.2021110472701616
  0.4000820678285643  0.5987792116392354  0.6024792056891213
  0.4009550712967465  0.5998953097147460  0.8003340235562524
  0.4002236146847244  0.7996376088124156  0.0025416025254051
  0.4030452678861924  0.7992287317577964  0.2021285125466238
  0.4002609045545613  0.7948595192776113  0.3999829146906047
  0.3987704863566806  0.7972523679576371  0.6020874505156836
  0.4008736555288906  0.7992743123043714  0.8013246754259288
  0.6014447774898841  0.0010589275152690  0.0007127143661596
  0.5976271099057346  0.0012790020176572  0.2006507832287046
  0.5956025679079217  0.0005416452887976  0.4020792692725185
  0.5999056603138770  0.0036097695140587  0.6012281538832526
  0.6018494007692526  0.0015194531499561  0.8014630181715562
  0.6076925508323976  0.2013497781061079  0.0015207840610916
  0.6032632270596808  0.2004031136883295  0.2023918867497011
  0.6010867499134406  0.2006331729913678  0.4027543283471354
  0.6029610530968994  0.2016661215073085  0.6007229507743100
  0.6020934887733445  0.2007175728367866  0.8000193252837944
  0.6029993651694709  0.4012625401441705  0.0039026835442160
  0.6032353531518956  0.4001881530030405  0.2037344872506835
  0.5995823350959182  0.3991721108677684  0.4008144823981944
  0.5869809888106359  0.3987860933473779  0.5997980890116275
  0.5995469957464939  0.4001772259751769  0.8051366024180434
  0.6014067732908770  0.6003195237161035  0.0026474067417587
  0.6015555712511264  0.5986163034676479  0.2034233809940928
  0.5988735168399026  0.5986927483527791  0.4035008473118772
  0.6006112437822771  0.5954986466026744  0.6021544412669185
  0.6005497300426875  0.5994297515372112  0.8022673627180998
  0.6008965562507897  0.8002941337307161  0.0024372093354900
  0.6007287100518967  0.8005161539143910  0.2021239751214778
  0.5984421741323758  0.7997481028004993  0.3994423368406148
  0.6013761479007819  0.7995358437292519  0.8047399093041165
  0.7984803002605773  0.9997440666725893  0.0018030478248601
  0.7977034955484635  0.0008470065459111  0.1974324790322513
  0.7932162452114442  0.0005957401088186  0.3987333825044415
  0.8007336606052468  0.9989559531862743  0.6031349458865336
  0.8027319171922298  0.9994390181068609  0.7999103951916304
  0.8043732297068696  0.1991915034515447  0.0006933796738899
  0.8012921991945626  0.1993499868812497  0.2024224856498476
  0.8009173556354398  0.1923090642899163  0.4007316502128518
  0.8025234003588431  0.1967204520179325  0.6001636853291716
  0.7969717807950160  0.2021699605683332  0.7996519731788356
  0.8004659542933654  0.4012599589600618  0.0067580142275523
  0.8056463875238778  0.3991049765091115  0.2020533008967148
  0.8027107884038189  0.4007151406748275  0.8206772401119704
  0.8003563164155927  0.6022872311190817  0.0015871216754944
  0.8009438661804636  0.6008735026279444  0.2039580488913951
  0.8013118851656482  0.6070482744307363  0.6126932063655314
  0.8013009571885699  0.6009250826199191  0.8042884763241860
  0.8000244202612670  0.8019119859867554  0.0023917360874313
  0.7998416749346162  0.8012042326231364  0.2012408167888297
  0.8001794537789980  0.8102690358993162  0.4007971865754490
  0.7869531831194557  0.8039482223770642  0.6057772404215180
  0.8008659995443791  0.8005716635331486  0.8037936847839063
  0.9973351739811679  0.0032813892698416  0.1940875073336429
  0.2057777341821212  0.1989674328533787  0.7977229956113919
  0.1986190682217808  0.5954004928950054  0.6011605146306357
  0.3990337142890543  0.9996588425655412  0.1978352489252305
  0.4022810218922412  0.1987137036121579  0.6003781344364381
  0.4000669144499662  0.5985445445137696  0.4030259754688819
  0.0017965246181904  0.4009129368495562  0.2013290587184851
