Zr V  Cr W 
 1.0000000000000000
    15.4863295998759050    0.0024137293282322    0.0105674120120943
     0.0024156779473548   15.5040449564505511   -0.0174543962439357
     0.0105707746262879   -0.0174578174046017   15.4782021514271442
 Zr  V   Cr  W  
  10 107   6   1
Direct
  0.0008391691176206  0.9652652846380796  0.7597851892766584
  0.1282003430130975  0.3408045158895159  0.5998400413322492
  0.9999575561441189  0.4326080100626197  0.0388452516036723
  0.0038777083310338  0.5783034992634484  0.2193099639158086
  0.9607606722666080  0.7922932174447537  0.1932073842100087
  0.0033057152362994  0.7971541697906512  0.5980797846270596
  0.2002894731021961  0.6171987698741277  0.5986167860816344
  0.3587307632500217  0.8026485599324455  0.2003326635422076
  0.8373667506476105  0.4299665134149164  0.3972754072041846
  0.7503022156469387  0.7915236503816450  0.1980665045789009
  0.0009064393145926  0.0055479745056144  0.0010641698755137
  0.0041210707012580  0.9972897628106159  0.3933524940570112
  0.0012069061018285  0.0162838973217634  0.5783314270524927
  0.0009559703380653  0.1988039945329152  0.2029401338838538
  0.0017101634613942  0.1986981201193696  0.4009883193787299
  0.0005998195941270  0.2031925333128198  0.8079542228653595
  0.0005515513472714  0.3861644804105792  0.2311282645693360
  0.0275868475576579  0.3934855873186571  0.4162352561352958
  0.9890459029758334  0.4010297731022228  0.6023353996284156
  0.0009509595737860  0.3952126105553958  0.7992270854325878
  0.0004725941529757  0.6226541734955655  0.0120696336008570
  0.0057995789372283  0.6043326380714367  0.4166613739889262
  0.9947090859470394  0.5944216711075185  0.6089397564686304
  0.9987545284706558  0.5908244766601871  0.8099953504756631
  0.0016913820668987  0.8115702802560418  0.9915884951010111
  0.0022249135057730  0.7999305538838426  0.3961552638175687
  0.0004665517032472  0.7802382834381226  0.8031202285708491
  0.1998007780011211  0.0016700550518651  0.9976531848434955
  0.2005474373673776  0.0007723773144603  0.1988629437938307
  0.2020969140576417  0.9982298791858547  0.3971674396203188
  0.2017046246790559  0.0036722483340337  0.5972863068468791
  0.2028368062898487  0.0003923377041021  0.8002983669615762
  0.2016537863769273  0.2003916148726236  0.0009021983357915
  0.2015623628256043  0.1997044259455611  0.1988731765550751
  0.2029323505676877  0.1972753521263723  0.3989406359855839
  0.1998317225257043  0.1996506843720901  0.8002909881258773
  0.2029957930778785  0.4006578830082119  0.0004762826641977
  0.1988325136230496  0.3988433031369463  0.1975861573457467
  0.2066369781761571  0.4014964732765192  0.3939505747282079
  0.1997527505938048  0.3991539973039857  0.8041114060356788
  0.2008210966302800  0.6022902014129720  0.0011059387034568
  0.2068689572259037  0.6005856644907447  0.1988651848499467
  0.2012847962172812  0.6000967294973112  0.3933770170579663
  0.2000220488933224  0.5985959179091658  0.8047923267709511
  0.1994603768388225  0.8023434078771521  0.9995452959711735
  0.1720265404189535  0.7967064526344473  0.1973451840032817
  0.1988710239095529  0.7989907585780536  0.3994986982347998
  0.2076216230393052  0.8114238245923939  0.5988440466068121
  0.1990998768934537  0.7990435657362885  0.7981670543682639
  0.4014984621105183  0.0000650809946470  0.9986541941435808
  0.4024965133055066  0.0035316722453844  0.1982489869696598
  0.4004282079851658  0.9981726937469205  0.3986937239723825
  0.4027988296659556  0.0009914393341348  0.5983198247401270
  0.4002749924047442  0.9985920183859383  0.7974086261505983
  0.4011926137715625  0.1996157615734503  0.9988032545821203
  0.4010467006217926  0.2002211852948385  0.1999454795447957
  0.4010191644056972  0.1985050435723379  0.3997270956421329
  0.4012997200492727  0.2002801134265725  0.5991038205731544
  0.4003806547164717  0.3998437667186623  0.9996735292267586
  0.4002989346516871  0.3973770321626827  0.1992466282810200
  0.4013872505080089  0.3980542292586656  0.4003806989714609
  0.4027923283507287  0.3993631642674220  0.6001704896505745
  0.3999032121305136  0.3993306879879640  0.7987223997384272
  0.4020686335756130  0.6005578797251461  0.9997426174473133
  0.4040744500767051  0.5935707825963517  0.2003352833059723
  0.4012175720236399  0.6003884558207769  0.4004257798167142
  0.4055519618298726  0.5989689722626554  0.5990125191074399
  0.4005350356895044  0.5996998283997773  0.8002973991170496
  0.3989900990582056  0.8004985659083306  0.9946744911921932
  0.4001034859346708  0.7988123667058407  0.4030108704240019
  0.4007527610332169  0.8004662022502710  0.6005614411286843
  0.4002322877577578  0.7985478313395947  0.7987409352849359
  0.6005645575979750  0.9988638470155804  0.9989081352425880
  0.6009450875645969  0.9962500806569505  0.1989139549970237
  0.6008550178407789  0.9975328837555049  0.3977609781577600
  0.6004508888180095  0.9992378878397833  0.5972130566424007
  0.6006518184080833  0.9976610873440029  0.7982887834093710
  0.5992933080326941  0.1983789068724472  0.9998786414942976
  0.6014949144673508  0.2002174781962394  0.1991140534603724
  0.6001641328230776  0.1990185259108900  0.5994295957303072
  0.5998555374394802  0.1992302398549911  0.8000400587937349
  0.6002200127984746  0.3988583496953360  0.9990964578977367
  0.6023508126814733  0.4001741934650141  0.1997467742603942
  0.6029182636542577  0.3988481018522402  0.3979996383604346
  0.6010049084301010  0.3999502382084735  0.5979295456135746
  0.5992574198778637  0.3998715628237466  0.7997476289303931
  0.6021794425566862  0.5998746240504482  0.0039524880090620
  0.6036600309033698  0.5990980142740140  0.3956640756901704
  0.6019819347749825  0.6003949029470027  0.5970491487628530
  0.6016420130001043  0.5993848610783427  0.8018134954650903
  0.6008745211006039  0.8001831528310378  0.9977956976842673
  0.5644238803960120  0.7904577052276753  0.1987765510642589
  0.5990770234648634  0.7993863017346120  0.3986178371760512
  0.6009577859509962  0.7996126150552167  0.5986570221103029
  0.5997562963838191  0.7978078661339272  0.7981040923051822
  0.8012963570196449  0.0008986777203817  0.9975807203155460
  0.8013398772322285  0.9974335361948794  0.1983805500661127
  0.8007182074263092  0.9994980136452388  0.3984006117356939
  0.8021843496894893  0.0013395922651264  0.5989171652164570
  0.7986740463132126  0.9995444906928863  0.7995220314814869
  0.7993244194399964  0.1999733488851767  0.9997333781715534
  0.7995070522494071  0.1992749197683978  0.1991611488278104
  0.8012379656607274  0.1957112039469162  0.3999549728634196
  0.7952596424755071  0.2013266315771396  0.6001787631016344
  0.8016625179103110  0.1991459829257166  0.8004791635334437
  0.8041492847122580  0.3975186599798133  0.1944213918320150
  0.7962271800632181  0.3993539111531927  0.6007874224097173
  0.7988527182801691  0.3998674970053153  0.8010049621772701
  0.8031046044359212  0.6006854718785246  0.0000645583619580
  0.7940387916683415  0.5944082023568169  0.2073410372223693
  0.8021536756950773  0.6169129401872306  0.4035939833276383
  0.7984165691996499  0.6013053407131793  0.6008279906379789
  0.8003126137325554  0.5989956436350391  0.8023606429745338
  0.8024914438928438  0.8020299045987302  0.9967627646123148
  0.8064681427203502  0.8054462430217990  0.4009059915777752
  0.7963481913405995  0.8013385756422052  0.6003041869710445
  0.8010202015845918  0.7986507343824043  0.7984418478530936
  0.0002169500738693  0.0027971409324954  0.1977670397765198
  0.0004561105625138  0.2004282074108551  0.0032227872634410
  0.2019783935444178  0.2019031297696845  0.6005524345121134
  0.4003554962592926  0.1993360501753873  0.7992641800988770
  0.6004815189355236  0.1984353793962909  0.3985844973055063
  0.7975101512746372  0.3993547371322548  0.9983281124393873
  0.6014561625438448  0.5975789485874100  0.1990514715362601
