Zr8 Ti14 V94 Cr5 W3
1.0
  12.5523207027605341    0.0337586565727680   -4.4065017180497099
  -6.2498530090099740   10.8645436002944216   -4.4149501821117747
   0.0019080076333986   -0.0071473001737705   13.2247850707364396
Zr Ti V Cr W
8 14 94 5 3
direct
   0.9992951812950558    0.8010035971743477    0.4055599422009911 Zr
   0.1956550884017427    0.0002820300010711    0.7939171113853078 Zr
   0.1985579895510343    0.1961096943833958    0.9942584366707232 Zr
   0.1972600672207249    0.3989370458375174    0.4067515612048869 Zr
   0.1952500166401113    0.5976324179175986    0.1919619870586092 Zr
   0.4034491925250894    0.5962296735004959    0.3980777471913891 Zr
   0.4015822787434388    0.8066623526904613    0.0022198501587829 Zr
   0.6009423280156838    0.1903110399785710    0.1996822261349273 Zr
   0.9904565983691288    0.1850865698939727    0.1848548692785565 Ti
   0.0023093087962943    0.2015608476883615    0.4065582490291215 Ti
   0.0019314902545684    0.4018243625475774    0.5942022806324545 Ti
   0.9973369180334264    0.4025506871931174    0.8032140479189311 Ti
   0.1967455589536491    0.8070678477369896    0.1919940516136376 Ti
   0.3919970190854866    0.1946875709885489    0.1920679625386539 Ti
   0.3981479017456702    0.1974751577861825    0.6019723597546217 Ti
   0.4042004527027593    0.4105521420651934    0.6043499796813924 Ti
   0.6111429337360440    0.4047790087016842    0.4012442962439914 Ti
   0.6067732577718014    0.3988195129089371    0.6056071045879238 Ti
   0.6074024194359225    0.6063388274579278    0.2022591575071241 Ti
   0.6098064356619497    0.8081322970788849    0.6074294491021072 Ti
   0.7923863761143887    0.1960914850046812    0.4013741792440307 Ti
   0.7992252021952574    0.5994896827188191    0.9976503592742213 Ti
   0.9902888979516530    0.9908141856382048    0.9948264463777261 V
   0.9943771122116559    0.9895555207729652    0.1979632828907913 V
   0.9951666020868024    0.0011445129278267    0.3973250280259343 V
   0.9950428316960274    0.0034773668000385    0.5990858813377814 V
   0.9781576410016043    0.9848622402273757    0.7888804271382048 V
   0.9862058783473229    0.1936670156551731    0.9861963043669270 V
   0.9958852897698725    0.1939794445153962    0.6034544469663524 V
   0.9940044196259207    0.1950974267823168    0.7942208697567841 V
   0.9848855900800232    0.3900983261224640    0.9911842825040376 V
   0.9936955890762698    0.5927026444456731    0.9899585497857808 V
   0.9868151031724955    0.5977536643641133    0.1919240265843125 V
   0.9967117200123146    0.5924176780362954    0.4014517380142451 V
   0.0008391525582520    0.6046180222435178    0.6034614094769957 V
   0.9988368655777411    0.6050413260455880    0.8004164705104170 V
   0.9954415794287850    0.7950384122996629    0.9934438894265141 V
   0.9932449481953161    0.8028911857927439    0.1934063766208735 V
   0.9883355863862606    0.7895127986483205    0.6069346376725288 V
   0.1834023318427710    0.9722683609322111    0.9945272225558701 V
   0.1951177621831701    0.0024288360831604    0.1975364627155372 V
   0.1960558146898332    0.9948378258105371    0.3955922236281749 V
   0.2150598799276077    0.0140523976042983    0.5999141212348656 V
   0.1983353916193705    0.1959166434978933    0.2059078809793040 V
   0.2052523137972683    0.1866939825111117    0.4011233945223948 V
   0.1958528654431950    0.2004503322902011    0.6001176606431001 V
   0.1982579132048228    0.2097625897366726    0.7879669895076318 V
   0.1966496699314624    0.4027349369680919    0.9913423104629344 V
   0.1846116175116533    0.3768632315077813    0.1792060849622233 V
   0.2124327076081373    0.4109446455655822    0.6290666954848463 V
   0.2037570256798906    0.4006795314089626    0.8033269789919413 V
   0.2008854208708336    0.6103460708903550    0.9936614741909731 V
   0.2016255133515651    0.6075705908859482    0.6081133380426186 V
   0.1956087373314304    0.5961866295058749    0.7976735716375541 V
   0.2099374011672037    0.8066465015346108    0.4084285687168497 V
   0.1986412953785767    0.8012230355880484    0.6040937985810686 V
   0.1927283706884867    0.7932482940916437    0.8003869484531800 V
   0.3871267057764122    0.0076444202799446    0.9969280008660832 V
   0.3920905014156841    0.9932799682516851    0.2001717760865530 V
   0.4024851797733557    0.0023765395309112    0.4035905706071666 V
   0.4063605265341861    0.0024454935722003    0.6012259436300332 V
   0.3942340720026917    0.1925259804953222    0.3941790764878951 V
   0.4086472316571446    0.2087223026327290    0.8080173713591549 V
   0.4012988021545326    0.3986629627001274    0.9979308563524586 V
   0.4061641241071235    0.4099525486705601    0.2022455092082541 V
   0.4019001983617808    0.3820343710124526    0.3878023052744024 V
   0.4043191213885898    0.4025729727239571    0.8060187780863495 V
   0.4040577043650179    0.5959795830688126    0.0012464968772022 V
   0.4020235045866765    0.6004856576099796    0.1839503442705776 V
   0.4157583338599994    0.6234516236399318    0.6254758517203836 V
   0.4069635652086117    0.6028821306816856    0.8059508298929996 V
   0.4083782704802388    0.8034468246554732    0.2108221531053377 V
   0.4127965555057542    0.8177641895600216    0.4102505715264202 V
   0.4012535958800899    0.8074975730699078    0.6066881859165741 V
   0.4008620391064156    0.7971731468541866    0.7945620272339610 V
   0.6058135451636762    0.0001755727043519    0.9992495886136530 V
   0.6099789114258835    0.9896351124423108    0.2085703105233279 V
   0.6040920445633150    0.0016500870405608    0.4044960634414120 V
   0.6035124136282569    0.0065664952863673    0.6018044624507626 V
   0.6015992352060060    0.2049871366758604    0.9937802604160062 V
   0.5893496917886405    0.1910825956501946    0.4134877232486939 V
   0.6066086572783845    0.1982463038929601    0.6115084310888819 V
   0.6042075746003683    0.4050001289564387    0.9998697252162081 V
   0.5965683510496518    0.3972265958029211    0.1863037029926374 V
   0.5990094077982202    0.3969103497058653    0.8064045528871012 V
   0.5981227488768083    0.6016630596636231    0.9932026741264637 V
   0.6176290956787601    0.6117792485313730    0.4128125825402771 V
   0.6049319320850649    0.6009418719891486    0.6060766862234792 V
   0.6090615958122734    0.6051108112356302    0.8058065674261298 V
   0.6107937218864772    0.8015470500963054    0.0015963684396601 V
   0.6063735750015682    0.8050566217412237    0.2013353132248735 V
   0.6048918450205655    0.8053376235646781    0.3989638099815402 V
   0.6061284878427650    0.8012757535759528    0.8067901862436214 V
   0.7928316413557482    0.9896563769409761    0.9924487245254698 V
   0.7997618495363132    0.9968025712871968    0.1971114294159661 V
   0.8030697163585144    0.9987293384116316    0.4030265437974035 V
   0.8004091394022879    0.0028444599461234    0.6014925757397759 V
   0.8055271608873156    0.0038549479719276    0.8047807423524594 V
   0.7969273323443928    0.1973274624310412    0.9976010603128187 V
   0.8050744636828504    0.1996106721403559    0.1970524965721419 V
   0.7972075002015167    0.1972613659483764    0.6042148151432141 V
   0.7982053432513186    0.2028386715480257    0.8002438448167662 V
   0.7939866133071660    0.3935535197237893    0.9932787904693957 V
   0.7962658002329930    0.3986367910369834    0.1944498890040693 V
   0.8201486720907994    0.4099733387886921    0.4084935010402689 V
   0.8011689092436146    0.3974912953853214    0.6029476212660310 V
   0.7957588515719513    0.4024231641600340    0.8006927734218539 V
   0.7976827424475531    0.5879600228000862    0.1942189473091972 V
   0.7976987841953981    0.5968085520622414    0.4011710800716485 V
   0.8057861259647850    0.6036746192759262    0.6088128291552380 V
   0.8037857910528814    0.6012011713658242    0.7989515452377894 V
   0.8016441420316696    0.8021506060414023    0.9997207921762550 V
   0.7988760097522094    0.8000914240589339    0.1978791846597677 V
   0.7967839482600859    0.8100004191735177    0.4093499258303945 V
   0.8027590466242717    0.8004143897100011    0.6009406702810769 V
   0.8019719335496412    0.7970679504935284    0.7998924147705212 V
   0.9886358376631489    0.4045871501413280    0.3949630273400082 Cr
   0.9925132009419338    0.7934196584580127    0.7958600950743400 Cr
   0.1885570881809479    0.7968024997553098    0.9918434280182613 Cr
   0.4186768254065455    0.2101462323175856    0.9984513186687808 Cr
   0.6009209654052005    0.2028238133563598    0.8015517213692722 Cr
   0.9927300725998927    0.3981817545476263    0.1952225226558330 W
   0.1953881855723105    0.6093188933311706    0.4086763565913136 W
   0.6057547247433590    0.0034291802651663    0.8010169600680745 W
