Zr Ti V  Cr W 
 1.0000000000000000
    15.4218125631900325   -0.0059686382723848    0.0062585989012477
    -0.0059677460242910   15.4281327699692579    0.0068346148581175
     0.0062604253005019    0.0068382331099848   15.4329886035241781
 Zr  Ti  V   Cr  W  
   1   3 110   3   7
Direct
  0.3993188463102534  0.8019665148733505  0.5989574602870428
  0.2009871843619373  0.6063259243671578  0.1904831308019021
  0.1977734804371639  0.7901573707897751  0.0069597338323002
  0.5982238696560104  0.5965664463882683  0.5975037787568978
  0.0023060944305664  0.9984825984727702  0.0006048712425897
  0.0003582738579612  0.0032026990735148  0.1997971056327026
  0.0008280275306303  0.9945450792379644  0.3999144912018629
  0.9997362066227380  0.0018817692437245  0.6008309724637250
  0.9999755747918119  0.9985109235639116  0.8014412876045363
  0.0003353880927908  0.1991423265216181  0.0040657649435791
  0.9998668022950463  0.1997737801046641  0.3969204462620852
  0.0024025233628183  0.1996360930292005  0.5983545199000778
  0.9984549032797790  0.1984273334118401  0.8013166723963029
  0.0046894085950403  0.4002829506004309  0.9996834262353809
  0.0011687426220251  0.3967716650183892  0.2008944682059335
  0.0011179449864110  0.4033002297327656  0.3989730728945681
  0.0005163243823700  0.3989666024149330  0.5988833318063106
  0.9989699667636818  0.3996732886619898  0.8001601780509953
  0.0012734491335985  0.5997281037122929  0.0009667838345249
  0.9980420853011422  0.5988928837117153  0.1997825685614779
  0.0012564234931538  0.6039294738256173  0.3985736022076503
  0.0016123302548861  0.5978640155096145  0.5991424937164778
  0.0002781368414109  0.6011348056395683  0.7988673501530164
  0.9984967779322829  0.7988745265753894  0.0020064694792827
  0.9992642382042805  0.8000950025957456  0.5969852405346685
  0.9972648263128377  0.7998227813443415  0.8001800161257762
  0.2009589969397680  0.0013765683780266  0.9997960005066805
  0.2001002355709317  0.0013444462536933  0.1999420241868716
  0.2008308088381813  0.9992960613669657  0.4008194032869842
  0.1999589967544113  0.0053995069188951  0.6007715802529545
  0.2001099274339977  0.9979628721649270  0.8014373662916842
  0.2002384402573520  0.2020187425270419  0.9987690943601996
  0.1949779266205474  0.1995398211904382  0.2017521787324249
  0.1996643233901323  0.1998145826461422  0.4032854203472775
  0.1999045581626593  0.1987102782701740  0.7961988170596511
  0.2000880330442307  0.3972120478970215  0.1953008310856646
  0.2004430989340758  0.4020601620828316  0.3983437149455355
  0.2004109908111796  0.3947187367395113  0.6009733876103079
  0.1999995492233632  0.3988364105502429  0.8023062072759964
  0.2006304954484703  0.5907456531547176  0.9941696642460157
  0.1997553674843156  0.5962641291837752  0.5991562659685764
  0.2005283824359354  0.5995520876672408  0.7972173772339891
  0.1988853019227275  0.8033704411147324  0.2036073168962130
  0.1945753986342184  0.7987355328772271  0.4005707530210341
  0.1956308960794511  0.8004807825257815  0.6017051814188433
  0.1979072536711491  0.7986224704008636  0.7993733354501744
  0.3988093142597541  0.9986592426393552  0.0006679782872222
  0.3996760233002647  0.0004544094220568  0.1991480479719104
  0.3987802109445857  0.9977035660442749  0.3982789973225617
  0.3994232563270995  0.0042595029512769  0.6007701783754782
  0.3999287186892841  0.9976592294047971  0.8022413335553170
  0.4005331202410393  0.1997141340749015  0.0005356613936191
  0.4006565603300958  0.1984810873477681  0.2005776509401456
  0.3993141307083594  0.2003004312957331  0.3976489308947778
  0.3995208891954688  0.2009394468802821  0.5996287067025751
  0.4005204009329413  0.1983696259215307  0.8008400006724763
  0.3965619246552827  0.3993038928254994  0.0001339092944419
  0.3998138433518926  0.3994443061554815  0.1999704430214857
  0.3990760255667525  0.4013473938632051  0.3974305930257488
  0.3990238594173325  0.3987544384180794  0.5988187654601460
  0.4024856996654975  0.4017782769206179  0.8000056896716943
  0.4016050761202924  0.5988192624015937  0.9982374651956829
  0.4014847859791917  0.6006320777818721  0.1995786952523528
  0.3985395180766347  0.5998496957456267  0.3987727407480783
  0.3977888349693858  0.5952667846803921  0.6001627610251106
  0.4004065062024152  0.6008406108206812  0.7984795060530069
  0.4014698738351014  0.7981054212117482  0.0016565991753608
  0.4003570151429051  0.8007793419368039  0.1998737601672549
  0.3981204527167902  0.7980589363151845  0.3951388987637122
  0.4018262971745684  0.7983199114100805  0.8045368619359413
  0.5985700908268289  0.0006897198640725  0.9995934503097262
  0.5994858887917490  0.0003457065544876  0.2003223651382824
  0.5986776257050639  0.9982405235615041  0.4003346959306321
  0.5995416608617005  0.0059489735458625  0.5993920663281914
  0.6001405843277192  0.9992864661659986  0.8003059425687992
  0.6000678314065320  0.2000797865695969  0.9994159061554346
  0.6044791151256291  0.2000470654628507  0.2013863728032033
  0.5999921616765266  0.1996856407973217  0.4027595233836109
  0.6010578322274930  0.1990869510338752  0.7964735104486874
  0.5985284774835579  0.4000035500523849  0.9976941525059778
  0.6000387466712130  0.3985884936215526  0.1997959854467821
  0.5993285226532701  0.4012474862306117  0.3999406743276493
  0.5998381975898095  0.3928734769943985  0.5998203113725296
  0.6008971775202898  0.3982824549171952  0.7987749322933256
  0.5996929381836108  0.5983252274869474  0.0026931868753657
  0.6006358240054767  0.5994491692809895  0.2004296022636239
  0.5999344255149841  0.6001084784155081  0.4001724893283429
  0.6002831694179731  0.7980241167955182  0.9998797559770515
  0.6019871013302681  0.8011319502284229  0.2005843625710415
  0.6014857231551259  0.7992631966414451  0.4002323156171660
  0.6046605451334366  0.8032868455632577  0.5998928905525895
  0.6036005312366520  0.8014376183793989  0.7991378278196912
  0.7996667051339110  0.9991244885010978  0.9999114145165542
  0.7995106941726918  0.0034620625013726  0.1993070225419900
  0.7991640023479434  0.9984708288920905  0.4005625118025756
  0.8006390454348644  0.0020310680090316  0.6008068156498590
  0.8006328274246965  0.9967393869786143  0.8015150694096026
  0.8001749469737796  0.2001688881115269  0.0023273380141025
  0.8004402181306935  0.1997762483035342  0.3972103737235871
  0.7981136616723399  0.1997143828547144  0.5994105459931564
  0.8014879140180258  0.4001230769561038  0.9983829727372758
  0.7997029836061263  0.3961529396375189  0.1988769854781584
  0.8011150824336727  0.4016844960442928  0.3999693037048008
  0.8018589363139484  0.3975076407800504  0.5999906347722065
  0.8000381647161049  0.4019116689088097  0.8002851858142375
  0.7997653868954919  0.5985161028123556  0.9994623158809294
  0.8006451393872566  0.5983629994347701  0.1992054870383845
  0.7995902101368960  0.5999861983987812  0.3997251093147751
  0.8008263543918269  0.5976424004881503  0.6005896558643932
  0.8019506544650300  0.6025762623387174  0.7991924586162538
  0.8008542600148330  0.7991459318846016  0.9990481121975359
  0.7997195492872849  0.8012688005755709  0.1990853259294321
  0.8035496726627199  0.7992019441998731  0.3997521976341686
  0.8004437718491225  0.8005083803850558  0.6033862960913610
  0.9985280949805684  0.8015572929058249  0.2013284782299092
  0.1997444885037351  0.5995382702845879  0.4006430418800849
  0.8006644421984278  0.1989699469363896  0.8010384786430610
  0.9966320792853263  0.1987042448286955  0.2015252583611216
  0.9977801650968904  0.8003341736148059  0.4019500925785007
  0.2002059010684375  0.2006146884317081  0.5997676881949137
  0.2012782710161523  0.3967071666535616  0.9977193441247646
  0.5988311028418075  0.1996688972144782  0.5981608530108430
  0.7670812828979628  0.7657329676505295  0.8018649890689865
  0.8025651210261427  0.1998882839221054  0.2007100488046983
