Zr Ti V  Cr W 
 1.0000000000000000
    12.2882735461728885    0.0000000000000000   -4.3445607757035454
    -6.1441367710433559   10.6419570608175889   -4.3445607757035454
     0.0000000000000000    0.0000000000000000   13.0336823299999995
 Zr  Ti  V   Cr  W  
  30   9  50   9  26
Direct
  0.9963478036808796  0.0026366023514392  0.1882789265159542
  0.0130018294422159  0.1610915533053726  0.6097853645103888
  0.0202774569530153  0.2006814479148562  0.8240823480543891
  0.9868515966356587  0.4037502970193055  0.1858791713321108
  0.9773072982198270  0.5733379971784893  0.0006368411311883
  0.8693479554254047  0.5578025951718613  0.1626330492166372
  0.0195974540145921  0.5978885572207701  0.3918281875545991
  0.0204926464314339  0.7934120274538665  0.2005488400480554
  0.2126716294065588  0.9930394427168756  0.1963145369262025
  0.1911091186751730  0.0209599831242525  0.6093654461043763
  0.1913605197535201  0.0075231659285268  0.8110301240960500
  0.2085192787370821  0.2124501278100873  0.3873886793063412
  0.1881307225301552  0.4431901567490897  0.0194786777754854
  0.1950319335035417  0.3965553071074141  0.1954820531018121
  0.1899417141603814  0.6630518120913091  0.0160219522545759
  0.4215242860341649  0.4155140570704045  0.6093317048000436
  0.4043113593327916  0.3986674006045708  0.7996699724810957
  0.4000751802482031  0.6169539351647187  0.2087340519133924
  0.4076178048710816  0.6008698194556524  0.6033402437186328
  0.4099833893129048  0.6175585387690385  0.8043916653710179
  0.3997983123114537  0.8199224111836514  0.2257507098456586
  0.3972458452995306  0.7997326539309638  0.6068928016356595
  0.4079727627621415  0.8205912184530153  0.8115706859391441
  0.5805344305705304  0.1873726343778741  0.9872194521795102
  0.5759842274314726  0.1883801288166192  0.1961549472195323
  0.5779492217565114  0.1650009920795360  0.3880531288446076
  0.6316320100520282  0.8137983318574989  0.8258297233350930
  0.8246743756515809  0.7885636782236582  0.9840804557812497
  0.8029313865899446  0.7984139205393063  0.1938041912814936
  0.8196251025027144  0.8223767823854109  0.4246487318604419
  0.0017351881965109  0.1985240173332569  0.1856317253288154
  0.9879769902371195  0.2004737806552091  0.3926857811372726
  0.9894080049918109  0.3860062749743554  0.5927515984378003
  0.2168333394692464  0.8276659963283036  0.2535827535654263
  0.4049127773173991  0.2006744132643201  0.3960674125870869
  0.6010139315501271  0.5900053066044406  0.9970263560879749
  0.6019265938961305  0.6022827081440927  0.1914732514561487
  0.6285945791551197  0.6020512747365475  0.8166361286281447
  0.7961739500108487  0.9975178472242789  0.1862801501619603
  0.0109675480193185  0.0119761223963841  0.4024424792049847
  0.9933554214428189  0.9909743155540006  0.7417900289379228
  0.9901967277636249  0.1975534534274425  0.9990860036485953
  0.9679921431343806  0.3864998686420572  0.9806012888548393
  0.9895190155868373  0.3980552162002715  0.7984374541030392
  0.9894018333101213  0.5888797790462630  0.7908720867346977
  0.0171691790402212  0.7890369396704192  0.9789373837569048
  0.9935300089387714  0.7910911983256877  0.6004229323431043
  0.2112615148595573  0.9951095314660868  0.9988712216891691
  0.2152361609982262  0.0134726067675705  0.4132021841551233
  0.2085786295827377  0.2036078194024922  0.0038760045328419
  0.2078377634595711  0.1971696237622883  0.1821369326560133
  0.2064956387935290  0.2101388812126519  0.5939577898791158
  0.2255123880600041  0.2181717225239214  0.8100955664166538
  0.1909591481205460  0.3999350882636800  0.3978229872830656
  0.2123484469396048  0.5950198068727148  0.4146874378647215
  0.1847574446901364  0.5904417027056008  0.5978752270848230
  0.2021255849327286  0.8031099213013927  0.4193345307652816
  0.1959237902175076  0.8125589912655673  0.6083669104790532
  0.3888236281260152  0.9956957974269010  0.9857306907128396
  0.3878875224754866  0.9839410934310003  0.1838105647036759
  0.3914448540871494  0.2006342288544719  0.1919033978531150
  0.4105488060865015  0.4051299130736907  0.3966627762457257
  0.4016188649451795  0.8227195271421054  0.0113927001366315
  0.4082645956313224  0.8070294151252443  0.4235626234494372
  0.6049698204091665  0.0021204601879942  0.0089053110023292
  0.5992394622694031  0.9981896354345516  0.2016336583650649
  0.6052656137382679  0.9956981788710155  0.4187472482735801
  0.6009113549699595  0.0008161628768389  0.6058540320474861
  0.6020439912499058  0.0040682476797527  0.7983282231618972
  0.5981347459401332  0.1855808517124189  0.6009914422521510
  0.5890000964537419  0.3861547863550238  0.9855707767950014
  0.6098815066765654  0.3863265504797796  0.8031956747846793
  0.6120874819963875  0.6070133819247712  0.4024287960153556
  0.6214327488206209  0.6029103319720494  0.6019315951382311
  0.6078430698828057  0.8138668178957263  0.0173503435858241
  0.6087472466078315  0.8077548522531153  0.4083493038506987
  0.8132633385551158  0.0089290802886991  0.9979610339854711
  0.8124757082512936  0.0012371429491490  0.8105158656997532
  0.7902036734577166  0.1945744577429810  0.3949648650451497
  0.7998603162330117  0.1924055094739255  0.6003804418476596
  0.7838189489587218  0.3818657430044347  0.1924290321822534
  0.8034496037975666  0.3958968765293850  0.3957909273392921
  0.7877954059484710  0.3833172348843129  0.7852747831275574
  0.7843314087232111  0.5772011310713736  0.9752581828970702
  0.8047104970154907  0.5979452008291026  0.1953429684403067
  0.8034406916004276  0.5947910332173664  0.5953930034305005
  0.8047611688229478  0.5872605916639275  0.7860616920387977
  0.8086403025717952  0.7919618096981058  0.6063687707272711
  0.8219369124887164  0.7966033225674615  0.7854005741490937
  0.9948525501840909  0.3939021831056059  0.3967634182600326
  0.9997181809180516  0.7873971608979401  0.8071764362556876
  0.1859668974934393  0.8008403980748752  0.9969210011910050
  0.4136447645731565  0.0085030611658490  0.4181402547560275
  0.3927796824494894  0.0110591074349537  0.7952151974031166
  0.3973157147061295  0.2029440123026855  0.9988378340042836
  0.4029391161032563  0.1979282369617026  0.8022181567595645
  0.5946606707593518  0.1921306945200162  0.7938185380514621
  0.7665188407233072  0.3697963499645069  0.9685791925650677
  0.0115992186437519  0.0015597409026912  0.9741511630284369
  0.9926585992440380  0.5925139991216622  0.5948464097914694
  0.0092132165165269  0.8079043018080803  0.4087513098218034
  0.1891290930215947  0.3970015171218230  0.5969988939742251
  0.1939318884669174  0.4111952693103530  0.8048290308707483
  0.1848136906174784  0.6206627345041538  0.2281897433027236
  0.1925415683573644  0.6052160768657132  0.8003463723341711
  0.1867578507333223  0.7964413768329572  0.7975319116293650
  0.3987528539376702  0.0017797392620698  0.6029389264973337
  0.4097297079261502  0.2006006474452225  0.6068157931776124
  0.3958813012763333  0.4064844390221821  0.0029176212237278
  0.4069086517352994  0.4036168801443411  0.2031228821273098
  0.4001316330242486  0.6151725537468702  0.9994503002827126
  0.4120198909271177  0.6051591697003040  0.4068494829511014
  0.6035406558156170  0.4032738077292802  0.1913713578024149
  0.6036373086743684  0.4004950913048638  0.3964095790556550
  0.6109380542445282  0.3940086317905960  0.5989801524976435
  0.6013599359552062  0.8086213114270455  0.2035557678277824
  0.6177564176527260  0.8055533953492917  0.6054437734309783
  0.7997251868546991  0.0130158352757311  0.4029420349665629
  0.7995397734211960  0.9932146526250534  0.6091722080842670
  0.7872223967379481  0.1886553630205473  0.9906559538681327
  0.7971826919486535  0.1986048832701061  0.2018648084735059
  0.7936408602980980  0.1922144435297296  0.7924298712677037
  0.7977899605590901  0.3868919467350270  0.5916310323730811
  0.8047753936978848  0.5969098369826750  0.3961306855605938
