Zr Ti V  Cr W 
 1.0000000000000000
     2.5000000000000000    2.5000000000000000   -2.5000000000000000
    -2.5000000000000000    2.5000000000000000    2.5000000000000000
     2.5000000000000000   -2.5000000000000000    2.5000000000000000
 Zr  Ti  V   Cr  W  
   2   4 112   2   4
Cartesian
  0.0000000000000000  3.0000000000000004  0.0000000000000000
  1.0000000000000000  3.0000000000000000 -1.0000000000000000
  1.4999999999999998 -0.5000000000000000  3.5000000000000000
 -0.5000000000000002  1.5000000000000000  1.5000000000000002
  0.0000000000000001  2.0000000000000000  2.0000000000000000
  3.0000000000000000  0.9999999999999998  0.0000000000000002
  0.0000000000000000  0.0000000000000000  0.0000000000000000
  0.5000000000000000 -0.5000000000000000  0.5000000000000000
  1.0000000000000000 -1.0000000000000000  1.0000000000000000
  1.5000000000000002  3.5000000000000000  1.5000000000000002
  2.0000000000000000 -2.0000000000000000  2.0000000000000000
 -0.5000000000000000  0.5000000000000000  0.5000000000000000
  0.5000000000000000 -0.5000000000000000  1.5000000000000000
  1.0000000000000002 -1.0000000000000002  2.0000000000000000
  1.5000000000000000 -1.5000000000000000  2.5000000000000000
 -1.0000000000000000  1.0000000000000000  1.0000000000000000
 -0.5000000000000000  0.5000000000000000  1.5000000000000000
  0.0000000000000001 -0.0000000000000001  2.0000000000000000
  3.0000000000000000  1.9999999999999998  0.0000000000000002
  1.0000000000000000 -1.0000000000000000  3.0000000000000000
 -1.5000000000000004  1.5000000000000004  1.5000000000000004
  1.4999999999999996  3.5000000000000009 -0.4999999999999996
 -0.5000000000000002  0.5000000000000002  2.5000000000000004
  0.0000000000000000  0.0000000000000000  3.0000000000000004
  3.0000000000000000  1.9999999999999996  1.0000000000000007
 -2.0000000000000000  2.0000000000000000  2.0000000000000000
  0.9999999999999999  4.0000000000000000  0.0000000000000001
 -1.0000000000000000  1.0000000000000000  3.0000000000000000
  2.0000000000000000  3.0000000000000000  1.0000000000000004
  0.0000000000000001 -0.0000000000000001  4.0000000000000000
  0.5000000000000000  0.5000000000000000 -0.5000000000000000
 -1.5000000000000000  2.5000000000000000  2.5000000000000000
 -1.0000000000000000  2.0000000000000000  3.0000000000000000
 -0.4999999999999998  1.4999999999999998  3.5000000000000000
  0.0000000000000001  0.9999999999999999  4.0000000000000000
 -0.0000000000000000  1.0000000000000000  0.0000000000000000
  0.5000000000000000  0.5000000000000000  0.5000000000000000
  1.0000000000000000 -0.0000000000000001  1.0000000000000000
  1.5000000000000002 -0.5000000000000002  1.5000000000000002
  2.0000000000000000 -1.0000000000000000  2.0000000000000000
 -0.5000000000000000  1.5000000000000000  0.5000000000000000
  0.0000000000000000  1.0000000000000000  1.0000000000000000
  0.5000000000000000  0.4999999999999999  1.5000000000000000
  1.0000000000000002 -0.0000000000000002  2.0000000000000000
  1.5000000000000000 -0.5000000000000001  2.5000000000000000
 -0.0000000000000000  0.9999999999999998  2.0000000000000004
  0.5000000000000000  0.4999999999999998  2.5000000000000004
  1.0000000000000002 -0.0000000000000004  3.0000000000000004
  1.0000000000000000  0.0000000000000000  4.0000000000000000
 -1.0000000000000000  2.0000000000000000  2.0000000000000000
 -0.4999999999999999  1.5000000000000000  2.5000000000000000
  0.0000000000000002  0.9999999999999998  3.0000000000000000
  0.5000000000000001  0.4999999999999999  3.5000000000000000
  1.0000000000000000  1.0000000000000000 -1.0000000000000000
 -0.4999999999999999  2.5000000000000000  2.5000000000000000
  0.0000000000000002  1.9999999999999998  3.0000000000000000
  0.5000000000000003  1.5000000000000000  3.5000000000000000
  0.5000000000000000  1.5000000000000000 -0.5000000000000000
  1.0000000000000000  1.0000000000000000  0.0000000000000000
  1.5000000000000000  0.4999999999999999  0.5000000000000000
  2.0000000000000000 -0.0000000000000002  1.0000000000000002
  2.5000000000000000 -0.5000000000000001  1.5000000000000000
 -0.0000000000000001  2.0000000000000000  0.0000000000000001
  0.5000000000000000  1.5000000000000000  0.5000000000000001
  1.0000000000000000  1.0000000000000000  1.0000000000000000
  1.5000000000000002  0.4999999999999998  1.5000000000000002
 -0.5000000000000002  2.5000000000000000  0.5000000000000002
 -0.0000000000000002  2.0000000000000000  1.0000000000000002
  0.4999999999999998  1.5000000000000000  1.5000000000000002
  1.0000000000000000  0.9999999999999998  2.0000000000000004
  1.5000000000000002  0.4999999999999996  2.5000000000000004
 -1.0000000000000000  3.0000000000000000  1.0000000000000000
 -0.5000000000000000  2.5000000000000000  1.5000000000000000
  0.5000000000000002  1.4999999999999998  2.5000000000000000
  1.0000000000000000  0.9999999999999999  3.0000000000000000
  1.5000000000000002  1.5000000000000000  3.5000000000000000
 -0.4999999999999993  3.4999999999999996  1.4999999999999998
  0.0000000000000006  3.0000000000000000  1.9999999999999998
  1.0000000000000009  1.9999999999999996  3.0000000000000000
  1.4166666666666667  2.4166666666666670 -1.4166666666666667
  2.0000000000000004  1.0000000000000002 -0.0000000000000002
  2.5000000000000009  0.5000000000000002  0.4999999999999998
  3.0000000000000004  0.0000000000000003  0.9999999999999997
  3.0000000000000000  0.0000000000000004  1.9999999999999998
  1.0000000000000004  2.0000000000000004 -0.0000000000000004
  1.5000000000000002  1.5000000000000004  0.4999999999999998
  2.0000000000000009  1.0000000000000002  0.9999999999999998
  2.5000000000000004  0.5000000000000000  1.5000000000000002
  0.5000000000000000  2.5000000000000004  0.5000000000000000
  1.0000000000000000  2.0000000000000004  1.0000000000000000
  1.5000000000000002  1.5000000000000002  1.5000000000000002
  2.0000000000000000  1.0000000000000004  2.0000000000000000
 -0.4999999999999999  3.5000000000000009  0.4999999999999999
  0.0000000000000004  3.0000000000000004  0.9999999999999997
  0.5000000000000002  2.5000000000000009  1.5000000000000002
  1.0000000000000004  2.0000000000000000  2.0000000000000000
  1.5000000000000002  1.5000000000000009  2.5000000000000000
  2.0000000000000000  2.0000000000000000 -2.0000000000000000
  0.0000000000000000  4.0000000000000000  1.0000000000000000
  0.5000000000000002  3.5000000000000000  1.5000000000000002
  1.0000000000000002  3.0000000000000000  2.0000000000000000
  1.5000000000000000  2.5000000000000000  2.5000000000000000
  2.0000000000000000  2.0000000000000000 -1.0000000000000000
  2.5000000000000000  1.5000000000000000 -0.4999999999999999
  3.5000000000000000  0.4999999999999999  0.5000000000000001
  1.5000000000000000  2.5000000000000000 -0.5000000000000000
  2.0000000000000000  2.0000000000000000  0.0000000000000001
  2.5000000000000000  1.4999999999999998  0.5000000000000004
  3.0000000000000000  0.9999999999999999  1.0000000000000000
  0.4999999999999998  3.5000000000000000 -0.4999999999999998
  1.0000000000000000  3.0000000000000000  0.0000000000000000
  2.0000000000000000  1.9999999999999998  1.0000000000000004
  2.5000000000000000  1.4999999999999996  1.5000000000000007
 -0.0000000000000001  4.0000000000000000  0.0000000000000001
  0.4999999999999999  3.5000000000000000  0.5000000000000001
  1.0000000000000000  3.0000000000000000  1.0000000000000002
  1.5000000000000000  2.4999999999999996  1.5000000000000009
  2.0000000000000000  2.0000000000000000  2.0000000000000000
  2.0000000000000000 -0.0000000000000001  2.0000000000000000
  0.5000000000000004  2.5000000000000000  2.5000000000000000
  0.0000000000000000 -0.0000000000000000  1.0000000000000000
 -1.0000000000000000  3.0000000000000000  2.0000000000000000
  1.5000000000000004  1.5000000000000004 -0.5000000000000004
  1.4999999999999998  2.5000000000000000  0.5000000000000002
