Zr Ti V  Cr W 
 1.0000000000000000
    15.4130707530377506    0.0419489853129985    0.0168609652668276
     0.0419326931251066   15.3714448254399301   -0.0071074434449055
     0.0169613116349140   -0.0072401841005247   15.4934616526513942
 Zr  Ti  V   Cr  W  
  10   9  92   5   8
Direct
  0.0492564997509623  0.0028616722934787  0.9748445304857446
  0.2696970851918076  0.0148119650003086  0.0140492195782750
  0.4373745510484806  0.9929191756649777  0.1589210240550882
  0.3929091882392623  0.4014195723194773  0.3577969664662068
  0.4058575424541848  0.8194768864065828  0.0009360956006228
  0.6083135131115289  0.9862436037338130  0.0011740337981098
  0.7898131134934864  0.9971025602562432  0.8358186352544773
  0.7790049572342276  0.1631383237201189  0.4039876865416632
  0.8052391294846734  0.3811299686700961  0.3969717882593100
  0.7906458015046202  0.6100151878164343  0.4023868571476140
  0.9908907537623416  0.2182762579892617  0.4269632248649351
  0.9958501897409842  0.3881339112037329  0.5914792368596498
  0.9862629595164917  0.6104608709967284  0.9965123870639068
  0.1957006987611381  0.9742799670425600  0.7946631068006941
  0.4001825223864597  0.3916680940470528  0.5923611671258113
  0.4029620079016419  0.3927017312768067  0.8103449639637926
  0.3988226608513111  0.6066526260742162  0.5976698059527139
  0.6008948503612356  0.7824508998137583  0.3976213256131596
  0.8234439141012919  0.9948973875681991  0.0328416503563886
  0.9997460840417878  0.0047013823621116  0.2109321806396986
  0.9939863651769695  0.0009752423903064  0.4032562326365470
  0.9979136186629323  0.0043199280786448  0.5978505587527027
  0.9945923306890231  0.9972656222960069  0.7878839161123464
  0.9981692089802688  0.2013549837991818  0.9985227437866453
  0.0004034216911521  0.2063964066848397  0.1935698811562143
  0.9987851820599225  0.1978162398614046  0.8026593460039539
  0.9984946485857220  0.4024296812116275  0.0035387198980925
  0.0073679837186366  0.4103325505080859  0.3909095161684242
  0.9997580503387362  0.4018982884105179  0.8061458713392690
  0.9991449223285883  0.5977852566905161  0.2033565346804765
  0.0003674264388581  0.6013740394968736  0.7953733824711903
  0.9974080870787038  0.8029194725967599  0.0026426150446226
  0.9997118680220186  0.7996696497580048  0.2006400237847127
  0.0009702229652598  0.8011356488068664  0.4029255021672656
  0.9976475814708203  0.8054368420958199  0.6020775366380292
  0.9958968225238712  0.8030111229985537  0.8035923367716672
  0.1899426396022103  0.0056337367587027  0.2072650154806577
  0.1979170493717771  0.0025604522885701  0.3981723782890823
  0.1977565284038821  0.0033927805742859  0.5947308461957134
  0.1954544637252471  0.2050034920732773  0.9985309792043857
  0.1989860203903507  0.2047350791206072  0.2005971705200246
  0.2001093754679468  0.2033980213749412  0.4024208350954531
  0.1997424012886672  0.2152936926838828  0.7988717919118625
  0.1975637154966627  0.4054305734656683  0.0015917414031860
  0.1943947525555390  0.4018858224024621  0.3955452664187836
  0.2032400858005841  0.4028921373972719  0.6023376700383595
  0.2032302412106917  0.6059113185246455  0.9978152623149315
  0.1991697350269796  0.5988813879180567  0.1984272582520080
  0.2021083816134563  0.6007365065208722  0.4055912382417721
  0.1942667805580108  0.6015571335564898  0.6044900357399562
  0.1939657046000519  0.8067027513926894  0.0006249591184403
  0.1975467443441386  0.8005412876406635  0.2013683925294595
  0.1991656223769472  0.8008255594043092  0.4016203031414857
  0.1971677940110904  0.8049981336870301  0.6013813437323154
  0.1983669290286065  0.7857811810306778  0.8017797285014905
  0.4368486933333305  0.0800344908708359  0.9449157948673116
  0.3974385425699696  0.9966310743049031  0.3968761959782948
  0.3985155949372973  0.9996786594732889  0.5926796766070979
  0.3931417196772637  0.9960412933157714  0.7859883052241151
  0.4008145213400088  0.2021925632852885  0.1986261896197161
  0.3941223933851370  0.1933840576124198  0.3982414949688245
  0.3966124140065619  0.1942083724079516  0.6003570413852666
  0.3958063382588096  0.1943293517489511  0.7979953486453680
  0.3990855655780105  0.4018297435783048  0.9993574685005526
  0.3938507372679833  0.3998069264690348  0.1712647050924918
  0.4048672780783172  0.6085766162872596  0.9996186798146417
  0.4001771632523252  0.5998662076515996  0.1995360788211434
  0.3971105469602990  0.6051438608559252  0.3991735811406946
  0.3952401913855518  0.6036359481124457  0.8005138481877032
  0.3968394337861797  0.7948744143401659  0.2073038483088629
  0.3963104348191619  0.8008873312359549  0.3994485802133200
  0.4001240745420094  0.8023638354803267  0.5989006885470083
  0.3957602816326420  0.8004505598466248  0.7963123976437421
  0.5923792252191974  0.9921065504788960  0.3991548846114774
  0.5982964159445950  0.9963567634701627  0.5993811822831229
  0.5872201945454424  0.9988479728158141  0.7961054017636606
  0.4284640041153418  0.2028489514032525  0.9991151058950040
  0.6003749786271961  0.1976115608371039  0.2049598995141239
  0.5858617887855107  0.1997031727740147  0.4023901085728866
  0.6034066399898133  0.1970626415383371  0.5970650273258598
  0.5985183281739614  0.2012011089743475  0.7901070392226448
  0.5992103113220186  0.4007158206355823  0.9995348310931763
  0.5989462186670189  0.3962736571086258  0.2018487850876413
  0.5965899567769145  0.3966985574935072  0.4000033900271623
  0.6009817236652378  0.3996541523290543  0.5982254805986222
  0.5997776111840859  0.3975866865617282  0.7982962530419017
  0.5995380814154404  0.5952493316365099  0.1977258544297890
  0.5892604703409876  0.5902857853197462  0.4011283882445960
  0.6010043724565817  0.5993934754828419  0.6010718002462990
  0.6073281648699984  0.7839065491318764  0.9991192983222085
  0.6018443949606798  0.7969268111715152  0.1976867133561754
  0.5961007125967759  0.7969136241213279  0.8019026216177968
  0.8034712534286498  0.9984346303210447  0.2194541790026455
  0.7939246871241329  0.9756333917185003  0.4083051033186414
  0.7963824708092688  0.0029334765590157  0.6014154945388963
  0.7988891684788975  0.1976860896931362  0.1949766163934762
  0.8039987304443210  0.1999554461523624  0.6109494699303432
  0.7953432185409461  0.2038882278590095  0.8082022505901293
  0.7979548972582068  0.3920684029676292  0.9984641141797729
  0.8047735999733063  0.3962015073394893  0.1928017061772648
  0.7962096609464523  0.4016868933526091  0.6060541236450830
  0.8005166500245093  0.3999418163921841  0.8027810008400634
  0.7906841635295477  0.5956350094435966  0.9994777585670542
  0.8002956386710097  0.5972977916025602  0.1966714676571951
  0.8034519439909378  0.5999828572337913  0.6084279927396699
  0.7987570449802678  0.5974879539323426  0.8036055626055272
  0.8014882117130129  0.7985284571973419  0.0015116999540168
  0.8017995399711687  0.7988268445141997  0.2014015324697929
  0.8005361318421085  0.8040193427652893  0.4013099423735426
  0.7972175217953428  0.8033295259120413  0.6079842095141936
  0.7969331958176525  0.7940326261722895  0.8030276668338868
  0.0021009032695680  0.6043808753061003  0.4030124565162628
  0.1978173558627327  0.2017086526276395  0.6019376595489356
  0.6135543145329272  0.9990899366273979  0.2045494128763944
  0.5967602207660957  0.5964878656517522  0.7998831084837024
  0.5990176874852258  0.7978084977556977  0.6045756414910811
  0.0011840286378338  0.1960882689042223  0.6132341693102136
  0.0014945983551606  0.4012491345806307  0.1982548667911910
  0.9979014524271410  0.6155963137589853  0.6020205776461364
  0.1993614918968408  0.4030783497666784  0.2000488769157776
  0.1932731011079079  0.4070513397911930  0.8024889670396338
  0.1980142595791936  0.5922262065464926  0.8014483755977689
  0.5980546340673981  0.5937911775160951  0.0024416552603850
  0.8087163362153321  0.1775825620182248  0.9974953094552201
