Zr Ti V  Cr W 
 1.0000000000000000
    15.4244097105604929   -0.0012107223225386   -0.0042394490092486
    -0.0012099076426666   15.4412294863263000   -0.0024734284807045
    -0.0042424892746054   -0.0024736538270091   15.4407019588637713
 Zr  Ti  V   Cr  W  
   1   3 110   3   7
Direct
  0.4016622526017595  0.4037461288454045  0.1974912990789263
  0.9998589971511043  0.3905973395859363  0.0009688318575523
  0.1988247708500656  0.9967797705821052  0.4003229003030725
  0.7995841923317021  0.5998878593644156  0.2131415887456538
  0.9993911600050229  0.0019158085435169  0.0005206829100017
  0.9998240982376154  0.0005161179646118  0.2005281379736953
  0.9973873718136937  0.0003078855625167  0.3995369540445966
  0.9996139610603311  0.0014172011834468  0.6005697537493436
  0.9997375106057024  0.0000433432587064  0.8000650530650908
  0.0000696796305590  0.2005064526116272  0.3997405714733163
  0.0000433008909673  0.1989887790273454  0.6010543485204338
  0.9997312547243016  0.1996682487535552  0.8027936205857102
  0.9991561495110288  0.3982809458927896  0.2013954677729129
  0.9996877203958699  0.3992932360556723  0.3998426929384170
  0.9994432823542447  0.3979735648982906  0.6003566550371633
  0.0008874361093421  0.3987913536206852  0.7973969582878300
  0.9952878037588914  0.6000167799084951  0.0016803464127642
  0.0022027835114866  0.5999709390590695  0.1991021337891485
  0.9984966853128321  0.5990728646710060  0.3996907728252127
  0.9999934147410274  0.5997400011239078  0.6007794683250834
  0.0009257564011090  0.5995184316202492  0.7993568426584736
  0.9999837990776140  0.8006048150206680  0.0009648004571117
  0.0004522554841959  0.8020195607377208  0.1986598918544726
  0.0035138734329898  0.8011877356864346  0.3990226887720277
  0.9995397002690718  0.8012098609354000  0.6009620180249795
  0.0014639204795857  0.8011251658847449  0.8004874169199340
  0.1995217675187868  0.9987996671828390  0.0009000678945737
  0.2001437649183946  0.9994478228766441  0.1989880158494256
  0.1995475996500601  0.9999156083313309  0.6016406303253392
  0.2006251272419637  0.9999392322543182  0.7999378230599261
  0.1960353866494124  0.2004356104108351  0.0003110321899133
  0.2007474457081559  0.2000261329667262  0.2009204515381209
  0.1990922814878858  0.2036573182255623  0.3995582414600484
  0.1999667167840042  0.2002622492902050  0.5998060304295421
  0.2020164537397154  0.2006219867503519  0.7994398224541646
  0.2008128026741517  0.4007318235389553  0.9999453281816602
  0.1951767490910810  0.3995797812810810  0.2006880045176517
  0.1981990596711682  0.4050147301732305  0.4009010489963387
  0.1998957386567858  0.4006076362919798  0.5998643826331300
  0.2002817523718215  0.4005960806629938  0.7989629957522130
  0.1968329455180711  0.5999323689432018  0.0016961590707004
  0.2017209951259459  0.5991187092823989  0.2033782014321908
  0.1991309241501776  0.5988838404327621  0.5968003209503533
  0.1997487695186113  0.6002200685374020  0.8004096149572678
  0.1989642526538524  0.7988669692124746  0.0012084577147009
  0.1997517847026510  0.8010363945403469  0.2050607535029378
  0.2002157744203709  0.8005438538954055  0.5963549548832920
  0.1998374094070871  0.7992339517878271  0.7993580114717501
  0.3992697493682985  0.9994994124992836  0.0003279432585568
  0.4006420397251352  0.9990957165911379  0.1999742710845420
  0.4013525503123772  0.9989741004724504  0.3996035985140413
  0.4005086164125434  0.9995948701984161  0.5999438127144333
  0.3985845892218336  0.9992271425157760  0.8007492853629857
  0.3983942127791501  0.2002805532176425  0.0006937708380548
  0.4000546776165138  0.1967257850598284  0.1992203455594633
  0.3995047970236188  0.2000822639661145  0.3999055533431359
  0.3991326444081812  0.1999032409007640  0.5993552320171993
  0.4039841953947688  0.2006465996943253  0.8007506055426841
  0.4003424454627859  0.3994751342934856  0.9935239441289476
  0.4000245983015954  0.4004568064606500  0.4041796062852862
  0.4003589583266237  0.3992992958428277  0.6010877269688563
  0.4000256145639630  0.4013191910178561  0.7990215957378655
  0.4013185192962188  0.6000253513065018  0.0023096320455810
  0.3951479818438013  0.5987174438897859  0.3954525094874054
  0.4020317315442105  0.6007067795818057  0.6011201108221179
  0.3978698450061338  0.6000439868902789  0.8018079480882853
  0.3994234539586493  0.7998758922529753  0.0002631570940144
  0.4005154967813932  0.7997933170700573  0.1990993675032506
  0.3969850998151137  0.7999728112860498  0.4006631793574947
  0.3993857911113138  0.8002440184352032  0.6004529721279573
  0.4004880497537132  0.7990883103366415  0.7996066895960344
  0.6010855234730180  0.9993462049619406  0.0019036217498727
  0.6000916278387511  0.0003985942172167  0.2000286418941728
  0.6001469627075566  0.9988896622328215  0.4006717073074765
  0.6002186587490016  0.0005682940152210  0.5988715095735530
  0.5997938807448229  0.0003287288525382  0.7997202580500683
  0.6016230251097828  0.2010137660370674  0.9961268088173150
  0.6001783881720429  0.1990546108722674  0.1986144784181585
  0.6005235357108186  0.2007665969153026  0.4002043964887834
  0.5998856739941609  0.2003012587446613  0.6043415486862157
  0.6012229814214426  0.4000792408608611  0.0001048300642937
  0.6053393192281724  0.3971802659226212  0.1997511997323854
  0.6001563976009251  0.3995159645043384  0.3997049698345161
  0.6001555172147469  0.4003769760775743  0.5997299486530170
  0.6039243420096329  0.5998801340958446  0.0032758539545157
  0.5950859247343490  0.6000520620638721  0.2005365465725652
  0.6024811918484498  0.6015177646538075  0.4005319882761815
  0.5985133189355738  0.5986953784704083  0.5981186992145447
  0.6001770233764198  0.7996011435836817  0.9998749777150950
  0.5985396870512081  0.8001742972496618  0.3996388705634309
  0.5988448633508647  0.7008582038125053  0.6992507651648399
  0.5992783148161591  0.8021720759010179  0.8012649221491096
  0.8002382004849568  0.9974881618867338  0.0010777393162786
  0.7995077373201621  0.9993518816364060  0.2007874828086310
  0.8001116603586672  0.9987756632468837  0.3995138920312983
  0.7992645934739037  0.9987174806008522  0.5989162056441109
  0.8010375297777876  0.9985474407049137  0.8004093761373547
  0.8049488348192591  0.2021372951172469  0.0008857372043541
  0.7991933543361101  0.1996010128560920  0.2003336670424532
  0.8003607547386191  0.2011787394504855  0.3996476161691616
  0.8009222155934332  0.2007381141615922  0.5992550225350489
  0.7955983127071660  0.2011775772755538  0.7997582886257928
  0.7982309499435960  0.4044403364129426  0.9999480330348902
  0.8010935639879188  0.3980372123663548  0.1998261074563687
  0.8008332609130818  0.4047763186415778  0.4000754627020840
  0.7998078554259477  0.3995262796678372  0.5999487909602024
  0.8006222504315574  0.4010735476106153  0.7979935743458412
  0.7983538921234349  0.6003985560899560  0.5992352103247350
  0.8018229559268859  0.5999282812183240  0.7989036610250821
  0.8002398865588540  0.7952000798968001  0.0007401861595890
  0.8001894237096787  0.8014553217209345  0.2003820769163944
  0.8002629909560006  0.7959684639847063  0.4003607195632414
  0.8019465448076843  0.8002447527586419  0.5996072021028807
  0.7986470213540635  0.7994591888129442  0.7975984274574572
  0.9998329233364748  0.1989131041262577  0.2001290021253791
  0.6000486073718471  0.4073989369553773  0.7999205744510296
  0.5995727608527551  0.8009276970681870  0.2001811380525352
  0.9999805475538884  0.1957801507562849  0.9977236557942785
  0.1969988698845856  0.6022066048953120  0.4007730680107277
  0.1986563678833308  0.7917401219457335  0.4002939924600866
  0.3985991432631683  0.6047304237585962  0.1996183318723409
  0.6002187115662223  0.1936343647874179  0.8011375002208339
  0.7980216730325745  0.5994924366636155  0.9927137155842169
  0.8009946364122044  0.6007044106371133  0.4049359601131433
