Zr Ti V  Cr W 
 1.0000000000000000
    12.9591978573688582    0.0569286067707885   -4.6595471477297732
    -6.4236918964124836   11.2982696861547964   -4.6407273346723512
    -0.0330687606954278   -0.0341668558172510   13.8849168996373802
 Zr  Ti  V   Cr  W  
  30   9  50   8  27
Direct
  0.0231272625762596  0.0126612144825505  0.0091017415282410
  0.0064715437769029  0.1854812723049957  0.1925458249984397
  0.0012752795637476  0.6061891703193741  0.5968065798705103
  0.9979330919174945  0.6076314424387379  0.8093320530552918
  0.9908863784028319  0.7893554497973645  0.0020579632771487
  0.2063833557958842  0.0110092991464223  0.2012860493097556
  0.1904863949960063  0.9866994584977087  0.3931803735635239
  0.1492881216055182  0.1461039392854774  0.7348494617393229
  0.2030632761065307  0.4047190037585439  0.3926030792725758
  0.1829926280985237  0.4127053627738652  0.5950800897634558
  0.1460742955317277  0.3750934256968871  0.7805544811867589
  0.2108006041165196  0.8043352822069746  0.0042934171499829
  0.3996682328772723  0.9982263927724864  0.5954707673083365
  0.3997651001058851  0.2047043331252033  0.0007884102100881
  0.3908711448942694  0.2057532057979517  0.5939162149358316
  0.3814139882045723  0.3924954781573620  0.7893191317004857
  0.3870937303534616  0.5956249454130477  0.0008343317177914
  0.4119925509237176  0.6108955050972547  0.5978735092075513
  0.5898032924759020  0.9959253124684943  0.9952953939051064
  0.6105689667410518  0.2040617147165952  0.3976442539738922
  0.5900140384265200  0.3996539353062749  0.0054621434638279
  0.6027671853960994  0.3985120702467196  0.8039571986818582
  0.5953873512630190  0.5957614387691238  0.1987422988723371
  0.6059394400171668  0.8078798686640304  0.8114729362074329
  0.7963176707043895  0.0001273525645634  0.3896196863523727
  0.7981774683504651  0.2013094561094197  0.2080205183111806
  0.8535312887049611  0.2505213964965517  0.4378430601106951
  0.8189563089192010  0.2066484618961811  0.6157917334363575
  0.8177763113860039  0.8104624823386518  0.4211512876385247
  0.8048224232508950  0.7970273565236851  0.8036656951268160
  0.9961111139882405  0.9951721011525817  0.7896902805593231
  0.9990413340640223  0.2072391608926799  0.9991994648447982
  0.0077312855842690  0.4277282770455703  0.4071574762131330
  0.4045814892119049  0.4082490858568195  0.1994694732408216
  0.5930712506076872  0.9932520281353695  0.2027503417714103
  0.6051117817263956  0.2017910522724218  0.6072040364374416
  0.5944208485078656  0.7951136276254126  0.0181151011356405
  0.7982048600768160  0.9916940656634621  0.6143115925838739
  0.7914590859436903  0.7771674106582965  0.5979018579474540
  0.9711485813273845  0.9599894172550513  0.1872298554960517
  0.9872531212663767  0.9660975710888899  0.3845253178840073
  0.0052858358399298  0.1707924602052279  0.3724200186567334
  0.0091908977320026  0.0787820015962891  0.5589910888478468
  0.0015030773519114  0.2107116366149459  0.8213659985918572
  0.9986860078695198  0.5942806871392311  0.0128115819643280
  0.9893546026618214  0.7815624033076282  0.1969651903002186
  0.0059855612760183  0.8054831436279355  0.6041962634427219
  0.0159999941412257  0.8138507793294830  0.7925952101537075
  0.2169550140371359  0.0108880661176250  0.9915421897390621
  0.2219452393159020  0.2094523746465073  0.3879627291200366
  0.1881441912108828  0.5963240711230680  0.0119366707101671
  0.2019973935416630  0.6045672551326488  0.2063006873367024
  0.2014052200134232  0.6113503544121450  0.3988173811235174
  0.2135700667103787  0.6299976803722604  0.6077147438670485
  0.1972285692224597  0.7828376458637960  0.3908957056208102
  0.2028613641971436  0.7990036755928278  0.5942452922277524
  0.2114072837272903  0.8100781971551224  0.7995700467475659
  0.3964616693529978  0.0031628892212798  0.0064782229752213
  0.4071206158298133  0.9986049993520247  0.3907833298907369
  0.4034000304368355  0.0015103346060004  0.8015915864361060
  0.4072488098463858  0.2057606591599023  0.2055440441268486
  0.3955382759303646  0.1723842714809282  0.7891775093258904
  0.3270237436536798  0.3700136682482454  0.9725612275554704
  0.4117391481018129  0.4047461654387121  0.3983558306782436
  0.3894089653619183  0.6071403317515427  0.2084045940189573
  0.3987280641870776  0.6018361103467456  0.3877565147283265
  0.3999997702114535  0.8070580729314911  0.0014027807067842
  0.3988255822070870  0.8000476014567096  0.2072280194566375
  0.3987498602214691  0.7971836910447602  0.3993056390073901
  0.3872921368644833  0.7973396864908214  0.7877772471408526
  0.6067930127540790  0.0004807171772008  0.6051709360892786
  0.6046372583995338  0.1992047894244774  0.8119184686681024
  0.6158009497719934  0.3974310902948667  0.2222085855582265
  0.6034945432969319  0.4090770559536453  0.4014777641783091
  0.6028325646559239  0.4041256995961101  0.5952086476491942
  0.6075450189764331  0.5946133363602799  0.5906897039876300
  0.5867217311032841  0.7972172303552615  0.2145083103528525
  0.5989810696975496  0.8052111893487217  0.5946699335390462
  0.8042871773202578  0.0048271350768615  0.9964327515717707
  0.8074032811034313  0.9815463030219405  0.1823412141823591
  0.7929454776177295  0.0030725242902935  0.8030160024894138
  0.8020633615206942  0.4023368145503330  0.0072977639277572
  0.7907739439528559  0.4126898438549869  0.3942570896503333
  0.8045979365792658  0.5965916136260361  0.0104789497085315
  0.8085590447899309  0.6008010390836888  0.2053545135065956
  0.8025303492972500  0.5961079425427673  0.4022892497623126
  0.7907487608197949  0.5920360111783878  0.5996048826358228
  0.7834575537172385  0.7758476591540940  0.0015490754803984
  0.7982729662418548  0.7893592770839735  0.1988899262761007
  0.0067692683395229  0.4354991670783822  0.6451154621461596
  0.9974829805022334  0.4120475443675618  0.8237483787254057
  0.0039522238832164  0.6042694489667417  0.3968711840942115
  0.1901652720001510  0.9755438426527999  0.5951221732224289
  0.2362349018278315  0.2323654697116314  0.2120588502908837
  0.1915945281910259  0.4084940754343313  0.0116515710335452
  0.5953106637827218  0.2080729838725691  0.1921304410689603
  0.6038556780273494  0.5990152715298678  0.8064863142593207
  0.0003719933739860  0.4062431083437742  0.0069990055184112
  0.0022548096739449  0.4056602039667703  0.2005162131447005
  0.0010677895617104  0.5989222538194408  0.2036260275401346
  0.0058606267243755  0.7867289042898988  0.4001617195776249
  0.2023648865146249  0.9870689290879199  0.7882453418330695
  0.1974667050373335  0.2069135180840495  0.0020811607622565
  0.1665377879924229  0.1808977342164654  0.5525346074227939
  0.2055405010021180  0.4103623518521727  0.1996904490624637
  0.2117166975103907  0.6174603272245792  0.8057701821734956
  0.2019393120996976  0.7923784211852011  0.2072807403903550
  0.4062855142541204  0.0022897670167401  0.2020616168167197
  0.4108512064034709  0.2121383486016606  0.3988794524958083
  0.4169410389206120  0.4131693170831273  0.5984532321696673
  0.4033338779526027  0.6141936993282553  0.8032121636385364
  0.4013669397310663  0.8024393546827413  0.5939025627093117
  0.5928428252846526  0.9923143389587024  0.4077644331383048
  0.5984498851249078  0.0040127473776408  0.7938477117372063
  0.6058279622649586  0.2045743102427948  0.0053964643518641
  0.6087376551113300  0.6073842341782069  0.9958240995484307
  0.5986515948759837  0.5976801338817546  0.4025960797332824
  0.5934262137189400  0.7963177347521352  0.4028158311711565
  0.7996233770249379  0.2033583556440600  0.0021992613160191
  0.7992040128361837  0.2012891515142293  0.8082139451604797
  0.8057153430336712  0.4107402668336153  0.2056862752044090
  0.8015927586114915  0.4097100300406611  0.6063645970832465
  0.8055255315357570  0.4016212858844692  0.8085447172916795
  0.7837488762788561  0.5880023993565998  0.7995452647689973
