Zr Ti V  Cr W 
 1.0000000000000000
    15.4119853477336850    0.0092002105036784    0.0075686985216924
     0.0091978282521091   15.4168317070722267    0.0033033723005877
     0.0075647771218920    0.0033039266611125   15.4231482065347798
 Zr  Ti  V   Cr  W  
   1   3 110   3   7
Direct
  0.3994838091957695  0.2004687447888605  0.5978328155988343
  0.9993682626329241  0.2164283884857902  0.0051539498967907
  0.1694214495604113  0.3993343419784176  0.1944563711726941
  0.4016429526034948  0.9971780424963017  0.0081249563723754
  0.9998635886313917  0.9982574753320183  0.0008255297696986
  0.9991176899151840  0.9986060182997442  0.1997185427679978
  0.0008682984719770  0.9984509018046450  0.4002597991906526
  0.9987760863026415  0.9995650672436558  0.5998034377735895
  0.9998997792613510  0.0005628760878349  0.8011791648776374
  0.9998216231438846  0.1967384703681125  0.2012477409178056
  0.0040129207570183  0.1997728093392545  0.3983417072995724
  0.9974201409365668  0.1995769284745399  0.6002015812311505
  0.0005859261606620  0.1996727027622604  0.8002598898500365
  0.9991686036229168  0.4013325646169617  0.0644023714571051
  0.0008259617136972  0.4012360267824638  0.4018172682709987
  0.0023264773662984  0.4013300272322519  0.6009298849694878
  0.0001832785617048  0.4003097407700074  0.7990258204641333
  0.9993181110113373  0.5989929311275590  0.0015292559444264
  0.0006266692884094  0.6017828537054198  0.2004905492985776
  0.0013909434633869  0.6003484169299791  0.3989609353704537
  0.9984999967063002  0.6001344091291644  0.5989637934176860
  0.9993985678425633  0.5996482744406262  0.8011702134003148
  0.0006531916905430  0.7990846895563297  0.0006714966631570
  0.0012149313763927  0.7994812661644768  0.2004830394818794
  0.0032986980758016  0.7998637395505742  0.4003887840994340
  0.9998713028852010  0.7990222298524707  0.5993314414209396
  0.0043585661086973  0.7992399044434627  0.8001290452057505
  0.1982885053947203  0.0017699740494455  0.9996259219269722
  0.1995065124526321  0.9999664298451773  0.1987578983684976
  0.2007212570955114  0.0043488879686193  0.4010836778148775
  0.1987794339001011  0.0010526437891810  0.6006397473719992
  0.2004991684216648  0.9974909373106383  0.7993909163673437
  0.2055819237862460  0.2008985090028897  0.0003514832307177
  0.1997394501786817  0.1977946458294772  0.2037611290363855
  0.1944410979119577  0.2029701442364379  0.5965774335735390
  0.1998891942815789  0.1968893081046320  0.8008969784488342
  0.2007481618758922  0.3998112445967651  0.9945631156818829
  0.1999741251933037  0.3949155236521064  0.4073008941607812
  0.1998808822264793  0.3990889588131827  0.7956967065710537
  0.2020562657237821  0.5980954558908228  0.0002579723221887
  0.1989804735699201  0.6013153776900759  0.1993828886427472
  0.2052576947041439  0.5992137240295266  0.4002288708540091
  0.1997692730334654  0.5949862939549035  0.6002400106821770
  0.2009280740866302  0.6035618488992064  0.7994407774224833
  0.2011767829851144  0.7997670486706446  0.9954614112322934
  0.1997368841093111  0.8013174256139746  0.1983460021663604
  0.2035823596236524  0.8021744383451253  0.4016774575113333
  0.2000449898098692  0.7990102826941322  0.6038488651160848
  0.4004369167832844  0.9985917044325971  0.2021001359640907
  0.4013266746746902  0.9948848024627658  0.3990631259164223
  0.4021306986546531  0.9949909468225275  0.5990526743569916
  0.4004939133724018  0.9983878359965630  0.7982037209065797
  0.4042136653256175  0.2027548012199581  0.0019872032749587
  0.3997161241214562  0.2016816281024693  0.1987986703079077
  0.3973589635594861  0.1987072374085630  0.3924592961914042
  0.4001398072030631  0.1983872125692788  0.8043463968291891
  0.3990024363877915  0.4021219975641075  0.0009378412648302
  0.4021602875462124  0.4018169888125647  0.1995710083758818
  0.3993281888485216  0.4046418708156228  0.3965231794595301
  0.3959603539764200  0.4054346102011671  0.6006100514090646
  0.3987313813526132  0.4014130222062418  0.8002969301178521
  0.4020060942898589  0.5998760844469961  0.0021315458623866
  0.4001371482465344  0.5991322035371772  0.2033496256071366
  0.4055778707899884  0.6005986339930349  0.5951517310050332
  0.4008035391535094  0.6009636150021196  0.8005725606419449
  0.4005677864405621  0.7972051481360530  0.0023189581313424
  0.3994614162474309  0.7999260929770788  0.2027217130983240
  0.3998422507926729  0.7984007975865001  0.5956868627501219
  0.3955632928830129  0.7997600222159437  0.7997629743374426
  0.6026581444323279  0.0045095294511612  0.9993180821095952
  0.6014340313190883  0.0010075342162081  0.1996311053672234
  0.6002089047633428  0.0005834522061332  0.4006744395099673
  0.6027985088799566  0.9988409556573021  0.6003408415935884
  0.6000982440117438  0.9998399624654174  0.7992624489982811
  0.6010162177917306  0.1995915545389949  0.1962747055178382
  0.5991412598154611  0.1996512227667520  0.3981031422209722
  0.6008668313377320  0.1999769861544673  0.8032815079611627
  0.6006872599977763  0.3971687010571256  0.9975969210836620
  0.6012061217403004  0.3996092653831006  0.1999170221478880
  0.5998877823782115  0.3982166122276586  0.4007152617835670
  0.6010193766270898  0.4024217332829983  0.6005461053097475
  0.5987654942487111  0.3992643331444364  0.7989104470786970
  0.6001872592636951  0.5985820068691298  0.9992005865177387
  0.6020839183015817  0.6000570780217938  0.1993930209071911
  0.5972721199774347  0.5990888109397143  0.4035113027261469
  0.5996708072734931  0.6004353320648858  0.7967858771549652
  0.5992461409724585  0.8013344995792466  0.9987521497645511
  0.6005600553285914  0.8003949411529241  0.1990984037098540
  0.5962491317411316  0.8018023323978850  0.3998431758139533
  0.6008553271478808  0.7960696205123247  0.6014947540428582
  0.5980978024176159  0.8010954303930662  0.8004984378510067
  0.8014907495710075  0.0004250340500370  0.9997181020852438
  0.8009186094476000  0.9989213234952248  0.2004716754331846
  0.8004202592401473  0.9994787398885168  0.6000738468785000
  0.8011745013552416  0.9990154404170505  0.7994092099532297
  0.7944953265575118  0.2009448945087528  0.0002997994840050
  0.8022375119706650  0.1996320385494607  0.2006651635268283
  0.8005899510251725  0.1999414402806935  0.3994895238297768
  0.8010618357111753  0.2005675783821644  0.5989618933534837
  0.8012354005354888  0.1987930577910361  0.7999348369193241
  0.8004909724646609  0.4000285983075244  0.0000655275788194
  0.8013640892870243  0.4001530482671017  0.1997939311234883
  0.8023839278732340  0.3988316956150692  0.3987016910049482
  0.8016266244932072  0.3992479654625387  0.5995016087816426
  0.7993769082276015  0.5988284492901688  0.9999256884800266
  0.8009791417386474  0.5987794923539499  0.2007082487969955
  0.7994349148134916  0.6002034188559809  0.3991950031508828
  0.7970416875972410  0.5992126413119840  0.5992137462861175
  0.8005759336727963  0.6006286163616391  0.8004940114112287
  0.7996347361668732  0.7993986947148124  0.9997037694889634
  0.7998450259420565  0.8001793222889488  0.2001242191478660
  0.7997345938914464  0.7998501291420634  0.3995620826667960
  0.8005019153972714  0.7996236373657977  0.5996460968095731
  0.8017018319236857  0.8008917174194347  0.8006195074073352
  0.6040312980535819  0.2004964550868749  0.6007447369404969
  0.8003039024286929  0.0000521894726428  0.4000854322734278
  0.8001577499547848  0.3998814040609789  0.7990164635558989
  0.2028702819147110  0.1996581340862978  0.4009538067300263
  0.1998241844855401  0.3984963902491460  0.6019923506598304
  0.2001804961722261  0.8001213857046769  0.7989677209649495
  0.4013075562534748  0.6036686271325099  0.3987540760233566
  0.3986972739425346  0.7975535381940361  0.3987669363754828
  0.6000982630626057  0.2016878473438931  0.9993236898391935
  0.6016888043654371  0.5986324748172193  0.6010863484530365
