Zr Ti V  Cr W 
 1.0000000000000000
    14.8927200836203379   -0.1145149066781831    0.0774836002321474
    -0.1134398063126986   14.6743674383781446    0.0351831976786090
     0.0772295662464919    0.0351445578629458   14.5536830313761545
 Zr  Ti  V   Cr  W  
   4   3 107   3   7
Selective dynamics
Cartesian
  3.1986829188072758 14.3476150636461082 14.5468341354288135   F   F   F
  9.5798735524006808  8.6792557964966512 11.3709547486642677   F   F   F
  8.5075718266319829 12.1356909949871525 11.7659633192371835   F   F   F
 12.1467368253991808 11.2861696263754165 11.5749669356467795   F   F   F
 15.1542755687989104  5.0296206421991014 11.6125355867991900   F   F   F
  5.9785108751088396  9.2663999342878469 11.6307214553536671   F   F   F
 11.6219877270439209  9.1034535889605266  6.3726914544252811   F   F   F
 14.3212533525948071 14.9282721817948705 -0.3120264710337055   F   F   F
 15.1439971278173875  0.2606680606991033  2.3102904914415427   F   F   F
 14.1346506887182990  0.5543247687278070  6.5594735730745208   F   F   F
 -1.3702042239378533 -0.1654107446489930  9.9433578712720845   F   F   F
 15.0514755655794090 13.5607850640226779 12.4493502224848172   F   F   F
 13.4152742943871086  2.5615471039605828 13.9404646294358567   F   F   F
 -0.6832442745792393  2.2087862443539694  3.9127505203059996   F   F   F
  0.4349510277903091  2.8218222890394422  6.1269167848631758   F   F   F
 14.0511512836684567  2.4797291784136513  9.0030576099724886   F   F   F
  0.1833258491599149  2.5424067294683579 11.1401946567158081   F   F   F
 -0.7498289365478088  5.3637978530683972 14.2889417709941764   F   F   F
  0.0234519230369935  5.2290014597380328  3.4132416767187892   F   F   F
 -0.6531956763910982  6.4485493255025803  5.8314003265853875   F   F   F
 14.7980265227828660  4.8846842270969528  7.7871663646825784   F   F   F
 14.8752528864057378  7.7005349701599535 14.4389041379401579   F   F   F
 -0.8915506760870414  8.8902902406547319  3.3009937022365667   F   F   F
  0.5204092357177834  8.5387860011279013  6.7409516350259588   F   F   F
 14.2267951042189207  7.3953748167464761  8.6948328961395696   F   F   F
  0.2140668552518739  9.0025031844175967 12.1828072623670849   F   F   F
  0.8322539889115280 11.6024947358951316 14.7870416501086837   F   F   F
 16.2794437038338629 10.7474037673138589  3.8888674602725670   F   F   F
 14.5301570876495312 11.5173770006415115  5.7124023608117103   F   F   F
  0.2784139793935943 11.2653365253032209  9.3028994217722065   F   F   F
  0.8923363534209353 11.7549932924894414 11.1531727059168162   F   F   F
  2.8867309519170155  0.8944163612137718  2.6916795191081304   F   F   F
  2.8673179971753835  0.0292955841200288  5.5486299818372258   F   F   F
  1.9302670358400467 -0.0779329415643928  9.1798658689385935   F   F   F
  2.9911591597501332 15.4156776432452585 11.0954894635420604   F   F   F
  3.7095519360375162  2.4863035481782831 -0.9761969712970298   F   F   F
  4.1096144253670932  3.0751977771013244  1.5050031916999624   F   F   F
  3.0727747338380054  2.2623437198264265  6.4873822521159896   F   F   F
  2.9863408719685998  3.2941773313025484  8.6094912247115509   F   F   F
  3.6801332817874783  3.5131554888782213 10.9635301805229020   F   F   F
  2.9006226857761894  5.1935189830586497 -0.3037192423237604   F   F   F
  2.4971891928302932  6.2129506231854013  2.2235183328585642   F   F   F
  3.0055887505430423  5.9514229348550813  5.9447616931613911   F   F   F
  2.8485604565602740  6.8317928340719538  9.3426238579258083   F   F   F
  3.9331981704777155  6.1223510998495332 11.7577280103603368   F   F   F
  2.8069992480421542  8.5078299108877538  3.3853002177369200   F   F   F
  2.8420905213723056  9.6232711828622559  5.5816429516407826   F   F   F
  3.3549178510426687  9.5389592843615123  8.8010067779242593   F   F   F
  3.3507705195804109  8.9917532637368804 14.2631413133956872   F   F   F
  3.3369960553480649 12.0595140479518257  2.7952951082140047   F   F   F
  1.7623436958402399 12.2602219492880220  6.3604861717505390   F   F   F
  3.3852896966589889 12.0762216757721248  7.9472937258041068   F   F   F
  3.0728294146775768 11.7709652907410849 11.8097443185935287   F   F   F
  7.1446913927574709 -0.4325142087425701 14.6088487113139802   F   F   F
  5.1950636580571521 15.4524880285934092  3.0393284431615393   F   F   F
  6.6406361156677560 -0.1985380333665508  6.2398707162957754   F   F   F
  5.3205277836776323 15.3209242137572090  8.0926975901092018   F   F   F
  5.8021315424306010 -0.3754998445851712 11.6669077340844627   F   F   F
  6.1116088201370680  2.1939775419994687 14.3287279195608246   F   F   F
  5.0360033139559270  2.9229832086696619  5.1161754681192431   F   F   F
  5.9894881285403070  3.2375384413350923 10.7159619803915422   F   F   F
  6.4870444738337243  6.7724903175870255 14.3752318387816000   F   F   F
  5.1467589715609137  5.3351805194964674  3.0816351453637512   F   F   F
  6.6481576121021195  5.3854224456445383  5.0989796018265858   F   F   F
  7.4078132405784745  5.8941761836644613  8.5737361594591253   F   F   F
  6.6034918622610261  6.7384378213037959 11.1901772498538392   F   F   F
  6.7705410943261697  9.1656706185270753 15.3739714375068814   F   F   F
  5.2205762486692704  8.9272503432291170  2.8554320759468350   F   F   F
  5.6326301982326976 10.0965935754031477  5.6479818014920680   F   F   F
  5.1350516129801971  8.1882416730664715  8.0677307029514260   F   F   F
  5.6131328486840966 11.7562871224724290 -0.1904428848631835   F   F   F
  6.3336105395456510 11.8502783660288955  3.3468242596230207   F   F   F
  5.4528491836798922 12.4204681734440836  5.7487579847917800   F   F   F
  6.2773700996405823 11.7763978279669690  8.7740968076383634   F   F   F
  4.9402058208179840 12.4638173253634381 10.5832013324315923   F   F   F
  9.6744045975895610 13.9058747627552535 14.2881244536484502   F   F   F
  9.0471360483843242 -0.3126243332913249  3.4995281919057990   F   F   F
  9.2959441885869900  0.6874473029980604  5.9554532540441683   F   F   F
  8.9888370702134495 -0.2904480541324087  8.9439326201472671   F   F   F
  8.8748828614994935 16.0437972663858837 12.1437752779250996   F   F   F
  9.4051417932011638  3.1660671243984830 15.4297760109264601   F   F   F
  7.9909059202309365  3.4386747549193255  5.6451734705562302   F   F   F
  8.7724890738554766  2.3860582421652188  8.3204250473297279   F   F   F
  9.0249628998811406  3.4108273512327374 11.1337723776276256   F   F   F
  9.0531705159740188  5.2388309982872361  3.0917400316575097   F   F   F
  9.9892110335339872  6.1449742444578641  8.4670811436936528   F   F   F
  8.3505205900055373  5.3413126499731192 12.6148394263838650   F   F   F
 10.0783184870502911  7.6674288248608926 14.9566457469420122   F   F   F
  9.0385536494333518  8.7963383222675624  3.6670152241500751   F   F   F
  7.7369209341609171  8.4152267936252496  5.5575493376596770   F   F   F
  8.2160980147583498  8.5304367771073970  7.8975879366622426   F   F   F
  9.2847162578125513 11.4811242391760917 15.3662824485279526   F   F   F
  8.1693071895883822 10.9454169931204071  4.4158125103286121   F   F   F
  9.0147746234629000 11.8854524407878053  6.2002921188857272   F   F   F
 12.3598355257275223 -1.4153207096479152 -0.0305249770359620   F   F   F
 12.7304390413908504 14.2184222399064026  3.3649201658915779   F   F   F
 11.7737465453543635 -0.2730031243448277  5.9154111715287554   F   F   F
 11.8475056638280272 14.9453361037482964 11.1240797732778418   F   F   F
 11.3565369202017497  1.3459140494809876  0.2457569152404492   F   F   F
 11.8303995170927312  2.9756943990234137  2.6441302615713203   F   F   F
 11.6839869432292112  3.5887817762641130  6.2647073657787891   F   F   F
 11.7268044232013384  3.6270186662909119 12.5015654584066436   F   F   F
 12.0728054309167785  5.5792048130413630  1.1220306848767634   F   F   F
 11.1790956476795742  6.4777641118086917  3.6825192403173270   F   F   F
 11.8702666397547834  5.4746641500092128  5.5426853246631858   F   F   F
 12.3110202443877270  5.7796612635908762  9.1940254703738873   F   F   F
 11.2475936934735081  5.4437374518181212 11.8945998549474172   F   F   F
 11.8279745986836033  9.0767968911306678 -0.2051061111851586   F   F   F
 12.1753818674585812  8.9450382116016449  8.9097493502345433   F   F   F
 12.8247327458452123  7.6269941714256646 12.4997346736096446   F   F   F
 12.8253355058373497 11.0045142426084652  0.7614155823735144   F   F   F
 11.6645320145505238 11.6032724501096833  3.4765285373252914   F   F   F
 12.0798284420290951 11.6517211828099310  6.2692254124482849   F   F   F
 11.9281367777572687 12.5204337423961576  8.2208879484467356   F   F   F
  3.1651859775164475 11.4492886792983928  0.2072191508235485   F   F   F
  8.2883321300897510  5.2935669466673483  0.6254053680701497   F   F   F
  8.4726406148640905 12.2971635929674079  8.5135307254170911   F   F   F
  6.9157238969330361  3.4697686975280275  2.6811148560719560   F   F   F
  5.5921672773347550  3.8077975110726299  7.4183080631762497   F   F   F
  9.4120795563896831  2.3714073138674006  3.7083648060327286   F   F   F
  9.1704273150971911  6.2403518725441112  5.8630833648514411   F   F   F
 11.4260536943196502 15.6720157570017058  8.2056457576330448   F   F   F
 11.2070671856602804  3.1505461601634388  9.8366595258139711   F   F   F
 11.5944530790684155  8.9385131440697982  2.5675782665181135   F   F   F
