Zr Ti V  Cr W 
 1.0000000000000000
    15.3990340272275770   -0.0170018773457157   -0.0022529018582575
    -0.0170107766548915   15.3787801482628375    0.0165544931564424
    -0.0022517709109467    0.0165430754876648   15.4057927644380346
 Zr  Ti  V   Cr  W  
   3  13 106   1   1
Direct
  0.1833497469798877  0.2018772072710534  0.3750077204012078
  0.2050762468552120  0.6157293277763474  0.3849112871817660
  0.3864785374829806  0.7946072805684598  0.3900624416616777
  0.0043860997913627  0.0020441910299928  0.0265425215490709
  0.0000355456830587  0.1956135316477311  0.8003490415615279
  0.2024447837742148  0.1975615864216115  0.1762656837686655
  0.2041792206480541  0.5876491425939427  0.1839290524698531
  0.2125917271152221  0.7961882888283339  0.2139861391765249
  0.3885228518700780  0.2018635475988337  0.6030294898826108
  0.6084848339603475  0.0151525513875190  0.5938511708640800
  0.6030680339603868  0.1929753788948484  0.4132683731121554
  0.5883698715403802  0.2036436746703224  0.8126377095405113
  0.7947060844497363  0.2009431398128951  0.1968453559041881
  0.7826309698547894  0.1970300569149954  0.5944936254751582
  0.7966120877753113  0.1992200570936488  0.8028004243554682
  0.8671922326393208  0.8647315323925607  0.2005235325866001
  0.0014809408357589  0.0023448189050099  0.5977854294433587
  0.0010073353584677  0.9999701709182807  0.7964378396172344
  0.0006340051100795  0.2020467667952352  0.0051003702696166
  0.0008898261238597  0.2045590731313178  0.2011937966393562
  0.9862755670576073  0.1984207201768373  0.3994689199296121
  0.9980716234454799  0.2023174090804360  0.5956800118644840
  0.0008259933490811  0.3997979654335701  0.0014748199590500
  0.0005110649783269  0.4003546546367259  0.2023241878239667
  0.0021478238504889  0.3987352879442280  0.4013741974703113
  0.9995281913062759  0.3998944177214562  0.6002694558583728
  0.0009579337247425  0.4010849202994735  0.7998603391911908
  0.0018081380026995  0.5995886824388476  0.0005943714362547
  0.0006597557994517  0.5993914898568474  0.2001267844364981
  0.9974530496469974  0.6003716408710033  0.3991032316045740
  0.0019113152473689  0.6008696321852226  0.5976768246106735
  0.0005263749432497  0.6004650949946083  0.8005855216810177
  0.0031721447726130  0.7988975789061418  0.0038688804266411
  0.0018357671600520  0.7970212140419100  0.2011097050377949
  0.9944762870733953  0.8081613439012932  0.3990535604242838
  0.0002062591608391  0.8003434949976307  0.6006256073513204
  0.0007781193514722  0.8015455894715360  0.8005397754815485
  0.2031229969518262  0.9988928146056288  0.0011907683053700
  0.2065749234038237  0.0025411341487880  0.2019836320547607
  0.1979198882062935  0.0010803923703970  0.4006334010626687
  0.2038689197256810  0.0038638917557814  0.5998934707164190
  0.2000682823171191  0.0001835441325858  0.7995230447339039
  0.1990191867348562  0.1990148618717550  0.9871346154534404
  0.1950365380239059  0.2011919555482150  0.5966756307020683
  0.2008554355346986  0.1993103395015620  0.7954583248510082
  0.2003526861933487  0.3976410964668228  0.9993318054472061
  0.2016150998779237  0.3931136851089886  0.2016994764000011
  0.2004694931479752  0.4042663147164389  0.4018823944402514
  0.2006123981328735  0.4007606655910058  0.5989535829507083
  0.2002491446841539  0.3995262759373121  0.8000815556335722
  0.2010619525779135  0.5985115535164764  0.9937435557735249
  0.2016170628331713  0.6004036574141295  0.5995854100272012
  0.2012671832899492  0.5994897170437142  0.7977991973768093
  0.2016960087901752  0.7990276029997088  0.9983329353983695
  0.1872407191749776  0.8138663469591727  0.4094727012950407
  0.2001884799685908  0.8009442305933289  0.6031305714877589
  0.2010315225047517  0.8019245084372481  0.8007980644903905
  0.4012407945044998  0.9993467231026932  0.0015901573270305
  0.4025256929330496  0.9975574040636961  0.2018128360059157
  0.3997080536085637  0.0042723779684741  0.4012748788280750
  0.4019115457737909  0.0003593810026445  0.7981513239682585
  0.3989974319767858  0.1984011498811813  0.0020774584336302
  0.4002790651592684  0.1985085875209602  0.2015494222682627
  0.3963746692266686  0.1981623861318539  0.4000787954971334
  0.3951665843163217  0.1992775465149654  0.8052616430962980
  0.4006007947482063  0.3984396091687286  0.0021047076264298
  0.4016466069417283  0.3974990224899903  0.2024014590578983
  0.4007515135922345  0.3938806111401572  0.4018299632613795
  0.4002542700371667  0.4007132025218282  0.6010911037420476
  0.4008282123981076  0.3990637829618959  0.8004012960789443
  0.4011207369152737  0.5987312678644606  0.0004108970639902
  0.4049649584713065  0.5962663115013122  0.1997147747818579
  0.4103142891878625  0.5893375906322873  0.4002106051442078
  0.4015814756340341  0.5984272585978372  0.5992669636182348
  0.4014476733422577  0.5998610358547074  0.8010698033902713
  0.4005506571266024  0.7996192753704977  0.9972581513761919
  0.4073562366031758  0.7984637312956099  0.1907241591403563
  0.4010822104393684  0.8001384773362034  0.6012960425414104
  0.4009633374283140  0.8001218222130650  0.7990819796864483
  0.6011036716194020  0.0007153633408246  0.9997270683707337
  0.6010940120183256  0.9996908167971751  0.2019355980844743
  0.5980590705345572  0.9957520296468808  0.3990277692615894
  0.6005321540792233  0.0010026711953210  0.8011147269257565
  0.5994993879986750  0.1998525033667731  0.0072092372705658
  0.5967613617944250  0.1986000080872646  0.2020508711831036
  0.5900317512662488  0.2069238104289980  0.6095623676357260
  0.6014866129858343  0.3994700063278894  0.0014836814086200
  0.6006073552352261  0.3977762051934733  0.2031148965468199
  0.6018106994807252  0.3992807425285932  0.4023437936927771
  0.6001516003303271  0.4020649326592008  0.6023554514020107
  0.6008017079843186  0.4025126008883007  0.8022337794442791
  0.6015983755062886  0.5996849326665930  0.0009860479563536
  0.6035715998770619  0.5999005352179319  0.2002641550078020
  0.6038771116495029  0.5989001349663176  0.4002234466774227
  0.6009698839028628  0.6021207574633418  0.6006056665710241
  0.6009719750721526  0.6006673556123812  0.8009338813942649
  0.6025310523717676  0.8003853981050256  0.0007445915036515
  0.6003834580166032  0.7993039650664537  0.2000089300919142
  0.6003858008762540  0.8002744988651190  0.4000438969428986
  0.5994234928674941  0.8015801269016900  0.5995026819241231
  0.6004019720751207  0.8022591775613669  0.7997805831973810
  0.8005190744584989  0.9999565400757957  0.0013756085172463
  0.7968210385726652  0.0003415982595666  0.1984521731741757
  0.8108036618290659  0.9969746579935307  0.3938140203813812
  0.8034708995996919  0.9973079935123560  0.5988642865751596
  0.8017323762524330  0.9990462573210278  0.7990681871040315
  0.8008056599633918  0.1996077874021895  0.9974672310096437
  0.7983891373657171  0.1993319566504970  0.3964625693179896
  0.8015014697364923  0.3987462482009499  0.0004005268824789
  0.8010802644630060  0.4006960907363535  0.2007077374308209
  0.8013279957271456  0.3989803060817885  0.4007030369825982
  0.8000111708715825  0.4015289532181464  0.6000135002111080
  0.8007548093379230  0.4004571388131999  0.7991303289654057
  0.8019943514901643  0.5993605148917551  0.9997556095740295
  0.8009178867389859  0.5967946001530192  0.1987661520534122
  0.8016345201527091  0.6013944055294566  0.3992352884478504
  0.8001797807935030  0.5994105138695764  0.6001729265400176
  0.8010993961645172  0.6007314780979421  0.7999049326385389
  0.8026558819068087  0.8005760030991843  0.9957270443474001
  0.7983142333959315  0.8003181346935021  0.4024903096432294
  0.8000296162225284  0.7995421297991487  0.6012202401116155
  0.8006728384074472  0.8009665687271875  0.7998784807999717
  0.3992583360304925  0.9977571802912009  0.5988954852411600
  0.0074445118472903  0.0086974001793280  0.4050758751502996
