Zr Ti V  Cr W 
 1.0000000000000000
    12.4464128923583193    0.0329532373591988   -4.4042728874541686
    -6.1942673799282799   10.7804165612832890   -4.4030632695668288
    -0.0187017307525534   -0.0309225315138513   13.1599908318643308
 Zr  Ti  V   Cr  W  
   5  10 103   3   3
Direct
  0.9983175865376732  0.0040379318296050  0.7987439240831440
  0.0015145415380307  0.1982742818495023  0.0357132889474257
  0.9975329310691528  0.4004516811477840  0.6068221020864062
  0.3784222345215288  0.3815674046013233  0.3772338966614305
  0.6055821872096983  0.4033181486362947  0.0076052440018131
  0.9897002570362747  0.4034355578100959  0.3956209868355372
  0.9961308248141045  0.6085736085752141  0.0040130432725395
  0.9978420469189552  0.5990574606531192  0.7953533700011198
  0.2242306516985475  0.2103452351549644  0.0229656078194202
  0.2046628405116309  0.1994055852599729  0.6026296164150692
  0.1651752585821088  0.3719546221404631  0.3696353946357434
  0.4025480293191998  0.8040304803125787  0.2006305838461947
  0.6022834613217221  0.4009828337664585  0.7930919441155244
  0.6015984628138176  0.8001768180351457  0.3998869914866131
  0.8016341282622264  0.6002745544143352  0.3979548228599447
  0.9981506942189681  0.9797130473149553  0.0011714257743255
  0.9968875110359239  0.0116320129037844  0.2020323760539073
  0.9977552471876525  0.9986673651106834  0.4014931755600683
  0.9985496217562850  0.1940152830108959  0.4009606446375926
  0.9971158472092786  0.1869865830334862  0.6005134813369120
  0.0014741755986110  0.2159082957524608  0.8010150610879401
  0.9975773679022314  0.4003478801141367  0.9964448411492216
  0.9970642354367256  0.4072375436105852  0.1959481238469253
  0.0010274289612688  0.6068616399272214  0.2051049173591986
  0.0062553813752364  0.6089921142525674  0.3969317143414647
  0.0018312043981311  0.6120702012200160  0.5930904317213931
  0.9994059252344811  0.8057445542169547  0.9992681167220054
  0.0012797867422535  0.8071223744909787  0.2026493896775477
  0.0024235512483344  0.8041388619244590  0.4008520599906603
  0.0033307925373347  0.8080328687787232  0.6018318217661764
  0.9986800024818163  0.7961204165847598  0.7963157873377497
  0.2056383972298632  0.9923535358828688  0.9985494201959356
  0.2026883010035247  0.0026919464040749  0.2003827270735895
  0.2004487714731296  0.0001875065056041  0.3997084016252456
  0.1987353830214232  0.9957877368997832  0.6015617893402470
  0.2097533819457444  0.9992927558890687  0.8021175514640619
  0.1256383639489813  0.1827384989088202  0.2064319218967710
  0.2037230125137883  0.1912356541218867  0.3991103752023233
  0.2028846602171291  0.1995300020943593  0.8019014618510630
  0.2055041542644380  0.4058405719961225  0.0012605509672741
  0.2117523092223254  0.4275491586182530  0.2050219941797573
  0.2045855673199045  0.4000492862167945  0.8035632714005471
  0.1992370064666474  0.6087401621358185  0.2001013389715552
  0.2001311089895260  0.6049078140142000  0.3986003057013948
  0.2049402570182391  0.6075117640424450  0.6020756672537561
  0.2167204827478840  0.6147751114759618  0.8068807852010427
  0.2058412951061168  0.8046476967726155  0.0032124880852779
  0.2026005959341055  0.8107012136153710  0.2084242299290036
  0.2010808106755208  0.8054235236716744  0.4018557980180458
  0.2021077774277411  0.8020903039328254  0.5993960357991609
  0.2007181497279784  0.8007531056523896  0.7982838136069534
  0.4039935728508156  0.9994406367481590  0.0009005687310460
  0.4004982926067704  0.0029307278468931  0.1986395379300219
  0.4003476956827793  0.9997487756887203  0.4013523245554013
  0.4013068427198179  0.0001489739062499  0.6017001596030663
  0.4011284540695464  0.9990320383080797  0.7990825183166530
  0.4050956331353779  0.1933845784840136  0.9971425982975235
  0.4075627660003361  0.1930924865714218  0.1965775235725548
  0.4019775159181704  0.1905772849367277  0.3993395441217670
  0.4017840673032015  0.1929243181199801  0.5958189216928627
  0.3936404076485494  0.1903993465139763  0.7917838079926882
  0.3955637935804563  0.4017372895553529  0.9992811753997489
  0.4194907342159302  0.4158370773149836  0.2003606470745990
  0.4006192828165933  0.3969130824895243  0.6048015207396551
  0.4013062864954907  0.4032704688167104  0.8065805311791174
  0.4044716454479518  0.6043623642245197  0.0012693853386270
  0.3994024790520039  0.5976350730563912  0.1959518540775097
  0.4028132331629972  0.6145740918646143  0.4012256031971777
  0.4003189093148243  0.6056481848372945  0.6021478324782952
  0.4031178125506897  0.6030218696101950  0.8007802516586497
  0.4039845267130405  0.8042666202388484  0.9966909991168964
  0.3961378344424684  0.8049734982034535  0.4060366650197089
  0.3983387099853067  0.8012725169355981  0.5999604853260793
  0.3993376988836003  0.8005826881260159  0.7972272710350888
  0.5997651712058173  0.9973935597856841  0.9979043890617495
  0.6017135007533063  0.0028746054970723  0.1969512948763936
  0.6000736158315525  0.0003299981264715  0.6030567408989244
  0.5962408445769197  0.9964446722833147  0.7981733549311282
  0.6006445818105765  0.1911649009726982  0.0048797852427055
  0.5987851351456889  0.1971053957328472  0.3954402006350686
  0.5975873599719430  0.1985115354735215  0.6017805946874842
  0.5991066254523378  0.1942492037873232  0.7978533194327374
  0.6022447838330410  0.3868193385691419  0.2064364376649748
  0.6063954333134538  0.3985366204626929  0.3992953626621171
  0.5987722619191701  0.3988295739435792  0.5933564274268328
  0.6031421449011167  0.6121946788974926  0.0020746873613460
  0.6052455476126083  0.6081964764804360  0.2045980875005780
  0.5997978741599508  0.5987434189532274  0.4015620016411021
  0.6027699434754278  0.6042549836934783  0.6047128857799302
  0.5980400252388220  0.6034815461691595  0.7978497225067603
  0.6004120773732992  0.8027592550086453  0.9983138021497796
  0.6063570144732218  0.8016316927145193  0.1959215428273310
  0.5955799431722745  0.7975641999782602  0.6014605235032325
  0.5964265803760445  0.7976204296033019  0.7972296536978253
  0.7914016276025856  0.9924003817900215  0.9971918876958882
  0.7961431966929032  0.9965927539603635  0.1990754368429220
  0.8001040045767102  0.0008936053623032  0.3999936033921010
  0.8026643886280529  0.0034214751294888  0.6033448676561439
  0.7801491572381554  0.9907934511791446  0.7939476904682773
  0.7874937043709367  0.1992332676910002  0.9961158578250636
  0.8101789744338845  0.1926223543045824  0.1946549497075898
  0.7967511437943589  0.1919271752121351  0.3912520213730928
  0.7976602721552817  0.1973636520537987  0.6040549411219646
  0.7953615409848506  0.1944476185932979  0.7990920935865651
  0.8088317973596035  0.4032149115780295  0.9988370072078895
  0.8053876290243089  0.3999284207149214  0.2016309337895372
  0.7909891098413105  0.3903124130024867  0.3948055976449106
  0.7815583341431759  0.3925537942306807  0.5947547542508587
  0.8033790385824782  0.3954142083019194  0.7966163791039954
  0.7991713397761537  0.6124644731189481  0.0053007535502649
  0.8137344390550706  0.6176860989126893  0.2059910212175740
  0.8003171948693409  0.6005284698019562  0.6037930393629303
  0.7948450475571016  0.5997262678430494  0.7985989088011608
  0.7982894935294590  0.8029295518639344  0.9993933098038656
  0.8022931685658449  0.8053715025582303  0.2013585320915751
  0.8096180863218055  0.8113449924032153  0.4059480908889864
  0.7895496455382451  0.7907343790766157  0.5899178362120846
  0.7938817418163178  0.7955723983691375  0.7958843890186954
  0.0004617554017294  0.0006832408527048  0.5944146080176076
  0.9958856668263475  0.3948047504124736  0.8082588525502153
  0.6010526695887972  0.1955608753067193  0.1980267780286774
  0.2070228045347427  0.4039177544426069  0.6009816557541993
  0.1984567344391299  0.5998320071511164  0.9940940496384513
  0.6044698995674495  0.0061076812996995  0.4040617331789110
