Zr Ti V  Cr W 
 1.0000000000000000
    15.3205282173675101    0.0002014824685806   -0.0032720455521328
     0.0002023707323046   15.3277042438828079    0.0007193262014022
    -0.0032728540049734    0.0007198926617368   15.3420216939870571
 Zr  Ti  V   Cr  W  
   1   2 102   1  18
Direct
  0.3948626929172374  0.4177795789696491  0.8181523537000485
  0.6112486933746253  0.6089954469664282  0.0078938071657060
  0.7921362692417511  0.7858480902496842  0.0082525111825691
  0.9967481415429159  0.9991849792804366  0.9969373191790774
  0.9996801273530418  0.9990577989534513  0.1984014519832840
  0.9997532376738081  0.9982128693211512  0.3984784402967173
  0.9993418485429070  0.9972936546915019  0.6048455942359205
  0.0019742605714868  0.2012366702024969  0.9999140578053713
  0.9986613714481869  0.1988508760872542  0.2011716281235923
  0.9995256875085167  0.1984134968114639  0.4021471512832749
  0.9996285602184268  0.1996094430548861  0.5997117584478028
  0.9947582436750793  0.1989734231961308  0.7988724388904451
  0.0031617302493202  0.3998508395759793  0.9997281795342488
  0.0000220357316791  0.3993125551018712  0.1975470603742150
  0.0010192295900757  0.3999263989911630  0.3979706714595050
  0.0010080196437888  0.4017781110270862  0.6060657116114205
  0.0002114801675561  0.5995487761639383  0.9668830918256052
  0.9987310362270909  0.5983731714689496  0.2012774540588399
  0.9951336892374477  0.5984541700161552  0.4056192403371059
  0.0016989571053412  0.7981145766170198  0.9977449791394506
  0.9951858387299893  0.7991882922142032  0.1994042275756162
  0.0028668415688612  0.7998180920190098  0.4053246195201287
  0.0007278989930337  0.8055270487722063  0.7975567257164408
  0.2002131888483234  0.0010573453556928  0.0006983493982660
  0.1989529910489067  0.9998905778411568  0.1984799523183325
  0.2041805462151432  0.9954445355528734  0.3982733016048760
  0.2003976065305222  0.0054700731929232  0.5997996587456013
  0.1965837900052358  0.0013408783947924  0.8005475369231914
  0.2008720281358032  0.1990668159029789  0.9996155689710884
  0.1993657556907434  0.2002550314891272  0.2017070217315451
  0.1997642815378372  0.1993892476315052  0.4046447309330181
  0.2021632833807440  0.2006924632488512  0.7940630781779421
  0.2067560969752331  0.3990374579945919  0.9990683988921024
  0.2008805433097769  0.3993352457051452  0.2006071741337191
  0.2007657092739996  0.4003776608099541  0.3984545887523325
  0.2010810118629895  0.3954544076696977  0.6003626611413696
  0.1903058612017453  0.3992869219299407  0.7998202269788098
  0.1975075714945405  0.6006558027305529  0.0005167297673888
  0.1994145012269744  0.5988516969261788  0.2012552275074345
  0.2028510265040845  0.6028447519024686  0.4006576013690379
  0.1974021197190046  0.5973479529375786  0.5997412805761438
  0.2080571301297615  0.5977660014050397  0.7996353089258085
  0.1988247860442832  0.7992100932918115  0.0013372810602648
  0.1990827133778215  0.7986579034794252  0.2033074367949549
  0.1967251608771124  0.7995719536370891  0.5955542894118521
  0.2012076858042723  0.7990246945930763  0.7985524326036461
  0.4000645329278323  0.0015665514662189  0.0016045776862035
  0.4014866217645272  0.9996176008527899  0.2009241932147837
  0.4002267157258248  0.9994800153168079  0.5962768801731078
  0.4002362950605601  0.9958513063115096  0.8025035736148437
  0.4005240247772990  0.2029574666299509  0.9981403034722615
  0.4006656105781790  0.1996137411029812  0.2015933813892430
  0.3996487128292174  0.1956150526583270  0.4014651622765561
  0.4009280110973487  0.1999586221657006  0.6018210294722736
  0.4015849838214366  0.1985869592187782  0.7989743575796664
  0.4041441357410598  0.4008052479331312  0.2028553126978122
  0.3992556616199365  0.4017139422108305  0.4004241730120739
  0.3999831064711467  0.3991459193890631  0.6014517344937900
  0.4002607908709413  0.5984413846561805  0.9975880868592945
  0.4022969575437511  0.6010449254138396  0.1999121130529350
  0.4013620468397042  0.6006372753418593  0.4032427096407059
  0.4015160085091092  0.5984281151001405  0.6045671088948253
  0.3975461693519807  0.8015569568872042  0.9979335528545095
  0.4014767717931341  0.7979618429752601  0.1967381246376399
  0.3991382149801262  0.8007508768487490  0.6027725687516585
  0.6017893137711481  0.0033620572047554  0.0005226015188149
  0.5999925479947866  0.0008459628120412  0.1995710569927009
  0.5956363211430649  0.9985801239998859  0.3979684049779424
  0.6002961484797857  0.0037427554883423  0.6000912606780830
  0.6005125002788805  0.9992311089278481  0.8003634959394966
  0.5997754126021341  0.2004858886382868  0.9985973082326446
  0.6022333631842166  0.2024588236223892  0.2022968681384465
  0.5996023527893323  0.2001273257543624  0.4050589843064334
  0.6025667526601299  0.2002743969211692  0.7958134403259204
  0.5959886358132969  0.3979535414519229  0.0052271108158793
  0.5983336155332938  0.3988475196107428  0.3957679533176463
  0.5976912272374243  0.3949507219834780  0.5999807252079333
  0.6015937288576234  0.4006456901212430  0.8035221935518604
  0.6005552984459148  0.5952841638039306  0.2057781464024687
  0.6022341962766072  0.5995063914681816  0.4037586844243666
  0.6014534563800689  0.5977241988557128  0.5986835338724830
  0.6023433559909693  0.5998045105987744  0.7964106536511307
  0.5939948888978021  0.8049383552303424  0.9995413567840680
  0.6019675248369244  0.7982894930078174  0.1994968749587800
  0.5992497221348749  0.7992205589982128  0.4009556415426203
  0.6011853204873389  0.8021688987539219  0.5981566828554415
  0.5977912054768433  0.8026281757955261  0.7974541893000999
  0.7993835828291912  0.9946379259819036  0.1954296554057705
  0.7987883192794527  0.9978059832824153  0.3977628866655503
  0.7998255487754894  0.0023023074291066  0.5982804679820385
  0.8025544828457748  0.0015866003886923  0.8067960745046339
  0.7989582947789359  0.1997389066829408  0.9952016212804644
  0.8004277924016627  0.1991088315578076  0.2031078689023169
  0.8005743430883356  0.1975724819535462  0.4042237941092477
  0.7994029401293762  0.3980663783915360  0.0018220004229990
  0.7966995952143776  0.3991324022855095  0.1987911028167826
  0.8006276428477647  0.4028160654261671  0.3993469793413251
  0.7992744180225370  0.3945919125943645  0.5986783923426889
  0.8005829875251166  0.3977896515108937  0.8024498643147706
  0.8040322436713602  0.5937517161491529  0.9934838180828451
  0.8002946198589561  0.6022863308299445  0.2051613260859262
  0.8011258472765380  0.5965254479851088  0.5988285575340180
  0.7985001608087109  0.7962130470048251  0.3978014957568122
  0.8025255940063977  0.8024325125648055  0.5989840941236209
  0.7978927677034175  0.7951289442904875  0.7983674277592001
  0.3997336498862597  0.7992029896346421  0.3999365897072942
  0.9997501279088741  0.9992086486629980  0.8013619270720767
  0.9969451173682685  0.3946002967565286  0.8060643261189251
  0.9993617014346473  0.6026466693659831  0.5976964876546882
  0.0000357061003320  0.7990109745379476  0.6019425376027030
  0.1993137342561058  0.2002036130051061  0.5985029644272272
  0.1974654233501127  0.7994779931342779  0.3991217104655637
  0.3999036063687358  0.9994392797753990  0.3978788325694895
  0.4018096494923370  0.4010897595261567  0.0132249069659287
  0.4044865693212151  0.6154218689931821  0.8010380898449826
  0.3989412161270705  0.8012033841716751  0.7999623247469426
  0.6022667202107232  0.2004315553261654  0.6004933671186137
  0.6006820926534427  0.3982076656679247  0.2007219994388124
  0.7996334138770405  0.0067975265696121  0.0006456601848268
  0.7976433611465531  0.1992042039839508  0.6021515071656293
  0.7996471888354068  0.1992440888682416  0.7954280796793893
  0.7987489635283054  0.5996458540656220  0.4020762499670481
  0.7941915365291040  0.5959226076590917  0.7961448819402458
  0.7992548515468388  0.7993866145266088  0.2046087493928609
