Ti V  Cr W 
 1.0000000000000000
    15.3720038313806135    0.0023998420144863    0.0001449001601191
     0.0024007571799185   15.3633006247875361   -0.0006442210894229
     0.0001450310074229   -0.0006449824026597   15.3697544548857330
 Ti  V   Cr  W  
  15 105   1   3
Direct
  0.0053662455922663  0.3906180318678274  0.6044366415109738
  0.9915195609448192  0.8003620994161397  0.2037840672846504
  0.0092732525330286  0.7970466796223020  0.6015315795104293
  0.2000228934306749  0.2049928840420696  0.3931850183751076
  0.1956289495633664  0.2045503080726607  0.6053811702671245
  0.1986782014577389  0.3958340689860189  0.2044708966691680
  0.2029596882176954  0.7986201345377408  0.2005764973548252
  0.4070374406718540  0.9960813218333200  0.8066371832213194
  0.4014580380822549  0.5984946209877353  0.8020510012581096
  0.5929396906403821  0.9960764801978886  0.9950256259301531
  0.7990726628548250  0.1972898471510960  0.7977708946163229
  0.7992794849937560  0.4045029296321923  0.1928048750188497
  0.8011717306943388  0.5934902892856029  0.0035668316582711
  0.8064947991200326  0.7975774199089410  0.3911655635945011
  0.7983371244809839  0.7962485692032614  0.6037384424151914
  0.9981463995423051  0.0024529244683482  0.9987125903063175
  0.9984749121305984  0.0008884905718682  0.2013900537183854
  0.9984051633563661  0.0000350176663384  0.4003742268800659
  0.9996593403714842  0.0018243645259894  0.5997146174364439
  0.9992112150904565  0.9982542042683997  0.7980912890846326
  0.9991877967079082  0.1997413383156549  0.0019794048930358
  0.9979456780001293  0.1994245352815952  0.2003826436179633
  0.9977131249792388  0.1962814965266759  0.5961423178169939
  0.1971594543401374  0.2007239491686004  0.9979594213027063
  0.9964678395341746  0.3981729284968683  0.9993193330332798
  0.0000044906898453  0.3995580680201180  0.2010077400660618
  0.0005355948579322  0.3980494866426452  0.3980491221848909
  0.0000702871858352  0.4009738134909839  0.8010360549460852
  0.0023384457472524  0.5999275821317791  0.0024646849538623
  0.9999057222690083  0.5975227460352706  0.2015567849534585
  0.0000213367652472  0.5986744096463000  0.4009429783640775
  0.0010543185533053  0.5987631213868817  0.5989049286732919
  0.9993548124242364  0.6005618110124271  0.7998475290084769
  0.9997567128769848  0.7988240792427934  0.0002414343401023
  0.0034637744961961  0.7997620606877687  0.4012816283324463
  0.9993226497589696  0.8004650058290139  0.8031530062826829
  0.1971245752536109  0.9994366965288815  0.0002672055584065
  0.1976416098909243  0.0001440158115950  0.2011075007990597
  0.1993355932232334  0.9991677405312052  0.4002118549316018
  0.2002891851834021  0.9996708033534388  0.5996124880071463
  0.1968458414120320  0.0014792361225631  0.8002527096938629
  0.1994201068863882  0.1970119404212755  0.1973406165877993
  0.2035058765347749  0.1990880057395160  0.8011600753880859
  0.1989646989490590  0.4000399933339474  0.9991717762024728
  0.1996307450543204  0.4037574986244947  0.4050645085009128
  0.2046548228256372  0.4046362432211730  0.6021163882937525
  0.1981111945724200  0.3994837067058129  0.8009910894363045
  0.1989576016194896  0.5992264134618168  0.0011564328844909
  0.1991421148525704  0.6004918749198030  0.2020600283392162
  0.1986065438509896  0.6015304078556835  0.4006341284729028
  0.2008541629929840  0.6025704936580265  0.6010704608461909
  0.1978434511967224  0.6004261970064111  0.8002616488824410
  0.1992647895242650  0.8000698705696042  0.9984455381737797
  0.2006582979880992  0.8006536981560853  0.4037831926471316
  0.2054894096948320  0.8010107183683746  0.6024483796066085
  0.2007087478620655  0.8001812236036611  0.8005074835361426
  0.3950145108999812  0.0002275918771870  0.0045994588949263
  0.3982125310391298  0.0001902995424778  0.2014241570775864
  0.4020749809756332  0.0000412456111929  0.4003538960562188
  0.3996462524767074  0.9997539691921602  0.5984820781825763
  0.3990424494631900  0.2008439688875246  0.0005350187418721
  0.3994451500461916  0.2001914331766300  0.1980220119516472
  0.4013034257018693  0.2009688468898853  0.3997978796293935
  0.4000772399786079  0.2000086971386260  0.6004221670108230
  0.4047803666631118  0.2017125691287085  0.8011113067600819
  0.3986810238703556  0.4015047120202792  0.0013426964965476
  0.4018549757832895  0.3997759574182109  0.2008230563011291
  0.4002909774800325  0.4002416958942487  0.4001466659440638
  0.4015734107736498  0.4016474401645920  0.6001772630572159
  0.4007468610478181  0.3991060947060897  0.8010043183144013
  0.3990239833323309  0.5992942735709579  0.0040477434754582
  0.3993061156253901  0.5998884990074667  0.2014492838971766
  0.3995741959803505  0.6002854940806426  0.3995234708581199
  0.4013511513471570  0.6005927283278313  0.5970586960126364
  0.3986932302031282  0.7991018034481132  0.0007026060700845
  0.4010856360463619  0.7999359761830157  0.1992946035129636
  0.3995023922761364  0.7996170195046646  0.3989484545016151
  0.4008230887252557  0.7994712441554500  0.6013818606717302
  0.4013041840041354  0.7998758983808508  0.8012935947811193
  0.5985855601291881  0.9992800157944419  0.2042479618406249
  0.6009352149162449  0.9999819073371232  0.5939063760118057
  0.6052578403514227  0.0043058086749052  0.7934464376613233
  0.5984818939149608  0.2019335540021430  0.9948251562975953
  0.5989998976851972  0.1993037954966211  0.1973555253683143
  0.6001526503171675  0.1972051979878123  0.4003887828291801
  0.6004331246017515  0.2004963741275528  0.6028155556062177
  0.6037614712426354  0.4011557456149538  0.9996346227329493
  0.5973383389296519  0.4007896055902388  0.1999279106918214
  0.6007371045414361  0.3986076504211521  0.3999522370044743
  0.6008236215522611  0.4009714453435758  0.5997162382552454
  0.6010561855995332  0.3977328098919104  0.7992570792195626
  0.5967991258871242  0.6002365526199460  0.9997569359671842
  0.5999920056946604  0.6013800054084013  0.2016209382213311
  0.6019455347994283  0.6017737570394333  0.3999874514747980
  0.6009297782712362  0.6008774329624129  0.5988805070365720
  0.6032844538356281  0.6007593427978943  0.7990027685943507
  0.5990095232919777  0.7972916536408878  0.9982835031236900
  0.5987772090178073  0.8004785607260581  0.1976919173066558
  0.5987070505680905  0.8044512189201752  0.3998434803074685
  0.5988879841449098  0.8003036997552980  0.6000409458808421
  0.6007230775790949  0.8025308857989139  0.7995912712336087
  0.8002271908878444  0.9985517565490135  0.0002828845912680
  0.7984519646585020  0.0000842807192542  0.1984126509045777
  0.7962806549520888  0.0012055760336525  0.3982745264361289
  0.8016052017887746  0.9984183281456589  0.5963223490352174
  0.8019095458453377  0.9981008314116274  0.7988412649716377
  0.7996827779555192  0.2020366534840825  0.0010961994872547
  0.7974095232514999  0.1988574689508830  0.1978579352743597
  0.7990504443291688  0.2015761168398707  0.3969330565944535
  0.8010184103814779  0.2015199172907939  0.5971950056617926
  0.8002432936590043  0.4002861079040607  0.3998342805075931
  0.7993641760483794  0.4007403425517652  0.5988584097076195
  0.8016075218563081  0.4029910270437417  0.8019823423574394
  0.7989559213160030  0.6040948645320050  0.2033245779536628
  0.8016295734145694  0.5971737826259464  0.4001423673553318
  0.8019294099358214  0.5977994402792233  0.5993656657269953
  0.8006243789277860  0.6011265688422704  0.7980219487160258
  0.7988447906237727  0.8000167769400603  0.9990610754676565
  0.7949814343886928  0.7999583057976969  0.1936106452304889
  0.7997521888349152  0.7991570341345984  0.8027480107206015
  0.9959350314519482  0.1996212362560617  0.3983755692200263
  0.5998628184153328  0.0010071410253731  0.3989093263508104
  0.6020882468655672  0.2009899311914731  0.7974216515006304
  0.8000949078793692  0.3982340770783976  0.9963828556148138
