Zr V  Cr W 
 1.0000000000000000
    15.4863295998759050    0.0024137293282322    0.0105674120120943
     0.0024156779473548   15.5040449564505511   -0.0174543962439357
     0.0105707746262879   -0.0174578174046017   15.4782021514271442
 Zr  V   Cr  W  
  10 107   6   1
Direct
  0.0006966542582165  0.9672166369545705  0.7590128420092997
  0.0632171237698050  0.2708338676343819  0.6042433722754402
  0.0001149782115113  0.4329961987573518  0.0396478748127775
  0.0040198560759120  0.5785400324332082  0.2199517944352924
  0.9609915340630695  0.7922086766077656  0.1933879174175927
  0.0036164781921424  0.7972815473961004  0.5982358340007145
  0.1998034539880603  0.6002680046674294  0.5988613628467971
  0.3587021821110515  0.8030612897907390  0.1999195104048226
  0.8357432107205985  0.4303942930184388  0.3975128795247141
  0.7504759113309711  0.7914893859310148  0.1980508427627169
  0.0009995838145599  0.0060946233159111  0.9999144453539003
  0.0038817316433444  0.9981558778742698  0.3934540767160901
  0.0011544326958932  0.0095257878651828  0.5746067355513658
  0.0009865740215642  0.1991978379996893  0.2026282245826082
  0.0012636736071417  0.1993850891464756  0.4008125627407297
  0.0006116101981621  0.2039654578889000  0.8087960974865629
  0.0002578519967025  0.3864970028149695  0.2316764057188027
  0.0248777336015305  0.3960430340489119  0.4136227382925363
  0.9904293946039349  0.4024254472904685  0.6012434738984171
  0.0012953040722814  0.3963152255456818  0.7994590302080267
  0.0008479977286564  0.6228305649551945  0.0122163333577581
  0.0061091461310845  0.6056081008862511  0.4174306909028430
  0.9948192574489486  0.5958793382572761  0.6090988121235249
  0.9989722545953086  0.5918314663138007  0.8097295976654567
  0.0016025164443467  0.8119860880269776  0.9921566095146744
  0.0023561189471515  0.8003047788877822  0.3955019979409010
  0.0003528907146141  0.7813566201871269  0.8037618868932982
  0.1997853173328560  0.0020923410283626  0.9974500672391478
  0.2004081938494412  0.0013997226211577  0.1988058651961114
  0.2021169428158824  0.9989316465480156  0.3972486771728782
  0.2015114559134707  0.0009977442984974  0.5973996648793405
  0.2029750016489461  0.0005452458612946  0.7995997741764377
  0.2016889371993234  0.2006834922802955  0.0008748594823033
  0.2013820570501985  0.1999877575955596  0.1989745546888601
  0.2029383706928886  0.1987920452609315  0.3996099577231744
  0.2006408463015881  0.2001550013449126  0.8004507289983950
  0.2031680706919476  0.4008425501736923  0.0005898705000547
  0.1988701438734416  0.3991945465560690  0.1985902019848313
  0.2065814707596327  0.4024947608125116  0.3957768993842074
  0.1994948138374001  0.3999483449724855  0.8042241588045494
  0.2011859578181865  0.6023578526845590  0.0014785068477902
  0.2070572434525222  0.6007751590489865  0.1988815054053494
  0.2013506933695934  0.6010563092155686  0.3934860073908646
  0.2002725201399713  0.5993958440081099  0.8053249947047512
  0.1995536621423130  0.8025993259737887  0.9996701108057361
  0.1718413353942941  0.7969354919717998  0.1972036466917297
  0.1991901509918786  0.7995255542489363  0.3984851069148667
  0.2075277677853860  0.8030830593896766  0.5986409019961942
  0.1993547711557035  0.7994224749986593  0.7985585081989039
  0.4015292710700135  0.0004317765397772  0.9985527167963625
  0.4023315103983283  0.0038846522336533  0.1982460448829477
  0.4004007827807426  0.9987458836246899  0.3987501513432249
  0.4024223460079926  0.0007612070987812  0.5983331916524878
  0.4003174070063366  0.9990627529334025  0.7972332545321584
  0.4013158446828235  0.2000027049234863  0.9988168797055845
  0.4010010632886715  0.2005561638452952  0.1999347009590341
  0.4006885883356960  0.1988526150069940  0.3998829777948462
  0.4015233520965079  0.2006267106380932  0.5990744044718008
  0.4005579077103688  0.4001596656675441  0.9997834174288518
  0.4002712475671514  0.3977434398398290  0.1993497441443185
  0.4011460578663230  0.3985413060952291  0.4009163480308910
  0.4025949510055020  0.3999748824981060  0.6003375263331595
  0.3996548444994973  0.3996211003708419  0.7984913946400928
  0.4024445879701929  0.6008226364498639  0.9998533930223672
  0.4042831634164444  0.5939063325861411  0.2005692534898522
  0.4015008210302526  0.6010441702033558  0.4004729052734553
  0.4057977005263719  0.5992672266757720  0.5992243388303863
  0.4009740796368113  0.6003168028100576  0.8005604370753397
  0.3992495157572375  0.8008275704542737  0.9948263419905117
  0.4005053319057594  0.7996067456035760  0.4027904662710432
  0.4011856383063099  0.8004139768290097  0.6004309890386847
  0.4003272201841397  0.7990239278275889  0.7988313093723172
  0.6006673852967677  0.9991544035915838  0.9987244873014953
  0.6009475306390334  0.9964064579988082  0.1987845758069875
  0.6008093184400707  0.9977294792059180  0.3977572323886376
  0.6006353870375597  0.9992048123290090  0.5971158280761831
  0.6006366278539792  0.9978663244323847  0.7980152005147871
  0.5994436134593798  0.1985632007941850  0.9998663508868726
  0.6014361002933857  0.2003631903215609  0.1989943680679954
  0.6001459278757320  0.1987877927074692  0.5993735466269656
  0.6000975464791345  0.1995054781307763  0.8000186260821283
  0.6004073414695990  0.3990179838398681  0.9990406244223473
  0.6022477685636567  0.4003051873203765  0.1996697787941308
  0.6021116240034011  0.3988071186996378  0.3980065098487808
  0.6009173029120098  0.3998504899118729  0.5980175855404355
  0.5994529954478925  0.3999977055518543  0.7997141682124147
  0.6025041834414164  0.6000452499898608  0.0039761695045382
  0.6041585693122327  0.5991373417370269  0.3956184926374106
  0.6022426436070543  0.6001942033731068  0.5969781283380738
  0.6019664633138189  0.5995026171247637  0.8017997799201200
  0.6009876019681212  0.8004336108833001  0.9978974909658319
  0.5645971198097991  0.7906269582420097  0.1987006687492541
  0.5994913174650107  0.7996386801373510  0.3983904386596126
  0.6011419535630406  0.7995114511261926  0.5985392153118354
  0.5998228691512929  0.7980352875141812  0.7983088725891530
  0.8015063090670509  0.0011951030285742  0.9972921219238597
  0.8013753678349107  0.9975733853792604  0.1982257413627525
  0.8003990386997660  0.0001352373302171  0.3982149807292618
  0.8022920006270807  0.0007051107309625  0.5989052904198873
  0.7984090511672312  0.9998189695561693  0.7991326680132648
  0.7995117712753498  0.2002170430769893  0.9996967332889569
  0.7994518832274283  0.1994102009671664  0.1990082885877760
  0.8002335865377103  0.1962407740512244  0.3992101220124027
  0.7947158424569802  0.2013565680557310  0.5998999356285851
  0.8009506564023272  0.1991898917815921  0.8010051680049546
  0.8039720082259890  0.3977113866664840  0.1944775910893302
  0.7964081788793879  0.3999062661926174  0.6008560042104369
  0.7991741106358807  0.4000371207876924  0.8008684751361318
  0.8034031137620832  0.6008311401781972  0.0002116467251222
  0.7942348425727994  0.5944496838893221  0.2075378279443037
  0.8026465485018630  0.6175968547192535  0.4035592003706888
  0.7985656359025295  0.6009124822483144  0.6005381421498343
  0.8006696986369527  0.5990484193723745  0.8024404552957696
  0.8024952118415185  0.8022918969660373  0.9968907411777235
  0.8063811161258877  0.8059248367519695  0.4008877465411453
  0.7963307868793819  0.8008868678959332  0.6004346793345851
  0.8007250430374913  0.7987529353748498  0.7985634998849582
  0.0002115985238846  0.0030893855428933  0.1975132408975750
  0.0005997642392143  0.2008975587994241  0.0035000115245787
  0.2033850881340865  0.2034177737866134  0.6004240853069046
  0.4007543770860953  0.1996991410917010  0.7992628758409045
  0.6000833611103916  0.1985788660446790  0.3984766128490794
  0.7977812784820720  0.3995544516720912  0.9983256327841514
  0.6016639937454313  0.5977968672290618  0.1990225707672472
