Zr Ti V  W 
 1.0000000000000000
    15.3687751858679373   -0.0034047973547748   -0.0004629384474201
    -0.0034058626285429   15.3762737440467472   -0.0028872120149207
    -0.0004620936853672   -0.0028876454386987   15.3933118945991367
 Zr  Ti  V   W  
   2   2 106  14
Direct
  0.8015985243209214  0.9902878560455850  0.7961908114125583
  0.8037815579822698  0.3982967393839725  0.0057445986241422
  0.1964282872695029  0.4054298662175163  0.3955022761128730
  0.2004745884483795  0.7936332337664385  0.4072558753144707
  0.0013203135850466  0.0014647595762325  0.0015266096793420
  0.9997263857970924  0.9994038795432988  0.2013957114546043
  0.9996927887025470  0.9996992581291202  0.3993424690449583
  0.0013252303964539  0.0013306396291786  0.5971748995289499
  0.0046767561920525  0.0005839154267002  0.7990845365250473
  0.9984965066476451  0.1994040657988101  0.0010627701807591
  0.0013516574834196  0.1993778520547998  0.2008808953163548
  0.9989560780909198  0.1992948278101054  0.3994409756112240
  0.0003114049312198  0.1999291519866384  0.5993440485653626
  0.9988632593818086  0.1986737488810897  0.7993361208260077
  0.0080772265447681  0.3988867612614875  0.9986836579532302
  0.9970311913511217  0.3990220078352422  0.2011254497165133
  0.9969072168491523  0.3995403845871437  0.4017745724382787
  0.0041758575003615  0.3994385356795028  0.6008605009797220
  0.9975286878607085  0.4004214547140806  0.8007995394309714
  0.0003759890640611  0.6007008067354195  0.0010936291023220
  0.0043096331126345  0.6014402510178721  0.2012661486431439
  0.0025414220674440  0.6015805884511986  0.4003417753111287
  0.9987937295710927  0.5995390860378851  0.5983548380594235
  0.9990127645957835  0.6000960694987235  0.7987205980583930
  0.9999692591833211  0.8016780405273692  0.0000171177057222
  0.9989249720954471  0.8001325176749342  0.1987815038368608
  0.9963961570037883  0.8017153046780501  0.4005838801166003
  0.9997178120199212  0.8001453112278628  0.5996546669836835
  0.9996899220012123  0.8001105561211691  0.8001811635868331
  0.1997126318095420  0.0023323705387599  0.9999607454791887
  0.1999924400246409  0.9965471326432875  0.2007930784569330
  0.1993394395349267  0.0001748314253600  0.4006963191154029
  0.1997320907339587  0.0005762795397061  0.5991837172023022
  0.2006323543530401  0.9953607746603600  0.7996960402550484
  0.2013384572574424  0.2036106834600108  0.9996563764589831
  0.1999835720882021  0.2008634285073356  0.2005988313316830
  0.1995529746788539  0.1997319649162455  0.3991778815226202
  0.2023487395681380  0.2056059416281432  0.6004921480189973
  0.1989494881376605  0.1985176517580521  0.8012631210065386
  0.1999804353141658  0.4051905613853806  0.1929511485457032
  0.2000804166209512  0.4031086057421594  0.8029159185390579
  0.1999680010639673  0.5955599049973338  0.0036690506956220
  0.2008150218314317  0.5951078821958341  0.5954134430065813
  0.1992260964215480  0.6041201405844542  0.7994180680574153
  0.1995767665230878  0.7989330568109156  0.9956648370176485
  0.2036605798863127  0.7943145748640511  0.1948570557556407
  0.1994308176154664  0.7983443376334303  0.6066754973788617
  0.3993266395318560  0.0021314353103656  0.0001560039920927
  0.3973585384497126  0.9949677497388600  0.2008280855620815
  0.4031890350174472  0.0002942060755018  0.3993270774791880
  0.3982376345885652  0.0033764439857651  0.5982382376583449
  0.3998347646015152  0.9982164988053794  0.7986992690515197
  0.4012196783899137  0.1983249722982571  0.0003248411213029
  0.3995226758017765  0.1991121633938122  0.2010548779825219
  0.3998176882412932  0.1996746438195998  0.4027660061189751
  0.3994838679776593  0.1973375612378883  0.7957693885737117
  0.3969231408095055  0.3985007946655986  0.9996852072175108
  0.4015125153016698  0.4004885606128297  0.2007555258998182
  0.4025517494556722  0.3991447351806515  0.3990953874229496
  0.3944337221463429  0.3956495244392017  0.6001094373071115
  0.4035639311548094  0.4007482558601562  0.8008434361468360
  0.3999933404506326  0.5997263892721686  0.9994488438440566
  0.3964579737604227  0.6031619361837265  0.2009823642760667
  0.3960622521890086  0.6011383360824097  0.4001378232852656
  0.4019808706786732  0.6003945102269055  0.5970967615924093
  0.3995892659457847  0.6018547460856813  0.7989794340734180
  0.4002919775608693  0.8013412336050841  0.0017727141869326
  0.4012993451071544  0.8018367631677160  0.3955126603921896
  0.3986433574833906  0.8015150742644138  0.5988655387919052
  0.3966099149616654  0.8005063976997329  0.8012091474053834
  0.5990347667780237  0.0035536076412732  0.9991655648432580
  0.6007206393837072  0.9968827772508675  0.2034551234909966
  0.5979611696157900  0.9989057836556938  0.5948605079326087
  0.5963010582521783  0.9990512833561486  0.7987734077338493
  0.5974175445322394  0.1992901837160647  0.1978409976554330
  0.6015112422617438  0.1968316319988990  0.3969588459972759
  0.5948322888078444  0.2013174429921533  0.6000573542806124
  0.5995055469120961  0.2044220268667884  0.8010155249923553
  0.5948136713564499  0.4000634037824355  0.9959540870127322
  0.6008697783884269  0.4015138783705917  0.1996112876122667
  0.5997029029787722  0.4006332748183867  0.4008369815886859
  0.5987559022566693  0.4031182808762787  0.6038919327459349
  0.5987476062146914  0.5991406984104954  0.0001206879144059
  0.5981731301987084  0.6033615162675164  0.2021186229254961
  0.5992779478988208  0.6002181945371408  0.4040309544510790
  0.5995640724270987  0.5963404509833853  0.7955105827521255
  0.5991397924961400  0.8009673263529311  0.0026907478908835
  0.6010665667039828  0.8033583695222164  0.3963076604126570
  0.5975979554401379  0.7958012745164037  0.5999672932777383
  0.6020341761081927  0.7985167922372040  0.8014670922607562
  0.8001964633753879  0.0002118247721127  0.0044474438006319
  0.8006651378701124  0.9968291557147848  0.2001864444573579
  0.7969868381277436  0.0010726425716516  0.3976632353765054
  0.7991328629035199  0.9999861253194934  0.5936168541357520
  0.7982671269413613  0.1932389079385960  0.9972933505339060
  0.8000396562198443  0.2004109011980907  0.4000585216610654
  0.7992791521899837  0.2005143010435732  0.5983268705773537
  0.7989882701187803  0.1995779690729457  0.7991534552264865
  0.7997686448229665  0.3998035016102930  0.4005933401230763
  0.8007216877151179  0.3995474074501535  0.5989048653237391
  0.7974128285473010  0.4002873647107554  0.7967277236809264
  0.8011070515424185  0.6042857548035480  0.0006759143067159
  0.8006619825614739  0.5977428313489517  0.2016130654129955
  0.8019543766109345  0.6011453988950375  0.4006105345135293
  0.7965817650385213  0.5993282502040786  0.5974593268780002
  0.8008314593707074  0.5998174363617317  0.7995050017902005
  0.7995051982047778  0.8010145887460088  0.9971073332284622
  0.7954755154184667  0.7971794428071579  0.1977309405897415
  0.8004161893260895  0.7994865812282242  0.3994482361158262
  0.7993189124115901  0.7994729291205295  0.6035608211172054
  0.2019178990319086  0.4000805171782115  0.9983040252250569
  0.2002915677467740  0.4010343297897603  0.6086568907469807
  0.2007089679234526  0.6000868568036937  0.2025166237359679
  0.1992109692622445  0.5997032714832209  0.3969753367874658
  0.1987636095244959  0.7981369156309506  0.8011304814590062
  0.3983995274323903  0.1991913704481548  0.5993562630509098
  0.4022364390178333  0.7991624936482635  0.1979417791327446
  0.6007385190945782  0.9996579267426180  0.3997651773334076
  0.6660496944552717  0.2016393507706040  0.0670036416420526
  0.6009482455545859  0.4010076237827493  0.8014548537012127
  0.5975911476164952  0.5992950849224596  0.5983440794309572
  0.5970749897679758  0.7983268805325694  0.1987613973898188
  0.7992909834407980  0.4036879041329680  0.2054531544084480
  0.8004226855092785  0.7916123763054618  0.8008992456733062
