Zr5 Ti9 V104 Cr3 W3
1.0
  12.4047373595129944    0.0005871949345465   -4.3884804253903997
  -6.2127015418028249   10.7521737352304907   -4.4192532128364288
   0.0235854948672481    0.0032892709917967   13.2322217357811507
Zr Ti V Cr W
5 9 104 3 3
direct
   0.0013765325602336    0.2010771473345543    0.7963670313068728 Zr
   0.3969617747186143    0.9992306111724625    0.5908010714385254 Zr
   0.3950949129429603    0.0037949454245637    0.8092805843524172 Zr
   0.3970729408800245    0.5946909019372385    0.3932939278072690 Zr
   0.6006329496089513    0.3974912013015361    0.0039925030505454 Zr
   0.0027773836001769    0.2066482766474282    0.2076151854842675 Ti
   0.0083254205164765    0.6019154958595412    0.0044783945912751 Ti
   0.9975914992870765    0.8040232780501860    0.9961075442137640 Ti
   0.9965336769012115    0.7954160702079456    0.2011929238778239 Ti
   0.3995121124223424    0.2034841587922974    0.0077435748914444 Ti
   0.6020547615632377    0.2009509635050389    0.5982796099151414 Ti
   0.5940760409404992    0.6093731326486643    0.0007488450749517 Ti
   0.8078329056305964    0.9979668213293955    0.8025392785942164 Ti
   0.8040641030948746    0.4041091651306661    0.6031979480786662 Ti
   0.0035158464466692    0.0066073092492450    0.0057242650533652 V
   0.9994009687302767    0.9991838782953355    0.2006323610215783 V
   0.9979317250172537    0.9987261249633173    0.3963915288327794 V
   0.9977339986248845    0.9961311355626795    0.5938859417467089 V
   0.0095163598179281    0.9919809254337646    0.8018678641637103 V
   0.0116321382340113    0.2073243840578523    0.0128348936641086 V
   0.9973618523083296    0.2002227173209478    0.4027012060042952 V
   0.9975343685242101    0.1990081537002600    0.5889840020054237 V
   0.0042639948696028    0.4013313114897885    0.0049313606208584 V
   0.0002260587202272    0.4009336582824204    0.4006042879606164 V
   0.0013953318384708    0.4009347151104092    0.5996120573747307 V
   0.0017848631024848    0.4108911667037053    0.7988503055258083 V
   0.0019155880132737    0.5901228635040537    0.2044267022192275 V
   0.9997643835533375    0.5979321202271279    0.4035347599384794 V
   0.0000844935446370    0.5980560609037566    0.5995727112031760 V
   0.0086655347277613    0.6063698561591180    0.8000346245479680 V
   0.9980546523440090    0.7994163077278064    0.4030728000759494 V
   0.9974111233405197    0.7964699716943887    0.5973607797752227 V
   0.0009343125664889    0.7961244070996062    0.7946504079231826 V
   0.1995267742710085    0.0010499146556497    0.0035696537701514 V
   0.1995487193407876    0.0035110142599054    0.2021563263899128 V
   0.1960520057305767    0.0038418723531433    0.3946967583465682 V
   0.1844478840714132    0.9970470898378549    0.5907445788738037 V
   0.1830676392387099    0.9970899695178133    0.7962888352904273 V
   0.2022258891081478    0.2033299939729033    0.0067611933592711 V
   0.2048030621768843    0.2020059045622934    0.2028900975187656 V
   0.1989148256296046    0.2021126237560293    0.3982538976871570 V
   0.1931274846646344    0.1971942395077801    0.5947962531042063 V
   0.2094656830267785    0.2031652735046849    0.8019088943424610 V
   0.2078776420265066    0.4091846171794934    0.0095657857284792 V
   0.1883838626783862    0.3923065290673368    0.1940538457864628 V
   0.2026778552495477    0.4032423503131274    0.4051555998560815 V
   0.2025041395329959    0.4054258951289552    0.8020640798961424 V
   0.2108892344892278    0.6025130635574252    0.9998913508334699 V
   0.2014797128397247    0.6030817605484963    0.1988001011596611 V
   0.1902699225230754    0.5950003040041668    0.3987901898807363 V
   0.1987170664395532    0.5988776506757455    0.6003507091237902 V
   0.1994547786550345    0.6006665399671749    0.7987518062971594 V
   0.2039774439037285    0.7985273729484083    0.9986200415157513 V
   0.2093135772960696    0.8049056251227089    0.2037633922877934 V
   0.1900404029103655    0.7891527741717000    0.3884670458530939 V
   0.1902236155798467    0.7881899512677917    0.5912426247949293 V
   0.1970380962033964    0.7953075648014380    0.7989454460221528 V
   0.3996286692206685    0.9947624715611083    0.0156900200077240 V
   0.3983748702366721    0.9981250839088558    0.1971778657545525 V
   0.3913686976586712    0.9925825214252267    0.3789161957444842 V
   0.3988216567717767    0.2032404191725333    0.2040653224988903 V
   0.3973746161737317    0.2003684135321253    0.3968762643075546 V
   0.3920733184018418    0.2144176576437251    0.5928340786662343 V
   0.3858464826733208    0.2054069859127564    0.7831214542563585 V
   0.3920955717779194    0.4091342429011337    0.0004057467203239 V
   0.4024144859961055    0.3982464357113424    0.1983401348870352 V
   0.4005356956918551    0.3919327448085266    0.4025439304566321 V
   0.3952782536405419    0.3992059514118741    0.7931536401308724 V
   0.4024728466859016    0.6040057820919160    0.1889332551113971 V
   0.3972970311507869    0.5912192761689831    0.6025885062697760 V
   0.3996953116881201    0.6004358483232328    0.8042981993616505 V
   0.4001193930179260    0.7968604772711946    0.0004430490223522 V
   0.4025630271284966    0.8017876700830431    0.2002976343043386 V
   0.4000779105421423    0.8051161651124823    0.3969283711940423 V
   0.4002526134249634    0.7921776793209403    0.6021628421186445 V
   0.3929773311618554    0.7882685202544303    0.7986138633570707 V
   0.6031249542228851    0.9973292888860863    0.0043131614843770 V
   0.6030282106590485    0.9984433025067332    0.2006347378204962 V
   0.6020166937495183    0.9979718593033817    0.3964344604650902 V
   0.6117314003019725    0.9942489627048992    0.5992994250766613 V
   0.6250929379874057    0.1999917317470142    0.0208975316393001 V
   0.6026781818248232    0.2017411808971605    0.2049700274240388 V
   0.6143273491576321    0.2070236322854015    0.8117765230588905 V
   0.6084098284210679    0.4067430472727964    0.2185174094363020 V
   0.6025597849250330    0.4028474116764790    0.4023342348972792 V
   0.5942551315829006    0.4060432678975635    0.5993369193166713 V
   0.6004915654762583    0.4013543036717600    0.7937632885773096 V
   0.6038516864295910    0.6037356870067110    0.2068933779402039 V
   0.6105802197783212    0.6012399521130248    0.4015207431311691 V
   0.6037456047706675    0.6019271294870763    0.6009261018168582 V
   0.5969304986799584    0.5914916472454518    0.7929723955696949 V
   0.6021419067746692    0.8109035358092349    0.0069754914098031 V
   0.5995431433689034    0.8001975462267451    0.1990318630202765 V
   0.6017445119609691    0.7998816786190235    0.3954119296742244 V
   0.6060754225981052    0.7997233637183875    0.5964273786538312 V
   0.8048179274496343    0.9972214590960850    0.0096309968301049 V
   0.8029008708208477    0.0017321713348947    0.2036233615521310 V
   0.7989682072704053    0.9990455004486074    0.3950355343549384 V
   0.7922594702974785    0.9873197894065957    0.5815947210606002 V
   0.8097271448712203    0.2041126442787600    0.0071449438494833 V
   0.7982315682391693    0.1991846084046079    0.2055542345176891 V
   0.8020479806511832    0.2016520671665707    0.4011166850677794 V
   0.8035098302727074    0.1956516087971283    0.5943420588697973 V
   0.7933918060574954    0.2063956256666040    0.7965542818522866 V
   0.8129879260735561    0.4042393716857840    0.0029971149235060 V
   0.8103125323136705    0.4027306563450682    0.2073282839486582 V
   0.8046423659643840    0.4024290171249565    0.4005249300515092 V
   0.8026525516730090    0.4038735675926961    0.8069333492903200 V
   0.7950815192081705    0.5989585485758797    0.9905000102188912 V
   0.8093453771621227    0.6109097556385502    0.2100991838482114 V
   0.8015344560840114    0.6001100268217759    0.4014049842240584 V
   0.7996833944687106    0.6046672944030275    0.5994522390352049 V
   0.7957993052879335    0.5961790175668319    0.7949492310400647 V
   0.7948768647962519    0.7993411512511952    0.0005275412688541 V
   0.7991531949790351    0.8053137295404919    0.2046902483773594 V
   0.7996003768534823    0.7987782330784455    0.3973420310465535 V
   0.8013954297356993    0.7989545878567814    0.5982948847382925 V
   0.8073446008213536    0.7933080276030532    0.8024273887434434 V
   0.0031968700761627    0.4054156083524922    0.2052982563482967 Cr
   0.3990209336240920    0.3998553179874527    0.5978572659417053 Cr
   0.3954030644658547    0.6023590034423578    0.0007092634108781 Cr
   0.2001013158590860    0.4001755356815807    0.6000188514773698 W
   0.6058996561662638    0.0015715002557018    0.8029596099729325 W
   0.6004467612542322    0.1988154039164335    0.3952130590456268 W
