Zr Ti V  Cr W 
 1.0000000000000000
    15.4774007178547244   -0.0057270445464663    0.0060485456842571
    -0.0057275938548885   15.4869400142696509   -0.0016006725836938
     0.0060484205712483   -0.0016004018593464   15.4828342852602923
 Zr  Ti  V   Cr  W  
   2   1 107  10   4
Direct
  0.0022783904773120  0.3975723833730271  0.0010624663015071
  0.4014700982601567  0.5966529801600248  0.8022479360958429
  0.7984621220705307  0.1929744873255888  0.5993369263027941
  0.9995285013272890  0.9993196176929402  0.1994874555592341
  0.9996969422309404  0.0009593849745558  0.3992822687514750
  0.9967722623247923  0.0002347279364949  0.5989843733715212
  0.0004421236360830  0.9988987280603404  0.8005961252039433
  0.0010112676090492  0.1917885251551208  0.0010278649207103
  0.0000261217775517  0.1996863495393089  0.2005380328556773
  0.0000766961011181  0.2000586597198661  0.3994797270213559
  0.0035127080074951  0.1998069619378232  0.5990152740271604
  0.0018724082924190  0.1991680528683580  0.7995209675425506
  0.9994557186526879  0.3992481755935395  0.2051305132632731
  0.9998166430584233  0.3995007170291039  0.4018484470008402
  0.0012934028046934  0.4001567103762367  0.5984408151435640
  0.9950510013084253  0.4000083648042679  0.7945176862501884
  0.0004174719818903  0.6043401993064745  0.0003851278980351
  0.9999051672540812  0.6012852740531345  0.2000758315758708
  0.9992033775561188  0.5994816250753917  0.4001313668478444
  0.0003278057367813  0.6004294842545447  0.5984259748817057
  0.0003853377050789  0.6019019237835849  0.7995704121925967
  0.0000318564289992  0.8005877117881207  0.2025681717016624
  0.0003571724420987  0.8008175755112952  0.3999985883061338
  0.0013279880231494  0.7992149598102896  0.5995692531984775
  0.9998845360689285  0.8001991519002921  0.7961653845825160
  0.1993407908745629  0.9985589072179345  0.9994329066853944
  0.1999610434105875  0.0001560646460179  0.1999150244986955
  0.1995374967460678  0.0002690474457556  0.4006296062991188
  0.1995830855838217  0.0002158773750389  0.7988784846426916
  0.2021701030549673  0.1998474937998162  0.0003023645286568
  0.2009549731486863  0.2008070195947475  0.2002956322514328
  0.2002448719792186  0.1997987431069144  0.3997225965444653
  0.2001142661450460  0.1986684693841067  0.6000914657800561
  0.2000206616770117  0.2002149608654472  0.8003714691384544
  0.2058425057837363  0.4003866119007047  0.9993189211845408
  0.2019213014443210  0.4007442152774036  0.2019104035008211
  0.2000359892186533  0.4003154207592022  0.4011599994819075
  0.2047944637000313  0.4005133798842098  0.6006704135541840
  0.1981177176192976  0.3997635489381047  0.7992208662349923
  0.1996807290705246  0.6025120920634900  0.0006367655539012
  0.1996872325119015  0.5994399893280775  0.2001776077581788
  0.1990323779808535  0.6005513191748898  0.3993640414269859
  0.1958775869352877  0.6003859321541537  0.8004257424440271
  0.2044430099631141  0.8007032329367471  0.9993884687360465
  0.1998850155334121  0.8000730836288250  0.1990131676027786
  0.2008646097681640  0.8004194850102299  0.4007747885038339
  0.2006502959379277  0.8004788548161217  0.5994348906605138
  0.4010290950771413  0.0016031443352318  0.0001112565823422
  0.4000953327210112  0.0005124643706171  0.2004244973171649
  0.4005620308938295  0.0009642028532140  0.4011368577012646
  0.4004608166497213  0.0007145097886423  0.5999122173355655
  0.4001401584060800  0.0007538233257720  0.7986262581389439
  0.4006872621309014  0.2003246212046019  0.0005051060397969
  0.4007948626145412  0.2005614601504135  0.2003813769374912
  0.4000161664032049  0.1998271482472593  0.3993841724032541
  0.4000596792923258  0.2026362078020998  0.5994359410606518
  0.4001206684939067  0.1984320304554291  0.8005838335967445
  0.4018129328474219  0.3983689646212222  0.0000820505676049
  0.4008130929166454  0.3997632915671027  0.4041828908313640
  0.4023144875199927  0.3936895800015273  0.7951489953843642
  0.4006823208615047  0.5999919116251685  0.0054303316955600
  0.3998648762829506  0.5995861070806658  0.2019904662884192
  0.3996740709292822  0.6005458292406445  0.3995862241259784
  0.3996451293337352  0.5968474896197913  0.5963916856255307
  0.4005200563809057  0.8020602070525088  0.0010327980799104
  0.4006567141952699  0.8007045460749617  0.2011296634406012
  0.3998210253482212  0.8005704565609951  0.4002557092276581
  0.6009269172443568  0.0004040336011714  0.9995860499034310
  0.6014262743118033  0.0009304371185479  0.2000953075382766
  0.6003469357170913  0.0006243023668782  0.3994187746306417
  0.6029699001307007  0.9995432453703424  0.5997541705286397
  0.6004397179176958  0.0006196107918488  0.8003858850543913
  0.6002870651039282  0.2002497766636692  0.1994165099465054
  0.6007634971857243  0.2003897359083399  0.3982424837847965
  0.5982462936903773  0.1987611508589716  0.5988183449346609
  0.5995330059743250  0.1988709809723850  0.8008922485628376
  0.5983020968025379  0.4007118748995271  0.9999345825790207
  0.6004573282911532  0.3995264078904975  0.2002667133115150
  0.6011095428132752  0.3996361185567281  0.3998621062836728
  0.5961768160258463  0.4006600231551955  0.5996595854110510
  0.6060094122326598  0.3986978980516239  0.8000561907459739
  0.6001368107798876  0.6007351342520656  0.0014457135280595
  0.6005967069606949  0.5995781269524639  0.2002626912543968
  0.6009788379763684  0.6000449404386182  0.3992372033221884
  0.6003882815012674  0.6021170699242431  0.5988228678393743
  0.6049606043513188  0.6013586052883754  0.7999460187375003
  0.5995531089068407  0.8005780423596032  0.9996112750293300
  0.5995531406934191  0.8005632732438681  0.2002272379545049
  0.5993889984767231  0.8007222021217355  0.3999641917857973
  0.5985121278134032  0.7990628795857023  0.6007048485480679
  0.6009860420841878  0.8010501234566294  0.7997757561684508
  0.8014217411286511  0.9994417223339438  0.9989169322889658
  0.8002455428683765  0.0007846508051813  0.4026800429115292
  0.8005940677133150  0.0022221319517475  0.7963843743217787
  0.7993622121144475  0.1976164915914388  0.0011342270329284
  0.7998974289644197  0.2008011210296308  0.1992339711592091
  0.8003303269555857  0.2033560423153913  0.8022929017806757
  0.7952870278890866  0.3998609853352734  0.9948412517107365
  0.7995311355195026  0.4002033938262900  0.1989514214117221
  0.7996247966833776  0.3989944191562761  0.4020498010859485
  0.7986032092112297  0.4010324386255716  0.6036738041359356
  0.8009371070422546  0.6017044580654382  0.0004606781807777
  0.8004121249725038  0.5990535105930391  0.1999894244248705
  0.8003056998746496  0.5997010889662179  0.3999150209205515
  0.7998982444490631  0.6008433029202549  0.5988187669817897
  0.7972284919456669  0.8009809067840455  0.9995935871442682
  0.8007483102646149  0.8000818637441892  0.1995587024890922
  0.7991895407190178  0.7996377338024525  0.3994292798416896
  0.7993949551241384  0.8016727306993825  0.5999990715399784
  0.8015408748078007  0.8001467493706904  0.8014910755797020
  0.1999596354478174  0.9995470687251736  0.6001450390015298
  0.1995797471749557  0.6009322665180380  0.5998583025952889
  0.2004477534508585  0.8005254329449942  0.7991965713302672
  0.4011807317864253  0.3998636068145966  0.2018740844684540
  0.3996320903403695  0.7999759313193719  0.5999389325361744
  0.4001233478458002  0.8030206612537224  0.7994462390079450
  0.5996384943230412  0.1999339498408745  0.0005739572326253
  0.8001877118724156  0.0000858760572116  0.2001805569087216
  0.8002527931463735  0.2001532884693127  0.3972498256001280
  0.8014188558889750  0.6002982848612398  0.7994576679377835
  0.0005952991322411  0.9680208413072567  0.9985341225040526
  0.4008648998440654  0.3991868384623580  0.6003964553793882
  0.8000823911803701  0.9959953543206620  0.6008801781906201
  0.8001927857231369  0.3966018390317095  0.7994711718151164
