Zr Ti V  W 
 1.0000000000000000
    15.3704372863088707    0.0041087699184726    0.0045828320708022
     0.0041071823098185   15.3593176205705255    0.0049868964281650
     0.0045832368054306    0.0049883200619353   15.3853693029952101
 Zr  Ti  V   W  
   1   2 107  14
Direct
  0.7917605330409949  0.4017270494495108  0.8099894555204488
  0.4089128273081155  0.7974153296423392  0.8050927882945542
  0.6132818417704281  0.4013765460955001  0.9887324060898848
  0.0007269142965326  0.9979743163390615  0.0027111538251525
  0.9925436289382792  0.0027752618947539  0.2007819988154689
  0.0016787886710146  0.9968669911833284  0.3981102056756725
  0.9942462647616350  0.0000883245630614  0.6022782392853560
  0.0024094366791207  0.9984818275961063  0.8013716880642074
  0.9998580176035353  0.1994181089509708  0.0007862462354831
  0.0014730522163256  0.2021229460452847  0.2020582523385780
  0.0005648386654955  0.2002293192394099  0.4006133597783113
  0.0025618442972855  0.2007593200530045  0.5990945147823150
  0.9992799137977417  0.2009923814943646  0.8017646367254927
  0.0039410672218245  0.3994277134549660  0.0059374267668038
  0.9987508181774539  0.4013039855897988  0.3968842108727066
  0.9974940382489849  0.4001747932932868  0.6001374284239187
  0.9994335348777643  0.4011548717384326  0.8028144216173011
  0.9984593316494357  0.6053722943152048  0.0002640509843954
  0.0023046302119931  0.5965853058208369  0.2004658343787628
  0.9998296742753325  0.6031724811243985  0.4019640516711242
  0.9993427758428081  0.5996961880213855  0.6014314013714460
  0.0025812230144873  0.6007936011719389  0.8002521216363974
  0.0029249032640098  0.7998063563347393  0.2010383045017519
  0.9989613497862028  0.7997564520693081  0.5947643059327898
  0.9993349413283845  0.7992469271651572  0.8063585208511621
  0.2001331574235854  0.0016066766745483  0.9930214552143252
  0.1985690532404619  0.9992281872462204  0.4076230406747030
  0.1981887302885319  0.0029063767870103  0.6061335535424320
  0.1999408314796846  0.2022467500498662  0.0006499919507584
  0.2001453148268740  0.2018757407369183  0.2009375044682567
  0.2024373419756171  0.1981295527973546  0.4030741402743745
  0.2009081374050841  0.1963887861199441  0.7955462919303579
  0.1961469148452436  0.4046703994606390  0.1954913717908309
  0.1995350523723004  0.4016764695819804  0.4002287734706696
  0.1977745870611436  0.3965440415457113  0.6011634513099310
  0.1977887737499836  0.4041593495451283  0.8047046431081728
  0.2005265005512821  0.5965407058089514  0.9955734744465888
  0.2010355426776623  0.5993791151677232  0.4006309792037585
  0.1996112536938466  0.5988565023836238  0.6048849474378729
  0.1961327099519742  0.8003552446347834  0.0017856863168217
  0.1964839325451001  0.8007757242184473  0.3998346329524699
  0.1993864137495513  0.8000655531656637  0.6007420532255036
  0.1983032936324889  0.7987785204809731  0.7997995790373688
  0.3985472068335827  0.0007113100480735  0.0013393370157357
  0.4048664612746372  0.9962782582249974  0.1994579709936676
  0.3991244082363078  0.0022892048876524  0.3987043489772455
  0.4011378550414730  0.9986551048817139  0.6004368574668770
  0.3973118827487139  0.0005074437454520  0.8004151497609753
  0.4007753939279063  0.2003881814262150  0.0021748873695883
  0.3975894741319343  0.1965070244574939  0.2036850092106955
  0.3963968818861459  0.2002827559687061  0.5950453540095164
  0.3998875373114744  0.2003124286738613  0.7994305974136681
  0.3957943341085051  0.3983003545857743  0.0003290496307715
  0.4025820397007102  0.4011275760262883  0.1982209866129886
  0.4001210263752938  0.3968245177583563  0.3977566290184823
  0.3993172616520941  0.3997812627206235  0.5984366534425514
  0.3965870581542715  0.3992276170197144  0.7997463310953827
  0.4013907018213720  0.5995290396159091  0.9987461323483087
  0.3986041095202341  0.6026345685182360  0.2005875965122576
  0.4003729725099729  0.5988200026537112  0.4011486629747416
  0.3985720138984716  0.5998044117526715  0.5989690155581515
  0.3957802957597866  0.5989795876411260  0.7995838922869377
  0.4016977842494469  0.8009700341982153  0.0074213897254177
  0.4013937569088847  0.8012245804714486  0.3965044945448596
  0.4003344089448633  0.8007832115707001  0.5941335360900611
  0.6009532193721611  0.0005820305971482  0.9972481418860821
  0.6030270188843940  0.0002282798837623  0.1981686177145538
  0.5993993413795939  0.0005045652175351  0.4017128684078712
  0.6019193207328327  0.0008579184443562  0.6025374147882073
  0.5976622377491914  0.9992430694579755  0.8007378225440986
  0.5991558343563957  0.1994629020946471  0.9989159032913971
  0.5983212711013505  0.2028204636104742  0.1988538989396602
  0.5946125552992652  0.2015057630036377  0.4011419698512024
  0.5980101113324645  0.2010653723639097  0.6009693346065866
  0.5967574681159572  0.2013513272506571  0.7997835778915489
  0.6023971623566446  0.4014465889199164  0.1991046021924839
  0.6012882883464726  0.4013485027713547  0.3985712612708452
  0.5998374433235307  0.4006153347851377  0.5991789294447697
  0.5898149588595295  0.4011574971413573  0.7944387499543866
  0.6002506172366620  0.6015510126351784  0.9981614780859402
  0.5983561070245061  0.5987112183042350  0.1977613185837700
  0.5994584161977518  0.5993703887162962  0.4018716425348752
  0.5985233177794158  0.5999771482473278  0.6020178423373168
  0.5955012573073227  0.6009285035179769  0.7998509996009345
  0.6016735208087235  0.7997195409667057  0.9991780026877283
  0.5964842144448166  0.7991304749794518  0.1996458680819097
  0.6034485658817956  0.7986452991149573  0.3994925363974365
  0.5997452084913226  0.7994921066012882  0.6000203045155545
  0.6029935792497111  0.7994846440746625  0.8003788080217614
  0.7991181114064374  0.0003901415240777  0.0040725870841456
  0.7982049871308656  0.9973113408791241  0.4020456875458236
  0.7997268812007025  0.9996195039931906  0.7976453350559500
  0.7998412895000765  0.1998763803729778  0.0011317313823311
  0.7975401155425171  0.1974017205013548  0.2029067799760438
  0.7985124890867826  0.1989210064375312  0.4019233115227387
  0.7991736848600079  0.1965698193577849  0.6004084701787804
  0.7995249059821955  0.1956873487162498  0.8007023613332270
  0.8081881940133648  0.4002342340100031  0.0107432757885970
  0.8041133993416225  0.4001745929582174  0.2046710516604743
  0.7998833569911056  0.4005403378401610  0.4018942462242126
  0.7993627717563198  0.3987942877480407  0.5993283885331491
  0.7996858949156604  0.6014745595853086  0.0011295066897348
  0.7976970221237232  0.6010050125508242  0.2011249402791590
  0.7984253446493864  0.6050279314176323  0.4017899732904675
  0.7986771960085003  0.6001251630004024  0.6028682806429888
  0.7993006695060614  0.6064996251386413  0.7994266412513454
  0.8035660724682571  0.8014354575568312  0.0031126508618062
  0.7974282646372765  0.8037956202853549  0.2051782135521741
  0.7998795788940866  0.8049756954182367  0.5963491006461316
  0.8007042702640821  0.8016105811561340  0.8000759008609788
  0.0004096957220594  0.4017003775926495  0.2017017140773253
  0.9984437690598300  0.8005494882978678  0.0042573698865737
  0.9982106612193580  0.7991567455994359  0.3982901387697477
  0.2000029997095719  0.9982034363066943  0.8001583388785202
  0.1993833342563696  0.2005936569171917  0.6011308418563402
  0.1997567220425341  0.4007771213979037  0.9994103059642677
  0.2021434450903112  0.6021933385537314  0.1981236917136933
  0.2005646905730780  0.6007035105546183  0.7993297265496156
  0.2032253181166324  0.7882281254341865  0.2000191267045197
  0.3986070832852808  0.1994187151097156  0.3986230545221272
  0.3982807744704446  0.8004259786159218  0.2018666759194082
  0.7982660291376600  0.0019288854796087  0.2018556081678684
  0.7984740445443053  0.0009378141006582  0.6012168819332521
  0.8034672737556563  0.8011436404302555  0.3999001498101408
