Zr Ti V  Cr W 
 1.0000000000000000
    12.2882735461728885    0.0000000000000000   -4.3445607757035454
    -6.1441367710433559   10.6419570608175889   -4.3445607757035454
     0.0000000000000000    0.0000000000000000   13.0336823299999995
 Zr  Ti  V   Cr  W  
  11  14  87  10   2
Direct
  0.9685225717588853  0.7963546971624951  0.1550965791419397
  0.1950747098469464  0.0000802133052652  0.3981863780227401
  0.1952627468663211  0.5959087253855680  0.3970807939557555
  0.1775284330649496  0.8023204648020300  0.9930023442353847
  0.3996083156233179  0.9989868012125839  0.2050355024970543
  0.4122346079581852  0.6140913911267731  0.8266658343373717
  0.5982411272027025  0.4108507662943126  0.1993725688034166
  0.8010835365451121  0.9924721324678738  0.5937360869676587
  0.8027490895117934  0.2082643266368678  0.6049131103575976
  0.8049697264192776  0.6037923129716607  0.8077129667297638
  0.7967619550681727  0.7966896940480919  0.3995254849283335
  0.0075641963779242  0.0323608291013188  0.2140713959383069
  0.0053844348879715  0.2118489158696162  0.8060650753223532
  0.1959375746314593  0.3923697490786821  0.3958288770241450
  0.3895241046767159  0.9921499538538789  0.5918961331161144
  0.4085789075724401  0.0088444053201483  0.8071276485288771
  0.3956141617027862  0.2035410233337253  0.7989850116901079
  0.3921654359967913  0.5894432373265622  0.1893333256091953
  0.3914437996066944  0.7996793429573085  0.7926746637243292
  0.6010075554170161  0.9875754881480661  0.3910981939816822
  0.6018984538466982  0.1959014689117441  0.8058442545293695
  0.6697310793484891  0.8060087771022091  0.0103430607312497
  0.8054914718931991  0.0136012088031869  0.1848846820818214
  0.8050393409416050  0.3955433752234323  0.1946977711157169
  0.8119612703466599  0.9765814461262944  0.0032497809015483
  0.9954032471934429  0.0104996793151303  0.4116145541253244
  0.0178100931963190  0.0081675677962015  0.6113522442919399
  0.0032763454142035  0.0001644894154552  0.8011517119437120
  0.0007505962135810  0.1987814218361421  0.0029446306397653
  0.0097448050687975  0.2157979005077828  0.4088124941762806
  0.0124149530077926  0.2084852126738630  0.6008415627261271
  0.9938154266263679  0.3949278117830293  0.9988212782030776
  0.9953551296062884  0.4010021949580869  0.3997298928406979
  0.0038835673454928  0.4035063283575592  0.6028349454911612
  0.9962440288845902  0.5940959779359595  0.9981557500994981
  0.9928009388337323  0.5910466800289645  0.1931029693402422
  0.9934380256477439  0.6003837306098673  0.4027591123825732
  0.9991166134455779  0.5996468006296829  0.6036068238149437
  0.0001677837162250  0.7956500760186230  0.3999673624388091
  0.0008116497783038  0.7974471468515418  0.6015571768418123
  0.9942043586917295  0.7976124811244182  0.7922913855659217
  0.2062629031344062  0.0171468928133667  0.0022486405559248
  0.2070909502699347  0.0204190709984828  0.2109516201906766
  0.1877178527183087  0.9949074099236925  0.6014922517945589
  0.1984134379020850  0.9992818296666534  0.8007187818482864
  0.2023362312979163  0.2052985241629151  0.9998774686626745
  0.2016962922462150  0.2069303906737172  0.2031531666043916
  0.2177621417131945  0.2210659963957350  0.4180243445433257
  0.2038483723689149  0.2073642611096224  0.6068711616368475
  0.2012202029059585  0.2024990684989643  0.8014624865951633
  0.1958596520513943  0.3961285332048324  0.9989559041362776
  0.1954479725238403  0.3982407087519321  0.1929747741596483
  0.2002958393146053  0.4013891973944043  0.6031099833528677
  0.1958184493767178  0.4016875001152750  0.8035572079221863
  0.1918604549773718  0.5910169382498608  0.9962049928122219
  0.1871909252168281  0.5935013304112483  0.1855126973461499
  0.1891618753095424  0.5936712722766995  0.6017202067801282
  0.1882972264903151  0.5998925130960596  0.8000931689439281
  0.2006976223813797  0.7934290089461843  0.2081967104730706
  0.1887584073152855  0.7905846377987993  0.3924193134710457
  0.1960278129142681  0.7966775925500139  0.5987929094196274
  0.1945805427383499  0.8018003235095053  0.7945060868962847
  0.4020971946926090  0.0005998223791652  0.9969643288142366
  0.4131139124262246  0.0049624725227356  0.4126629059710749
  0.3976642372890370  0.1964313241973635  0.9984979181448096
  0.4013906678023551  0.2095468386699055  0.2048843220930693
  0.4072034417449073  0.2111516339570959  0.4072897844869940
  0.4061267174656826  0.2135522946254822  0.6035328637419874
  0.3937051607073571  0.3976417364386920  0.9919848605234756
  0.3881556522905835  0.3932019126826153  0.1975706119816319
  0.4035408034057913  0.4044262569694744  0.4033802493754658
  0.3979719844324491  0.3972521431030261  0.7966849271377403
  0.4048441209595472  0.5966622766242680  0.4018179953558360
  0.4037374842802197  0.6001000741597527  0.6026489793764531
  0.4030287631919343  0.7973019278726539  0.0029277951777200
  0.3997486428892795  0.7878225636344496  0.1954608015801115
  0.3979222492726001  0.7979108110743705  0.3969011563066461
  0.4113221274536297  0.8015226261228819  0.6035518015807840
  0.6014490550989873  0.9966110821528080  0.0019133160706634
  0.5988749567600867  0.9886398006336261  0.1874422076445321
  0.5941166067957481  0.9949965433290436  0.6057147761270512
  0.6068041219489118  0.9928529195990069  0.8068277057648731
  0.6050378589052582  0.2123456304277170  0.4101179141570162
  0.5942592306364117  0.2024880262465825  0.6030745559424165
  0.6019295490023351  0.3943370157200868  0.9955452260979268
  0.5988170123076021  0.4028106936234788  0.4060359197661846
  0.5920749061575985  0.3986018012118633  0.5974843497000619
  0.5953149999738857  0.3968238406937643  0.7995473950146039
  0.6007024947822043  0.5891626809613058  0.0008913408875873
  0.5936518856242211  0.6069834207589554  0.1857882025660590
  0.5956337327354679  0.5964056414904154  0.4000624111674807
  0.5998954214521479  0.6002020805487999  0.6000097857567279
  0.5861284408320228  0.5844431634975892  0.7862993884013681
  0.5804457316925955  0.7820500552135133  0.3919238777576824
  0.5982596740437736  0.7933897559362623  0.5998583639168757
  0.6031863728086377  0.7941165703975493  0.7927956940716953
  0.8078409786437398  0.0108060494421209  0.3862633971265377
  0.7995751919362445  0.9982797762195167  0.8024990122893494
  0.7986187215660664  0.2056089328808250  0.0029115920522556
  0.8048501993441448  0.1975075048610784  0.2003078306988046
  0.8027658750334178  0.2062346235695856  0.3973978433707855
  0.7983759655079017  0.1959908141224541  0.8098408631809729
  0.8039782980328437  0.4011549259684655  0.4047813894953365
  0.7995456383526306  0.4067482994282531  0.6001441952095766
  0.7951765891629583  0.3894527641580733  0.8038825909338984
  0.7917689735354760  0.5707132886266322  0.9953152706269621
  0.8009722873028113  0.6015399968071798  0.1989680423840899
  0.8093222893667588  0.5990055903006791  0.4066550909859108
  0.7974874648179828  0.5954682831499974  0.5925245895031990
  0.7896082105785635  0.8011343212313298  0.2012812348112708
  0.7986965459033346  0.7878176793504685  0.6074157792415960
  0.8050838577155649  0.8081759342281394  0.8022496155614437
  0.0024341452593196  0.2137017958252097  0.2002245075174661
  0.9962786701986999  0.3862520722867658  0.1913714469316274
  0.0040163915615327  0.4123833517327972  0.8073000289347004
  0.9970704264700979  0.5829084745607283  0.7909637017675738
  0.0254321445596813  0.8031455029576353  0.9966669339984344
  0.4001313915633480  0.4035215089009965  0.6016018626550045
  0.3887122848290424  0.5891795912509439  0.0002408374994363
  0.6004067254123145  0.1983627144272300  0.0062586958829029
  0.5956652650683069  0.7926586224390074  0.1881832257950675
  0.8018136228792943  0.3991286495985280  0.9996636022036303
  0.0108178383134537  0.9992855848734732  0.0008443121458170
  0.6024374602732184  0.1977433290323004  0.1993334773985328
