Zr Ti V  Cr W 
 1.0000000000000000
    15.3185418189025757   -0.0058579337440910    0.0011531853961578
    -0.0058580518235424   15.3152820885503385    0.0003427542276612
     0.0011540796390519    0.0003423374486165   15.3446139054441577
 Zr  Ti  V   Cr  W  
   1   2 101   1  19
Direct
  0.6016624662356848  0.9998790911659139  0.8003542045786493
  0.1932517067918859  0.8009454434134324  0.2052527803223411
  0.3998518431440330  0.7992473369359642  0.6105353055640985
  0.0003140652448624  0.0003647051453384  0.4019456388954897
  0.9990520825502553  0.0017092335977467  0.6000115902141888
  0.0010307635648887  0.0007894894846992  0.8020879202547307
  0.0041399401511713  0.1986144757190059  0.9995196605650385
  0.0003935125977015  0.2034322650936784  0.3993991213353193
  0.0043156592269002  0.2030720808433960  0.6014549410367170
  0.0007106995350926  0.2071827265883182  0.7999103151805529
  0.9992155376103165  0.3992313894754994  0.9924225559887175
  0.0027125500612243  0.3973930448205115  0.2062389667744596
  0.0032482637920811  0.6016348994128179  0.9999377658765498
  0.9956512858397362  0.5979740312455400  0.1992841079853327
  0.0003893514603090  0.5969531020967317  0.4003324818927788
  0.9992589386896000  0.5974939705972669  0.5989470085036182
  0.0005287394086647  0.5982870525407649  0.7998642110821447
  0.0000082134603003  0.8041549226420061  0.9990212332852726
  0.9988387137494349  0.7965693605004669  0.2003487690614693
  0.0026917248940062  0.8006822684854283  0.4001263553337263
  0.0004123761077561  0.7993793364263522  0.6009273826520869
  0.0014321512075616  0.7980366094770498  0.7984294037659889
  0.1957971370374298  0.0026599358580019  0.0026553087831052
  0.2019490435862399  0.0014954892158850  0.2020709802360401
  0.1992024362710667  0.9993179060134800  0.3988645520991757
  0.1961166507798059  0.0041536877096084  0.6000673322833834
  0.1979563795495655  0.0000063650446458  0.8004160627567207
  0.1994368933860010  0.2031291335208120  0.1955035269565165
  0.2032976317051121  0.1987932593593700  0.4055705334618155
  0.2045926154982913  0.2040038499701990  0.8022752374752335
  0.2041060279498257  0.3990016946657172  0.0007457536487345
  0.1996902552204455  0.4002403786424564  0.3954747048613445
  0.1977102668630921  0.3956333933350736  0.6051031241502463
  0.1977928588923463  0.5927293281649264  0.1953171946048382
  0.2010188062176382  0.6000140223074548  0.3993446062441904
  0.1982596043999331  0.5996270945222649  0.5985288632293364
  0.2004302239606815  0.5974145338865234  0.8065380530195184
  0.2057454487233667  0.7988224310384227  0.4045016477324405
  0.1973665028500864  0.7996969101565474  0.6017678125548204
  0.2053096230440226  0.7995208022400558  0.7998036897353566
  0.3976247034228988  0.0000876619909864  0.0004091993379089
  0.3995052061323912  0.0011019244284404  0.1988489211267023
  0.4007181577200388  0.9947074391062986  0.4011954229575325
  0.3992909057748829  0.0014687087805156  0.6003048340210938
  0.3947398802043310  0.0012139631501082  0.7997358493848115
  0.3952663242130529  0.2006000589793810  0.9930364260815554
  0.4000736542253444  0.1991961029547912  0.2002999557318660
  0.3998298037421577  0.1978402554336486  0.4017988442426545
  0.3959456097508998  0.1985871399427288  0.6053998991349616
  0.4004186918776924  0.4002775316270678  0.1948734605825624
  0.4028130122285658  0.4013822978087009  0.4028856915070182
  0.3992210935662550  0.4000356555240796  0.6029653906866207
  0.3948539826258879  0.5988737095558255  0.9991577240974725
  0.3985219164139767  0.6009670913501955  0.1983373081290968
  0.3998365805934314  0.6039844666248437  0.4006838026505246
  0.3986507684850096  0.5969056854559143  0.6003962030081339
  0.3998628818762126  0.6031990598896740  0.7976042419261017
  0.4026606595275823  0.8010671369709024  0.9971637998414925
  0.4018111972953736  0.7991492136332585  0.2006668710442320
  0.5997683238631965  0.9965884126765615  0.0077987849278758
  0.6017762969307808  0.0023598405898707  0.2024459588581800
  0.6001231531351016  0.0006035424928190  0.3981385524215695
  0.6014638841782289  0.0006429567196427  0.5935284941602015
  0.5995464719674516  0.1980996634621363  0.0003546599069075
  0.5997808330122363  0.2043983173522174  0.1996839062811278
  0.5987627979485937  0.2035009873792258  0.4000515712331968
  0.6002341165886573  0.2005809455537483  0.5989048857804011
  0.5947066504272894  0.2058437568111617  0.7995412583415792
  0.5949109756476324  0.4017376227081548  0.0041025226632221
  0.6012621503027415  0.3996983018081910  0.5958761327160055
  0.5972487774536973  0.4024952249241032  0.7990969562199683
  0.6007824018528339  0.6048385179763969  0.0013237956634691
  0.6043560828388039  0.5955666059298258  0.2001441102478028
  0.5995476142935039  0.5959172757926122  0.3993288457278979
  0.6025756922888086  0.5981642535320117  0.5977890927419248
  0.6000036339233752  0.5966760611201760  0.7997954790574908
  0.5999118351967363  0.7978740092386932  0.1951428857218677
  0.5953373259650375  0.7986552912897156  0.3997176507370221
  0.6023117841666513  0.7984093490784253  0.5996387133933424
  0.5958660475277032  0.7929052138267240  0.8037664903462390
  0.8033153208996514  0.9994197417449535  0.0017142171860909
  0.7986444272366015  0.9993183236800723  0.2011619020505002
  0.8012549338642293  0.9990769364895289  0.3980643368132756
  0.8018917779350664  0.0003748799700269  0.5995806746301006
  0.8047841508807508  0.0013512091141850  0.7990317489577246
  0.7983938164781933  0.1994979643283379  0.9987715427517526
  0.8023696742781421  0.1995061888918425  0.1978175538807927
  0.7995734817100829  0.1986637379049933  0.4005094885035598
  0.8000627964580644  0.1980348890535969  0.6013355321811699
  0.7986519731232916  0.2025513049577912  0.8004910420872330
  0.8000398839631053  0.4002910243556810  0.9988482249644984
  0.7967585476841319  0.4033774602379918  0.1988863589106745
  0.8002504987129191  0.4005495625182340  0.4014130077083424
  0.8029514533966522  0.4000940607761043  0.6000432523815136
  0.8025762386021620  0.4017482611301587  0.8000050732731600
  0.8023200701759089  0.6022191258979264  0.0027925630386569
  0.7997321815379369  0.6030415895927815  0.3951646942860436
  0.8004212806281000  0.6027125313056565  0.6003239333899828
  0.7997608196054288  0.5998596169301013  0.8013241972801719
  0.7947999092924972  0.8010662390378258  0.9982526880885300
  0.8002943356171084  0.7971547081908616  0.2002360126332245
  0.7982004799671452  0.8001740053391284  0.4003908537288018
  0.8002200195370989  0.8006561240256529  0.6002721112858346
  0.7991890387737723  0.7986661526242649  0.7994393034351703
  0.2009484894783486  0.7997470350585626  0.9996277121078310
  0.9987233870402757  0.0023607054070018  0.9946480448662264
  0.0001684730139275  0.1719015293877815  0.1991835824669111
  0.0003676751669997  0.4012529184029692  0.4042798565022918
  0.0012656758777421  0.3999958658807998  0.5999606481793113
  0.0047709376561013  0.4030537588367754  0.7948769083603315
  0.1996370124515608  0.1987860531819837  0.0010435147726843
  0.2005176496630458  0.1984502822304176  0.6018247856354484
  0.2004213718773323  0.3977109362046563  0.1993591835558563
  0.2017267658289363  0.4012926299544601  0.8007018412968444
  0.1987278728682884  0.5981998698092884  0.0022158715882966
  0.3993552617441030  0.2033549022485121  0.7991657504065162
  0.4003152512633989  0.4012108524251813  0.9945037843607374
  0.3970987131389685  0.3994827418443206  0.8022012789393667
  0.4015238895563553  0.7994550744891825  0.3959024682136720
  0.4025301355932743  0.8032123311763166  0.8034821496311992
  0.5985511762095629  0.4004428157353039  0.2028378409584438
  0.5992079700692086  0.3996920155484043  0.3977609988137125
  0.5988738990337897  0.8009440107840350  0.9995088356961682
  0.8007243823858218  0.5996460344198381  0.1982694894558359
