Zr2 Ta1 Ti3 V111 Cr3 W5
1.0
  -7.5249999999999995    7.5249999999999995    7.5249999999999995
   7.5249999999999995   -7.5249999999999995    7.5249999999999995
   7.5249999999999995    7.5249999999999995   -7.5249999999999995
Zr Ta Ti V Cr W
2 1 3 111 3 5
direct
   0.6026386806639605    0.5982379691041677    0.2047666648809631 Zr
   0.2004094059749700    0.6031129325539971    0.6029875834965228 Zr
   0.9987644407757083    0.0025772781120182    0.5982056202264319 Ta
   0.5946153057013350    0.7962436132660492    0.1958889314354785 Ti
   0.3990843756352401    0.8006580412401759    0.1989476844780149 Ti
   0.9988303243726978    0.8028727832202652    0.0007190974332092 Ti
   0.8015789072524897    0.9999245477103482    0.9977166550015435 V
   0.5978735729898144    0.9988625691242903    0.0050040318029440 V
   0.8006230205285767    0.0045510468699795    0.2034153660752965 V
   0.3943245418372695    0.9946614007771453    0.9950104473460021 V
   0.6026584908064705    0.1987040947546521    0.9985688953043192 V
   0.8036655872905372    0.4068035036398865    0.0027197540774763 V
   0.5972399490381928    0.9993577069785063    0.1986917248265305 V
   0.8037687125764510    0.2087224516633871    0.2061088033246276 V
   0.7988302463276717    0.9991926718986935    0.3999610126492906 V
   0.1989057151488672    0.9982619984621705    0.0014690020913875 V
   0.3928068781175328    0.1992605595780624    0.9979203614905250 V
   0.6007248897075084    0.3997331865369499    0.0003728459894037 V
   0.7998823830096901    0.5960539897841421    0.9943743749189090 V
   0.4051241191403800    0.9993246840412821    0.2030495083231152 V
   0.5970316609858941    0.1941830982896157    0.1972656942490909 V
   0.8029537627102403    0.4032594180652507    0.2064447161852482 V
   0.6035432398204194    0.0055703270697100    0.4077121628878946 V
   0.8038710641742526    0.1997149563283442    0.4035598245749664 V
   0.7982882606340653    0.9965780276997908    0.5951986887982216 V
   0.0009645204864123    0.0001165226213329    0.0020859829390665 V
   0.2062221057781690    0.2014500249325946    0.0032427441784590 V
   0.3995086712109905    0.4055229839544386    0.0020341567161005 V
   0.5988947133641728    0.5949467736728903    0.9979575660954569 V
   0.7966301627515174    0.7958926640872280    0.0016472376758653 V
   0.2015696243451336    0.0029587939093125    0.2010214981931065 V
   0.3986554909701012    0.1994750809295737    0.2001705467064235 V
   0.6045847202573358    0.4027159654585130    0.2073645114509836 V
   0.8033410732947762    0.5964799071343834    0.2027894609445809 V
   0.3992175408277742    0.9980681999352635    0.3996477293360207 V
   0.5987963315172552    0.2030477149757326    0.4066330121288382 V
   0.8008833600629299    0.3991176492015818    0.3997285875595023 V
   0.8034014628332166    0.2069376798482477    0.6052756236251210 V
   0.8056081259865439    0.9995079079372752    0.7966228391322705 V
   0.9980396505273301    0.1995329298367232    0.9978269969115574 V
   0.2056261632970341    0.3994405505213195    0.0048921380401923 V
   0.6026601403486185    0.8034960284772281    0.9997276352507601 V
   0.9999029879085293    0.9992304806856180    0.1990777351129265 V
   0.3978203763195959    0.3969291025807903    0.1933218306861312 V
   0.7939353094219483    0.7995835239574954    0.1952514811869384 V
   0.2004519147559973    0.0011986791342250    0.3965951578540174 V
   0.3948709429700414    0.1959476880266048    0.4004510596641066 V
   0.7986536747576640    0.5973195699247165    0.3988634484730557 V
   0.3997079037596412    0.0003823633266166    0.6016665387720322 V
   0.5990701143942411    0.2002322008088739    0.6029465340201332 V
   0.7992576010734179    0.3998947338942513    0.5951990223111603 V
   0.5990493731922638    0.0013737905067439    0.8016762999461537 V
   0.7991552840593809    0.2013104086140207    0.8020087571557571 V
   0.9996384513262800    0.3996744161363273    0.9970063555638549 V
   0.2000157092316902    0.6011217552551412    0.0002329182615929 V
   0.3976839856118627    0.7970318406425535    0.0007972503574636 V
   0.9996712151530813    0.1986627213212675    0.2057144164376159 V
   0.1978725170670525    0.3976274225317497    0.1963905138462730 V
   0.9942865270754476    0.9958179495799194    0.3940590764926064 V
   0.1973922337115012    0.2045893309837245    0.4030751118453151 V
   0.4006178038923804    0.4013698088629498    0.3996105431497584 V
   0.6002740604366863    0.6001415784962831    0.3990638218123637 V
   0.8018297811402774    0.7961683105870703    0.3961023489399903 V
   0.2000844513765857    0.0005704180370361    0.5991126552849750 V
   0.4025913374664433    0.2009344772331388    0.6029985790644754 V
   0.5996272431530227    0.3996678183322573    0.6015895186898536 V
   0.8061457026832715    0.6022707077305453    0.6083893662844075 V
   0.4006361172629987    0.0016329658856459    0.8027843720332719 V
   0.6017810377398811    0.1990812028985497    0.8022660068055745 V
   0.8019708371409289    0.4053733120359904    0.8043334621002434 V
   0.9990414309025998    0.6043655968754903    0.9991117482508366 V
   0.2013257553589044    0.8012194048296191    0.0032313731013027 V
   0.1996356738616978    0.5967900119059446    0.2000018800082318 V
   0.9999082194928262    0.1980525486798906    0.3958275945743613 V
   0.2001174805384137    0.4019706012457216    0.3970609677021224 V
   0.5995949004540162    0.7952844177839258    0.4004016917068987 V
   0.1975752041656718    0.2043374628779556    0.6007459514239062 V
   0.3957102607544880    0.3924623528510330    0.5931832851138854 V
   0.5959031805919162    0.5961486928811150    0.5953324646916649 V
   0.7985369207531878    0.7922694385352304    0.5996671012406343 V
   0.1988757747482515    0.9984347609312445    0.7962317740069784 V
   0.4016776734623219    0.2033526415381117    0.8014208426625582 V
   0.6066541514650405    0.4047069895767599    0.8012834737282079 V
   0.7962180885703323    0.5937366177119511    0.7942743213886048 V
   0.0006193842744655    0.6029078180095979    0.2021969490159249 V
   0.2022624919831296    0.8002414975691262    0.2032629601825542 V
   0.0019226559862440    0.4030097953955487    0.4063844939945868 V
   0.2016435925245612    0.6015133885378068    0.4003537646176835 V
   0.4006941856465061    0.8045354170110600    0.3996204874411537 V
   0.9996243646646201    0.1996629806964670    0.5950569809316575 V
   0.1992371656843847    0.3968991963460977    0.6027491721823719 V
   0.4004801628219337    0.6017477383163431    0.6006183011783152 V
   0.5948994619389887    0.8026652435246266    0.6002186827054110 V
   0.0041868352760774    0.0013429997555536    0.8049810058237865 V
   0.1987878720476376    0.1930904147023457    0.7988783733423566 V
   0.4016253825849316    0.4012960389363155    0.8033596941036902 V
   0.5993827877747976    0.5961556288490317    0.7934727131822856 V
   0.8064348663010044    0.8013262226204072    0.7995518035789952 V
   0.9995508464779814    0.8003044854991470    0.2022258854064841 V
   0.9997369690336165    0.6019950750366421    0.4047615179752170 V
   0.1974023387461115    0.8020939179339950    0.4042653468873612 V
   0.0058189411537628    0.4030735667706008    0.6031425515066292 V
   0.3982340414733770    0.7999314775786677    0.6035133810589305 V
   0.9992969919076899    0.1985772283756060    0.7982221011280665 V
   0.2003679924905730    0.3992826783729051    0.7979676031848406 V
   0.3967548511374449    0.5963587850808553    0.7948133356113682 V
   0.5978580671351141    0.8036782054397290    0.8020633425376675 V
   0.9986924995917963    0.7991925173660142    0.4008407120850522 V
   0.9975792230353909    0.5987320026945236    0.5974136132362537 V
   0.2024607588323166    0.7987556456367337    0.6062118437124024 V
   0.9937789831604348    0.3972570521199412    0.7954259836945254 V
   0.1990472383246237    0.5970568864578477    0.8004063099658212 V
   0.3958776633107039    0.7964495271686259    0.7945983811293240 V
   0.9996692187368331    0.8008260519463570    0.6005858044172585 V
   0.0079610360443993    0.6075360308666887    0.8046385847692855 V
   0.1988078782552863    0.8059680169550776    0.8032893930674249 V
   0.9953303693936347    0.7955440052959755    0.7995687132957982 V
   0.5978157182705450    0.3988206480864891    0.3961966193551931 Cr
   0.0032959765933680    0.4052755684863280    0.2055975596796977 Cr
   0.3989535733011533    0.6029959252946041    0.3971557924616336 Cr
   0.7994465658248047    0.2013741840558125    0.0022269569239135 W
   0.5992859953271920    0.9988036202012326    0.5978292000571370 W
   0.4009374540238405    0.5996200958969458    0.9981944974593245 W
   0.1990518397580958    0.1991964789387482    0.2017707584467671 W
   0.4000621029571883    0.6011045538031090    0.1973962300906598 W
