Zr Ti V  W 
 1.0000000000000000
    15.3704372863088707    0.0041087699184726    0.0045828320708022
     0.0041071823098185   15.3593176205705255    0.0049868964281650
     0.0045832368054306    0.0049883200619353   15.3853693029952101
 Zr  Ti  V   W  
   1   2 107  14
Direct
  0.7917306938074206  0.4017265753142458  0.8100974530827121
  0.4091804973737977  0.7978395218686579  0.8040908899451117
  0.6129960237352559  0.4010586660774802  0.9886921478072127
  0.0003156310406940  0.9980617992616040  0.9997228409353153
  0.0973513978667059  0.9986710112982249  0.1986840551543855
  0.0004270332902359  0.9970990332030106  0.4011147973643364
  0.9946891532722860  0.0000677105294886  0.6018866393902256
  0.0029045432230477  0.9984989467176636  0.8009933552666503
  0.9997948620181679  0.1986477292020221  0.0015591899427898
  0.0008058786243953  0.2034888192410249  0.2020371865495624
  0.0003047800534959  0.1989773042853522  0.3998559909103191
  0.0026995948143411  0.2010003273973741  0.5992205814454252
  0.9993474319898494  0.2012650737803920  0.8013473970677958
  0.0040180117635775  0.3997098125456098  0.0058180726471278
  0.9985643820404618  0.4015281730137703  0.3972024929704326
  0.9976134672933972  0.4001654159999989  0.5999486949686142
  0.9995909017896978  0.4010764561728963  0.8029601713134996
  0.9984383282593238  0.6053843703940406  0.0001709474764395
  0.0034432147988830  0.5960343461679597  0.2006044781294530
  0.9996276618699684  0.6031276239186930  0.4023733625445381
  0.9994906884699803  0.5997062296707666  0.6015209235105413
  0.0026494641634316  0.6009181013261271  0.8002637915871464
  0.0040320967869252  0.7962300829239056  0.2011498472528782
  0.9990745434616950  0.7994472783563588  0.5943998540905856
  0.9995507519474769  0.7992088474362664  0.8064451483599732
  0.1998594261595223  0.0012339449604930  0.9941142078354913
  0.1975774735148468  0.9990996120956525  0.4033015616691260
  0.1986349381380877  0.0027869985979023  0.6057631727932505
  0.2003371249454768  0.2027760429306417  0.9995225456518948
  0.1996855025119949  0.1984378838942236  0.2003768484799592
  0.2024582305534375  0.1988022867393576  0.4032315554776799
  0.2008169085593794  0.1958671264949070  0.7958817514053766
  0.1966247974334377  0.4048146674414587  0.1952580609112904
  0.1993701085845323  0.4010932049344803  0.3995684484363707
  0.1978820693530862  0.3964224015417072  0.6011846640314139
  0.1978786778376855  0.4045324276500708  0.8045942294245211
  0.2007738229661195  0.5963854398955806  0.9958854083319242
  0.2011156906975781  0.5991517824943926  0.4002848248776314
  0.1996622267628905  0.5988415974506340  0.6048614917871360
  0.1964253986886437  0.7999245759085090  0.0021828231666696
  0.1965816519385312  0.8005122756265093  0.3987555743312723
  0.1995774246873480  0.8003755284390313  0.5998392065899167
  0.1986592259245161  0.7990482868923431  0.8001836941561024
  0.3999609656456434  0.0007876824887229  0.0000662222259706
  0.4023057530184360  0.9959593886696332  0.1990836728467079
  0.4003785986356787  0.0025101401235745  0.3992479246172756
  0.4006803511173050  0.9986272023387269  0.5997266868446690
  0.3971265797504940  0.0006460439141909  0.8001769858714017
  0.4010509297207325  0.2003679220210124  0.0021228825874556
  0.3980879477493548  0.1971751377853259  0.2035826440766283
  0.3962781100497537  0.2003458720385253  0.5949812180484555
  0.3999211498345902  0.2003832733146393  0.7989011804830580
  0.3959365411328041  0.3981647257800204  0.0002315100533957
  0.4018519376436175  0.4006160243396246  0.1981496904443756
  0.4001693602129044  0.3967846018711029  0.3976860265381224
  0.3992245230459291  0.3998673864793337  0.5982441484419025
  0.3965688459559885  0.3992273400069903  0.7996769028892331
  0.4017447191425025  0.5992885262558557  0.9990049336056596
  0.3979040856359001  0.6029456782986650  0.2005924269900815
  0.4004639625493548  0.5986354327102036  0.4008953657808878
  0.3985186644770449  0.5998322437817702  0.5988169924624763
  0.3957748143155356  0.5991797540285196  0.7996499162059771
  0.4020687039240993  0.8010538781706131  0.0069944118133279
  0.4012754687387179  0.8015478131156029  0.3965125134373758
  0.4003362735361428  0.8007263831972805  0.5939509982140091
  0.6010099205877509  0.0005203272391561  0.9971626380013000
  0.6028315311304077  0.9997818551875990  0.1981113190012669
  0.5993951738809862  0.0004442412449677  0.4015487143351351
  0.6018306865746921  0.0008243469388163  0.6025447114220285
  0.5975782931010348  0.9991579518361016  0.8006088806840556
  0.5993928798117647  0.1992660456577994  0.9989815557824405
  0.5980172092915715  0.2024617925812275  0.1987034415934600
  0.5947964224713613  0.2013975990303863  0.4009154738272921
  0.5979058884581800  0.2009681679500966  0.6008734411272026
  0.5966574819182234  0.2012933810968915  0.7998164290111017
  0.6020243639111361  0.4013826295107785  0.1990702648875471
  0.6010833486215820  0.4012539474675376  0.3985570667808692
  0.5997688160338901  0.4006566323074821  0.5992067099637489
  0.5897954285581212  0.4011303442593739  0.7944748025733777
  0.6003297377077818  0.6013994236628465  0.9982349650099087
  0.5980083917331720  0.5986181103011619  0.1978415632965628
  0.5993849674921662  0.5993366114890268  0.4019073752618542
  0.5984407009092941  0.6000408149450409  0.6019769810922683
  0.5954250440790443  0.6009523698586807  0.7999521446047031
  0.6020565415127466  0.7996439593299557  0.9996979105033261
  0.5958426170699257  0.7987277691788582  0.1996844738571556
  0.6034074319344264  0.7987025012627015  0.3990507579998219
  0.5996086349467029  0.7995152629669930  0.5998694521730038
  0.6028360968372477  0.7995213816049960  0.8005118559671502
  0.7999111423224523  0.0006366707765280  0.0036797238091010
  0.7984791956035027  0.9976487993766012  0.4023005107099302
  0.7994015121085900  0.9995145691892290  0.7971025681436078
  0.7996593070596356  0.2000681644039755  0.0012526016272831
  0.7982114700874056  0.1975027956977812  0.2028023359900425
  0.7979171717255427  0.1991406391302266  0.4016539304683453
  0.7993005498776488  0.1966462685235409  0.6002266842656094
  0.7996833545715646  0.1956988116823513  0.8007994960721243
  0.8081262752068314  0.4002995765582996  0.0106602548111847
  0.8039607126489339  0.4008225683197576  0.2046720336416527
  0.7998057280447501  0.4003593490318406  0.4019609717477295
  0.7993058842557653  0.3989214418284670  0.5994463142583879
  0.7996322223683392  0.6015574582975101  0.0011676289329848
  0.7977389170500543  0.6006119288283889  0.2012977647975973
  0.7982272425163461  0.6050984445892936  0.4018746241694700
  0.7985885023544067  0.6001459114452213  0.6029489430792877
  0.7992169210190094  0.6064631946082619  0.7994548633961343
  0.8035906572411018  0.8015926795643766  0.0031901870447317
  0.7991410141118395  0.8028591343466968  0.2048915250190900
  0.7997727477944419  0.8047576206251047  0.5962800258353828
  0.8007021801246087  0.8016555645572405  0.8001632017038377
  0.0009252288835806  0.4010631262905096  0.2019273831589556
  0.9985075129260036  0.8013557353675296  0.0054706843507284
  0.9981151700850446  0.7997442159821617  0.3973750229199197
  0.2003160307850024  0.9980034364527473  0.7995199115360407
  0.1992196309824185  0.2002526538590454  0.6007060301231992
  0.1998244551763749  0.4002484844179926  0.9995254140989763
  0.2024068176215584  0.6017005524131817  0.1980476061135104
  0.2006195998320529  0.6009902747218776  0.7995931796933652
  0.2027160472667154  0.7906254342165657  0.1996212347956070
  0.3986954124346670  0.1994144601439519  0.3985680215159648
  0.3976017615169204  0.8000455038041940  0.2018125745360397
  0.7957131604889349  0.0013628459961210  0.2019754974723880
  0.7984703424642774  0.0007735053809998  0.6015057407266564
  0.8031413122330388  0.8013944518362339  0.3996711035161126
