Zr Ti V  Cr W 
 1.0000000000000000
    14.5389912424876915   -0.0374494556866657   -0.0589183043242261
    -0.0374453500442430   14.6354780942986213    0.0461660729105062
    -0.0592018380882507    0.0471780306618269   14.7165872119283581
 Zr  Ti  V   Cr  W  
  30   8  50   9  27
Selective dynamics
Cartesian
 -0.7518605773581415  0.5158115311423721  2.7504044278203246   T   T   T
  1.3053246925385524 -0.4738861964868102  5.8120799257602700   T   T   T
 -0.5304694000128716 -0.2169597243537253 12.2898335781948855   T   T   T
  0.6085342977961179  3.6065269380085732  2.7564332147711075   T   T   T
 -0.2871192666031646  2.6713166532046930  6.0015115490370823   T   T   T
  0.9060678269038447  2.9172867533307181 12.4982478629686291   T   T   T
 -0.9947367416853061  5.9225687621771916 12.2072646396505302   T   T   T
 -1.0799772672642802  9.6604042966262718 11.8059281130950033   T   T   T
  0.0899595091010889 11.7792246252690376  3.6131015764481571   T   T   T
  3.6210950141378611  2.5836169131590183 -0.0947750635101635   T   T   T
  3.3301124884502675  3.3247449734465420 10.4503816121326878   T   T   T
  2.7091088604082896  9.5234767004900966  2.6426580751745279   T   T   T
  5.9667974601711977 -0.6893858552596087 -0.6010677154484710   T   T   T
  5.6013148454435715  7.8119584527790140  3.6589286328175694   T   T   T
  6.1445448721225846 10.2598643057778673  6.0967501027279019   T   T   T
  4.5480082739920729  9.6549328173317122  9.6536312617360274   T   T   T
  5.6022975341949461 11.8111139399351437  2.5866004142882777   T   T   T
  8.8961651701398736  0.7072355221724744  6.3446769888548564   T   T   T
  8.7825452683090592  2.0635180437658276  9.4970184519874756   T   T   T
  9.1052750665202495  2.5533239748356027 12.8139741164853920   T   T   T
  8.0740808327825135  5.8126595193985118  2.3138127043226233   T   T   T
  8.1800390264900251  8.3343288835104605 -0.3533336368698418   T   T   T
  8.7722208861701052 12.0591360627983200 -0.0934455264959265   T   T   T
  9.5531377982283985 11.7494335042563698  6.4573710792597501   T   T   T
  7.4065804086976179 10.9505778812140129 11.5344433560284685   T   T   T
 12.1345807602764530 -0.4156601912273432  5.6135308578511980   T   T   T
 12.1610961565240387  2.6990722315521651 10.7721977686081409   T   T   T
 11.1496695211716244  7.5823258441917556  2.2505150456143186   T   T   T
 10.1441324637357653  8.3949586951370847 11.3011103891021598   T   T   T
 11.5195588958216391 12.1718213216047904  2.3247105394882888   T   T   T
  0.2027359202690876  6.7491336285579031  2.6577501952230711   T   T   T
  3.0150363008672194  2.7856327731483246  4.9596560558351275   T   T   T
  3.1839710937861261  8.4500870409620479  6.2555799809094017   T   T   T
  5.9262015088750779  1.7199207261920026 11.2497919678702427   T   T   T
  5.1519394927166449  5.7817471460157366  0.0598444083154901   T   T   T
  9.7493121348278677  8.7176566587754962  8.0106692772049097   T   T   T
 11.0923674934058401 -0.5269536066751568  9.1999729003009989   T   T   T
 11.4219605868221841  9.6007041520308771 -0.1093355086698313   T   T   T
 -0.2902109507478625 -0.3417400094722953  8.4702085351967185   T   T   T
 -0.1932937910977484  3.7304542897562087  8.8186947821399553   T   T   T
  0.8770163536150127  6.2755819057324542  7.9682708817925327   T   T   T
  0.5439449055034404  8.5202557878477272 -0.2056405526405731   T   T   T
 -0.5957070947770496  9.4246183254786065  1.9813552353847692   T   T   T
  0.2538091992594209  9.3078735144174676  6.1522682291961326   T   T   T
  1.1054979937412004  9.7496590212432928  9.3689263252965702   T   T   T
  1.3362205118599164 12.1678992790976732 12.7359310649260706   T   T   T
  2.1716757757168530  0.6271653650491715  2.4768054101300341   T   T   T
  3.7436560269490551  0.9595800609102231  7.5186869799755378   T   T   T
  3.7642067488728501  2.7742463242049471  2.5679366469212739   T   T   T
  3.1960621922460359  5.7325636934872222  3.1989453588154046   T   T   T
  2.7630568287005488  7.5111009087248579 -0.5598404391820637   T   T   T
  2.3148289360596013  7.6879535585380179 11.1996225166299936   T   T   T
  2.6880136386374613  9.9485029547801371 12.5261959307569430   T   T   T
  3.2398340088314055 11.8157887036326095 -0.0693616948385539   T   T   T
  3.4495740161841599 12.0064407884726911  7.6198873205037856   T   T   T
  2.2499811023337424 12.6066888001950925 10.3124302001000210   T   T   T
  5.7971380670805477  0.4803981723009282  2.7964021393577325   T   T   T
  6.0586028905110316  1.2899828421755588  5.2120229259557798   T   T   T
  7.1026432742778738  2.4503046900348151 -0.0201577644320903   T   T   T
  5.6743263665668557  3.1719656328768706  6.7396117141624341   T   T   T
  5.6313108601248434  4.2229937724947986  8.8823688617557135   T   T   T
  5.7450619898355466  7.2731453358785263  8.2360483005040273   T   T   T
  4.7839722722423472  6.1471480936979015 11.4069945411144609   T   T   T
  4.7402612235108768  8.7552648872558798  0.6090192869049738   T   T   T
  5.9398246095557621 13.2165300316413781  6.2709049252242792   T   T   T
  9.8027398903460110  0.3724811260979114 -0.1824345606285300   T   T   T
  7.9397255746866104  0.3335427459493639  1.5147202232716586   T   T   T
  8.6229102898794387 -1.0508062120677772 11.2610286312157353   T   T   T
  8.0474866596063315  2.1920554851886451  3.3030086702911077   T   T   T
  8.2854964804686304  4.0572142115091960  5.1449089543585238   T   T   T
  8.0982309202640881  5.1466615654923160  7.6186368144126861   T   T   T
  7.9693365463783996  5.6516488803599625 10.1605032476961714   T   T   T
  8.5836343599964167 10.2990848196165619  3.2549825959717924   T   T   T
  9.4470726792540649  8.4106568616677642  5.2370489617956295   T   T   T
  6.9266037961666918  7.9874906984197764 10.5888618001235670   T   T   T
  8.8452203763573465 13.3811979741817204  3.4388214441028397   T   T   T
  7.8848956653219355 10.6503947020409395  8.7922570844835057   T   T   T
 12.7113646050166018 -0.5423057869161534  0.2937026843462085   T   T   T
 12.1561092070073293  2.0435956011182439  0.0322517628281754   T   T   T
 11.3198712797539933  2.8169617287539319  3.5207516693413057   T   T   T
 10.6556736424350706  3.6526412140040101  6.2161209370453419   T   T   T
 10.5942325876546466  5.5361970018366868 -0.3064271237124555   T   T   T
 12.0644474257651275  4.2698355675766297  1.6026867903921929   T   T   T
 13.2331380245778032  5.9314135270851143  5.8585909852085889   T   T   T
 11.5634395762423754  6.2591719247601443  9.2014451543912035   T   T   T
 11.9632914843034541  9.5663071075990942  5.5470090541243646   T   T   T
 12.9227514374004979 11.4292325502394849  7.3540611775723228   T   T   T
 11.3312342848926182 12.0919686595540679 11.8192080757970057   T   T   T
 -0.4681081004326522  3.7897716171565299  0.1494289708971844   T   T   T
  3.6210630673106614 -0.2902977832479462  1.0150820591020919   T   T   T
  2.6241602767521490  5.6696183485161926 12.3582414010392654   T   T   T
  2.7032570988673519 12.6842126608997869  2.5343377415918678   T   T   T
  4.3523210277221445 -0.2670996824582726 10.9596292737214203   T   T   T
  6.2937771747897227  3.0315141356492235  2.1663217208100729   T   T   T
  6.5550823481739915  5.7018698681775293  6.0697113855749452   T   T   T
  7.3593197337208132  6.4592445612917473 12.3086324816125110   T   T   T
 11.6275042641884561 12.4383769236168966 -0.5913351209676792   T   T   T
  1.0162679072510707 -1.2653678506094341  0.5766754348243920   T   T   T
  0.8088895317313647  1.3497075481093292  0.2386046855380779   T   T   T
  1.6093984428015200  5.5119423369184988  5.4599874711841290   T   T   T
 -0.5873494972682587 11.2936681682281073  0.0645841003855848   T   T   T
 -0.4538981125039085 10.4738618704029207  8.0957523880474760   T   T   T
 -0.7881731428784696 12.1448672777883164  9.9568380358462338   T   T   T
  4.0056295973879461 -0.2637883067156228  4.3565741959066413   T   T   T
  2.6439612763480129 -0.1969106208402648 13.0367433646875259   T   T   T
  2.4325317888493743  3.8636339517426808  7.7300940654095811   T   T   T
  1.9300376635201582  5.0059764099629733  0.3192502447721795   T   T   T
  4.1965897646254842  5.4231111405031722  6.4919113936924129   T   T   T
  3.3691445794283039  6.3994048911263421  8.9328581093989925   T   T   T
  3.2831686256626460 11.7327871274100417  4.9398017038989188   T   T   T
  6.1066343963099765  0.7800127643078552  8.5089645450276201   T   T   T
  5.5157273289906312  4.4755995773726323  4.1349526456640806   T   T   T
  5.0301245017175891  8.4101636025850688 12.6270640184751297   T   T   T
  5.7453999589830902 10.7641666815239763 -0.7490246470916863   T   T   T
  5.4150472650069368 12.5577417602449515  9.2908397345076743   T   T   T
  4.3016080889251169 12.0546220452640771 12.0089347858937856   T   T   T
  8.1287812258689591 -1.3602546680994818  8.6864163478578895   T   T   T
  9.6256471669619028  2.8831345766819538  1.0693850064911166   T   T   T
  8.1448045659991042  4.8216966354581450 -0.5125848356147851   T   T   T
 10.7550489009383732  0.5945414746318688  2.3896514541285132   T   T   T
 11.1421914981405710  0.2247643849566389 12.5502058808874537   T   T   T
 11.8348952131769884  2.1388346467776622  7.7817616060846078   T   T   T
 10.0997535681017645  5.1359132326449952 11.8974689495712234   T   T   T
 10.5120347148739661 11.2589684497946134  9.5472510537180533   T   T   T
