Zr Ti V  Cr W 
 1.0000000000000000
    12.2882735461728885    0.0000000000000000   -4.3445607757035454
    -6.1441367710433559   10.6419570608175889   -4.3445607757035454
     0.0000000000000000    0.0000000000000000   13.0336823299999995
 Zr  Ti  V   Cr  W  
   9  17  87   2   9
Direct
  0.9948868159421663  0.2041313225678008  0.0034890533487085
  0.1949078563352767  0.3937561860795376  0.9956866833448634
  0.4128954218897792  0.6035221580116864  0.2095430974333264
  0.5987021776551219  0.4055532456292956  0.9928483208195308
  0.6055803589381449  0.4028642414018975  0.4095575379186426
  0.6008319829153081  0.6139089618860847  0.8066358578308447
  0.8025300934748520  0.0072489494885655  0.2011193489595921
  0.7980239543803074  0.2054198996685748  0.4026606972725528
  0.7929008028269328  0.1736781685799907  0.7951470432219425
  0.9952131225619033  0.9994283448016182  0.5969742757439049
  0.9644145301612820  0.9905342085816516  0.7931413786956090
  0.9977746560729337  0.4055996818607829  0.2013810178141573
  0.0067965172882012  0.4052336150461755  0.6111713476014038
  0.0001223609770110  0.6006771982254795  0.6000916980389243
  0.1990501225062176  0.0003340020137890  0.5947837552361583
  0.1940386537114417  0.9987233517260644  0.7995131021192381
  0.2025564527748185  0.1854950297757492  0.9922753859680178
  0.1952726898180178  0.2005201370730173  0.3968186140407835
  0.2145797903335071  0.4069420863110101  0.2214777726956427
  0.4090757933984784  0.2023364099124616  0.9984260389798892
  0.3966043277909392  0.5875385391194829  0.9868534554111617
  0.3955858005644182  0.7974421604659575  0.9953502883607241
  0.5804523220978443  0.0079929188122847  0.1898916304090475
  0.6040639825052393  0.4067629698299304  0.6144029857324167
  0.6071166100224105  0.8093928019031814  0.2054427337342281
  0.8085972875356956  0.6043983052031154  0.2002767199323483
  0.0000916314788882  0.9928098789707785  0.1943428929542860
  0.0005357290424137  0.9988853341055532  0.3959270804527783
  0.0007814395150518  0.2012744745521046  0.2067768015353672
  0.0092543483311319  0.2108630113432248  0.4074151191901991
  0.9976450493280015  0.1991884055300946  0.5946057954979556
  0.9990080950457899  0.1981392470808926  0.7765059443790119
  0.9972255046459703  0.4157964497560908  0.9931937412176182
  0.0000112377760283  0.4051439652024509  0.4004892911631217
  0.0012018356744355  0.6020349039237208  0.9989402189303538
  0.0044067103223685  0.6061033357457638  0.1996852748821584
  0.0014573130422824  0.5992544143569665  0.3944287098522901
  0.0015621445265073  0.5967141488228004  0.8016513054567053
  0.0001598452771457  0.7921449651542206  0.9982641933563282
  0.9993832507713338  0.7957480958756538  0.1984629602842918
  0.9997082184073098  0.8011291201480707  0.3996573707749795
  0.9983239017307149  0.7980914594229274  0.5995671985150650
  0.0019850799234430  0.7962342933322007  0.7982753622693309
  0.1996458948840805  0.9903032600929170  0.9997829534308504
  0.1993666184746452  0.9949340624465747  0.1975434088532804
  0.2017513879528351  0.1960170030393114  0.1988489724804630
  0.1983686537538571  0.2036237193857449  0.5996234440823888
  0.2035233405578264  0.2078561108322542  0.7924926077598031
  0.1973302971499098  0.4052125170789049  0.4045593478012141
  0.2011814317334847  0.3990042308207641  0.5947554459258343
  0.1909901567794446  0.3981446472655308  0.7862438517788801
  0.1967241392657079  0.6058805138315703  0.9944251958647553
  0.2040477685269204  0.6036734062801229  0.4052398753772729
  0.2011123955963287  0.5993212476908673  0.5982863001135053
  0.1998849335533751  0.6032837560117782  0.7998628424238117
  0.1948427840991358  0.7981978653569233  0.9971222231658075
  0.1990381483277319  0.7999680013656553  0.1990772756532335
  0.2012054681302455  0.8010258895736756  0.4009735230267040
  0.2020283684978499  0.8002127790567439  0.8048850589340961
  0.4000635183549998  0.0021333977789206  0.9999491801306845
  0.3919602597547875  0.9992510164438360  0.1994254752969221
  0.4008441497257560  0.0003742189471517  0.4041071376975779
  0.4018972814121985  0.0005325120049446  0.6005486760717011
  0.4010296452529576  0.0022227966049490  0.7980968614357882
  0.3961547133487849  0.1924991802706260  0.1954355926897938
  0.3988418504874631  0.2014902279349614  0.6011510993634789
  0.3929347921161223  0.1955949575910488  0.7864827300729686
  0.3986834889500948  0.3946748179591870  0.9981398419255093
  0.4145460781320405  0.3931110450169660  0.2077553135664790
  0.3959557865144021  0.4036687925232002  0.4044219057323974
  0.3947600192871270  0.4036633277872710  0.5988478960350827
  0.3932535835904316  0.3980227204087107  0.7930876973463115
  0.4117038587942018  0.6132388302958344  0.4222860270274828
  0.3991593749358223  0.6022830578156886  0.5984071548642905
  0.3876177539372710  0.5943116190983141  0.7901932219976482
  0.4023809469440993  0.8038400417404583  0.4061130955838414
  0.3991708581800274  0.8016094613791819  0.5971129633832043
  0.5980022887643374  0.0054024030363712  0.9979149707042746
  0.6005575403630085  0.0034011263709780  0.4057719200144009
  0.5864545190768896  0.9947330499302033  0.5907401183370861
  0.5930999336321552  0.9992429838151343  0.7973638665136734
  0.5987749719517073  0.1946193276551079  0.9936262601517449
  0.5916995372842152  0.1926595566711939  0.4021755025294664
  0.6000384090843615  0.1984217926795407  0.6025730636759075
  0.5916280058777076  0.1960018961151353  0.7932622792209408
  0.6052678874717385  0.3991599052913816  0.2019459140141040
  0.6018036861109750  0.3906972696313328  0.7963206074060629
  0.6089985772133462  0.6243540673206481  0.0175060515668970
  0.6080276090306558  0.6025369800012172  0.2055285757566869
  0.6062105478372124  0.6108687614638539  0.4103742364576780
  0.6028837411760688  0.6074158559834938  0.5986008582735413
  0.6044005798102847  0.8075443860342447  0.9976172266490271
  0.6106365671393137  0.8108815548476610  0.4163283875099126
  0.6126113544657819  0.8139970943938878  0.6164816896675649
  0.7907458530837098  0.9942336676450414  0.9793839571766930
  0.8079809198300549  0.0013187918224680  0.4141702028867204
  0.7932235189530611  0.9979099342074104  0.5940210636762583
  0.7976279501191200  0.8587751558547098  0.7975359976679478
  0.7833133838738654  0.2000459226818811  0.0047027131627976
  0.8003210703892513  0.2119040157295158  0.1944252475015400
  0.8004963172775237  0.2058307624511866  0.6068928051714422
  0.8065870290487567  0.4024319409781132  0.9968176852212012
  0.7968561142470314  0.3968915379623438  0.1985936806671740
  0.7991742710538874  0.4001857731568972  0.3934800058283296
  0.8014935267323463  0.4021252035800643  0.6044687440235006
  0.8016726622650925  0.4026320812125576  0.7986558554942911
  0.8043980546877615  0.6010756780752469  0.9963899847907006
  0.8086747396111417  0.6084399336253575  0.6149525105487528
  0.8124244697821504  0.6035115152232213  0.8065560472561589
  0.8108492294121239  0.8056855128647847  0.0098449573478982
  0.8078102635380818  0.8009427665038692  0.2018083002113371
  0.7985882695299750  0.8019298072467831  0.3970480859646661
  0.7974479550362591  0.7936645569257875  0.5951148965250264
  0.9985837796225107  0.4036114055344208  0.7985415081343000
  0.5958168368647954  0.2075802010566125  0.1947334839860313
  0.0028313603074797  0.9947428737798758  0.0037686215266359
  0.1987914296533716  0.9949198301722985  0.3954162097901300
  0.1986307551834512  0.6042903469325513  0.2035524448800605
  0.1972831542865639  0.7983620032994113  0.5997016911809446
  0.3990394057254569  0.1986531896526400  0.4004848664226284
  0.3989378352219596  0.8085687195541084  0.2047510998980941
  0.4031356500861822  0.8015486024901540  0.7969172300597702
  0.6699476412228612  0.8040913528118968  0.7998903478255613
  0.8055718974119307  0.6039874766979733  0.4048149284557971
