Zr Ti V  Cr
 1.0000000000000000
    15.4889002550493640   -0.0195313770937778   -0.0155534076795571
    -0.0195267745976093   15.5102089440028070    0.0059105293967036
    -0.0155475950656657    0.0058984254639578   15.5083315327291498
 Zr  Ti  V   Cr 
   5   5 111   3
Direct
  0.0127519514444399  0.9910660897060515  0.8068389398114273
  0.2103350855163202  0.8070560788100599  0.1920001996397356
  0.2093888732869640  0.8114828272735909  0.8043116297826796
  0.4100991797364733  0.9631752332241234  0.8282139821061127
  0.3855239338851864  0.7990516874987580  0.9941544420715352
  0.1971676618066914  0.3942805009898514  0.9989110886647070
  0.2099607003790170  0.8131083593306105  0.5926955231643806
  0.3605753037635828  0.0134664135613009  0.0226445021075952
  0.3902367853089581  0.9876095163211838  0.5948722849627596
  0.8025769636056337  0.7999191078029748  0.2014961969417081
  0.9988231805803627  0.9995109398562410  0.0068147334127665
  0.9986659539015150  0.0006831358542864  0.2018506394295843
  0.9988265448965646  0.9994846978772722  0.4001792595853343
  0.9986231648806876  0.9998081123823674  0.5971125019396777
  0.9980906627798103  0.1984717189434864  0.0001086060944200
  0.9988283614274219  0.2008674059389385  0.1990415659629747
  0.9989874628229424  0.2003203076562786  0.3995659548565401
  0.9987311026670430  0.2006621040542152  0.6002742140142767
  0.0002353097083965  0.2011782813414058  0.8007350557448083
  0.9958335263627285  0.4011909491383491  0.0004615991343369
  0.9987167280251015  0.3998174590218093  0.2002120915351306
  0.9994006497492696  0.4007120142259610  0.3997369485215894
  0.9995793981545611  0.4006094772814328  0.5988734556369405
  0.9997945474099392  0.4000843921741232  0.7996103130753229
  0.9980900576751164  0.5992349696816878  0.0001439167415944
  0.0011633203336847  0.6000144651709298  0.1997760815889323
  0.0004205949731035  0.6005698536414918  0.3995582173172531
  0.0020179946623658  0.6009946394150166  0.5994065937875239
  0.0020503237538796  0.5983260380151334  0.8002374717326006
  0.9931359591102465  0.7985631987267090  0.0007697584962227
  0.0002520119406394  0.7993373019009659  0.2010940987002215
  0.0006818616232798  0.7992513026168592  0.3996752067204574
  0.0010533854938245  0.8004734624837975  0.5996727550913119
  0.9985494270543193  0.7906719977487027  0.7971282068787600
  0.1949318303026345  0.1387493720492710  0.9993403128431726
  0.1951461937186099  0.0069554893156949  0.2078296779598998
  0.1986331494087891  0.0019339895233828  0.4027115307592283
  0.1952991246834913  0.0089189742910167  0.5990169034065121
  0.2097672919383154  0.0142514029662626  0.7974060588891203
  0.1986160339143419  0.2018719661953804  0.2016253941015125
  0.2003338560002996  0.2011849326442059  0.4013522245816725
  0.1988660828631797  0.2039543904006641  0.5993740833376463
  0.2011747791576641  0.2042201955074560  0.7989808632841385
  0.1999793058080045  0.4004694713221839  0.2025530287451892
  0.1995164013255021  0.4001872236268611  0.4002795432610300
  0.1997970362703247  0.4013094567265542  0.5985164931186591
  0.2003091385157592  0.4015352311640342  0.7966498716744230
  0.1977677132940520  0.6006642199088446  0.9993601774402305
  0.2009017024910726  0.5979457114595846  0.1998632044255426
  0.1994770517564297  0.6013559479591922  0.3999496762115675
  0.2013386683347261  0.6009998306670591  0.6003905927635217
  0.2008316615568425  0.5988774485692588  0.7990954475603705
  0.1852638609531464  0.7968742511649247  0.0004192994462582
  0.2005553967077166  0.8008618857924450  0.3978824074728307
  0.3974109553654116  0.9991035882994327  0.2069326727136072
  0.3989156517370266  0.9991392882716222  0.3986518329701420
  0.3984762435483923  0.2037949416797329  0.9983571696611583
  0.3999005189950458  0.2005440993139062  0.1995329933543491
  0.3997311104138895  0.1992191673675968  0.4004678352965252
  0.3995742094219112  0.1979310227573779  0.6016691181530787
  0.4010244144792345  0.2018524165473626  0.7999148726470789
  0.4009160363321387  0.3998052198558799  0.0006396229107922
  0.4002058720374494  0.3994355158706302  0.2008542291189273
  0.4000070373752369  0.3997297134855104  0.3995134958117548
  0.4008748804633773  0.3980352969421599  0.5979322687896649
  0.4013851828990462  0.3981988219658035  0.7979053220077178
  0.3980354080346988  0.5932642173480145  0.0000602119070954
  0.3999573835349271  0.5989725180138682  0.1990982196075838
  0.3997150603892722  0.5990529315812241  0.3984223668980258
  0.4002437523993485  0.5953974091062719  0.5968919688343904
  0.4007703663551546  0.5917815321108928  0.7994432138175169
  0.4099963018451189  0.7979641546558448  0.2039641776193198
  0.4016448418875867  0.7977872323927965  0.4004214576014353
  0.4070720071650311  0.7915185622546136  0.5948231374596508
  0.4126626525390829  0.7751105307828640  0.7876443704856594
  0.5926260958344668  0.9994122870138449  0.9973778029263208
  0.5977045878262274  0.9999954165425057  0.1976094274316085
  0.5994089586182789  0.9997075470767685  0.3991785082753301
  0.6002412801950427  0.9984024027866149  0.5989300386026717
  0.6079037380259151  0.0009652061535577  0.7975358964498347
  0.5985497100617481  0.1983837280505785  0.9986379369003064
  0.5989381927281291  0.1989963905530743  0.1992667716454037
  0.5989824345587789  0.1984620538823994  0.3996348786229220
  0.5993372014723820  0.1973723147396272  0.5997028389191276
  0.5997559801404418  0.3989528724476628  0.9989591908917171
  0.5999769475173782  0.3988463926554319  0.1993151926949370
  0.6001835159914013  0.3992176556716330  0.3992290822060803
  0.6002017659952915  0.3982286343276328  0.5991071943762967
  0.6015366190606566  0.3981250337985872  0.7993390859880124
  0.5982267147946675  0.6006467015269766  0.9985243009877257
  0.5994193839668228  0.5997126151108403  0.1982901757450948
  0.6003249061194688  0.6000683630031607  0.3987199953178729
  0.6012955700223718  0.5986293789221414  0.5995684040543158
  0.6018054047038919  0.5975848590932016  0.7996047334899782
  0.6005238598435630  0.7995202663514661  0.9983421451620778
  0.6000246964743164  0.8005029547487378  0.1969378845747973
  0.6009565379187892  0.8003138508077972  0.3990091894895028
  0.6040522673651877  0.7990732029431576  0.5983295496411898
  0.6042088410126885  0.7981664825888398  0.7977831693804091
  0.7983349916742848  0.0004951098790771  0.0002735276246917
  0.7979937709374970  0.0026755848768698  0.1999838939817026
  0.7993807752150633  0.0000789305865438  0.3990038413970514
  0.8002730388969064  0.0003560268281044  0.5994385612867820
  0.8022682443405453  0.9996409043269029  0.8002071591665314
  0.7984055997738078  0.2002807693977284  0.1998413141664344
  0.7996690227164068  0.1994416864081465  0.5996064420735788
  0.8007069282494580  0.1999749363479810  0.7999461897319640
  0.7980868904875470  0.3989961018848479  0.9994493156150468
  0.7991520211251480  0.3992720928629510  0.2001269616948893
  0.7996017781108766  0.3997063262718128  0.3996220532745800
  0.8000061867424993  0.3990876417373070  0.5993277717128129
  0.8003635254048199  0.3995336603183136  0.7993828715187565
  0.7990756032298997  0.5994739704715194  0.9993543351825543
  0.7993863801735467  0.5972314436976298  0.1991095134996959
  0.8005916883449893  0.5997976198594870  0.3996031581704707
  0.8011400020702309  0.5993360817550736  0.5996078485943448
  0.8007517810442083  0.5985514115286531  0.7993656999605380
  0.7978652444331651  0.7999423182765809  0.9965950745850806
  0.7996428591099275  0.7998125559494548  0.4018045493641488
  0.8017480367135309  0.7995810383116306  0.5989665656439891
  0.8010976969045353  0.7987723973543152  0.7984634471802695
  0.6004376391591941  0.1979661050946276  0.7993401165998043
  0.7981026102858335  0.2001125882623723  0.9996791503623014
  0.7988749639568887  0.1999401211205736  0.4001117232566655
