Zr Ti V  Cr W 
 1.0000000000000000
    15.4149939690695010   -0.0041197707411214    0.0051244012526811
    -0.0041210926464625   15.4234402589122102   -0.0060663359120509
     0.0051270839828618   -0.0060686626181498   15.4040961855710652
 Zr  Ti  V   Cr  W  
   3  13 106   1   1
Direct
  0.9953987206377014  0.7651948641740108  0.8299685324409373
  0.2067309494662304  0.4388229895280503  0.7986696827945693
  0.8128841769231082  0.6056812152486710  0.7952260799517541
  0.9987805648514092  0.3997807805949224  0.4081608727026045
  0.9955334057351060  0.6009651874937982  0.4080285635199846
  0.9915475736131552  0.6160126768400470  0.6308939247789183
  0.9984643965266161  0.8036511763336125  0.4049915797343339
  0.2023272065027947  0.9886855305356167  0.7976698520112420
  0.1962725956907500  0.2036916822833474  0.7974901535180271
  0.2069864588844219  0.6018697805137946  0.4110528744459997
  0.3842425554379331  0.8009104406393333  0.1982202605146872
  0.3985118942482699  0.8061265233623119  0.8046091996794817
  0.5928005915893190  0.7969441240895418  0.9888397026966101
  0.6000478441273752  0.7986809358514896  0.1987914249537802
  0.5984212219583663  0.7932233820716617  0.5984924488352894
  0.7999672823981739  0.9974940607490512  0.9972537971779063
  0.0030749112283044  0.0004148824859089  0.9974616315909796
  0.9995499747991802  0.9979510252290186  0.1965337582815860
  0.9992310308655762  0.0016814148700115  0.3962260783083538
  0.0004458775447032  0.0014647617901431  0.5999557795389978
  0.9965033194828282  0.9913777454213225  0.7993859982390275
  0.0002592374757386  0.1966369811176723  0.9991621678196467
  0.9996404655740916  0.1995682249490862  0.1994742443243822
  0.9996317645903213  0.1975780271998490  0.3995215608741918
  0.0001303409650677  0.2001096293032916  0.6000381599838248
  0.9984791352082237  0.1931191369611641  0.7997029797458540
  0.0016934039133114  0.3936819289672822  0.0029154991231792
  0.0000180992613714  0.3990879012740612  0.2009074303265917
  0.0024329901882665  0.3994515665863357  0.6048209331292647
  0.0028096158324702  0.3891848514854693  0.8028841235848565
  0.0025540513686684  0.5901633746037295  0.0098311422266316
  0.0017273904903630  0.6002506582796953  0.2033916084354432
  0.0184390195469908  0.5746615558980459  0.8196309301894469
  0.9986688582956622  0.7989452733913620  0.1724517379803712
  0.0010210558692876  0.8075305510181674  0.5999195850065954
  0.1998170238420362  0.9991416209464016  0.0011541422166088
  0.1992703394134220  0.9987969304540731  0.2005778432017568
  0.2000255490050609  0.9988097005995632  0.3990522035784079
  0.2000230183396969  0.0005195224405353  0.5961526578905811
  0.2009379108853293  0.1999354434991510  0.0010883899298511
  0.1986683480429967  0.1999370775241980  0.2008945936059605
  0.1998339524764725  0.2001465438560582  0.3991592825461753
  0.1996863140968860  0.2003036526818556  0.5974486607410272
  0.2027318445156702  0.4005964244844815  0.0046654573113369
  0.1993040105793224  0.4020792444104813  0.2025230671469621
  0.2022678020042905  0.4003518424281884  0.4006921204063223
  0.2003662455055111  0.4032403866496556  0.5949042431683199
  0.2026486332189651  0.6009499859815418  0.0035478780122229
  0.2004408179455088  0.6021118672064678  0.2039612186846214
  0.2035640701603942  0.6024865211542144  0.6064043881783597
  0.2052696331037991  0.6277011882800019  0.8020703356770542
  0.1944665454099669  0.8001760437759133  0.9983874307754852
  0.1613491859364023  0.7991605093612181  0.1681506914159967
  0.1986599597894438  0.8004286384681466  0.4013155117025912
  0.1986484371421869  0.8018116111205216  0.7978299730201078
  0.3992763675659301  0.0007449515322753  0.9989948225304870
  0.3992025284789554  0.0025464891524631  0.1989602097668987
  0.4010272386460810  0.0001766296576267  0.3987308500532717
  0.3992302570112697  0.0007720562159570  0.5996746584514301
  0.4026596223631719  0.0050572905196177  0.7992555317994716
  0.3996174768786189  0.2001770578975736  0.9990298882555591
  0.3992151351039718  0.2010059096661221  0.1990552886931078
  0.4000517280716214  0.1996497497775035  0.3998103588030354
  0.3988154552437213  0.2019256195370139  0.5997547574439471
  0.4016747304702569  0.2018072998706467  0.7994983393934195
  0.4003259786083372  0.3991143655145327  0.9997143828557181
  0.4001605238048649  0.4003719549456915  0.2004579762579653
  0.4008109656751117  0.3998773507862055  0.3998955290876960
  0.3987477650434539  0.4004993515392755  0.6014673677772090
  0.4072970836797996  0.4004914197197515  0.8007704391160816
  0.4016761394088188  0.6009813225574490  0.0012005093310594
  0.4001378969173159  0.5980456795993495  0.2004341710986594
  0.4033386187361668  0.6014913160752783  0.4015451574367685
  0.4038981584875072  0.6034877255230664  0.6025844019494728
  0.4011677057354118  0.5996218897443820  0.8024123551147655
  0.3936092280699256  0.8003541255877960  0.0020120658636964
  0.3993109472768870  0.8021668567606317  0.4002812163568419
  0.3953533064395982  0.8014149133654852  0.5983178724870293
  0.5975993410009898  0.0003133013754100  0.9974978357765090
  0.5991543917453598  0.0010659176398347  0.1972128503064797
  0.5989320183938497  0.0003824716232220  0.3994458533636350
  0.5991391685968979  0.0006761952731159  0.5981849324568744
  0.5994030643282222  0.0016225636664634  0.7968364437752418
  0.5998188918826622  0.2004022452041447  0.9983206463872514
  0.6003556944788129  0.2005860433521056  0.1984675478129772
  0.5994960037670890  0.2005216709579100  0.3989836913817563
  0.6000531439257222  0.2025463817538810  0.5993076476435248
  0.6010923122144485  0.2013879870425337  0.7985151736697018
  0.6007051263962274  0.4013565587446816  0.9990559747243873
  0.6004804111259452  0.4007246239357504  0.1993874614620137
  0.5996124921092525  0.4001292097850143  0.3995171357588582
  0.6002070507684545  0.4038831290374674  0.6000007184132767
  0.6050984966117754  0.4018083319384078  0.7996261693013602
  0.6013470559956449  0.5988110453366660  0.9976666701242475
  0.5996718650567260  0.5991210210593807  0.2007591776165855
  0.5983037428805347  0.6014018868370309  0.4044519705498511
  0.6001070661350563  0.6017299359549044  0.7958683481322442
  0.5992251978322986  0.8008441104515801  0.3967256975137115
  0.6007777908575408  0.8005478292514623  0.7959954032551058
  0.7999190298819148  0.9986717612880317  0.2006961303440884
  0.7982635088549166  0.9997247092026156  0.3982232105604435
  0.7991018512383201  0.0010810064297940  0.5958713972474671
  0.7980424022403633  0.0015679966458240  0.7939400633000722
  0.7998535218484204  0.2011299966816488  0.9991170272345044
  0.8002181953028698  0.2001052750349723  0.1991329328955695
  0.7992602565532338  0.2001939870894049  0.3990217756116782
  0.8006270092361399  0.2015814282749661  0.5978033195298930
  0.7996210100842133  0.1991320448325767  0.7978340858941890
  0.8008287647009388  0.4001392792388990  0.9989963136502891
  0.8008456691647334  0.4012754342631728  0.2003437592243622
  0.7978877535585222  0.4002046170662551  0.3990620108370568
  0.8027086596236728  0.4026677623052066  0.5986156146411796
  0.8033740934014699  0.3975092536536793  0.7996832393157070
  0.8017918407514194  0.5989737414399090  0.0047491932789684
  0.7994919656193024  0.6014995023900712  0.2016082216858569
  0.7965244623230249  0.6015977903534082  0.3982526318084056
  0.7914413190874033  0.6024249284018806  0.5915282487215715
  0.8068726699029378  0.7966737321182553  0.9936230109069298
  0.8022360445697416  0.7998682733165389  0.1948466078673972
  0.7988230182371070  0.8016796840765462  0.3946211992005768
  0.8039466141621364  0.8011046540027744  0.5954517979772012
  0.7944824176835537  0.8111357298285201  0.7966233759461011
  0.1980240193762449  0.8018697404629169  0.5995230720941308
  0.5997658504878108  0.5963715715119261  0.6015149938354795
