Zr Ti V  Cr W 
 1.0000000000000000
    15.4119853477336850    0.0092002105036784    0.0075686985216924
     0.0091978282521091   15.4168317070722267    0.0033033723005877
     0.0075647771218920    0.0033039266611125   15.4231482065347798
 Zr  Ti  V   Cr  W  
   1   3 110   3   7
Direct
  0.3989830229318954  0.2011011245776660  0.5986012209425134
  0.0008353931843953  0.1997268381331124  0.0019006742049190
  0.1970907844046142  0.3964724393033486  0.1929623543732075
  0.3991572150313781  0.9999493106171551  0.0085891071624033
  0.9997175328107362  0.9984134842910297  0.0005775116769944
  0.9991810573995795  0.9988391300278138  0.1994907445624043
  0.0004373945372400  0.9986951820248828  0.3998279747422050
  0.9984640077743024  0.9995980343137431  0.5994019829269083
  0.9984320377279972  0.9983567477828604  0.7999691089317819
  0.0005419457191536  0.1996605737158625  0.2017622988982458
  0.0045964515463210  0.1991271310061773  0.3987877127999070
  0.9972010194311275  0.1999396024512429  0.5998657074844538
  0.0007880209531359  0.1991819165217189  0.7996879456263774
  0.0007341820186086  0.4017107062998094  0.9991651052791060
  0.9984392142412183  0.4001154869941281  0.1990207988529697
  0.0007820256616611  0.4008215626096127  0.3990535025984173
  0.0023259227421856  0.4014019061056565  0.6010573983490279
  0.0002524094762396  0.3998707252058041  0.8006042458532312
  0.0000227552257916  0.5990161449363341  0.0007794944994687
  0.0006545253064375  0.6001975647261238  0.2004456406976119
  0.0014411231717964  0.6004047073699389  0.3989670557520543
  0.9983156429377160  0.5995051884353159  0.5985460573511048
  0.9980053525473058  0.6011414006786536  0.8003534405915127
  0.9992649001296987  0.7987825488816180  0.9989596824793535
  0.0014824056398410  0.7995643087963556  0.1998632238234031
  0.0031550616932526  0.7996173082322370  0.3993409601134861
  0.9987542259216290  0.7988337323047916  0.5999970516869693
  0.0070009165220901  0.7995359651221541  0.7998254836108021
  0.1980718948828140  0.0013973732648234  0.9996413536323366
  0.1992798832054878  0.9999504548362890  0.1986065094166008
  0.2006112641634615  0.0046238546117141  0.4004231323044950
  0.1979423506099219  0.0016307838822693  0.6001179064371075
  0.2003775048496530  0.9981591435258101  0.7991407831069697
  0.2049038013903158  0.2002493105021481  0.0007180002412469
  0.2009236224950474  0.1977566476653615  0.2033353407081263
  0.1943282200068125  0.2034658589359156  0.5962346529183530
  0.1997543657660632  0.1978370095160787  0.8012077959762894
  0.2005407932677428  0.3990229563067141  0.9942101433623043
  0.2002840035920684  0.3949635230336301  0.4059721597900046
  0.1997412418104371  0.3991267017507927  0.7955396221256323
  0.2009647226222230  0.5985095447876650  0.0001115824490812
  0.1998621432720309  0.6005998520289585  0.1992475163169042
  0.2041979730327851  0.5985190308886995  0.3995305161056422
  0.1993148361476297  0.5947119354574849  0.5996814693619016
  0.2013322352916040  0.6028329894234346  0.7991920255154624
  0.2013594282112905  0.7999891979748417  0.9957463072235675
  0.1993118153228482  0.8008364238478474  0.1977400483770543
  0.2029538194389689  0.8021589246184188  0.4009342175839458
  0.1998083736446871  0.7989049289824515  0.6029500648895306
  0.4001376332298875  0.9988284913738059  0.2022770481041412
  0.4004854604327505  0.9952857221472403  0.3991261074994515
  0.4019093362416238  0.9954931450274253  0.5990147572292275
  0.3997859126147093  0.9994669526210562  0.7983109134080763
  0.4040324846977841  0.2034109421355911  0.0023279000659740
  0.4005878192397929  0.2006488187541772  0.1990795643230615
  0.3968711541926092  0.1994546894506340  0.3930093809992030
  0.3999775449219648  0.1987837339641017  0.8048287740915665
  0.3994178746844282  0.4021827538850957  0.0007691520192366
  0.4011229600135549  0.4018722572134113  0.1998554839331046
  0.3995140967357910  0.4054139467260638  0.3977305689556313
  0.3955206214157422  0.4058281014802071  0.6009449692071698
  0.3985547671531565  0.4018361668204167  0.8009329398930931
  0.4014507979489207  0.5996429715318204  0.0024009838900299
  0.4005935526743319  0.5999764718450011  0.2042364721885526
  0.4053338379987702  0.6012346694699379  0.5955195594153602
  0.4003338811885199  0.6008127711520739  0.8006263195404504
  0.4001178260358665  0.7974838606511678  0.0028834823524296
  0.3994403397989675  0.8000820019134851  0.2024456397105716
  0.3989881102126716  0.7989570902110702  0.5951437786129433
  0.3953653612951684  0.8002443887013302  0.8000165782381599
  0.6020112399714693  0.0053549109856754  0.0000442312939137
  0.6015143608957854  0.0011071594947148  0.1998629684403562
  0.5995856335855648  0.0009310302892089  0.4010261251007262
  0.6023323103818825  0.9995387667871420  0.6004866330482869
  0.6005527740686604  0.9991727942489611  0.7997882163476668
  0.6004266859444954  0.2003393991545008  0.1968591517050106
  0.5987768998043652  0.2000768841023403  0.3983772521772275
  0.6005464248758603  0.2004297193608110  0.8040766144617365
  0.6002977500434037  0.3974235357289573  0.9988053310185203
  0.6012194711656281  0.3996839474575711  0.2002530767043816
  0.5991766826120346  0.3983629202912064  0.4005348951318715
  0.6010063336063520  0.4027501070156559  0.6012750739117600
  0.5987909162589713  0.3993821520632628  0.7994758679185066
  0.5999102638185034  0.5980669375653427  0.9997292359022261
  0.6011649136004263  0.5995705630027148  0.1995226292155514
  0.5968263555632843  0.5994916381695585  0.4041900244720420
  0.6002266821437047  0.6018456291906067  0.7972818603600491
  0.6002378299560202  0.8011354836358520  0.9976491051878940
  0.6002456324293174  0.8008293225087780  0.1991493319599756
  0.5955488750856758  0.8018949647035365  0.3992548909749076
  0.6023151462712442  0.7966893280931804  0.6035159838887650
  0.5936992528868033  0.8016072340343493  0.8010516723739907
  0.8012871676275913  0.9999032564687731  0.2008280779402776
  0.7999628564099901  0.9983459880203253  0.6014396129665054
  0.8004559874175584  0.0006642355682340  0.7995654985279411
  0.7953728263054801  0.2006815995845788  0.0010085512088414
  0.8012438661626540  0.1993171044615759  0.2009353744869543
  0.8006685705310967  0.1999266373697765  0.3998127458378944
  0.8008313392158382  0.2009130579684523  0.5990800117505157
  0.8012722654692286  0.1992009302009809  0.8000672925864832
  0.8007947831885095  0.3998187217965308  0.9998409956688971
  0.8011700513499167  0.4001664175987527  0.2003734680683041
  0.8009227646297520  0.3990451158859372  0.3999134043324581
  0.8019158050354325  0.3992671065094584  0.5995352239464763
  0.7990655473626921  0.6006103611759304  0.9987263787970191
  0.7994101532172310  0.5995365665341059  0.2010461858603987
  0.7990312549780181  0.5997475448036806  0.3992077034898788
  0.7966733751717439  0.6004615272271770  0.6005067492689430
  0.8004396264829743  0.6002715764360120  0.8004686661833356
  0.7996316870551518  0.7998800501711918  0.0014186890186263
  0.8000952902500135  0.8001650847692447  0.1999786088128062
  0.7994625647323347  0.8000393242932851  0.3990356473770614
  0.8006386313444056  0.7998676333263173  0.5964029793115720
  0.8007069014282443  0.9984408191799061  0.9983817104765735
  0.6037583692277970  0.2008117290949337  0.6011317005895892
  0.7998060413142116  0.0001488300291217  0.4002092581283341
  0.8004420441060357  0.3996555954780960  0.7996188726662347
  0.2019425630975453  0.1997919474418457  0.4005448750848961
  0.1992962460120438  0.3985142390864234  0.6014031858985281
  0.2002331389830281  0.8001069511150793  0.7987786022858719
  0.4009339311081777  0.6042218207829581  0.3992450937545395
  0.3978615551618611  0.7979183203679275  0.3985278601707037
  0.6005404885957583  0.2019572138574368  0.9999280124969995
  0.6014163429438483  0.5986341408270409  0.6013397419942270
