Zr Ti V  Cr W 
 1.0000000000000000
    15.3990340272275770   -0.0170018773457157   -0.0022529018582575
    -0.0170107766548915   15.3787801482628375    0.0165544931564424
    -0.0022517709109467    0.0165430754876648   15.4057927644380346
 Zr  Ti  V   Cr  W  
   3  13 106   1   1
Direct
  0.1872157608345733  0.2011980640096539  0.3733309303220969
  0.2033729637638383  0.6166772424680683  0.3844553912634345
  0.3851029156246599  0.7964255922065867  0.3897663151256896
  0.0015838672909836  0.0028567680572484  0.0049934723388203
  0.0001590328734613  0.1962104342205157  0.8002483537696676
  0.2038722651313591  0.1993418018458400  0.1753145449441384
  0.2048883126463144  0.5888781266239811  0.1828339872505834
  0.2110158048180274  0.7990032254771070  0.2134227016871904
  0.3885773147947037  0.2014224525626341  0.6031888296227241
  0.6092583638812648  0.0149005019285902  0.5930977355683033
  0.6024103294238902  0.1932355087095054  0.4136144248327639
  0.5889220176753345  0.2015167576755443  0.8126144705912631
  0.7936256922456405  0.1986526684331543  0.1964305589732678
  0.7830756954534605  0.1969921489602118  0.5946982495338771
  0.7971851463647939  0.1986350367657358  0.8031519712696503
  0.7997086238965850  0.7971426951359967  0.1951213758539554
  0.0023877468620690  0.9997608412899370  0.2066011193216595
  0.0018750141644111  0.0021073007025696  0.5966970514049378
  0.0015176506952881  0.9988917137411175  0.7977128893269416
  0.0008257906917919  0.2015497840504963  0.0047646181291076
  0.0010045304819447  0.2001590095976455  0.2012746078770714
  0.9878965871751904  0.1972401184474031  0.4013361863757801
  0.9977517802903714  0.2010591608570585  0.5972002789838077
  0.0008407937274244  0.3991922243546725  0.0020809721796640
  0.0002385013253245  0.3987511961701298  0.2028654371231964
  0.0015895777534963  0.3980954129615760  0.4015771163762288
  0.9994349511243410  0.3991280504550344  0.6003129886809284
  0.0008434121020922  0.4009436055709227  0.8004227016274232
  0.0019168505641405  0.6005836967325807  0.0015478994254434
  0.0012392240599031  0.5995395511388837  0.2012122862545379
  0.9963926939838670  0.6007294878032032  0.3995252830947879
  0.0017028926318400  0.6006436760992218  0.5980840842807943
  0.0004992610625035  0.6004464039258963  0.8005996203648633
  0.0033164905200657  0.8003344700816615  0.0033053620458652
  0.0023665447705481  0.8002933192885845  0.2019589443574555
  0.9939961049955500  0.8074662109212142  0.4014250790070020
  0.0002691470487901  0.8007959472138285  0.6013485807221814
  0.0008360809789700  0.8006325587467221  0.8003017974070651
  0.2019686877282109  0.0002231098816201  0.0004088498103849
  0.2032093733858785  0.0037193646033844  0.2013173312007452
  0.1974385886928898  0.0010881675046210  0.4014290267262269
  0.2031176781232668  0.0038865350490210  0.5999421212119637
  0.2007125738186675  0.0005572079197238  0.7986293770922039
  0.1984209322301744  0.1992160769006827  0.9870235731149394
  0.1948413234549138  0.2013404465842143  0.5957196292851000
  0.2010317644849591  0.1996859725957992  0.7951226910647997
  0.2000452752906764  0.3980738003262106  0.9992086746715666
  0.2014962982338131  0.3941477738470437  0.2014501768793106
  0.1999934994908358  0.4039363449491390  0.4015775026973591
  0.2002672937896589  0.4009974009107983  0.5988636207671763
  0.2002713525850978  0.3997547672375629  0.7999821204296127
  0.2003249738567300  0.5996930299003802  0.9937469491978540
  0.2011321295731356  0.6008187359559914  0.5993814337072222
  0.2013578840451476  0.5996839612269010  0.7979205173983079
  0.2017724072958762  0.8001410202849215  0.9992726079317102
  0.1868177143016595  0.8135266585944428  0.4097072966896009
  0.2005713617768722  0.8011700060260855  0.6033019093303253
  0.2009763257816039  0.8024409666996066  0.8011515952215630
  0.4006243790258163  0.9998027515504042  0.0020317560448780
  0.4017886077733021  0.9965241739576832  0.2020435453703665
  0.3992894807750076  0.0051776722355262  0.4011297013202287
  0.4020898519090295  0.0004943320835837  0.7980079226821987
  0.3986772379893340  0.1979579842921607  0.0020363202018283
  0.4002865465276368  0.1978151232607374  0.2020273648699396
  0.3970558804506868  0.1984772394247034  0.4002902517147541
  0.3955036323694167  0.1991783471696781  0.8051071218970368
  0.4009270793135979  0.3978523528435747  0.0022927241956787
  0.4017434542959955  0.3971383638822013  0.2020362746056788
  0.4009627009085732  0.3946195224156350  0.4018891767792985
  0.4001638160224486  0.4005647522396678  0.6013470118872598
  0.4008288611257446  0.3996873631519732  0.8012086934124567
  0.4670135801056408  0.5991192363843952  0.0005469312786583
  0.4073474175951465  0.5947907928579476  0.1986906074205280
  0.4092810537212473  0.5904725045989121  0.4000795157451149
  0.4013963970529913  0.5985704980956947  0.5991289073435936
  0.4021902531941230  0.6000713141536509  0.8014311487881592
  0.4009867261110459  0.8005224540028942  0.9976075920323529
  0.4070693223202341  0.7969853680518526  0.1897299196244066
  0.4009531948956749  0.8006664630233287  0.6015137795814828
  0.4010166638790065  0.7999649478111542  0.7998675532143869
  0.6019840878824920  0.0012122773641141  0.0005290151863406
  0.6016599431721265  0.0001077970811001  0.2024917973264558
  0.5988021268264595  0.9959759742446568  0.3986567698976423
  0.6011263177445660  0.0007200914328675  0.8012181309771730
  0.5999702247293867  0.2001261616627434  0.0077737538803981
  0.5967197125548045  0.1980851314751179  0.2029255821391569
  0.5902107863918169  0.2064729636395929  0.6097650436902585
  0.6006842676280363  0.3993594246196102  0.0024388497463149
  0.6009885637725108  0.3982203937882877  0.2028844210398990
  0.6019790189714667  0.3988688866099666  0.4028665054099005
  0.6002466554124254  0.4017911662238223  0.6028021294552433
  0.6006938301157154  0.4038195553380011  0.8038555266110814
  0.6036712104103810  0.5992405519483492  0.2018297419831532
  0.6036272337914844  0.5991717586247272  0.4005533234448357
  0.6013040233357312  0.6026431566567889  0.6006060112437817
  0.6009407001172655  0.6012967585740130  0.7998325492288002
  0.6017098134165283  0.8027475639018666  0.0006228690818268
  0.6007929341136650  0.7988610501820695  0.1995651563999646
  0.5996427556227587  0.8007608063205557  0.4004119994855716
  0.5996118519737121  0.8027878891015943  0.5995224522026991
  0.6005896339022609  0.8018864646987554  0.8012424817329825
  0.8012093322067222  0.0006898430993099  0.0012411595951696
  0.8010568194876715  0.9995393635930595  0.1997286809626279
  0.8103415055247444  0.9972522697939352  0.3962957483026914
  0.8046352623473203  0.9969194442350974  0.5992494343429365
  0.8018489989365208  0.9987121507795844  0.7988217356614796
  0.8010641269245535  0.1996417276505669  0.9985555084704166
  0.7979994065623341  0.1985763647951754  0.3970971039507097
  0.8011692692469972  0.3995280878292710  0.0010830644767148
  0.8013383966392852  0.3994762097243558  0.2011666115311770
  0.8014650525986718  0.3980235446941329  0.4005473989780313
  0.8000223471420869  0.4012071384530324  0.6005118326024476
  0.8005665940225846  0.4001279079275649  0.7998010941689183
  0.8043855146101689  0.5994795493656340  0.0003014767967796
  0.8009376105868673  0.5965111321813685  0.1988880416610450
  0.8013303078991396  0.6006364705365093  0.3999581871375901
  0.8007127784253461  0.5992612163754516  0.6002530401034019
  0.8007398486328451  0.6005115908542336  0.8014982864238066
  0.8016375509914455  0.7999598600579225  0.9966341573822638
  0.7980450268311796  0.8000910521968256  0.4022469775663743
  0.7999897603946258  0.7991780787952696  0.6021932003220801
  0.8008815959761417  0.8007829972243279  0.8003594466364290
  0.3990848243315652  0.9979721150073765  0.5986377811397867
  0.0050789013675032  0.0049643901935497  0.4014889281938374
