Zr Ti V  Cr
 1.0000000000000000
    15.4889002550493640   -0.0195313770937778   -0.0155534076795571
    -0.0195267745976093   15.5102089440028070    0.0059105293967036
    -0.0155475950656657    0.0058984254639578   15.5083315327291498
 Zr  Ti  V   Cr 
   4   5 112   3
Direct
  0.2098212072142773  0.8009851537652176  0.1940334587418910
  0.2159178517630511  0.8051202404843748  0.8080016331872097
  0.3893015673600643  0.9670821812864158  0.8366044667499141
  0.3864632392611242  0.7957139786438266  0.9978702571881940
  0.1992391983635286  0.4017681634365952  0.0003163884791044
  0.2086762207368368  0.8153674617242542  0.5913389161225729
  0.3999198770530791  0.0139554199422512  0.0264584652268136
  0.3894351614347006  0.9887997391438056  0.5967873549794532
  0.8015483672295070  0.7995572930880412  0.1995777112830193
  0.9959265151010191  0.9997036999063716  0.0014519923546084
  0.9986993614020448  0.0009140202030309  0.1998731545324049
  0.9990568422262034  0.9996321544962341  0.3967626774905229
  0.9965569365306903  0.9999712458736016  0.8050275725619439
  0.9982311781729343  0.2008142141577958  0.9999872025278553
  0.9989574685578181  0.2010658481320018  0.1988136231319058
  0.9990561187262622  0.1986244861401376  0.4004113887191466
  0.9995995776688937  0.2031779948427671  0.6001589610378678
  0.9983730955917079  0.2004929438382046  0.7991729828686635
  0.9969660335580922  0.4013432289861452  0.0001575243135794
  0.9988584692442393  0.3992718868506848  0.1996021044405357
  0.9992948937549880  0.4008506324743358  0.3991138711851054
  0.9999145808134526  0.4008898225715899  0.5991221444203014
  0.9996350698232357  0.4006160129953449  0.8002935946402403
  0.9987342694514555  0.6006298409376706  0.9995340027697145
  0.0009256472843171  0.5995716655889407  0.1993960088296488
  0.0004282835678043  0.6001656006645629  0.3990568758865624
  0.0023676281512641  0.6012995156692548  0.6002524875189111
  0.0023940743736014  0.6008546941485121  0.8008067853178679
  0.9946169381200475  0.7997873700967161  0.9996610062848699
  0.0000935453488191  0.7991714534878075  0.2006518041191203
  0.0004691437768063  0.8003977861384740  0.4009843416747340
  0.0031925722341097  0.7980618765229651  0.6000350143547873
  0.0038376104737414  0.8012020707530394  0.7965868049090045
  0.1950771378416946  0.0027517568586979  0.0016928089132234
  0.1997155619074434  0.0043131683818556  0.1999591784726751
  0.1964898097056701  0.0019064096886583  0.3998637780909142
  0.1954253125684451  0.0068219838922679  0.5998431460275977
  0.1874930653719014  0.0107690652443304  0.7979768069709394
  0.1989868093841725  0.2000818629785206  0.9989142249836196
  0.1995890145475271  0.2013947273121725  0.1998033776585896
  0.2000648602649193  0.2004381224959378  0.3996802622338452
  0.1985507010709704  0.2024031214168728  0.5987831365561257
  0.2001561001025097  0.2026491102029869  0.7997483626048030
  0.1999121027885030  0.3997055496982379  0.2013978495520098
  0.1993686855516771  0.3992385439540716  0.3995075205359528
  0.2005559047695351  0.4011994853696539  0.5989144200931045
  0.1992503428052087  0.4002426532004690  0.7981131650523722
  0.1990642824202679  0.6019660059011003  0.9996621447729753
  0.2005856894481493  0.5954815340804048  0.1994755103688322
  0.1994592780755488  0.6003828558171095  0.3996560247425430
  0.2020584264094813  0.6006958109717888  0.6005862196221257
  0.2008954344659200  0.5971152286156067  0.7995316433430271
  0.1857174362719265  0.8000913231157093  0.0040247326907040
  0.2001605591233047  0.8004197161191396  0.3971903755731790
  0.3991199803666919  0.9992711491807643  0.2085136275063895
  0.3985763013890972  0.9987076389038309  0.3992000233970118
  0.3985045083013298  0.2034203105616056  0.9983142236571354
  0.3995229292684829  0.2015237052686391  0.2006707427454472
  0.3994553332696762  0.1989145896141700  0.4001109609063350
  0.3992318746982477  0.1981252800567365  0.6011708400418928
  0.3999935217651036  0.2026873968986682  0.7986236527480300
  0.4016479089129156  0.3986914214931546  0.0007798138180776
  0.4002411875724027  0.3990024799024013  0.2005650925245836
  0.3997604884662208  0.3994610743310667  0.3992847047703731
  0.4007388293903932  0.3981103002665187  0.5981654509907407
  0.4009416505405238  0.3975326379287891  0.7985524945748445
  0.3988470408153776  0.5916671796443079  0.0000554552385159
  0.4000990394942169  0.5980678241706404  0.1992129651389090
  0.3994736819895535  0.5985485279938831  0.3988933088093288
  0.4001616225163675  0.5954042614504640  0.5978437341499900
  0.4014480434301615  0.5904973800555238  0.7998405269325588
  0.4091947246254746  0.7974702001480142  0.2051548955293221
  0.4016329938896912  0.7974532651953035  0.4006547861968713
  0.4069892244689159  0.7919704688714742  0.5953020662424929
  0.4171961887866775  0.7774491906391026  0.7885676538284877
  0.5974695282845948  0.9988899498883071  0.9988523344665051
  0.5987394447352896  0.9996517340663452  0.1985442207307863
  0.5991874021593289  0.9995548472975735  0.3987634283765653
  0.5993101022746909  0.9983147294558014  0.5992379709773309
  0.5987521180564404  0.9990383013098829  0.7989805445994956
  0.5985832091095433  0.1985911905395681  0.9980050221306987
  0.5989371323960772  0.1996975634562181  0.1990426655285643
  0.5987640374067811  0.1983463098985470  0.3992555930953200
  0.5991735488711887  0.1980875096372738  0.5991963182240680
  0.5999363052666191  0.3985626765056217  0.9989039282403828
  0.5997507748776152  0.3987774664776234  0.1986295827356895
  0.5999665412015579  0.3992103154773097  0.3987800701352163
  0.5997869595146359  0.3983621694018242  0.5990155885291211
  0.6016387598073805  0.3983547030688732  0.7996118550367041
  0.5986497589147368  0.6003327347144890  0.9987528281968191
  0.5991893316803960  0.5994140229676600  0.1980831526777288
  0.5999823744291052  0.5998381220765819  0.3983869673059386
  0.6014057859307218  0.5987036805798699  0.5994061681018209
  0.6025175244725320  0.5970414514817792  0.7998836805880187
  0.6001336677040855  0.7989838430942059  0.9976963490222953
  0.5998256904691546  0.8000738260036379  0.1970190660493300
  0.6013345230403222  0.7999553449282937  0.3989094221522934
  0.6040027385272223  0.7987695320032770  0.5982829217485389
  0.6059218812586546  0.7981462569760357  0.7983128231417129
  0.7974854685073551  0.0008919898300672  0.0006317496465016
  0.7975306497481933  0.0028653325988233  0.1994504402339529
  0.8008398209858412  0.0000782062030638  0.4003101857669131
  0.7981252790059065  0.0006961185899934  0.5997922504955592
  0.7993688585178531  0.0003664029870052  0.7992388034494243
  0.7984242389085335  0.2002971637968884  0.1991234935255276
  0.8005438535553363  0.1984537372328603  0.5994673840977652
  0.7993376808499805  0.1998453941279703  0.7996903447361527
  0.7985289024695398  0.3990531191614997  0.9994031403088612
  0.7991475882871971  0.3992274100041539  0.1995997364115148
  0.7995188482833945  0.3993146488802683  0.3991294293787467
  0.7994773252244730  0.3995644382202118  0.5991688747772318
  0.8007079713718208  0.3997307892992612  0.7995114295512983
  0.7993304924615062  0.5993537929040894  0.9994849645337378
  0.7994050733598365  0.5971135975428659  0.1988473797808179
  0.8004904313298895  0.5998746889184863  0.3992790866399292
  0.8008387501736502  0.5992141925260636  0.5994720078896736
  0.8018067423411455  0.5995227300551312  0.7993813038830532
  0.7984029246633660  0.7996738170554973  0.9963539358555623
  0.8000422195299156  0.7998241746446778  0.4015566153576001
  0.8039284016036111  0.8011519971011889  0.5989652939800876
  0.8030389626701041  0.7995177703327186  0.7983806471632516
  0.5997874884656935  0.1983304816617369  0.7990578556319652
  0.7981284795952621  0.2001267200699674  0.9990894136713896
  0.7989493574924145  0.1999778176911679  0.3995625329076873
