Ti V  Cr W 
 1.0000000000000000
    15.4680708186707445   -0.0019791925582942   -0.0047359324461698
    -0.0019790318440020   15.4527092295556869    0.0037359914958914
    -0.0047356967593003    0.0037361514560846   15.4658715029001890
 Ti  V   Cr  W  
   3 100  14   7
Direct
  0.9935249200853716  0.5915632316369472  0.7962143378158514
  0.8009563828005783  0.1974532843472918  0.8015877598467511
  0.8045712236629508  0.4108250901401396  0.8012067274648216
  0.0027028296983325  0.9996268486460251  0.0002324780802070
  0.0012413096197059  0.0003310762609550  0.2036617600069674
  0.0000804181288136  0.9998390329319987  0.4004402779115095
  0.0012850338397070  0.9994505467856448  0.7979579878021278
  0.0011274330136537  0.2000876712503313  0.1992808399555178
  0.9995770223857561  0.2000545143368847  0.3997473709914692
  0.9998798429808541  0.2004740184072440  0.5985031459918312
  0.0007387844234440  0.3956397904909721  0.0007953329545932
  0.0011316462997786  0.4011982724411043  0.2015464721902220
  0.9999479914180990  0.4003976453971526  0.4001084227486753
  0.9994577540513638  0.3976719654908242  0.6001784332122431
  0.0031468214064254  0.3975632906692252  0.7998140215325069
  0.0000644787164809  0.5995108375669143  0.2009454887514756
  0.0003808697175637  0.6015118374520276  0.4006538752203987
  0.9992476841023703  0.5997950200624438  0.5972747638654017
  0.9991927106386501  0.7996771280077768  0.1972961016102934
  0.0000251250131314  0.8005216827649555  0.3989434708687077
  0.9982423873291458  0.8006004118129479  0.8043810648151322
  0.2013916757996797  0.0013709483736687  0.1980424849134443
  0.2002927188463136  0.9997492149220059  0.4005048923682585
  0.1997913285614769  0.0005062043175949  0.6013001253114573
  0.2000384634952873  0.0003998088215290  0.8014873143111029
  0.2001495313917000  0.2004555343560046  0.3992260534656736
  0.1997064509645061  0.2011829051573027  0.6010673382980883
  0.1994409577646405  0.4027119699816152  0.9992327435869834
  0.2002801477876223  0.4009662535568848  0.1983025680318604
  0.2007882202039021  0.4018001526814761  0.4008956246859682
  0.2008490769249026  0.4001673384787780  0.6003366224408055
  0.2013912118733786  0.4031055522045314  0.8010317030292241
  0.1979566193338750  0.6014177364512528  0.9962975816024521
  0.1995520242377757  0.6010722550098677  0.4002941883337021
  0.1996338849377765  0.6003021395189121  0.6030545878566824
  0.1931064874702548  0.8023941819107294  0.0006596016438156
  0.2001799851488530  0.7984162908146407  0.2007133793534801
  0.1990638765312493  0.8002692571985978  0.4001229958710147
  0.1984697662254633  0.8010595355484235  0.5997842403542136
  0.1981704614714380  0.7943448718918295  0.7986400186980877
  0.3964211460922672  0.0012727544123448  0.9997729966270223
  0.4001630092197610  0.0009906366863384  0.2003769629555756
  0.4000377798701436  0.0001332820150788  0.3998679516339513
  0.4009248359765288  0.0008711251977231  0.6002959929322577
  0.3986286018225492  0.9998906610210966  0.7997948917537550
  0.4046827540539484  0.2009400853586876  0.9995195851526446
  0.4007390980023454  0.2010905989641431  0.1986534664306929
  0.4007699953545429  0.2002501958485113  0.3999532821131749
  0.4003604642145459  0.2001296265280524  0.6002811786627095
  0.3999882588393905  0.2003060428203551  0.8015814092089637
  0.3996944185336805  0.3989380987150117  0.0002796866299286
  0.3998439531939920  0.4004974467902743  0.1997678945128584
  0.3993532862363685  0.4010117305527756  0.3987986934967194
  0.4038964028803469  0.4000320939876037  0.6001284103082036
  0.4005257738105752  0.6011095419770522  0.0005299352104397
  0.3994848306737339  0.6006697675637658  0.1988473352849829
  0.3990026372297182  0.6015349950658057  0.3991772727341878
  0.4006307891221067  0.6016967457538546  0.5987438219385921
  0.3982659527819704  0.6003068928361949  0.8007460217120155
  0.4015152338953790  0.7995970887641806  0.0004724180442015
  0.4005045067653247  0.8002968694436311  0.1994384555346881
  0.3998916480540117  0.8006336351984360  0.3997492237124997
  0.4009126566159339  0.8009566270286574  0.5996001817784461
  0.4012799281992249  0.8009175136309131  0.8004278934984386
  0.5993193078021838  0.0004175236544850  0.0001527415317908
  0.5990319241139112  0.0011013536381173  0.2006617465703862
  0.6010206905859174  0.0009750874246048  0.4013013677245311
  0.6008376134053494  0.0015605291878313  0.5999861334732269
  0.5977944509225172  0.0011394400400382  0.7988090489227188
  0.6068407750618217  0.2006583587907650  0.9991574577770789
  0.6003385283120751  0.2012716848718170  0.2010172067594534
  0.6015491777406451  0.2003166828781662  0.3991466661641969
  0.6019344554663593  0.2042632546960738  0.6008511098483852
  0.6014490136555469  0.4009566672746884  0.9986857655690263
  0.5994248648151834  0.4006931047446988  0.2008461558626218
  0.6006602677078992  0.4005758558795927  0.4031242353195829
  0.5986679036990108  0.4001388199123355  0.7956890825625115
  0.6003103805385183  0.5996977905562811  0.9987934193262216
  0.5994853818759126  0.5999269664781766  0.2000348005759189
  0.5997469391717568  0.6019797655925662  0.3990621293402581
  0.6006589641310301  0.5980923969628893  0.6000272771422965
  0.5975600456988692  0.6003440166301819  0.8000527766570436
  0.6049177023745943  0.8009032149629909  0.9991520384022120
  0.6006215395874829  0.8008468616780954  0.2005304279815967
  0.6017905742842300  0.8000688629785533  0.6007351183414086
  0.5995873741430665  0.8000802337961381  0.7996692178671537
  0.7984529698615470  0.0004704201004631  0.0010526530117541
  0.8004771850661185  0.9999091967892356  0.3996008270401903
  0.8002159966179855  0.0000098552261682  0.5994205792253128
  0.8001705945624864  0.0012878337148425  0.7980998994913877
  0.8007054343565508  0.1997228264217548  0.3994604502554849
  0.8000571845405300  0.3994061576695193  0.0027370610324808
  0.8000611957985981  0.4026028293732216  0.2011832940827989
  0.8009849991888887  0.4009466735368321  0.3988464619463427
  0.7972977879683470  0.3998310330771400  0.5980395646328596
  0.8004527145432977  0.6039975393622384  0.0017075234436807
  0.7988732874506795  0.6005442079606420  0.2010529513269395
  0.8003674014437439  0.6021635128751146  0.3986040338292301
  0.8002135976052818  0.6034705208217823  0.5983716337162149
  0.7974719799673512  0.6030450429518120  0.7999847979133724
  0.7992197844060080  0.8001445571618468  0.1968760210652248
  0.8002478616647659  0.8006990366133578  0.6008567536236351
  0.7990529476468561  0.8017802534213718  0.8038729720087597
  0.0000642547238006  0.0001377859774969  0.6001937909423363
  0.1007957568180569  0.1997274961572056  0.9001366584819623
  0.9993482994534677  0.5992020845543283  0.0021359631206932
  0.9988073887950445  0.8009358694837989  0.6008629755925577
  0.2009143786208583  0.2010212786537024  0.1996125008915719
  0.2007960186682411  0.2011780272474116  0.7996581410859562
  0.2000259748993181  0.6005457667174194  0.1988903149913350
  0.4007270081245016  0.3996039852672088  0.8005660886985889
  0.5988947811901912  0.2006752555492437  0.7998337519483050
  0.6008150329488340  0.8007681197905632  0.4003293344204310
  0.8000674153100616  0.0005366729605603  0.2013931318470659
  0.7997070059336254  0.2003530927912617  0.2010612692360350
  0.8009597253241209  0.1996696657290617  0.5982115133567507
  0.8003473017032906  0.8012795033653685  0.3994404268853481
  0.9905292594962724  0.1963591240333288  0.0041973058272771
  0.9948736000143786  0.8030385337575866  0.0020940281343220
  0.1987536022972287  0.9947465099164899  0.9989317717658265
  0.2043502944103676  0.6013470578976098  0.7983001024528883
  0.6004337171769197  0.4027536956690309  0.5978831004611147
  0.8039766684952319  0.2003289491125486  0.9997978970232754
  0.8020597717822621  0.8019831613517037  0.9998079589916069
