Zr Ti V  Cr W 
 1.0000000000000000
    15.4149939690695010   -0.0041197707411214    0.0051244012526811
    -0.0041210926464625   15.4234402589122102   -0.0060663359120509
     0.0051270839828618   -0.0060686626181498   15.4040961855710652
 Zr  Ti  V   Cr  W  
   3  12 107   1   1
Direct
  0.9891489906952938  0.7834923101156398  0.7939223569267512
  0.2058174893003747  0.4396534420098613  0.7991125722870966
  0.8099891519999410  0.6060719058836389  0.7952999471220015
  0.0027723304254634  0.4057097992847495  0.4064535474972353
  0.9940940792854658  0.6112556583484285  0.4035472778331582
  0.9811317088211574  0.6074116798435620  0.6237133357980086
  0.2019399365880528  0.9879815403845131  0.7988588822737019
  0.1983276036924606  0.2034413977373664  0.7988591303155225
  0.2049338053305433  0.5971505198180700  0.4066673912418586
  0.3959516012401766  0.7999928518702984  0.1988432835804432
  0.3984602500443786  0.8064823868625497  0.8037616289079016
  0.5977201274665606  0.7977525588920348  0.9893572036824116
  0.6057732156056321  0.7983698564272900  0.1996999911089988
  0.5983995052391589  0.7935847548177094  0.6000288669304675
  0.7975722009734277  0.9948710922854662  0.0001807887304237
  0.0019290069121645  0.9975202129772882  0.9983006062492989
  0.9982030845738585  0.9974810855070039  0.2006725276880169
  0.9995849035672989  0.0020987707650708  0.3998588719324184
  0.0007499182970616  0.0005739665677698  0.6001563120004619
  0.9974232306324885  0.9970880599888581  0.7987985998688111
  0.9999582386724287  0.1970688544291777  0.0004514556671713
  0.0000596751223823  0.1993463610362480  0.2003394067124117
  0.0001242367143598  0.1983177999736533  0.4003687750110442
  0.0003636154824787  0.2005264264310533  0.6007340023004991
  0.9991697118780063  0.1960537580079899  0.8007327962628861
  0.0011427721320927  0.3962692826380569  0.0025041716330176
  0.0007300678054212  0.3996365552282915  0.2005009040669894
  0.0029029892245269  0.3991868037013204  0.6050066977664569
  0.0019174559692203  0.3927055223418306  0.8028150658784111
  0.0012053137259473  0.5977972549125180  0.0081669027323150
  0.9997230761439192  0.6000085070041822  0.2043728169138763
  0.0181774549010223  0.5818063924217858  0.8184068088385680
  0.9991036101290938  0.7978402856829252  0.0044108989799466
  0.9988935808539819  0.7988677448582445  0.1998251378469194
  0.0017097749638930  0.8048535625363830  0.5771987202192647
  0.2000592801053067  0.9981275595869616  0.0021037882958044
  0.1996337338866130  0.9987960181011843  0.2004997097173421
  0.1998932353065533  0.9979419219641534  0.3998794685445318
  0.2004592879462583  0.9999910651547874  0.5982372400718928
  0.2001490626892143  0.1986957331092790  0.0016284785236114
  0.1992830275093984  0.1996629346926449  0.2013404754496566
  0.2001896866039840  0.1997528866276402  0.3998363278532835
  0.2002367544395827  0.1999258533415122  0.5984278984660170
  0.2014973662053070  0.3998610223435762  0.0045496267312743
  0.1998979885707507  0.4004946208585011  0.2020842199086208
  0.2023933483135114  0.3998037589591491  0.4009788901021988
  0.2010371786677015  0.4022223911551356  0.5956474911231940
  0.2026728431095380  0.6000808080967041  0.0010768881102572
  0.2008423591619537  0.5996981516922641  0.2006168569329366
  0.2067286438298505  0.6011108014719407  0.6063459874445235
  0.2069002764630370  0.6282078567458518  0.8026682899322726
  0.1974470940925779  0.7988927144719833  0.0007766075526793
  0.1947040493488576  0.7983847951456609  0.2035500681415413
  0.2000300186906632  0.7989958559181337  0.4021792487527573
  0.1980802462231235  0.8008182605858589  0.7983508441715422
  0.3988643556575547  0.0002989887849937  0.9993958913635611
  0.3997039053492564  0.0014891836251153  0.1997434521193150
  0.4005666984146913  0.0002029501754379  0.3996331580569011
  0.4000590519990510  0.0011583084562554  0.6007102085983202
  0.4027859707787360  0.0045351282829822  0.8002180484454069
  0.3993405944241653  0.1994371760070519  0.9997591823649267
  0.3996481678082161  0.2002463778092616  0.1995478212460196
  0.4004392428280390  0.1995088678920245  0.4002513040554661
  0.3994127905508347  0.2015139546159977  0.6001768099248636
  0.4018406833080837  0.2011633479151933  0.8002134578320340
  0.4000564687775469  0.3981095114783735  0.9999831114145480
  0.4002598006970187  0.3998549093535417  0.2004426299261237
  0.4010006493573309  0.3996427008314784  0.4001592439244060
  0.3995758864993782  0.3992054154020885  0.6014405414905614
  0.4067251783391346  0.4000779819591909  0.8007114445713682
  0.4016475204867035  0.5998534093230050  0.0006388378413596
  0.4008960272745282  0.5981638460826209  0.2000870729570635
  0.4025895677513048  0.6004413321092723  0.4008365274767546
  0.4046734873099953  0.6027241654736032  0.6022881047256526
  0.4012287019339960  0.5992408022181527  0.8023081797606122
  0.3963070087564147  0.7999840330112731  0.0029126661859924
  0.3998304701313370  0.8013458614374982  0.4012686418890247
  0.3967364938489183  0.8011252658269754  0.5983042054869382
  0.5963284295933459  0.0009821335147311  0.9984580343670213
  0.5996695057102339  0.0004779350942707  0.1978146263735651
  0.5991371047660420  0.0000207729176702  0.4001817893879192
  0.5995093531681075  0.0014358407649354  0.5990257545478080
  0.5995792335742105  0.0016940590048104  0.7984044658311387
  0.6000927428588153  0.2002743367645191  0.9988517638682445
  0.6002051117329440  0.2004244237870320  0.1990878841751597
  0.6002698582171477  0.2001900024532163  0.3994195571413012
  0.6007457840686733  0.2022782581317369  0.5999922125311004
  0.6011305652943711  0.2011043968543623  0.7992726623070772
  0.6008997959537526  0.4006790374729901  0.9991937671602704
  0.6004469405392332  0.4002090612714230  0.1996708775504223
  0.6003425560863823  0.3995249701881069  0.3995728973902267
  0.6008276272520410  0.4024903172450435  0.5999926803027368
  0.6045864454379575  0.4011551241021872  0.7997486122850032
  0.6000928646044710  0.5979209760057853  0.9966930879407052
  0.5999026566490455  0.5994905698258134  0.1996824436583305
  0.5971605591450138  0.6007513019560372  0.4039616799604210
  0.5982518630941372  0.6012180268661451  0.7954912668211279
  0.6006836999595333  0.8002649606853464  0.3973307941662348
  0.5978573283489070  0.8004637956335536  0.7962907407922051
  0.7990872285235705  0.0002815765259032  0.2005239246830917
  0.7992060243058416  0.9975399281557469  0.3988426039538879
  0.7990727951180062  0.0006559886096878  0.5981513201138275
  0.7987046777109449  0.0020114144939349  0.7960680346973498
  0.8003365467233495  0.2009210599726251  0.9997055586042594
  0.8002492663770963  0.2004138901911807  0.1998692655944372
  0.8001990534095991  0.2009027870182478  0.3999463731891992
  0.8010136309078031  0.2017245412280819  0.5986639060994355
  0.7997497050069053  0.1992978290413260  0.7990020459477160
  0.8012262493961471  0.4004509687656270  0.9990254139158934
  0.8010267619192248  0.4008858154006795  0.2005273208094286
  0.7997191467016470  0.4016814378312832  0.3998810255389083
  0.8037556869511497  0.4028420268917425  0.5989016997169644
  0.8025701713173420  0.3972896952641640  0.7999218044915823
  0.8000397276153721  0.5996435339756518  0.0041165484143111
  0.7983349080695826  0.5996522427355565  0.1998987074388527
  0.7947258650383316  0.6020743025474512  0.3966042975050935
  0.7883019355440108  0.6009596611727284  0.5911106175356370
  0.8024437632015526  0.7963405635024319  0.9924309107385427
  0.8997509631656538  0.8005446221624524  0.2984545864923354
  0.8002832006085369  0.7998104830162339  0.3993457748609498
  0.8031404721579483  0.8003092818600717  0.5972668466562759
  0.7878099496736090  0.8114983818486348  0.7966555871814006
  0.1992561505916615  0.8009590772080278  0.5990466129213242
  0.5989148926205885  0.5949908856092553  0.6010954694114001
