Zr Ti V  Cr W 
 1.0000000000000000
    15.5203045776677033    0.0123623473933798    0.0020430338638102
     0.0123621989531639   15.5305412365208202   -0.0005354779444938
     0.0020440238761689   -0.0005334620644981   15.5220072543039933
 Zr  Ti  V   Cr  W  
   5   2 106  10   1
Direct
  0.0008117531604130  0.7974481693363364  0.6013108184750792
  0.2009476120957429  0.5993828372920286  0.9936304748080471
  0.2012362371844623  0.5970093637962912  0.4034503666505183
  0.3775469869614581  0.2062932888603027  0.8055772103936467
  0.6003273487980292  0.1992621784513728  0.7967924903264704
  0.5994655516019964  0.1961127108083791  0.5880072444153239
  0.5993064723825428  0.5991144332491156  0.2003832500255603
  0.9991132878566448  0.0002508960414928  0.0000845826397633
  0.0009585832680053  0.9994358350655270  0.2003837095484065
  0.0002092217045178  0.9999048983435137  0.3997524156752693
  0.0000589507896600  0.0030407757188995  0.5996221916781761
  0.0001259303136631  0.2001355669544509  0.0005351510840605
  0.0002858236787491  0.2002437001219423  0.1992713283715399
  0.0006603262469529  0.1993526189751052  0.3994333091225769
  0.0009011579023654  0.1997315124944632  0.5991448942261212
  0.9980517649082625  0.2001596408349973  0.8005910054685015
  0.9995397308035566  0.3982629050608816  0.9997562740951447
  0.9984862726904266  0.3984776316990604  0.3991941631765199
  0.0012650230050395  0.3979886125487864  0.6000870056654168
  0.9999703546234620  0.4006952594864276  0.7997255006445345
  0.9951082100787102  0.5999296779427082  0.0005299004390782
  0.0006525127363058  0.5992775824997720  0.1996528530280866
  0.9971567065368060  0.5991543078064585  0.3990276682619636
  0.9991508455891600  0.5945160154799455  0.5998202563712532
  0.9992619791288846  0.5978976008707017  0.8007764697604729
  0.0025910037464683  0.8007987651996302  0.0014210371021941
  0.9995534966803609  0.7997732199158536  0.1989503437596091
  0.0008553100228355  0.8008209073167881  0.3962329257117825
  0.9993086847693868  0.7997747356241234  0.8064570826675796
  0.2012872592733979  0.0019222945831916  0.9991386523065516
  0.2007750412935329  0.0005977704216086  0.1995011972835075
  0.2007758328041323  0.0009870512027728  0.4004174887829943
  0.1992494899058004  0.9995995854550100  0.7988562004641048
  0.1995825428569548  0.1988927651046445  0.9997121614152588
  0.2002599688981601  0.2000752411032651  0.2001876198211785
  0.1993766925765488  0.1981179312155448  0.3993877131600785
  0.2008301653137816  0.1992366956627458  0.5991923943075012
  0.1869117164397373  0.1979818247742409  0.7978451213907326
  0.2012383920184186  0.3947779740194281  0.9988269128079932
  0.1982991454701742  0.3972751214515179  0.1989320631827139
  0.2001883434773736  0.3937178379297798  0.4002718871151214
  0.2007918378778921  0.3980712795730910  0.5999549010846300
  0.2005340738411837  0.3980226741709822  0.7981101621726033
  0.2007298157164248  0.6010136873549491  0.1993347878866429
  0.2023064066775824  0.5981529663895759  0.6030263828827213
  0.1993931789770527  0.6007309446959457  0.7946980294007465
  0.2021353783349913  0.8056853910540256  0.9990206639832994
  0.2003301413267879  0.8021533943852176  0.1995681825059299
  0.2043889215206720  0.8019038654301915  0.6002973128119665
  0.1992292214512611  0.8019286978298535  0.7984812080440818
  0.4017761647129037  0.0021313805675756  0.0006132021005665
  0.3999104948363201  0.0010795953660344  0.2006118184181655
  0.4004895175518522  0.0003975584438640  0.4003132259891433
  0.4004160844149522  0.0005379744205767  0.6006676423791081
  0.3997107514013388  0.9980052641656815  0.8003043960073447
  0.4019891794452222  0.2011968788308768  0.0081577442903600
  0.3990639825824903  0.2027419853059021  0.2016394763901118
  0.3998854660710232  0.2011323381731152  0.3985258038637850
  0.3992560354224593  0.2017175153209103  0.5969230077756764
  0.4025727832949808  0.3997803180392349  0.9997653645276825
  0.4002148632006402  0.4061068386458986  0.2005802328720118
  0.4024272764713694  0.3989220431993382  0.4002782787303006
  0.4012557556022505  0.4021002688457082  0.5993181851333305
  0.4017408682001611  0.4083307680498101  0.8004492306456048
  0.4063813288641014  0.6010726542206640  0.0070268557867099
  0.4064946924622893  0.6014049790635819  0.3945484462195733
  0.4012860247519684  0.6008559096307839  0.5981938239184883
  0.4003915217164697  0.6028305608826154  0.7999989325323885
  0.4019187918931232  0.8018071752027425  0.0000940389946498
  0.4023757474749078  0.8022732616878673  0.4001161389331461
  0.4005205474315481  0.7997548817725896  0.5988739010304545
  0.3990838151387362  0.7994578001980394  0.7995964025181808
  0.6015554912667846  0.9994792045983371  0.0006553755420114
  0.6000937407638534  0.0002214403808356  0.2005278243929214
  0.6005603380237466  0.0001304131512588  0.4001267976011686
  0.5999456949683697  0.9973280624453800  0.5996431093881374
  0.6003782640821569  0.9936746551136720  0.8003735881645909
  0.6001529823390732  0.2006549086772061  0.2007874901498845
  0.6008985291150286  0.2004373090082046  0.3958150659404931
  0.6009978697974617  0.4000543523007244  0.0001044747960122
  0.6005353874683675  0.3978432168293914  0.1998339514531616
  0.6013548559487555  0.4000024838064044  0.4006767922926827
  0.6015707270715362  0.4058673578352131  0.7993895382724735
  0.6025183634467833  0.6016814370597601  0.9978774466636420
  0.6020970553566107  0.6013495989387017  0.4024197494411972
  0.5999400488694414  0.6011612090344750  0.5996331168860253
  0.6007248924044561  0.6019573935855834  0.7995901173841949
  0.5989888966409290  0.8006613839250127  0.0004994159515186
  0.6012255758833673  0.8029038907967763  0.1994426129801170
  0.6004558643810124  0.8009063289990890  0.3997429742128395
  0.6014854265808574  0.7987875712780325  0.8009891871268342
  0.8007416479957850  0.0028429496426911  0.9989567822538936
  0.8005025749418337  0.9996942031390713  0.1987920687013540
  0.8005111372382196  0.0000222905305535  0.4010108492487308
  0.7997965313342629  0.0003929177107734  0.6006118040200396
  0.8002636633016103  0.9982034301892211  0.8004571368881052
  0.8005466024479356  0.2007969299553931  0.0009584680943617
  0.8008813349165025  0.2004091461222877  0.2004689199120520
  0.8012403181664991  0.2007807289219298  0.3987975766687571
  0.8011873584437985  0.2005865298478866  0.5989041236332051
  0.8040170494222829  0.2006851903388498  0.7993191420875008
  0.7998535039095797  0.4001890247018267  0.2000849078234904
  0.7999898623946514  0.3999489531434687  0.4004656297323618
  0.7999291976453233  0.4002333334220270  0.5999359994316156
  0.8002127579241064  0.4003108030089711  0.7995823264397515
  0.7995860479929972  0.5987758800197419  0.0003328668283331
  0.8020668092621474  0.6003549999938206  0.1995262037902596
  0.8000720832548243  0.6000059162165349  0.4005818904960859
  0.7992224641858043  0.5997028297127681  0.6000103905743890
  0.8004106574514431  0.6017049244987819  0.8001905283447958
  0.8002446900014040  0.7994829604366213  0.2002699282004421
  0.7962566291667387  0.8000641136557521  0.5991674076629331
  0.8009632138841833  0.8004911119111929  0.7975381914616356
  0.9998770527089900  0.9999949345213208  0.8005647030895434
  0.9995841578070794  0.3995466510535154  0.1995620113820425
  0.2002918690160922  0.0005853671762808  0.5995597662887966
  0.2023980108315981  0.8040101208191297  0.3993697780675042
  0.4002771914403200  0.8002310925792625  0.2004912545751755
  0.6010752947453120  0.2004886016039142  0.0042280783773501
  0.6005614548488940  0.4035126959518469  0.5989641103547788
  0.5992069937493866  0.7999433118523689  0.5994112694579605
  0.7997821629654235  0.3995073630445574  0.9998567684074929
  0.7993185258066311  0.8005020599441723  0.3994716393413374
  0.3923701821868739  0.5981430036383547  0.2009343562459054
