Zr Ti V  Cr W 
 1.0000000000000000
    15.5633147981762434   -0.0105082892338306    0.0011052113616143
    -0.0105224976463168   15.5390273600018674    0.0056805954645976
     0.0011054290159095    0.0056800010957864   15.5617863503600393
 Zr  Ti  V   Cr  W  
  10   1 106   6   1
Direct
  0.0082309217605020  0.1878519464024836  0.7964247630329393
  0.9968581184713003  0.5983837319880475  0.8026774351190704
  0.1928713360161620  0.0048318514355857  0.8024127320987168
  0.1967714303225379  0.8010725849372701  0.3977514376809907
  0.3975130708895622  0.9984785217134798  0.9973158130005605
  0.3965239887688169  0.7738392203236200  0.0012440839948384
  0.5984228165297198  0.2015894060079454  0.2034305327469412
  0.6100373301928578  0.4092262241309835  0.3994560672277542
  0.6007879481825842  0.8020139224303460  0.6017190527723133
  0.7936932526643797  0.5927163612292822  0.3989558776483188
  0.0001461314356234  0.9945668469283143  0.2024505819899034
  0.9976739623745411  0.0004017526750886  0.9997949788060154
  0.9986630489158675  0.9994783849247494  0.4012814327106878
  0.9991565729611180  0.9981817103478452  0.5975826031252059
  0.9894152954393961  0.9892187337626472  0.7984092935611252
  0.0013663700681320  0.1993273814866245  0.0034038339127784
  0.0019563256660746  0.2014998585930018  0.2007372427166524
  0.0027167906796710  0.1978928158138803  0.3990036645898487
  0.0028391507773979  0.1985064062530939  0.5941907439702121
  0.0007046049187207  0.3995702032162423  0.0000506186972583
  0.0011797772932603  0.4002589297967490  0.2000567109150747
  0.0039592586563598  0.3984954667889896  0.3987492489699179
  0.0022290910215346  0.3988453040719607  0.5995405398689356
  0.0005364328890727  0.3950776324229198  0.7993402322801396
  0.0037317321205295  0.5990762988921303  0.0050039411022730
  0.0003719368820063  0.5996619393803870  0.2006573389094286
  0.0022484854584162  0.5990313098585596  0.3997689331038282
  0.0007469351282436  0.5991073044362956  0.5957215093382284
  0.9982417057818290  0.7975578802515391  0.0002088720078471
  0.9983468892192126  0.7971216023460191  0.1997168141552244
  0.9943316363557948  0.7985196092955825  0.4001158541910879
  0.9999968953487778  0.7987916104170570  0.6000014589780980
  0.9991628839725846  0.8000697694027146  0.7994718798449106
  0.1916698590383631  0.0026304364742935  0.0061876940539872
  0.2015995219829872  0.0021586911805664  0.1991578703216927
  0.1990486555476003  0.0045054864222250  0.3982628366491627
  0.1985835988658471  0.0003853129618256  0.5966428118082077
  0.2010428023182563  0.2017475223996775  0.2007688480990111
  0.2006895340408460  0.2010458134184226  0.3986781303355110
  0.2071488687020301  0.2019692466540557  0.5976304616270954
  0.2095683299147060  0.2082969928473726  0.8010102793255843
  0.2001109578423163  0.4003983724932657  0.9999171040461375
  0.2010491499517748  0.4017502971828127  0.1981684365068694
  0.2005717532973769  0.3997500885943793  0.3989013099693285
  0.1997991675282288  0.4003460791247517  0.5999887209257397
  0.2018887295442012  0.4021801709391705  0.8016625798297907
  0.2011848307876904  0.5995558179607020  0.0008154088882908
  0.2013547818376125  0.5998543578037580  0.1998294664149985
  0.2008583992691036  0.5972203251207535  0.3994434493025216
  0.2019176000830659  0.5989958952645797  0.6002268870777966
  0.1934449476873806  0.8018413734538773  0.9988240437339112
  0.1998246345582622  0.8002496719302553  0.1948619524925005
  0.1979063048135210  0.8010073186135006  0.6037564955588102
  0.2004607765941699  0.7980724437738219  0.8013077997773095
  0.3996270505361882  0.0011123843047426  0.2048129708381834
  0.4003299559935786  0.0009059898594357  0.4010788087990453
  0.3979817217359444  0.0048589866651106  0.5973943416949831
  0.4022089136285430  0.0006629533565439  0.7928625408987515
  0.4001146332928514  0.2046683140410223  0.9992456215100913
  0.3960047107856597  0.2016637123750558  0.2012964907838286
  0.4003417239524298  0.2015858940351983  0.4046497689269444
  0.4026530174710263  0.2011097367557026  0.7954258306310423
  0.3999510502809568  0.4004915660607193  0.9983777381979135
  0.4009965910447059  0.4014105176066249  0.2005404225342154
  0.4002012435425088  0.4008258775992098  0.3995319450971843
  0.4007243210876600  0.3970492642414844  0.6001063442206644
  0.4019451000473030  0.4011389891864257  0.7990210475173293
  0.3993095564533104  0.6009200820922412  0.2007526922432769
  0.3976894690206460  0.6003685193230489  0.4007881337930356
  0.3984113653071845  0.5988302283733711  0.5994792199941182
  0.4007275350627811  0.5996127886252484  0.7984154479776563
  0.3999135372128430  0.8014524320398642  0.2054568484638312
  0.4011519685341274  0.8017475838835937  0.4019420056142834
  0.3993845715922362  0.8009318654530563  0.7959822310206474
  0.6044562769460291  0.0008732140643328  0.0004351040318187
  0.5996859743839316  0.9968349350268929  0.1993592889156525
  0.6003456658825709  0.0006685967206196  0.3996909430531914
  0.6003161064462402  0.0044085471227833  0.5999793440610516
  0.5997382313733071  0.9989670651311557  0.8006661131480572
  0.5994962642870613  0.1995640369257068  0.9967968200213638
  0.6017218448619639  0.1988318275327871  0.4054787673011456
  0.5967062948846280  0.2016252929586882  0.6013567927892775
  0.6008663394888794  0.2001485537094378  0.8005269780566604
  0.6034293664938150  0.4006961395575314  0.9984813150067083
  0.6020250238876503  0.4002902288151294  0.6041211743284851
  0.6009347487299662  0.4015826096170091  0.8018250008394393
  0.5992256543360083  0.5999179389646537  0.9990578338161856
  0.5989117533591239  0.6028573199666553  0.1971513866836070
  0.5900134922809469  0.6109608479860792  0.3997992723454838
  0.5968045248090237  0.5975204852215779  0.6013011807448332
  0.5984794339316942  0.6000709654809480  0.8011277156627635
  0.6052306717666052  0.7997802616831895  0.0014434072906380
  0.5996910511175423  0.8006375715186883  0.1986298405054789
  0.5998988036696236  0.8041381771176351  0.3963560691491742
  0.5991973762556296  0.7997307823607286  0.8058936127637194
  0.8013130866040529  0.0009945454315829  0.0002932893887952
  0.7987182209167745  0.0000477869506813  0.2003603412384697
  0.7995677473429388  0.9999860114989776  0.4000428474750255
  0.7998771933452570  0.0011398891807490  0.5996913832973321
  0.7960966756721809  0.9988734097935268  0.7994298124819209
  0.8015441436642774  0.1993266305540582  0.9996610770240406
  0.8018849558172918  0.1966384656670023  0.4000255812443868
  0.8010278203425348  0.1991715432048506  0.6001921385528978
  0.7984998301967366  0.1980821281930839  0.7983619662666397
  0.8024039205720866  0.3958310279003395  0.9982149472822102
  0.8035676162076342  0.4001849823352170  0.1952019291965507
  0.8118923729879858  0.3889440713212052  0.4008302889215729
  0.8024240092651248  0.3963744392541574  0.6018179569286863
  0.8002660266763111  0.3979933290217071  0.8009529193702885
  0.8012914031851794  0.7678231407753660  0.0003376082503421
  0.7994807377234923  0.6011922819581137  0.1960214427149458
  0.7998300646570893  0.5974690326837865  0.6025201320695224
  0.7943424200909740  0.5987675185390593  0.7983036173167228
  0.7996275284910904  0.7991440446025921  0.1995769195349852
  0.7995142506644651  0.8017277093306091  0.3997019014418244
  0.8035903380583894  0.7992987469202923  0.5998273621084647
  0.7989452327792881  0.7982546701734856  0.8017140273997654
  0.2010809246070852  0.2027595862237986  0.0020654758182737
  0.2039836703646080  0.6002379925034528  0.7999196509102495
  0.4010183425128400  0.5907103398771667  0.0004539697497443
  0.3950573032384909  0.8005017267797707  0.5993724932269709
  0.6011580125943887  0.4056140535453922  0.1935743974026235
  0.8039821171897261  0.1992688510240645  0.1999778140135503
  0.4011110036936241  0.2012588662363642  0.5992682871317068
