Zr Ti V  Cr W 
 1.0000000000000000
    15.5011005133204272   -0.0148465636333897   -0.0089454190152835
    -0.0148334507842457   15.5126531983508098    0.0142364834960189
    -0.0089447095597126    0.0142423131272117   15.4804803160288476
 Zr  Ti  V   Cr  W  
   5   4 101  10   4
Direct
  0.9944355062554202  0.9990032336103951  0.2006148470712708
  0.9989652349770869  0.7949276825734499  0.7997572101158149
  0.4114291761930295  0.8018499061772902  0.8132311763677338
  0.5910459482622022  0.8016209572254567  0.9919941551436924
  0.8098624389741471  0.1991806373472101  0.6016501005324267
  0.9938740356539109  0.5832843583404076  0.7959609005126165
  0.4020892675527069  0.7987684390849786  0.5946081473089984
  0.8018342039995486  0.1957061989738958  0.8096748915278092
  0.8178735841503774  0.4069392299661483  0.8018233138218662
  0.9993760138215185  0.0022586290298940  0.9957323200066184
  0.0013456317433289  0.9989822901218192  0.4040624043572430
  0.0011932112375668  0.0017215602524731  0.5999031167175145
  0.9998299504946220  0.0020830564333781  0.7990077051920390
  0.0003460140986398  0.2024716415894788  0.9988694860073385
  0.0018012845734779  0.2021343248663955  0.4015896444197205
  0.0051209076165102  0.1983652145955669  0.7957907533956348
  0.9985243461350251  0.3991727662906907  0.9984485728062787
  0.0003656612351555  0.3991461900182458  0.1994321346860873
  0.0016099297243145  0.3940111761871244  0.5981198702160293
  0.0064479941028813  0.3925785719173829  0.7988203948600388
  0.9977212273407874  0.5973016905881966  0.0018485248735567
  0.9990904156882624  0.5963398268851712  0.1998629989142459
  0.9969520890383232  0.5975945506512814  0.4002586187595586
  0.0003452640313772  0.5966056253106841  0.5970528938149799
  0.9990113609655975  0.7977271609639929  0.0032754979881701
  0.0004495361741775  0.7979655262556496  0.4006218848664762
  0.0015435953809371  0.7995734842002148  0.5964238906923340
  0.1966291983622565  0.9993194257912823  0.9995934341785112
  0.2036736727152790  0.9986875056572462  0.1983189645923983
  0.2007508641118743  0.9991491361443062  0.4000537950580688
  0.2015794729510255  0.9976026687348454  0.6007471409948847
  0.2037214035941305  0.9984361771000310  0.8004062155133175
  0.1997540644119450  0.1981747416904816  0.9992749424410459
  0.2011411506804214  0.1999012175657005  0.3990878125504336
  0.2011371801534889  0.1992714082645785  0.5995562992885799
  0.2036956384880381  0.1983358712413557  0.8004310328733074
  0.1981436596073811  0.4000523384279100  0.9990202376498132
  0.1998637056122665  0.3997518582136846  0.1993394088445037
  0.2005096974504037  0.4003419186317630  0.3994046081053674
  0.2007251850934886  0.4003409258979986  0.5993153480543176
  0.2022376888396125  0.3994581181534307  0.7992502757294163
  0.1962799860322217  0.5997772026417254  0.9982256292432127
  0.1994222488554034  0.5994669988722865  0.2013518089718835
  0.1991488576881285  0.5998455408784139  0.4005914901359017
  0.1990557837901947  0.5998197315124363  0.6002248671817113
  0.2018468668103114  0.5991979814274394  0.7989584646217467
  0.1954365089873830  0.7994146208697751  0.0011199720250067
  0.1985201667979036  0.7981559204011441  0.2014448057546771
  0.1992441945004768  0.7987122286482087  0.4006009345118784
  0.2033855381787002  0.7991594238192938  0.7995519605567522
  0.4010794672703283  0.0008449743571564  0.2023345103493396
  0.4014472245605027  0.0003312487733315  0.4002800248013151
  0.4013296334613465  0.0021178688248247  0.5999056529198938
  0.4026104789634296  0.0042996267880135  0.7979733851699660
  0.3992035609777644  0.1695496521961882  0.0010882844520003
  0.4000868794493433  0.2010909864152690  0.3998046480802911
  0.4000868818951472  0.2006979013560535  0.5986699608132303
  0.4002632467352540  0.1992384026710782  0.8013742565060181
  0.3969751864090547  0.4004313610059453  0.0010820929295168
  0.3998735158840790  0.4005449301878772  0.2000951579124327
  0.3986436554373958  0.3998000685328677  0.5984667873539471
  0.4002055959595689  0.3986455146780212  0.7997841871290655
  0.3972486931841730  0.5973312173541854  0.0025392738412080
  0.3998316581211018  0.5990076046919284  0.2022421294345760
  0.4007473302509980  0.5991333410839129  0.4005764828175381
  0.4002927062486165  0.5985503547071488  0.5997833390166022
  0.3878950751832338  0.7952392895687842  0.0134726822182584
  0.3992140557486465  0.8009805449117475  0.2045742284561550
  0.3999065778693320  0.7991167102777484  0.3994695979442289
  0.5999362071659616  0.0029688471582774  0.1977821284301737
  0.6006166530146871  0.0018527962427126  0.4015745130424122
  0.6022700191303815  0.0021984142536904  0.6003123133170472
  0.6022257340363847  0.0049590041392161  0.7990487938910937
  0.6003124793364706  0.2030467271566363  0.9996804516350470
  0.5982224477791330  0.2030972166780733  0.1989928996794582
  0.6007263268034038  0.2022634607724192  0.4000205670032382
  0.6009058929516216  0.2014990036447073  0.5995038948167708
  0.6002783332999434  0.2060881039954787  0.7996630687789007
  0.6005642016890913  0.4010403448690513  0.9957571035288976
  0.5993268656910561  0.3997363250582978  0.1991705954032440
  0.5998025576529415  0.4004871083801661  0.4004852608419229
  0.6013840489368613  0.4006100909753050  0.6036870081672497
  0.5993484011491824  0.5975030563437896  0.9988259916600445
  0.5981886027651607  0.6001856442072242  0.1993621667302254
  0.6027241276485866  0.5992968181902779  0.4015457736988231
  0.6005068460469221  0.6007732616719343  0.6001432580636624
  0.6004918843026043  0.5949277061467624  0.7975675459496738
  0.5977716555258958  0.8005354638687575  0.2009067934874729
  0.6005582023318499  0.8014726111399822  0.4000287304720331
  0.6033886503897604  0.8013361703696520  0.5976373938348395
  0.6098970380589888  0.8001913568190128  0.7891830290134912
  0.7991370909521489  0.9997350473969095  0.0036971406378787
  0.7995213278375290  0.9986609145676882  0.3958054443341418
  0.8010604506979780  0.9942026886830984  0.5985562890206905
  0.7998164867927122  0.9978460963391456  0.8013819182966220
  0.8009430765582306  0.2024721055811606  0.0026109567944839
  0.8011067373386058  0.2028051523374391  0.3961853829634927
  0.7997050356021962  0.4028605627134962  0.0033738160295083
  0.7995983852385815  0.4021398154733783  0.1994989036803934
  0.8004114788644802  0.4054730183868212  0.3983587060689870
  0.8010269609357923  0.4046349606808153  0.5969329869154767
  0.7977454056636692  0.6034836957697148  0.0033861464721114
  0.7987477609348650  0.6014670747230365  0.2037652438994630
  0.8004253351364961  0.6029244563546194  0.5949802826959872
  0.7968054054191476  0.6024894094822222  0.7994885881874958
  0.8018375343561820  0.7998648947385114  0.9994652991314766
  0.7976887085103332  0.8014048677821161  0.1992479542489351
  0.8011399322038378  0.7957267522700672  0.4002994095625075
  0.8032181286950824  0.7998739014605587  0.5987050562536290
  0.7983070377793448  0.8000254118267245  0.8004774750102762
  0.0008131590297164  0.2039880467918245  0.1995477980367641
  0.0006643736130692  0.4001121337150157  0.3978760014869827
  0.0002155735524378  0.7933382701464394  0.2013391522636792
  0.2010742583127018  0.1998552265256966  0.1996592231061394
  0.1989536550832486  0.7995481720063145  0.5996448024847332
  0.3999301753988970  0.2004546555136354  0.2000564679571964
  0.4007291437799255  0.4001434317028047  0.3999467261518797
  0.3994555140218134  0.5950033989042249  0.8002953597360495
  0.5990342197533466  0.0076550367431876  0.9988355520344365
  0.7993268000792340  0.2022182815050383  0.1997016259607686
  0.0093512647861616  0.1978543436170882  0.5991440432017913
  0.5926947129874993  0.4004178899893887  0.7992313775164315
  0.7951797388811035  0.9977393925791973  0.2007749430134588
  0.7994929351471888  0.6023601742947599  0.3980362795321959
