Zr Ti V  Cr W 
 1.0000000000000000
    12.6123060246146821   -0.0368126948996922   -4.4530651834682597
    -6.3036619766939070   10.9047906797021934   -4.3563236811892425
    -0.0123797559937588    0.0973503794640193   13.3239852141866635
 Zr  Ti  V   Cr  W  
  11  18  73  14   8
Direct
  0.8373374770832221  0.0070934589936802  0.8346306177878220
  0.9857761871237847  0.8015627938877783  0.3839970228569132
  0.1993529314173235  0.0069439337523096  0.6030334599540598
  0.1984393370722964  0.2010401874968034  0.9983359732566348
  0.1897042824771148  0.5901335352298296  0.5830119776156072
  0.1999693443786468  0.7916020897082049  0.3891865065295171
  0.4010800816761081  0.2011336280950531  0.2022557582352978
  0.3967130064110079  0.7916068037533661  0.2027990698187375
  0.4153381320972401  0.8045913655020580  0.7978564359141994
  0.6021659946440708  0.4050588783863601  0.0007746817586827
  0.7980480996570660  0.8052750585223399  0.6237657542255276
  0.9929196701395804  0.9955748403051203  0.2002013249620028
  0.0013119772368104  0.2041068595710333  0.7986461105991496
  0.9865101666675251  0.5887109278935911  0.3928010265340171
  0.1925077100727733  0.3880811642839672  0.3898925674233185
  0.1967412407844330  0.4045221656360052  0.8022832175276082
  0.4173650756679298  0.0094793404252328  0.6077970758154762
  0.4143601526258428  0.2000160271417183  0.9924801927678958
  0.3936508485426266  0.5908796125023837  0.3953572653735909
  0.6068699031976199  0.0115062728105332  0.0228911874532988
  0.6059791972990457  0.0111557778864614  0.3997055545006205
  0.5960450635977452  0.0083354388414315  0.7988037814219048
  0.6077647477786657  0.4064280997696526  0.2169939479172469
  0.6007525943775442  0.5949852917412786  0.6021593160431614
  0.6405454989893142  0.7932273966214338  0.8072668471994362
  0.7985423435743891  0.2167823820999499  0.0101264388129074
  0.7921364833683975  0.2075675012290225  0.7918605917594813
  0.7961111057687447  0.3950296430084616  0.3994786365320224
  0.9555185548396130  0.9368167668960921  0.9529358671693319
  0.9946365725868633  0.0154648367964261  0.4062261797785957
  0.9867101358606924  0.0050256926010677  0.5954943988678921
  0.0264924914949258  0.9999927103328720  0.7887938527926156
  0.9984052568174624  0.2090503013765414  0.0151969077127192
  0.9940155468286596  0.1946292140440835  0.3945953266284847
  0.9933849858966809  0.2004993335276339  0.5929411497711194
  0.9933746562658150  0.4040779015778877  0.9967806151457721
  0.9828624660308796  0.3783671166982061  0.3813307467941980
  0.9957926397618805  0.3968261206075830  0.6017795525250837
  0.9960564860019739  0.6025634842256375  0.9903419767475303
  0.9812006709143598  0.5832848073131994  0.1780795612056627
  0.9979287222190778  0.5986900812677742  0.6142481978944198
  0.9905251748043651  0.7900916963911129  0.1743970814002917
  0.0033018811716425  0.7891894062140830  0.8076686039891185
  0.1959248741403455  0.9764826732081328  0.9936306127107547
  0.1957422316816380  0.9909599263789878  0.1938988014648581
  0.1974991320207443  0.0054983767862231  0.3852114650868202
  0.2111272237927112  0.9893984588315163  0.8080432397782302
  0.2013987523674483  0.1960407187995346  0.4022002483059814
  0.1968969299747982  0.2085546248363901  0.5994121824081536
  0.2096522559994687  0.2054981400772190  0.7949009964328904
  0.1972852331759079  0.4127560105898329  0.0062816039827223
  0.1861634317879397  0.3948536113558141  0.1892195182884705
  0.1886969176870640  0.5875763071296657  0.9866520033439528
  0.1853365795969808  0.5908286271358296  0.1835217524938162
  0.1715414080203763  0.5687095071319490  0.3567163988700928
  0.1950414439030058  0.6005720126427544  0.8030803540822031
  0.1957092202253893  0.7914829377983951  0.9980024114040553
  0.1893280521268278  0.7984828083389069  0.1862098785952231
  0.2050413862371862  0.8083385858647066  0.6181756138887372
  0.1980431225074958  0.7921227594204591  0.8053086524021551
  0.3955604489474794  0.9909341084080908  0.0021815789368339
  0.4030499688470084  0.9979005542629857  0.2011249499627237
  0.3976219718829223  0.0076986202136929  0.3932508152989607
  0.4002753982638149  0.1969213132865829  0.4034338931986324
  0.4058889272337755  0.2017009169715746  0.7925481967779612
  0.3932903963380520  0.4152483340999325  0.9967159695538199
  0.4007047264706307  0.4179970186134400  0.2091491455618024
  0.4024188687235649  0.3929872951822813  0.4056815332197412
  0.3987252564258957  0.4013212400189426  0.7951210495111366
  0.3967440549786742  0.5861487311339042  0.1881507151039416
  0.4073552336980203  0.5847554622569010  0.6044779301266089
  0.3968885637908495  0.5886076191168003  0.8007819109681287
  0.4130379036132422  0.8037304746848372  0.4110666640654252
  0.3985827181188913  0.7900401062596732  0.5824393007733921
  0.6047508093534114  0.9982755754236818  0.5962584956610719
  0.6030727194058452  0.1890501444950513  0.1971716155366082
  0.6009679398123556  0.2082644038771459  0.4019477672158865
  0.6051888897750295  0.2044842962813534  0.5993301915684015
  0.6080074973988437  0.2198420530154312  0.8093891112656770
  0.6007398311084218  0.3965638189471524  0.5978173021949809
  0.6066331033594737  0.4044376472531757  0.7931166749322215
  0.5944554925904502  0.6058730179761725  0.9989272342782872
  0.5970477562113988  0.6046009981665957  0.1960372146942204
  0.5949994783114027  0.5863645966106231  0.3906270680986696
  0.5904186291679746  0.5821119666669105  0.7995293062887349
  0.6059643895245781  0.7954617246030600  0.0060716384383857
  0.5977777827455558  0.7956239779636076  0.3934923877411539
  0.5801535423056395  0.8004967358325588  0.5911344095429487
  0.7980734537571744  0.0016861736464524  0.3941311477377278
  0.7939738525649326  0.0096129798809180  0.5886192908790022
  0.8050909114032736  0.2025588212719233  0.2124207669841771
  0.7958640750086369  0.1957580548543368  0.3996633566135215
  0.8078707739695167  0.2123710794341520  0.6016142063646724
  0.7979686195919402  0.3933020021835898  0.1938281040092109
  0.8014120900972703  0.3982665002102138  0.6047160904140073
  0.8030882786738898  0.4080788579130337  0.7990627131733572
  0.7975149013942345  0.5962855552972638  0.9942787889912008
  0.7947839504030686  0.5979148986030015  0.1990570326711272
  0.7971456110656920  0.6072122845200889  0.4041231969271987
  0.8024231789649636  0.6036133177855937  0.8013580164045353
  0.7985018631332471  0.7892938311581107  0.9982267065010004
  0.7889662577855867  0.8021872213944790  0.1942989840544675
  0.9938420184765597  0.1956836922040857  0.1946553634330861
  0.9938778204142187  0.3972201678271085  0.1953093423163243
  0.9954502828204990  0.4090202178660037  0.7990605467990609
  0.9995979144803215  0.5935825521006245  0.8004897906276693
  0.9978096868768392  0.7890219834875996  0.9988452793970723
  0.4015195863604960  0.0117628628054098  0.8091841267740970
  0.4006481161057664  0.3987322135451182  0.5984672575994817
  0.4016235463011303  0.5994807079524750  0.9969835288122348
  0.6029466913010194  0.9956148981472652  0.2008490480017203
  0.6042522295122595  0.2057763355042496  0.0163944789076386
  0.6003551985321149  0.4022597269875174  0.4122803623315599
  0.6025439036597490  0.7977539758141853  0.1937157762928778
  0.7952095892905219  0.9989741867113853  0.2051994101707266
  0.8088117720131278  0.4116635442207425  0.9971250414377081
  0.0022245121884846  0.7960196952377701  0.6076748961756335
  0.1867755776101141  0.1947568721022508  0.2044815907134563
  0.1978709831347606  0.3928602776239603  0.5975138887727185
  0.4038979722434071  0.2074293480115721  0.5981921135733780
  0.4037379868091763  0.7947110496432407  0.0004743176432356
  0.8076679316990177  0.0077452469534096  0.0226098395602120
  0.7994869251934745  0.5863190189171146  0.5962361953501161
  0.7871750395133897  0.8012302858914337  0.3961083730010525
