Zr Ti V  Cr W 
 1.0000000000000000
    15.4805872964875064    0.0164407112200041    0.0035989963029214
     0.0164446277914183   15.4746249029866600    0.0001853387473097
     0.0035966273084505    0.0001816893159112   15.4646802772830902
 Zr  Ti  V   Cr  W  
   3   5 107   7   2
Direct
  0.2031726185902110  0.5992548351805553  0.6021114436492757
  0.4055628237554464  0.5895125530166646  0.7988792449299449
  0.3898335813732355  0.8089875287140400  0.1993506676066469
  0.1653659067700100  0.2332507901633612  0.8004938356512573
  0.2128953305946581  0.9873633422144470  0.2037175448164894
  0.3994176118186653  0.2018016229441419  0.6014381037853744
  0.5968210373532102  0.9969873915687778  0.0007787495962839
  0.5833196527274787  0.4072656426082787  0.7976226084864595
  0.0008080297963652  0.0000436710635239  0.0018612624612675
  0.9999695539400262  0.9989262547005204  0.2002337525733282
  0.9976758325747986  0.0004391344853131  0.4004789504572743
  0.9997850258257546  0.9994169267203271  0.6006876044922046
  0.9997763716598758  0.9999424401710769  0.7994423447481737
  0.9993654598767234  0.2006483179461480  0.9993234213219142
  0.0018366117950155  0.1978156390996000  0.1996275454347322
  0.9997099808066453  0.1997422982175976  0.3990714076682907
  0.9970931219641588  0.1956695972433276  0.8009978479533485
  0.0006124739898128  0.3982742119167073  0.0037074712558764
  0.9999911423851991  0.3992190614524330  0.2015768830545847
  0.9996010052758473  0.3986348821313195  0.4012440977863895
  0.0001725720959922  0.3994765418658011  0.5976548790522253
  0.9957367194925643  0.5982104574742225  0.0001736811532818
  0.9990520402760533  0.5992692861126716  0.2014901816277445
  0.9982710590203587  0.6009988634940134  0.3993529075888279
  0.9962003433505292  0.5984043260481884  0.6012090245971180
  0.0000888256754664  0.6033329550044444  0.8000356403063508
  0.0005195230289563  0.8014355645010441  0.0006155160730186
  0.9974048401714701  0.7996912496627664  0.2003558685354956
  0.0001642133734332  0.7999857627557637  0.4008993700417958
  0.0008930126944417  0.8001512368394955  0.6001648708197499
  0.9995945022965796  0.8008892153711877  0.8005526092518109
  0.2006899380077830  0.9991623446158154  0.9983267601605379
  0.2000385263705857  0.9996533309883372  0.4028814783134519
  0.2003309180282411  0.0015929654047663  0.6004070532745844
  0.2002960733580059  0.9975719700448317  0.7999098779804211
  0.1998126698322785  0.1986742188813250  0.0035304870927335
  0.2015851088054119  0.2002566106430086  0.2001712037401227
  0.1989027079420435  0.1981390777487777  0.3996871987061069
  0.1982718620506544  0.3993672998507476  0.0002960644665093
  0.2006804663595228  0.3989085196625267  0.2011608472676766
  0.2004691984339717  0.4001461536435214  0.4007881719147009
  0.1979384847183092  0.3935269878476310  0.6017299331702609
  0.1984037682684068  0.4005655070645918  0.8007373716505491
  0.1999198278784015  0.5991141798365753  0.0016077888341395
  0.1983869435326908  0.5972857639795908  0.1996692856563340
  0.1990269699817861  0.6000568982351910  0.3968861599893171
  0.1949707566487326  0.5989272230351539  0.8066943919516320
  0.1983407172021514  0.7979972063089228  0.0003336499906994
  0.1905069857898936  0.7926788340904862  0.1998687762858836
  0.1995497537012572  0.8006433004006561  0.4003075964098062
  0.2000093950373671  0.8037325518341147  0.6009627726056905
  0.2003693650197364  0.7994656401061043  0.8001244793126323
  0.3975839760043626  0.0023540571918153  0.9998693452544196
  0.4076907342559790  0.0101984216251726  0.2000258954234035
  0.4015890613644379  0.0022501519684903  0.4012463860555360
  0.3990851119782202  0.0003753544382625  0.7990037173181460
  0.4006243577134969  0.2030229173514853  0.1998130996080571
  0.4000699868767803  0.2001286424371517  0.3993976511260868
  0.4011703179307299  0.1960887003629053  0.8030487442053902
  0.3986587870276163  0.3994170117419810  0.0009681205355472
  0.3994839663697054  0.4002946386575352  0.2008329552810349
  0.3987005095687596  0.3996027493725462  0.4004711668747225
  0.3984516062353105  0.4016362883088186  0.6000911594498163
  0.3898799546456246  0.3873035339865807  0.8002408278543608
  0.4005062505199730  0.5995788540173697  0.0045632790506311
  0.4011426565157404  0.6008545168895881  0.3982200194398176
  0.4064731493620343  0.6004493539316105  0.5932021494344247
  0.3992019966374698  0.7984841439292212  0.9944394018403874
  0.3997411125518637  0.8011408448715618  0.4039486452154646
  0.4001547820626271  0.8006054604528237  0.6011098678159937
  0.3990997512814881  0.8011628532055181  0.7993481234612353
  0.6018996091318477  0.0018554008342813  0.2020372544095617
  0.6042308444464560  0.0011265053872825  0.4013597043262433
  0.5990612246889959  0.0005741969845721  0.6001773190276881
  0.6000577675243812  0.0008797499875468  0.7984873801915312
  0.6006618751428873  0.2027767486346648  0.0004280929182778
  0.6003881221485233  0.2021863257371396  0.1996083877585149
  0.5995169266453367  0.2010247898770220  0.4000877937997414
  0.6002495607603062  0.2016484412219691  0.6008829619073972
  0.5991285200681917  0.1987107792263448  0.8012804587392746
  0.5974270339884717  0.4009240753412082  0.0009566849664946
  0.5982140922433591  0.4012614756046795  0.2008330827212390
  0.5990667693718347  0.4016060515631673  0.4009696288291843
  0.5992164847198800  0.4011491682537684  0.5989548675429153
  0.6049187571305119  0.6015907181929370  0.0007855268133314
  0.5995385226685350  0.6010726631331756  0.2011391668780776
  0.6010443184390593  0.6015924852339538  0.3992932598069759
  0.6035729527569990  0.6022828984139140  0.6000643012973053
  0.5982702020579052  0.8002284572987185  0.0008652068609438
  0.5996115580541808  0.8012021871256390  0.2002779946866194
  0.5980956719853943  0.8008920905514386  0.4005078880597774
  0.5991609872449264  0.8013590799879574  0.5999402497951678
  0.6002154667552692  0.8030972226740792  0.7990217375141787
  0.8007067689671219  0.0008414985872988  0.2032383985102780
  0.8006106135120762  0.0017192765813781  0.5970158981473427
  0.7993289094322724  0.0010655447621722  0.8001574334055445
  0.7995847901975739  0.2008312027023247  0.0006161791967495
  0.7996649217368983  0.2011350955034458  0.1986086721296677
  0.8001883518938947  0.1973684339863974  0.4000392903766372
  0.7984981856432125  0.2014054120077607  0.6014744390409501
  0.7987998022331910  0.2024684716923542  0.8013417146071764
  0.7996566349046481  0.4038245402727590  0.9982291284089135
  0.7989165309630709  0.3996268919042355  0.2017179325533711
  0.7990945257189794  0.3997784404342943  0.4003780896043700
  0.8001882213191485  0.4003123208796060  0.6022209097822734
  0.8025416945274496  0.4005525525241624  0.7992846468832601
  0.7994921066760607  0.6006577297961770  0.1971678776613030
  0.7992135412659346  0.6018955623778319  0.3992076052581466
  0.7999525290674445  0.6005979341699957  0.6003339175872828
  0.8025821072136936  0.6004231245887125  0.8045311782530030
  0.8000892530743156  0.7985349840915119  0.0001683833685378
  0.7984526244321066  0.8011131869463111  0.2002189155208011
  0.8003323429504193  0.8047799986212700  0.4000726687796003
  0.7990508311481531  0.8001576637173657  0.6017424425246470
  0.7999479627810242  0.8032866795071585  0.8005078850449777
  0.9987679301610320  0.1994158088871979  0.6002482126008345
  0.1969064428025571  0.1985440054308995  0.5985982927719294
  0.4000966205257859  0.9996945069222366  0.6000841989228435
  0.3997692125102214  0.2004941604090372  0.0009552472850942
  0.3998456731556893  0.5984852135456488  0.2001986268166258
  0.6077855295361091  0.6068797526707121  0.8005316420744333
  0.8020806662321056  0.0006059457220418  0.0010941696162608
  0.8001826998482996  0.0012317754388183  0.4015113955311782
  0.8010382243371045  0.6008415944817561  0.0022216896596560
