Zr Ti V  Cr W 
 1.0000000000000000
    14.5389912424876915   -0.0374494556866657   -0.0589183043242261
    -0.0374453500442430   14.6354780942986213    0.0461660729105062
    -0.0592018380882507    0.0471780306618269   14.7165872119283581
 Zr  Ti  V   Cr  W  
  30   9  50   9  26
Selective dynamics
Cartesian
 -1.0456240013718174  0.6543203683536482  2.8987720596799313   T   T   T
  1.1660481479341285 -0.5727522740701056  5.9252796432321233   T   T   T
 -0.5102378207618772 -0.5782532762662667 12.1432381142139736   T   T   T
  0.7964372146455940  3.6320343646858073  2.8109773607316542   T   T   T
 -0.5154944356524866  2.8147180233599869  6.0508925785008332   T   T   T
  0.6608498248591488  2.9185550806116991 12.5025247199618210   T   T   T
 -1.0940853583506700  6.1693585634139643 11.6868437145867663   T   T   T
 -0.5201394145587210  9.7443583035888750 11.9070612205632997   T   T   T
 -0.0351085226288085 11.9588056043967512  3.4837666808907537   T   T   T
  3.7357027656521078  2.3738411599023341 -0.3215076907170172   T   T   T
  3.3752927102520727  3.2706797855701724 10.6433429360266683   T   T   T
  2.6477323634021612  9.6408394273597242  2.9342035639524937   T   T   T
  6.0283957700746837 -0.4486203624178701 -0.5418007950106491   T   T   T
  5.6493449680400918  7.6572052596023346  3.5490955569224427   T   T   T
  6.2763293934787550 10.1936111557891884  6.2740855387988494   T   T   T
  4.5198304795135646  9.6678609588944830  9.5607360873611249   T   T   T
  5.6616591101262133 11.8632221499613486  2.9423326712831250   T   T   T
  8.9322193323754995  0.7469916647854659  6.3351743628340218   T   T   T
  8.8785379720422792  2.2992991668111573  9.4518822693162257   T   T   T
  9.0754583253771326  2.3432605719363337 12.7423678311670106   T   T   T
  8.3439391177200264  5.5170725066692707  2.3052821593491157   T   T   T
  8.2396524762491712  8.3509029953787905 -0.3585692593728628   T   T   T
  8.6360027241047206 12.0865389815433630  0.0014507146368800   T   T   T
  9.5725500963563217 11.8848322370449004  6.4462103142082379   T   T   T
  7.6136102090578959 10.8853804002878611 11.7458114540061231   T   T   T
 12.1400362236437367 -0.4065675925416846  5.6367038053858192   T   T   T
 12.1113482156514092  2.5338502159333363 10.9094536828545845   T   T   T
 11.0365727307546138  7.9417503815926480  2.1180262983230200   T   T   T
 10.5174981190583434  8.2649424423817521 11.1532282923638153   T   T   T
 11.3460411451432606 12.2562642851736570  2.4062704621639157   T   T   T
  0.1294774844525461  7.0011776741374003  2.4402787637650398   T   T   T
  2.9798284478004597  2.6835289363576567  5.3024305323839283   T   T   T
  3.2268689215826383  8.5175768041337978  6.3225106509635927   T   T   T
  5.8558486478543621  1.7176373878003928 11.3040377644489407   T   T   T
  5.4408843289917082  6.0779683463420131  0.2884098676136544   T   T   T
  9.3442199373764883  8.5243834106353109  7.6518736775884966   T   T   T
 11.1765136243061871 -0.6074981905782532  9.1594963694222500   T   T   T
 11.4808128932261191  9.8287216284374868 -0.5051155621987796   T   T   T
 13.0383310560960570  9.0263113982688985  8.5202256749867384   T   T   T
 -0.0039499251585771 -0.1858096540633100  8.5643584630251830   T   T   T
 -0.0050893828764885  3.4861564327113870  9.1564688442061666   T   T   T
  0.9169670498056630  6.2145816079936296  7.7037937427735903   T   T   T
  1.0986613027819119  9.6810668300755420  0.3400746325825657   T   T   T
 -0.8989754018440471  9.5688863684063623  1.8969535813629337   T   T   T
  0.1706312877743658  9.2519758025036118  5.6919987155057363   T   T   T
  1.3803122320899677  9.2161395857426296  9.2620880320142458   T   T   T
  1.6326774632707790 12.1495674961839875 13.0540481555585526   T   T   T
  1.8734779549306431  0.4753277837352046  2.5102269077809582   T   T   T
  3.8046233089694277  0.6627156152543848  7.9899901208840038   T   T   T
  3.9154980097536316  2.1680370913337139  2.9710599068661545   T   T   T
  3.6340120429279774  5.6006915937029111  3.5009016128179304   T   T   T
  2.7851807295742481  7.9211090332111160 -0.5550251189626991   T   T   T
  2.2385938066894036  6.9098299537526966 12.5046602522810044   T   T   T
  2.9434052352987563  9.9897023659095652 12.5334734024261092   T   T   T
  3.4844568133044569 11.9666509896494286  0.1346365141104528   T   T   T
  3.5352754889864242 12.1907508847616395  7.4958395851509430   T   T   T
  2.0665208587182171 12.4075268984656812 10.4037803903951023   T   T   T
  5.8650089804298702  0.6569759348140263  2.5468999301872643   T   T   T
  5.7202861434120553  1.2422270725688616  5.1865238723087295   T   T   T
  6.9669248753325652  2.6390638636628032 -0.0790087809121598   T   T   T
  5.9403817801333565  3.1973185990017785  6.7291742863703732   T   T   T
  5.7362702040203137  4.1627302160194333  8.8349759808724535   T   T   T
  5.9410452273150760  7.1016189916580217  8.2856787643335092   T   T   T
  4.8625805587845514  6.4967136580774305 11.2422758528990485   T   T   T
  4.7467251757966391  9.1317908877137057  0.6851102384071396   T   T   T
  6.0016302281005975 13.2441431877633331  6.3179069831214028   T   T   T
  9.6246097645367268  0.2151414465428852 -0.1860696183704978   T   T   T
  8.0953515090661909 -0.0084670030435798  1.7213473580164169   T   T   T
  8.4975932813904898 -1.1310194566488336 11.2947153274537495   T   T   T
  7.9537524618698443  2.2797672866941903  3.1694564156907576   T   T   T
  8.5287488177538133  4.0728850452835648  5.1621360061227373   T   T   T
  8.2083045590994903  5.2323306929986524  7.5341829465455126   T   T   T
  7.9126043966579926  5.7168674780894007 10.0296143195145646   T   T   T
  8.5681007563371860 10.4787324867028762  3.1593595928514637   T   T   T
  9.2672816754413851  8.3777511550859902  4.8497705618744789   T   T   T
  6.9846043642194173  8.1781852878005488 10.6407643585915839   T   T   T
  8.8953788261985487 13.3731953197501170  3.7858807158277168   T   T   T
  7.7055748218526805 10.4717186407940623  8.9621632613252569   T   T   T
 12.7119858396206649 -0.5484682379450733  0.3459154376022072   T   T   T
 12.0217034618624190  1.9035063464946711 -0.0329957388314203   T   T   T
 10.8574889857369055  2.9384719201460183  3.7043781117215038   T   T   T
 10.6136634908971264  3.4533570933516899  6.4059065306813006   T   T   T
 10.7953878308313183  5.6157438847292704 -0.6581205454145509   T   T   T
 11.9140746412302345  4.3132836249123363  1.6017293362244527   T   T   T
 12.7705628955749404  5.9581591931168409  5.1300680532561289   T   T   T
 11.5190986702872724  5.6263199039204839  8.9257145706388208   T   T   T
 11.8373001532647510  9.7126420547372376  5.3601485913890325   T   T   T
 13.0871507137819112 11.6857565445164386  7.0521612789806252   T   T   T
 11.3738827953232029 11.8210622901779878 11.7039912175521863   T   T   T
 -0.6536235232500287  3.7277952208178924  0.3202800604607434   T   T   T
  3.7051362501567162 -0.2617853670310976  1.2861093878598153   T   T   T
  2.6002174411095282  5.6600672930935110 12.5744245816480458   T   T   T
  2.6885555082320889 12.5383068144449972  2.6690751861862143   T   T   T
  4.3394205957585807 -0.2877110280227291 10.9590139335753154   T   T   T
  5.9478503585644082  3.1883310290017852  1.8901355102788484   T   T   T
  6.4953769022202446  5.8719689464681393  6.2416146224890490   T   T   T
  7.5153942597379491  6.4998807418803137 12.2105428084279932   T   T   T
 11.3351800104551668 12.4745531244855350 -0.8949019550701235   T   T   T
  1.1139582593461608 -1.2119073061979806  0.5525603214740396   T   T   T
  0.3541695154153067  1.3325478663202415  0.2392200519450909   T   T   T
  1.5002627854652015  5.5094019054809449  5.2542723597461700   T   T   T
 -0.8387897576113482 11.6204658980082254  0.0239706836038959   T   T   T
  1.1432093735302788 11.0750640444727733  7.5257463949909633   T   T   T
 -1.0747196676951358 11.7354518396550720  9.7237845126007887   T   T   T
  3.7799651780192867 -0.3303425268955811  4.3931685787962929   T   T   T
  2.6626503202320602 -0.0992234583052215 13.1306793234432551   T   T   T
  2.3921734054090251  3.7751162130475810  7.8286819287012621   T   T   T
  4.0493120367320623  5.3398201088409829  6.4782477926386504   T   T   T
  3.4055810581038122  6.4262176478829396  9.0167748866968935   T   T   T
  2.9771745171034794 11.5776723096750356  5.1684832737519066   T   T   T
  6.2617073548621933  0.7409901916658085  8.6662887753926050   T   T   T
  5.7706434879819684  4.0836623694654008  4.2648141711782799   T   T   T
  5.2081405005596180  8.7355006351018325 12.6399254276109225   T   T   T
  5.9767216229302118 10.9808798911293195 -0.5996108262685910   T   T   T
  5.3727659035401159 12.6265178286313429  9.3853007828686863   T   T   T
  4.4791801698224623 12.0317088782696562 12.1133870287562342   T   T   T
  8.0495826618717494 -1.4208428410392537  8.7204196202036304   T   T   T
  9.5734292837771182  2.7749591360671033  0.9807914073762896   T   T   T
  8.2920018921979448  4.8190843432808101 -0.5882647394325655   T   T   T
 10.5310642673634227  0.6059810670179787  2.4989880642392110   T   T   T
 11.1392844552824233  0.1438946459990876 12.5135966156237384   T   T   T
 11.8716147080520376  1.8651092029076735  7.9991604788697392   T   T   T
 10.0098026120111445  4.8978088024091546 11.5525931000315722   T   T   T
 10.2998944515292266 11.3403198796588089  9.3587908611306769   T   T   T
