Zr Ti V  Cr W 
 1.0000000000000000
    15.4244097105604929   -0.0012107223225386   -0.0042394490092486
    -0.0012099076426666   15.4412294863263000   -0.0024734284807045
    -0.0042424892746054   -0.0024736538270091   15.4407019588637713
 Zr  Ti  V   Cr  W  
   1   3 110   3   7
Direct
  0.4026355007001881  0.4045997608780667  0.1974259176887999
  0.0005454378878520  0.4000808979841548  0.0004636797261399
  0.1987125705408572  0.9964869976338421  0.4021755843005895
  0.7992721999062000  0.5995609184788272  0.2120076977457541
  0.9979168894970699  0.0006567388262320  0.0002070478815634
  0.9999638627386284  0.9998201851652175  0.2004936068275666
  0.9974351661032874  0.9998699403095807  0.3998402218385541
  0.9992032414946951  0.0012024700224935  0.6006710747743030
  0.9999130206144917  0.9996826765739921  0.7999355112466532
  0.9998520035964245  0.2004486048142648  0.3998939556199466
  0.9999599224378800  0.1991815947125757  0.6010871923189639
  0.9997068782877563  0.1998026035270477  0.8028566908914895
  0.9992923274742613  0.3979889321372759  0.2014491492707740
  0.9995295687795301  0.3996144072647290  0.4002712280495044
  0.9994861532439964  0.3979730353081042  0.6005824614511562
  0.0002558413198886  0.3993324157023363  0.7974246585136689
  0.9953118032389666  0.6021319154053681  0.0015840529898059
  0.0018116827460004  0.5997583682265780  0.1993254963173755
  0.9983312162152823  0.5989006876598695  0.3998982538336864
  0.9993301369053585  0.6000117384865725  0.6012590795039531
  0.0003343960547296  0.5995851346657409  0.7994629237612462
  0.0007466118413275  0.8007948934293477  0.0011723965715633
  0.0004325104716743  0.8016126652205026  0.1991993445287414
  0.0031957579862045  0.8008100742939849  0.3995237277911940
  0.9994151589418100  0.8011368334700198  0.6010370218233272
  0.0009859138145489  0.8005881663045641  0.7999741330406348
  0.2656474421094595  0.9989270007872931  0.0004441182615627
  0.2012118443637410  0.9992659157874761  0.1973992202550374
  0.1995520324838367  0.9997279701073605  0.6018087330481365
  0.2013918494210930  0.9999287845225284  0.7999601635997129
  0.1965355695387091  0.2008477913909444  0.0001696601273584
  0.2008067556705091  0.1994216602680912  0.2005469466155140
  0.1991482913677948  0.2035314194274176  0.3995195343059454
  0.1998594876419744  0.2006482445248989  0.5997739785816978
  0.2018491998154483  0.2004633070653287  0.7996855026787424
  0.2006664769631158  0.4009964747015290  0.9996778618230575
  0.1957079371044995  0.3990640205884082  0.2009922943266838
  0.1983162240503390  0.4052516965069483  0.4010701432300351
  0.1996847710939693  0.4007195021137533  0.5999015978957281
  0.2006423354949325  0.4004511792875468  0.7985849688385457
  0.1973492731007504  0.5997953235188592  0.0013341852683177
  0.2017678179497189  0.5987991555230578  0.2036768061023077
  0.1991138920583586  0.5991296189734132  0.5972870106017755
  0.1996099334851362  0.6000219515469980  0.8001186518870306
  0.2001362278680970  0.7986696249030246  0.0013284079210952
  0.1994968099796568  0.8009624041111596  0.2046176658197804
  0.1998138745910570  0.8003245509174666  0.5964571759672669
  0.1999171121052118  0.7991956195628346  0.7997830668881980
  0.4001748995048670  0.9991798226214441  0.2005278911134522
  0.4017581268696279  0.9988972567717608  0.3998528270468303
  0.4000349867200610  0.0002474685570258  0.5997022719352227
  0.3986354415105869  0.9990897082662302  0.7991233821471974
  0.3981318413012009  0.2022496108132953  0.0006201116362088
  0.4002250671901389  0.1959434544549994  0.1984081450978943
  0.3996528467358763  0.2005720221974507  0.3996579304914376
  0.3993585366778528  0.1999547257016076  0.5991439820489489
  0.4038545430791866  0.1995323481855526  0.8015246505585675
  0.4003887835493951  0.4002301890952194  0.9936651127372553
  0.4003198756889094  0.4005875154060302  0.4038648419258454
  0.4002123881582100  0.3998577748628069  0.6006013586515777
  0.3998962213599307  0.4009348433947426  0.7985360982801907
  0.4005936823550574  0.5995520918897668  0.0033778650926152
  0.3961936578041105  0.5992748086502887  0.3960505631603433
  0.4003429119586488  0.6000535901614625  0.5999640630352527
  0.3998871790537520  0.5998092281648346  0.8012246170239985
  0.3993821626694637  0.7984020344083397  0.0003859095698164
  0.4007948845722517  0.8007016396881752  0.1986911809954726
  0.3963734956105880  0.7999560455985938  0.3999604203110194
  0.4001730761712453  0.7999789494296405  0.6002376562983024
  0.3992974389984040  0.8003447379859056  0.8010957333536469
  0.6033404318043241  0.9989563917321137  0.0011197620164765
  0.5992364453169772  0.0001872108729795  0.1993062454211073
  0.6004584016627454  0.9995829496863987  0.4001607527665027
  0.6004480268034357  0.9995841973602763  0.5989768326331675
  0.5989456419567017  0.0023971139542198  0.8009080013694105
  0.6010417198828198  0.1999663518637749  0.9961939184699294
  0.6001533703574389  0.1990091371915017  0.1986322877555102
  0.6007496294686674  0.2008279357161415  0.4002789543987358
  0.5999892833471829  0.2001266960640817  0.6040676493048056
  0.6013039082943512  0.3997713109826074  0.0001416965382782
  0.6057089020193918  0.3973571542393671  0.1994231267024062
  0.6002887232596109  0.4000375797148127  0.4003216775272965
  0.6001597961932897  0.4000173712343424  0.5993825325425142
  0.6038653047381293  0.5995397184726453  0.0004047730720071
  0.5953419386851900  0.6001913084286082  0.2004193039870396
  0.6031062824995953  0.6005141187346561  0.4000193958698895
  0.5984887684012709  0.5998215048025276  0.6000638231368112
  0.5986132679247742  0.6008488378169748  0.7989831874055769
  0.5990673338831461  0.8008994152464861  0.0001034824840232
  0.5988060503931498  0.7996392741653101  0.4001840397021955
  0.5992038688509732  0.8005567907033170  0.6000182727481439
  0.5991901516838635  0.8012777570909584  0.7997533276980208
  0.8000332161119093  0.9968522508121275  0.0011948272659854
  0.7991922064382881  0.9991547648576158  0.2010071322245273
  0.7999763941818325  0.9984545980041466  0.3996096155306318
  0.7998547969448693  0.9992634265343379  0.5988574688626258
  0.8003713038085875  0.9983905657289744  0.7997563188203995
  0.8053627512403750  0.2024984252866809  0.0007187074054216
  0.7992630452364259  0.1996590733549701  0.2004652818715140
  0.8003961919728567  0.2015153377985449  0.3998385437060660
  0.8007959869574462  0.2005435336491088  0.5992037056185531
  0.7958455033025920  0.2010452336845387  0.7997525418608979
  0.7984231837251740  0.4052696458684492  0.0004864207488706
  0.8010388669383217  0.3977103843273708  0.2001426305802896
  0.8007612458184747  0.4048541977105544  0.4000845266397633
  0.7997991571632491  0.4002324747366454  0.5999399162143032
  0.8005950050854583  0.4003799378103362  0.7981140064507957
  0.7996853704191615  0.5997072772849986  0.5990253193623772
  0.7992952258277506  0.5995233920355415  0.7997677791493237
  0.8000661558012006  0.7944967507638763  0.0009809250886508
  0.7998492855601437  0.8010101894995862  0.2007648984747667
  0.8009424076661892  0.7955332098380903  0.3999377960365844
  0.8001517137225256  0.7997528900146736  0.5995818162522538
  0.7996687328423432  0.7997101921700153  0.7985542762093857
  0.9999593730444026  0.1985098791394814  0.2001466164953189
  0.5999350999923091  0.4000648444019393  0.7996328421940239
  0.5995016087623717  0.8008263851541152  0.2001657573961513
  0.0000319107365285  0.1946629264031877  0.9981031172791229
  0.1969082769634211  0.6022715463038849  0.4010519679483482
  0.1990424867643675  0.7909622755848303  0.4003552129824308
  0.3988330954004354  0.6051969917946386  0.1999072704190601
  0.6001839543688826  0.1970618851707830  0.8008558949053994
  0.7982722844986029  0.5996970437728477  0.9943550430200647
  0.8006567967447459  0.6006503200410327  0.4047605009083260
