Zr Ti V  Cr W 
 1.0000000000000000
    15.4219977637485020   -0.0153525296692176    0.0018800521315798
    -0.0153399539639544   15.4042384266248558    0.0149563524432868
     0.0018828811446291    0.0149768248118706   15.4308175709018371
 Zr  Ti  V   Cr  W  
   2   1 100  10  11
Direct
  0.5998253172095287  0.9875374693231540  0.7907220634967842
  0.8062929532178579  0.4056153022747081  0.2021334659098650
  0.5972560311994126  0.4035339603791903  0.1970668969039621
  0.0012697345350077  0.0012395801795706  0.0002066226834451
  0.0004834295681435  0.0000347983508593  0.6007473893075400
  0.0008631669422026  0.0000178234176883  0.8000145896476887
  0.0052979695810116  0.2000127555563062  0.0008754844850777
  0.0011673521005196  0.2026341020894308  0.2006429439255807
  0.9969550342528382  0.1993712500023501  0.3998809895995323
  0.0013975472145626  0.1996188512844893  0.6006243553299004
  0.9986547909267359  0.3983559621799411  0.0040991722755575
  0.0008619348614183  0.3997142053697832  0.3980328210716400
  0.0009151900499940  0.3997787684783317  0.5993749357525575
  0.9993621116075954  0.3993205059418316  0.7992959118714660
  0.0022472548277955  0.6003302933409324  0.0012793651437243
  0.0012504042162383  0.5988360890414604  0.2003757370225858
  0.9997631955309636  0.5993346156411806  0.3995233886828471
  0.9988083475248321  0.5987105791006082  0.5990280233427772
  0.9996597000799612  0.5993591471400463  0.8010652045558688
  0.9985806435823456  0.8014629884755200  0.0004920476043852
  0.0021100530095349  0.7993764054581318  0.1998643045147925
  0.9992826834085782  0.7996079158970509  0.3990314636627083
  0.0026496608211499  0.8003061006390715  0.5994599418306372
  0.9982340534726030  0.8004122777841527  0.8009259256093826
  0.1988511204945315  0.0074531336749296  0.9997855523539796
  0.2022316333194380  0.9988956523062462  0.1998661859745593
  0.2007536700978395  0.0013115500982136  0.4002705510287486
  0.2009283948287469  0.9971328580392409  0.6003706801619756
  0.1991523624391220  0.9986934640691190  0.8002582027863450
  0.2001079903294300  0.1996307793069003  0.4010227856756069
  0.2004297165088086  0.1987796998821915  0.5998789206388161
  0.2006721873476283  0.3971256501492790  0.9994553879209980
  0.1996431309919819  0.4006774259547302  0.2025454347450908
  0.2000219179476973  0.3992386985701931  0.4018102496783866
  0.1998078833977186  0.4051799842747696  0.7980014997738667
  0.2043495398611881  0.6019364533120553  0.1959984901969026
  0.1995154998427710  0.5986959687139968  0.4019691880335317
  0.2010445112760048  0.6023413699439030  0.6045000234855697
  0.3000855753067656  0.9004402855234118  0.9995158822978462
  0.1992104570914670  0.8011620131428245  0.2030454993191876
  0.1997755641520332  0.7997013264190739  0.4039962543148443
  0.2000522702941570  0.7961530631677907  0.7947492564441045
  0.4000015192621287  0.9985596272049988  0.2020430232134067
  0.4015082300286211  0.0017574504377053  0.3978553521146065
  0.4035297048507736  0.0011536831824083  0.5986628328397434
  0.3936122012532600  0.0014852068477549  0.7982840013144231
  0.4005593995642644  0.2031940335082649  0.0006039655894821
  0.4023280400423325  0.2011863643774164  0.2015582589681169
  0.4023893932750480  0.2017366907199596  0.3991462397490609
  0.3997255711848936  0.2009722292289537  0.5990302075282801
  0.4010517359091614  0.2008188210078016  0.7992464944287330
  0.4002879127153944  0.3999224045979645  0.9993431241952040
  0.3970160712275058  0.4064701162787505  0.2023568759552097
  0.4005758718269756  0.3995950047642710  0.4003264274825945
  0.4001052179068803  0.3996331137487243  0.5988257027328736
  0.3995822875107654  0.4000045350537821  0.7974485042387399
  0.3965514680068077  0.6005152247392910  0.0026600991007846
  0.4014430717118928  0.8011824047108010  0.9990636842696289
  0.3999429130508100  0.7974738311427246  0.1988025083754159
  0.4018477146994026  0.8005205056089495  0.3998346382440642
  0.3960946078839613  0.7994663860408211  0.5970609204705856
  0.4011325660769905  0.8020536391305736  0.8007724454421139
  0.6032749051345343  0.0052634128572217  0.0011789215122602
  0.5991358639445459  0.9982729657901976  0.1991371963389337
  0.6012058489833114  0.9998043727214284  0.3999210716209155
  0.6003394466737035  0.1988876224526679  0.1947069718301586
  0.6051995999591727  0.2008764211644782  0.3977288973971909
  0.5999166146725373  0.1955993428700737  0.6038807405482729
  0.6010038440370399  0.2024652011640213  0.8038069745786973
  0.5997644754138363  0.3961932986801783  0.9961087257083181
  0.6005397294684711  0.4004844690326597  0.4032849865965484
  0.5994419073687385  0.3997731504260850  0.6005188420013167
  0.5999256585193503  0.4059140662126596  0.7976212398374979
  0.5991500501375212  0.5973431269081997  0.9958429360640594
  0.5946703974876871  0.6048665261058342  0.1972626742163242
  0.6010943977132631  0.6000799037187372  0.4001715645583549
  0.5994760595077880  0.5997486329974724  0.6023199157369516
  0.5994173063863486  0.8040845102464340  0.9948157451275831
  0.6008351552366601  0.8014991486421964  0.1987137314694599
  0.6016361034612494  0.7997181118577787  0.4005806110938109
  0.5983123283371413  0.8019662074562651  0.6016879638221170
  0.8024527671280649  0.0016473635456302  0.0007070139306364
  0.8023181811370989  0.9988814348696451  0.2009752330400867
  0.8013912216296255  0.0034296038325723  0.3993496733112221
  0.7975716553019043  0.9997263084102782  0.5997637411730747
  0.8067739949543014  0.0002129274006007  0.7993463059665464
  0.7954984478478589  0.2001635569409755  0.0006941898212218
  0.8011355237168192  0.1964438605888345  0.2041819967437221
  0.8007314625444218  0.1999840979295146  0.5967097248460650
  0.8007286547287966  0.2003212243490414  0.7993550247781340
  0.8014139619811209  0.3990448868533747  0.9965824087011862
  0.8000345954144833  0.3954841289925991  0.4065542395871010
  0.8006212698564238  0.3987947089480535  0.6016550974111785
  0.7997910317448033  0.6002311398150149  0.0001746508977457
  0.7978389300945282  0.6073047489468334  0.1995320565844932
  0.7987714409568065  0.5987867728085272  0.3998606573532868
  0.8003841679565444  0.5995914790294348  0.5987911654070250
  0.8003132563080748  0.5992138572446057  0.7999099692469387
  0.8005038472872924  0.8006323326698959  0.0002814318166005
  0.8004836088640047  0.8024083039959812  0.1999962942725921
  0.8007804190530562  0.8002066420429218  0.4003824979033779
  0.8027998196970804  0.7992742810130543  0.5983442255913275
  0.7989068934094818  0.7995987318030412  0.7991476868000524
  0.0022511356087203  0.0003263593239855  0.2005287944567826
  0.0008238218486894  0.0000726048981733  0.3997774732419779
  0.0006042612387944  0.2006930513164581  0.8004696031044890
  0.2016152218557720  0.2003138509772058  0.2014176641632470
  0.2001333837879609  0.2019243979889810  0.7995577399258113
  0.2004166782483768  0.4002132624296048  0.5998554558139815
  0.4004135522759838  0.5999388966407900  0.3994076941935457
  0.4004869141210933  0.6000740749250718  0.5994029772131584
  0.3992046036606964  0.6003201198924062  0.7998365112729245
  0.8014436828657074  0.3997926367078766  0.7988756367471714
  0.0071718997036772  0.4025623556734150  0.2016427897881394
  0.2037824881994604  0.2014279351348557  0.0008257846204569
  0.1997254543505532  0.5945676247032565  0.9970626397772751
  0.1950096201073456  0.6019708165523950  0.8047908402437792
  0.2006533725102863  0.8003471436195780  0.6004337327797896
  0.3988463684311452  0.6021977626704527  0.1971421157714554
  0.5998074717069228  0.9985752029299562  0.5925327883581067
  0.5985065615542107  0.1994601738313326  0.9978820318961803
  0.6029326297520843  0.6027079396779716  0.8000069928528034
  0.6005103140437805  0.7880082207076183  0.7982503146328056
  0.8001435568955036  0.1998193692846087  0.4000200872294109
