Zr Ti V  Cr W 
 1.0000000000000000
    12.5911167094248988    0.0340321349657384   -4.4651127512690021
    -6.2606958638130132   10.9008704492667636   -4.4499898086669072
     0.0017762997224301    0.0219469782085256   13.4007816977248968
 Zr  Ti  V   Cr  W  
   9  17  87   2   9
Direct
  0.9868496371486113  0.1989600484586984  0.0033095421332020
  0.1990942490311420  0.5694533275126705  0.9854036027395747
  0.4044742033169857  0.5912373129972948  0.1977629620899691
  0.5830621421971678  0.4205517586122886  0.9900080043516382
  0.6093111629716523  0.3989566593889630  0.4058103766536510
  0.5928257813183616  0.5877867165939711  0.8183588590416626
  0.7947015821678390  0.9935520243709072  0.1989783781447942
  0.7960957830875158  0.2012098774592146  0.3992075112978714
  0.8032924880547552  0.1970246596115783  0.8014739395067398
  0.9968418266552835  0.9960412303018643  0.6034333698258390
  0.9846161513069213  0.0099043601974154  0.8023574703236257
  0.9936065733899915  0.4010099399388483  0.1967928544136532
  0.0049456774294426  0.4015604780764857  0.6050496940990264
  0.9966677268899837  0.6024033825994868  0.6014397061029286
  0.2035775833219193  0.9941709578635235  0.5953907694694899
  0.1948190846552742  0.9918594769139351  0.8004641738649083
  0.2088121295954501  0.2107162841836785  0.0078793212026566
  0.1982258976490549  0.1978559409634737  0.3889012071439004
  0.2083834525151034  0.4056248414846253  0.1814217391361550
  0.4024856350200330  0.2022827349207659  0.9952867309931838
  0.4442849992568279  0.5924458467816544  0.9895425265682987
  0.3876859268675290  0.7883843198863298  0.9913568640948188
  0.5742707269900471  0.0096135770445175  0.1856864863349827
  0.6016195891692371  0.4008489767820387  0.6078420388829050
  0.6059475990897872  0.8153090793697276  0.2169983144114399
  0.8141818975019663  0.6054635166750816  0.2081358789633602
  0.0027914506517214  0.9932849200383210  0.1908795552841289
  0.0242467259567771  0.0194350058748860  0.4165745764581692
  0.9946842903431308  0.1941890386238971  0.2082380553804333
  0.0147928163969005  0.2214942861198828  0.4059040374284024
  0.9959799618844896  0.1986766555773848  0.6004991351651962
  0.0563971920916622  0.2660249462730037  0.8351006108830926
  0.9994419496044922  0.4193876000646487  0.9987761472814904
  0.0007340192394456  0.4047831416332182  0.3974428386626134
  0.9967624017359312  0.6014716753782324  0.9997878332513103
  0.0054170852279002  0.6059985718625146  0.1995072639016693
  0.0020215754633132  0.5984160424021731  0.3957745238093689
  0.9974496276714783  0.5967812725540740  0.8016262705592214
  0.0023312802083102  0.7956679593219274  0.9985857626804812
  0.0124623922814660  0.8007849658810399  0.2011743732596952
  0.0082639277334261  0.7984658795812045  0.4060461294164625
  0.9984077800312945  0.7960160605730908  0.6003342078294419
  0.9995176979287917  0.7971543602690105  0.8000630580672328
  0.1989126775055005  0.9948540877169277  0.0019101742094159
  0.2023082848589593  0.9957843519611715  0.1953314669246393
  0.1971810923089175  0.1934408108476448  0.1921582766703086
  0.1989659613348939  0.2004066843314016  0.5947507685457283
  0.2072052410514813  0.1953805198035714  0.7926533940912156
  0.1939333784328429  0.4006880786662181  0.3931100422161807
  0.1995679607029941  0.3990413207084070  0.5882911803239910
  0.1911814952876847  0.3893983749256716  0.7762712311070932
  0.2011514076628342  0.6019531662899227  0.4016037401648492
  0.1984888089321334  0.6010607722526183  0.5934866345282295
  0.1864864815167310  0.6021438025227202  0.7832333340733275
  0.1926316004447196  0.7993157187278566  0.9949101915001252
  0.2030486240787839  0.7998859370994357  0.2001218027170933
  0.2041137295596659  0.8015043417637708  0.4027254242734704
  0.1976070489583232  0.7983950027639009  0.8039119216676616
  0.3941386438195028  0.9966523829723070  0.9962460588655054
  0.3881923546590375  0.9942442680410458  0.1959172650719063
  0.4021782476420828  0.9983973464037161  0.4028741155261036
  0.4049176342084070  0.9971156939717615  0.5976078871274917
  0.4000327895793425  0.9982597897802273  0.7960839142694662
  0.3923869948489885  0.1905433677827654  0.1927944961768524
  0.3978031496327171  0.1938274483029198  0.5933216801104667
  0.3968024052029673  0.1896123492724836  0.7853672859837777
  0.3442973916392351  0.3815240370492075  0.9681071933792654
  0.4188913497706168  0.3940955683065556  0.2182157425744377
  0.3928104989705314  0.3979661015303679  0.3992868297670972
  0.3923268563386934  0.3967183629981794  0.5858816023544120
  0.3744271023999965  0.3756779936822133  0.7701320891581952
  0.4028969243461493  0.6020046181398427  0.4116373587424889
  0.3962063544906392  0.5965726210544071  0.5924552220434771
  0.3768753354105355  0.5906603766187855  0.7741319349669975
  0.4017862281548607  0.8019277139318529  0.4039116565182692
  0.3957063749902728  0.7968622400837292  0.5947483856773345
  0.5900262881793941  0.9946861839021847  0.9895875650010401
  0.5992291863901026  0.0009937756817159  0.4088707969828190
  0.5893576809579477  0.9894511212865629  0.5943985541103417
  0.5902186808646360  0.9965223515185661  0.7954737402341324
  0.5956343318845106  0.1937530754783358  0.9953058455530365
  0.5887160339446560  0.1875822272452399  0.4011287351089795
  0.5984722146994532  0.1940220459082478  0.6005980218844624
  0.5885291195798557  0.1918194952685103  0.7932444195180007
  0.6111805297277851  0.3936230215204920  0.2005241665379808
  0.5975716032999946  0.3716617508834247  0.7847774271692586
  0.6754204888592256  0.6899245380502340  0.0859258791402300
  0.6087028420290198  0.5972623144300774  0.2118606063891744
  0.6036673165288693  0.6067762664173452  0.4086447728567858
  0.5972964319393546  0.6024795072585379  0.5961570817152438
  0.5883442597644919  0.7939850862071266  0.9834266206144007
  0.6078502713092850  0.8085117510732704  0.4169562901920294
  0.5930051185053526  0.7942203064971453  0.5975424024014829
  0.7911386878378838  0.9892995496704873  0.9941571181997747
  0.8112503450842840  0.0043863510093447  0.4333215794555026
  0.7949792890186110  0.9986596471117665  0.6095237012018176
  0.7736264958817443  0.9727452042879470  0.7948226323876659
  0.7735199006232628  0.1934403064289857  0.9998045519459767
  0.7898704072710638  0.2058237968771734  0.1869986632184683
  0.8038464255515411  0.2068770086495299  0.6062930451727323
  0.7996567326286668  0.4061886892616376  0.9986736636413527
  0.7964746402426107  0.3958502271454007  0.1965595129134677
  0.8069609767581950  0.4033117416010194  0.3875745248388405
  0.8000660628650548  0.3999789949204512  0.6048768091055002
  0.8007613599164651  0.4043348754939440  0.7986676126342643
  0.8115134014425565  0.6025167484106235  0.0021187624120900
  0.8036012366493416  0.6136287483421633  0.6178229539272395
  0.8103913561575876  0.6030743579182869  0.8065699860665584
  0.8099305549396041  0.8025310370307461  0.0070246253223378
  0.8576937407339422  0.8347309687803448  0.2549762488622613
  0.7962266839896323  0.7965075071205543  0.4095764624925455
  0.7961709885182254  0.7986002176384708  0.6020163442623584
  0.7993235069903978  0.7936256579123736  0.7999056991073386
  0.9836452862891139  0.3927268709913991  0.7881726349804750
  0.5936118364612173  0.2020694552002259  0.1888174081074556
  0.9972614143114582  0.9906661707460166  0.9985407870569685
  0.2056960865867903  0.9956427592441137  0.3961674317420427
  0.1974633985426700  0.6066751767507619  0.2085389970196991
  0.1962338398119754  0.7951997568563212  0.5962846081396845
  0.4004192766104868  0.1959718531534138  0.3960664344942738
  0.4009667190927632  0.8076097235223855  0.2069597337316854
  0.3931210572994149  0.7980592404887240  0.7926990033886888
  0.5940844085671544  0.7944149716413861  0.7941762589167843
  0.8066913323255852  0.6045419985078369  0.4095496026357852
