Zr Ti V  Cr W 
 1.0000000000000000
    15.0277518607768155    0.0388766525104742    0.0737223082411552
     0.0391987632348747   15.0328717695401437   -0.1033646809291088
     0.0729317100218346   -0.1029929491676967   15.1613062756125618
 Zr  Ti  V   Cr  W  
   5   8 106   4   1
Selective dynamics
Cartesian
  0.1925824564797903  5.9256040759705479  6.6380021327300014   T   T   T
  3.1738177242372325  0.5332364144982820  9.2718517867439694   T   T   T
  4.8752050980992632 11.7560482154019361  5.5715470000017646   T   T   T
  9.0200900159726931 -0.6113375354265548  9.6776893681946934   T   T   T
 11.8744371410733347 -0.5059859518894694 12.0369324317700883   T   T   T
  0.2227670807464001 -0.3936059082767255  3.1123621391592926   T   T   T
 -1.3771434435780334 11.4576629277588218 12.0390511702397820   T   T   T
  2.8027390016363904 -0.5855923338062898  5.7687638281258868   T   T   T
  6.4373245646997805  3.2960584771789279  6.6284180162103539   T   T   T
  5.2978136185598608 11.9936858720942094 -0.4834976590453200   T   T   T
  8.3917323306408527  5.9293339336734858  5.6034670927768468   T   T   T
  9.4120976402279730 11.9429096593076576  1.1094103516680818   T   T   T
 11.6347592716375239  5.8178031125632579  6.0011296879976079   T   T   T
 -0.1312963878915403 -0.5848703392516772 -0.7671006351678498   T   T   T
  0.2048280410574797  0.2495194125855124  6.7521288803549577   T   T   T
 -0.5381242609504802 -0.2720142711475688  9.3686308788384718   T   T   T
  0.4423971520074713  0.0244747656127124 11.6874349108595421   T   T   T
 -0.3266275580256596  3.2372639956180018 -1.5407881577956357   T   T   T
  0.5929271260282059  3.3307289935059456  3.2073511851464835   T   T   T
 -0.6894489350929025  2.7782730379454676  5.6347479348548735   T   T   T
  0.7775197925677384  3.2196670067892001  9.2073230322253821   T   T   T
  0.8204725820388976  6.5589663477448488  0.7781354546224527   T   T   T
 -0.3492968522708537  5.4789817273363139  3.7989406558491479   T   T   T
  0.5940317993119034  6.8168713833850463 10.3635221031552849   T   T   T
  0.0028605474389764  5.4578795301223764 12.3168392066539099   T   T   T
 -0.7575450940767094  9.5523712949346233 -0.0544692692495635   T   T   T
  0.8165875082882310  8.2883749995201956  3.7208916246809696   T   T   T
 -0.7246552222731243  9.5845266898830790  5.8957763718652121   T   T   T
 -0.2029118899645400  8.7237440013209735  8.9718871493315131   T   T   T
  0.7005645951016655  8.3203891545038466 12.7607320895726453   T   T   T
  0.1004892805271415 11.8897126463981841  0.4537958120838902   T   T   T
 -0.4815231762409188 10.8819878854856285  3.5542925870091540   T   T   T
 -0.5569764727912321 12.4921302962540963  6.0010591379875180   T   T   T
  0.8752534816309409 12.4844309957723052  9.2665169729366017   T   T   T
  2.5327225845379324 -0.0636688423116342  0.1179222976556421   T   T   T
  3.4909545762117511  0.9665877925762775  2.5194072979835846   T   T   T
  3.0055493214071034  3.8529288731020528  0.0049442153555141   T   T   T
  2.5215249874294070  2.7683692265749347  6.5579845533082297   T   T   T
  4.1590083664126549  3.3709324661928668  8.8030935850169598   T   T   T
  3.2113947213433156  3.2861074428355432 11.5869120446993872   T   T   T
  2.9002508370545259  5.6542471882077683  3.3755341642431751   T   T   T
  3.4634009075968737  6.6393311113714182  5.8651607703590907   T   T   T
  2.7739452832895366  6.1765604287869289  9.2628015911781105   T   T   T
  3.4580827509668537  5.8919659493948435 13.1414001587082758   T   T   T
  3.3965533765228662  9.3025439616050800  0.3412000479510809   T   T   T
  3.2751928247148978  8.2439670583719149  2.9803430413303293   T   T   T
  2.9846378346437623  8.9274850246568374  6.8410934378671184   T   T   T
  4.4898312740597621  9.3329976154289653  9.5725836085403682   T   T   T
  2.6856328662882385  9.3293893708338711 11.5185049044566323   T   T   T
  2.1669909495571189 11.6620605723917414 -0.8790002693248243   T   T   T
  2.5775006698372054 12.0348403599893068  2.8178161993321718   T   T   T
  1.5278298133155068 10.6793683186198027  5.4278725094360691   T   T   T
  3.5151908037391348 11.9449313844507152  8.5122551749161044   T   T   T
  3.1622966271439377 13.0398691832564921 12.0131714083903294   T   T   T
  4.7923575203735318  0.4622310424503996 -0.5575690755754636   T   T   T
  5.5779968259660322 -0.6028135347411259  2.6963106183023857   T   T   T
  6.2038716270204155  0.2790774463127291  5.1717284942751380   T   T   T
  6.0541060584916551 -0.2885698100658781  7.5874482985206217   T   T   T
  5.9488369454065424  0.7463290299488998 11.5719436972969874   T   T   T
  6.5533920600265301  2.1543925768902312 -0.3139423749213959   T   T   T
  5.1033556635012438  3.2203793744913374  3.1018717837607008   T   T   T
  6.3645088273311368  2.0627666755983718  9.4085981595452957   T   T   T
  5.6767286367230145  3.7213052484684157 12.8594067300530206   T   T   T
  6.4106962871863562  6.0927372822957011  2.3417692507700791   T   T   T
  5.4873484571097624  5.3702715031140871  4.7807002045190217   T   T   T
  6.3529575193005678  6.5361581418793815  8.5276623778994711   T   T   T
  5.4846252941885671  5.9305726468700612 11.0918612697273922   T   T   T
  6.6903043837506493  8.7832745045579426  0.5977646745546012   T   T   T
  5.5813029134442802  9.6155503585375008  2.7016737419153336   T   T   T
  5.6473248579426887  8.2306673638837786  5.0516551364344675   T   T   T
  6.0373702794374999  9.7243871287081305  7.6924608755851231   T   T   T
  6.0218257862475930  8.7903088210678355 13.1549173107824391   T   T   T
  6.5440529791691473 12.0727151622018702  3.0892768892539126   T   T   T
  5.8274344059194192 12.7399764324577873  9.0158478107363926   T   T   T
  6.8483184336983784 12.0646464351730707 11.7598925065687929   T   T   T
  9.9403609670171313  0.2695158366060815 -0.2017792196264767   T   T   T
  9.1093061450793424  0.1022223482788765  3.5295698985607475   T   T   T
  8.3999055350650469  0.7596556622278161  6.3384042486088097   T   T   T
  8.3360028378522077 -0.9239804806779501 13.1146304139077650   T   T   T
  9.7792168537001238  2.8759080986379582  0.4769131501989790   T   T   T
  7.8985407303910886  3.1135285005262130  2.7410896161575535   T   T   T
  9.9178504404036847  2.5498913016634064  5.3064922316381073   T   T   T
  9.4680430343661559  4.2900229554480704  8.8109726338730177   T   T   T
  8.9182941723224207  2.2854015780771206 11.5692957705781705   T   T   T
  8.4044251924708693  5.0025287047369735 -0.0110323552414443   T   T   T
  9.9886752327717492  6.2671934390616970  2.7942300980004009   T   T   T
  9.4486720668655977  6.7470441460878332  9.2749025337999011   T   T   T
  7.8615623066769205  5.7136626641796502 11.8989255021330358   T   T   T
  9.6590084738877255  8.5772452143105387 -0.5906322619908091   T   T   T
  8.6285833834337602  8.6837398122849248  3.1679893987995973   T   T   T
 10.0720896014517525  9.2283394510769945  5.7301945032537951   T   T   T
  8.7833687524851030  8.9625254015922042  8.0597303893269494   T   T   T
  9.1111909940401254  9.0917504035148031 11.8709136674882121   T   T   T
 10.0115999185658922 10.9495452574802776  3.8706561793572849   T   T   T
  8.3826133453639446 12.5035173311633336  6.5747711971447851   T   T   T
  9.1754773367781937 11.0648067116076412  9.5354158663335085   T   T   T
  9.4615160043516902 11.6861512360807520 12.0947848908727984   T   T   T
 12.1182311814441341  0.0372863449589603  0.9806957194446844   T   T   T
 12.8328122117689389  1.0801950462965810  3.3156208243327105   T   T   T
 11.2707583420359114 -0.1461052928269353  6.6946960582704405   T   T   T
 11.9443435598679208 -0.1330298804729891  9.1354766985055722   T   T   T
 11.9659587415499917  2.2440562303443161 -0.6288389636182093   T   T   T
 12.8593560222078214  3.8594268374118106  2.8905419223031781   T   T   T
 12.5404679487165218  3.4701386012150519  7.2836331959061766   T   T   T
 11.4800769329172798  2.2238357527087000  9.6142429401413327   T   T   T
 12.5930568384228749  3.1996839466752185 12.0676602386027287   T   T   T
 12.4199652910412564  5.5076988667078801 -0.5917235862311400   T   T   T
 12.8483962183953224  6.4616002661848286  2.1617677879008688   T   T   T
 12.8400379977310077  6.0184032255285391  9.3776763038619890   T   T   T
 10.4476848620496554  5.9553122567261498 11.9744589369058989   T   T   T
 11.8064213902002759  9.0109613076367356  0.7235001309076363   T   T   T
 12.0523012151999769  8.9261491951466141  4.1080997815669420   T   T   T
 12.3119653403851554  8.5346428572847284  7.0503074405404398   T   T   T
 11.3727608715584854  9.4662051264890952  9.4839871153441724   T   T   T
 12.8102178065016599  8.6206502611050819 12.2987521016492796   T   T   T
 12.5768114929275132 12.0953769553494066 -0.7690395879923628   T   T   T
 12.2273952074610897 12.2361074319705772  3.0308076912621469   T   T   T
 12.1160214287616288 11.1569287190701463  5.6393586883722255   T   T   T
 11.9968626017991404 12.1042604518706991  9.1452164390332396   T   T   T
  0.9171240015614602  2.5190542270859493 11.5595205680121467   T   T   T
  2.8548200638086954  3.3341765042258933  2.4210507937360806   T   T   T
  4.0347856182103623  6.9371877834222255  0.5600853705543611   T   T   T
  6.0097521084529655  5.9757126105602225 -0.1089745939632307   T   T   T
  2.8558058200376251  0.8848080903349443 12.8033463850178340   T   T   T
