Zr Ti V  Cr W 
 1.0000000000000000
    15.3990340272275770   -0.0170018773457157   -0.0022529018582575
    -0.0170107766548915   15.3787801482628375    0.0165544931564424
    -0.0022517709109467    0.0165430754876648   15.4057927644380346
 Zr  Ti  V   Cr  W  
   3  13 106   1   1
Direct
  0.1842813743515060  0.2027877709295938  0.3771382687163573
  0.2047941686816237  0.6162346872768150  0.3854383107059782
  0.3863379359592709  0.7946571744719182  0.3902004471186092
  0.0033749987579685  0.0012326978395180  0.0297235363821198
  0.0007286627989027  0.1959618780308467  0.7986021815209777
  0.2031346235524002  0.1975880309613182  0.1777678105746145
  0.2041922987218520  0.5881457224551647  0.1841686856020683
  0.2122131499102033  0.7963577112717560  0.2139017950648447
  0.3884921496607175  0.2021522602851906  0.6029071649931347
  0.6081156571995407  0.0148474689446951  0.5938153170791503
  0.6031937268792373  0.1936299509652763  0.4123499107510155
  0.5881916913688093  0.2035858849023841  0.8125374774584763
  0.7979211780442454  0.1844798290004668  0.1992085753694555
  0.7826051245802205  0.1963387737897697  0.5951290181951143
  0.7969211060772966  0.1990005814635607  0.8026209350229632
  0.8023614960563850  0.8152593806931728  0.1988026338072933
  0.0013065721799183  0.0019381532858959  0.5959514728295848
  0.0008018257727700  0.0001396234418387  0.7962618334338178
  0.0005880930749860  0.2022366756433181  0.0049129715660511
  0.0021588708266665  0.2034500402719852  0.2010797168206118
  0.9857577184331827  0.1985305276275173  0.3986046774359950
  0.9983859436458541  0.2020301311278844  0.5950874247630725
  0.0006602537098053  0.3998752181669225  0.0014611556662319
  0.0004397762289392  0.3995692828400857  0.2022097687852525
  0.0018609216263104  0.3990503109374821  0.4011842173779584
  0.9993470667270756  0.3999799471283702  0.5999343762735955
  0.0008583988943962  0.4011651200878364  0.7997091576644262
  0.0014016136667849  0.5996189855007769  0.0008579387067988
  0.0007542058508294  0.5996384036381076  0.2002086340469938
  0.9969999199275190  0.6004262764151552  0.3990550685737897
  0.0017622319787855  0.6007904936359911  0.5977666022567824
  0.0003650971262927  0.6005722636988216  0.8006565571225273
  0.0029903418357228  0.7984063847528753  0.0038338955310020
  0.0033830333198911  0.7976136215488000  0.2014254433412861
  0.9943171480223774  0.8075208380185674  0.3996392867251693
  0.0001124280121490  0.8001359845843876  0.6006244832986477
  0.0005550965201593  0.8017798924913723  0.8005956594328139
  0.2028091388309883  0.9988781951048447  0.0009433786303188
  0.2069362540454899  0.0019828280730163  0.2016351644208109
  0.1967723833537152  0.0015349996509741  0.4005983380925561
  0.2034169226847039  0.0039304968725885  0.5994866821997533
  0.1995534268478846  0.0003302658575711  0.7993226458429974
  0.1993117607102407  0.1991022508888685  0.9877378924854905
  0.1952465228558634  0.2015096807721566  0.5972192399274598
  0.2010701134131085  0.1995345463323370  0.7957154681794065
  0.2003552232482496  0.3978885234225514  0.9993924609632695
  0.2017447719014013  0.3937332233663361  0.2015313838550984
  0.2004398397100788  0.4048887992036856  0.4017534166626919
  0.2005775612276128  0.4009838114336211  0.5990321322550070
  0.2001627492153331  0.3997135077194753  0.8001436968883564
  0.2009389732917334  0.5986903482123136  0.9938656816444573
  0.2014704657156922  0.6004702069356446  0.5998019455839100
  0.2010184036291813  0.5995946900009272  0.7979488800431738
  0.2016472968472863  0.7990499388128377  0.9976967768600008
  0.1872311654225229  0.8140246272827604  0.4100088270896821
  0.2002599822003530  0.8009980879030095  0.6035694123908815
  0.2008733014166244  0.8019151380169844  0.8007560696679991
  0.4011181504037528  0.9993151894981301  0.0012695961833085
  0.4023083962243077  0.9976220194874437  0.2017128850530118
  0.3992680828184061  0.0041584690823598  0.4012925462273002
  0.4016556583466439  0.0003629431115553  0.7980612768168224
  0.3993618341714765  0.1983155608985070  0.0020352336187474
  0.4009833504132753  0.1984511007117402  0.2014325845705353
  0.3966853786612625  0.1981649645970437  0.3998693113417275
  0.3951969827788349  0.1993143265322196  0.8051781461004999
  0.4007147342865706  0.3985416043188376  0.0019919959568577
  0.4021062090957659  0.3974036835503049  0.2023507932451978
  0.4009561624510357  0.3940972073116800  0.4016413841200396
  0.4002802698057758  0.4008563345149416  0.6008690204031886
  0.4008059335806189  0.3991179015172872  0.8002686105795950
  0.4010045719233722  0.5986265799093764  0.0004908800063497
  0.4052940949776455  0.5961552701317140  0.1994468370604377
  0.4101701452623779  0.5894116268521814  0.3999389733138816
  0.4015889901032679  0.5985543106328894  0.5991793301772160
  0.4013240699887914  0.5999999221429373  0.8010729554903714
  0.4004742234245419  0.7996344043965008  0.9972953345714847
  0.4067037097434993  0.7983152037532636  0.1907818760425208
  0.4010004886583947  0.8002242509825550  0.6013204051460355
  0.4007229194131878  0.8001368234366222  0.7990180090918085
  0.6012512203251089  0.0003522591433975  0.9999145523740262
  0.5996368302318323  0.9996926829000760  0.2020318980786550
  0.5981008227172461  0.9957964618855122  0.3989992139465834
  0.6002851366917317  0.0009311436561642  0.8009419594797764
  0.6000049057926861  0.2003091791946904  0.0074045161404709
  0.5978429450754191  0.1975503595766587  0.2019725226849736
  0.5899258717536124  0.2067678038448543  0.6090894769769878
  0.6016329216109906  0.3996450241397743  0.0015192724120519
  0.6016239878904460  0.3967930074239010  0.2028658312267956
  0.6017721614192867  0.3995854247381799  0.4019780450783429
  0.6002016176097965  0.4020926197020173  0.6020825551792816
  0.6007451557704241  0.4025599965647260  0.8020448038899076
  0.6015363955735826  0.5996076514052326  0.0009309455494258
  0.6038265803018655  0.6002355234372531  0.2001375257839808
  0.6037675341934160  0.5988818925535748  0.3998955209702598
  0.6009222732216724  0.6021786354522619  0.6004228667908653
  0.6008917069580753  0.6006352504948054  0.8006501568896799
  0.6016644930473232  0.7996195171484209  0.0001437294283824
  0.6004663736320863  0.7998771202318716  0.1995534966702314
  0.5996482102978269  0.7996962370821824  0.3998856741966039
  0.5992073788712221  0.8016923623168427  0.5992448546113478
  0.6001794298112512  0.8023878980248780  0.7996462353971383
  0.8006318203395116  0.0003570393934704  0.9993565262675866
  0.8673340366675755  0.9995910374191727  0.2006616862591750
  0.8088906908686084  0.9974799108823943  0.3968016507971834
  0.8032956898546998  0.9967749129442743  0.5990049807743328
  0.8016953879673300  0.9988561815897625  0.7988679530769807
  0.8008326999683406  0.1989860176221543  0.9981288056155828
  0.7981182866718706  0.1989118780472132  0.3971275254349784
  0.8013681329622719  0.3983747970177561  0.0008411615962713
  0.8014938789766594  0.4000738753939443  0.2006615925792978
  0.8010562388296889  0.3984489581092550  0.4001046860260310
  0.7999251323091261  0.4015381436855612  0.5997814129963456
  0.8007519208376995  0.4005282870602052  0.7992984184018097
  0.8017508561834175  0.5997656718124904  0.9998200368370368
  0.8013734011135130  0.5969574951201349  0.1987500506645754
  0.8013226399266681  0.6015656302430733  0.3990714004208922
  0.8001260801601403  0.5993193045540717  0.5999156499477345
  0.8010203794373990  0.6007240059990292  0.8000156468204468
  0.8021223983189574  0.8012682738364615  0.9955142822450155
  0.7980572978214077  0.8006964156908778  0.4026391544409681
  0.7998998419746385  0.7991200952637080  0.6016931548657225
  0.8004578224482889  0.8007533493678640  0.7994495038281879
  0.3990852091745889  0.9978579409966920  0.5988272687654156
  0.0052274361440989  0.0077666665916800  0.4023785710517269
