Zr Ti V  Cr W 
 1.0000000000000000
    15.4730473869267477    0.0033691891474249   -0.0023864505481808
     0.0033694714639917   15.4776181154034749    0.0040153542085922
    -0.0023865992340064    0.0040154554895829   15.4717026705362475
 Zr  Ti  V   Cr  W  
   3   5 107   7   2
Direct
  0.6024765130077856  0.9962019274735223  0.9982364344843442
  0.8004568620703586  0.4035888801069428  0.5965139781084435
  0.7957011093723050  0.5995706097633030  0.1974472225008967
  0.2021645167428261  0.2061078960862286  0.9967840233657149
  0.2018018760634866  0.8037449841407465  0.2043481064213420
  0.4034249173537938  0.1965880304843348  0.4036355464056585
  0.5872045207889857  0.5987770174852067  0.1955354724217382
  0.5967685175398021  0.8021943438703162  0.6035548694704872
  0.0015579685913487  0.0008160210416477  0.2004079131086474
  0.0010430697147394  0.0000168405740155  0.3993959350029366
  0.0011614139890033  0.0004383445249310  0.6005955736662979
  0.0024556801863074  0.9997722351175251  0.8005578362918482
  0.9995282697749798  0.1993221647747176  0.0003402514347786
  0.0004704042773111  0.1997461786205519  0.1995582516644714
  0.0004109923172004  0.2005829713696538  0.4004459044545283
  0.0001130576370667  0.3992762808259278  0.9999955896788569
  0.0013955044042226  0.3979435798790815  0.2001926854080897
  0.0006028098209585  0.4009270363702655  0.3991424670090822
  0.0043253796319081  0.3996814596878553  0.5999303801775497
  0.0000502277033336  0.3991308272260625  0.7995946291412825
  0.0045580365191082  0.6004179785723015  0.9984994529406125
  0.0033179649964465  0.5998826987613596  0.2002797438705599
  0.0001628435921193  0.6005856715617122  0.4000276004319386
  0.0016123258608785  0.6013522318523993  0.5996353119191371
  0.9995109160896106  0.5993626051748657  0.7985336948302052
  0.9996895876521844  0.7997027938777567  0.0003423127943226
  0.9980773654118883  0.8013239182034618  0.2002523912611577
  0.9997004466510139  0.7998543816577897  0.3996047344570755
  0.0001014735244036  0.8004427978046711  0.5994320622180047
  0.9979576037663886  0.8019769501128224  0.7992741793681311
  0.1995713941068563  0.9969807923475434  0.0002049648964160
  0.2009265237712498  0.0033157307920173  0.1998842725869389
  0.2002794430551245  0.9994951317646117  0.3996142173858408
  0.1999684397236598  0.0005615675485695  0.5987715637215488
  0.2003243633840307  0.0009584631825879  0.7991814144467313
  0.2012726703844269  0.2007273048939764  0.2014900442115455
  0.1991858046063983  0.2011939889068413  0.4001125722857360
  0.2007137584585265  0.2003327143896109  0.5998114442792705
  0.2035232168236412  0.2006750226121596  0.7980940944890520
  0.1999376909865294  0.4066805115687213  0.0005987610978495
  0.2006128005127042  0.3986721247432204  0.2006156633722056
  0.2001781704155476  0.3985126028913002  0.7999322542878325
  0.2005596169208950  0.5975302775746160  0.1967892325139594
  0.1999724086020968  0.6002937942867865  0.3995620762405424
  0.2001656549995596  0.5993426068566150  0.6006963856036626
  0.2006844600975448  0.5995582417601081  0.8025667946057413
  0.1995650355875464  0.7962435136095388  0.9979941167926581
  0.2005628144119145  0.7990238761378808  0.4016599416003833
  0.1998456537539895  0.7995389659091305  0.5999746856095803
  0.2006569813294426  0.8000855719463614  0.7990266996612437
  0.3951416673450938  0.9979824976394790  0.0004031395056709
  0.3999534383291516  0.0007392733950020  0.2000796978880310
  0.3998209177960616  0.9962070389841623  0.3992284824753984
  0.3975643257856991  0.9989661889038615  0.5978789305794703
  0.3987185135676760  0.9989553458922206  0.7995904798447978
  0.4022427315304066  0.2000318672566374  0.0006680112515516
  0.4012723487269860  0.1989793415804599  0.1982245830410903
  0.3999947170078637  0.1999457877746271  0.6007216215849158
  0.4050324584631452  0.1995314587478731  0.7995089053412121
  0.3992509078791792  0.4006732645519536  0.0011843844326971
  0.3999224460155562  0.3979978801042343  0.2014672919066029
  0.3993946407276426  0.4025917719139641  0.3992725646798806
  0.3975493288945124  0.4003289448316543  0.5985163768285577
  0.3997737779289968  0.4003087906442446  0.7998817360227182
  0.3953645630183237  0.6000551536217932  0.9997641168072849
  0.3953195851700100  0.6003654088027832  0.2008937686410118
  0.3979306212045683  0.6000838427592664  0.5993110618587220
  0.4008080686382444  0.5994892231346562  0.7990213308826011
  0.3996502040574598  0.7981449655719856  0.0006801694539545
  0.4038021718312813  0.8004749890557502  0.2004173381113179
  0.4008672131637772  0.7982866297011161  0.3992969993149066
  0.3980730060472930  0.7995475308416713  0.5996055064267979
  0.4016592501740858  0.7999324602247169  0.7995810741133311
  0.5993198051740520  0.0013341290652773  0.2034712323517191
  0.5993438641185735  0.0003207243220309  0.3997814077359644
  0.6000062561337358  0.0020902767466446  0.5979241715188783
  0.5963577896685460  0.0036490758273031  0.7937770857650828
  0.6009936592563557  0.2036956835585104  0.9960114302599015
  0.6025044236938421  0.2009877550848896  0.4006647559148238
  0.5999006996166653  0.2007255467104951  0.6034558367376355
  0.6001610857207130  0.4010937817919247  0.0012341783374023
  0.5980737844797913  0.3970878138731506  0.1999085241404905
  0.5992381108425434  0.4007743805863165  0.3985347318113950
  0.5951903840085759  0.3997216390573169  0.5988353443040008
  0.5988946544160079  0.3951630691569568  0.8002156427186017
  0.5971338034076494  0.5979724706110584  0.9961246751854222
  0.5991217550040475  0.6005362557436752  0.4023697570337942
  0.5978226788736499  0.5979732182314659  0.6008464265155989
  0.5989810229205539  0.5972997665094896  0.7991675062769314
  0.6002357163867106  0.7931212207784056  0.0009603598805579
  0.6007588992027244  0.8013848278837756  0.2010775364272447
  0.6009176524247758  0.7986492967086035  0.3987630386967901
  0.6007327965767665  0.8011669977532988  0.8018497195357979
  0.8059782425785191  0.9987541115304465  0.0036567760181583
  0.8000708169586199  0.0012708124592682  0.2015228833189800
  0.8009172105256174  0.0002496792667643  0.3997813815513153
  0.8014507640827393  0.9999780575849003  0.5966672337121479
  0.9325505636057478  0.1325011344894429  0.7993607125531851
  0.8014307089189182  0.1992875058342958  0.9988248962189527
  0.7999380008834401  0.1987490697337013  0.1990899834327909
  0.8002298548959942  0.2002775485034104  0.3993723580448298
  0.8010202762924671  0.1961198120818121  0.6003264825967539
  0.7948644136440949  0.2018277319578579  0.7991222199435046
  0.8010110902660635  0.4016398738205255  0.0008604044574504
  0.8000272241524824  0.3954217146232397  0.1987379356067282
  0.8000926849998151  0.4007697656584612  0.3944023513070334
  0.8002141236612667  0.4005422627329545  0.8024588247289577
  0.8021323463920091  0.6000174880303465  0.9944585130116836
  0.7993076601497460  0.6016690444750763  0.4020541291933722
  0.7990082054694776  0.6071060448351115  0.5996064000204858
  0.7986265226959141  0.6014007447730839  0.7988294044718475
  0.8006707566722565  0.7994858003302487  0.9986049687873328
  0.7998472797197240  0.8040519896943602  0.1999419614470920
  0.8012896757863839  0.8030195467377637  0.6003554442613840
  0.7983892199100191  0.8001906876909762  0.8001482677906835
  0.0021204567479829  0.9994260645485086  0.0003373717512365
  0.0009602381265893  0.1998681508624167  0.6004779887889097
  0.2000317356864370  0.4006735501835721  0.3998525557411061
  0.2000939342514733  0.4000070846900887  0.5995465362050229
  0.3988998178071700  0.6000326313224847  0.4002008729592859
  0.6010133141440200  0.2000423312258835  0.1987333017886670
  0.8000984866524113  0.8013418634594994  0.4000578921704313
  0.1998910644838021  0.6007501992872158  0.9992997173377186
  0.6007715237354266  0.1988840190690144  0.8002302121608502
