Zr Ti V  Cr
 1.0000000000000000
    15.4889002550493640   -0.0195313770937778   -0.0155534076795571
    -0.0195267745976093   15.5102089440028070    0.0059105293967036
    -0.0155475950656657    0.0058984254639578   15.5083315327291498
 Zr  Ti  V   Cr 
   5   5 111   3
Direct
  0.9964893325066007  0.9941779397467799  0.8061072154252176
  0.2110935936124015  0.8015646305997026  0.1946317240769715
  0.2155360146567760  0.8078705889187477  0.8035724451161419
  0.3906157612588084  0.9643563447030326  0.8362415112765715
  0.3823721645300630  0.7940642565612350  0.9969133924549124
  0.1993183855468965  0.4006405889558929  0.9993693236990300
  0.2109223902642036  0.8128183314156608  0.5927033500864076
  0.3975258950010918  0.0126068150006788  0.0258697243568963
  0.3908741252820345  0.9887177047384081  0.5969432719209570
  0.8033973990042453  0.8035559454567477  0.1966896489573297
  0.9982080448465699  0.0016080292650296  0.0071022114906404
  0.9987375625119824  0.0008667873376618  0.2015968789585494
  0.9995523854263094  0.9999756844893244  0.3995581491895493
  0.9977655232738795  0.0001985308464347  0.5966312335158181
  0.9979166677578865  0.2004005422070364  0.0002614480547449
  0.9987821851893448  0.2008907046788645  0.1991302115740756
  0.9993662824154126  0.2004872931007446  0.3989422084860607
  0.9987211560564238  0.2013480850842912  0.5996280429263123
  0.9984083173560335  0.2034760828569649  0.8000815508223825
  0.9973963340251011  0.4015200476247258  0.0004546568086776
  0.9993970006064998  0.3995036636731438  0.2000888789901675
  0.9996653244091851  0.4009066421818994  0.3994512229776590
  0.0000584603400313  0.4010029386012270  0.5985802805632874
  0.9998373050289641  0.4007606103355171  0.7994473481201142
  0.9991162713634869  0.5989719414117631  0.9998512573881806
  0.0012913228687849  0.6001322934057057  0.1991373498860498
  0.0007250917992895  0.6005324188423098  0.3993320543947262
  0.0024964529976394  0.6010097745698570  0.5993909109299494
  0.0027190947793032  0.5995854574053641  0.8003974437733721
  0.9610902870366496  0.8337832144612788  0.0002088714436835
  0.0014017795418007  0.7997083938995820  0.2019506765154935
  0.0008327383558537  0.7992238917821664  0.3997081668707140
  0.0021460221246757  0.8006626946366535  0.5996287551699153
  0.0027820812218822  0.7932762497895463  0.7967427795077345
  0.1950415328707461  0.0033671389381578  0.0006173445842644
  0.2001221855910623  0.0043720742985952  0.2002153543678390
  0.1982103711839603  0.0017436984494903  0.3988178405711960
  0.1945307440730920  0.0081618808468035  0.5984864138671370
  0.1959348125718201  0.0124607210905605  0.7987736899037219
  0.1992887331334647  0.2005314842379013  0.9985355440522026
  0.1994420358698489  0.2012902721211167  0.1995686412969329
  0.1998919510405849  0.2004256000605645  0.3998925170969431
  0.1989722734980363  0.2027909913267182  0.5990725619868786
  0.1998325556688313  0.2038524675651273  0.7992547174973390
  0.2000647188783801  0.3999664510232584  0.2015441629014473
  0.1996142252115064  0.3994755906254358  0.3997326240590585
  0.1999951124991487  0.4007886155347286  0.5988390920470141
  0.1997703517063572  0.4014497916972508  0.7976226843533623
  0.1990760739180873  0.6035012242364405  0.9991973181274968
  0.2009324622093492  0.5962332319709340  0.1996821556016881
  0.1995939018971213  0.6007737492563355  0.3998811149419529
  0.2017591549561344  0.6009105794275769  0.6006201908108639
  0.2016912019758153  0.5983509508272541  0.7995298408775295
  0.1753049881800748  0.8014410564920039  0.0021705529350927
  0.2005416887424111  0.8010357747398503  0.3986381931964246
  0.3994531321506629  0.9993055019065010  0.2097748108190630
  0.3984097675223478  0.9985930809074488  0.4001550768307133
  0.3980250262657747  0.2033275476728254  0.9983633520183121
  0.3998537854232256  0.2011365114950328  0.2010213876160429
  0.3992453818839678  0.1989590311185234  0.4005168809769123
  0.3990024597701559  0.1979762634147369  0.6013978079796870
  0.3996777138675162  0.2023383260464184  0.7986633013584945
  0.4014236609363144  0.3986003739764684  0.0007697923059388
  0.4002485972784707  0.3989339494452562  0.2008295837577605
  0.3996507796593296  0.3994709151537408  0.3995150016145744
  0.4005131929490327  0.3980282209662274  0.5981112824352228
  0.4011756330728103  0.3974751617759166  0.7981053907691757
  0.3992307069413379  0.5908295028407573  0.0001077791779478
  0.4003487789111156  0.5980764688983827  0.1991479226463499
  0.3994914759594219  0.5985064216311237  0.3987169699117463
  0.4002292808673307  0.5953532743380157  0.5974978962979234
  0.4013771875728532  0.5907496469241237  0.7996993571679127
  0.4099758301593643  0.7976372542292911  0.2047863878494059
  0.4018705418219616  0.7970874760926174  0.4006869296894457
  0.4082184607230299  0.7915476225866837  0.5951119062339240
  0.4170466638219625  0.7764930398783857  0.7886653458919130
  0.5919892981682494  0.9993932275345752  0.9995085341275782
  0.6004337887410237  0.0003664037788991  0.1979564878422855
  0.5986980220495816  0.9997580799761849  0.3993530087111974
  0.5988714654461461  0.9986218282568589  0.5988320235832211
  0.5995412895339640  0.9996870739553780  0.8000529137272805
  0.5991168951468698  0.1982141410548564  0.9982979811759611
  0.5995531743112893  0.1997893295417265  0.1990995482097516
  0.5984443031184570  0.1983921575773300  0.3995246960184399
  0.5990999162091090  0.1980331721718383  0.5995496982014130
  0.5998390355425572  0.3987530097540221  0.9989839744824921
  0.5997771442532277  0.3988429285622345  0.1989675946604373
  0.5999254028285819  0.3993201032738677  0.3990626506198232
  0.5998104247639143  0.3984774770035148  0.5990004031813365
  0.6013928254058043  0.3984566209902846  0.7993011058580120
  0.5985165801356208  0.5999671477984799  0.9985815716069025
  0.5996872779325845  0.5998316937122762  0.1981973489779427
  0.6002442831778098  0.6002219197756927  0.3984719207974931
  0.6013775586429545  0.5986474110453185  0.5992094940001179
  0.6026206452312015  0.5975192753767148  0.7995661709915404
  0.6009648800533239  0.7995630269892138  0.9978186242285351
  0.6004564237818779  0.8008667228366775  0.1966273345649850
  0.6012682434806970  0.8002250813787913  0.3985859383541763
  0.6043218273689701  0.7992183246822037  0.5984046748301824
  0.6054545053118987  0.7990489959729684  0.7986076201311986
  0.7988107855415829  0.0030836526257092  0.2028374068092978
  0.7992445624100923  0.0002312593780756  0.3995297903034971
  0.7987662772796438  0.0005302048234885  0.5987328283591358
  0.7939894762973466  0.0003321190331202  0.7969455941048461
  0.7986936383239335  0.1996409600617960  0.1988159149389471
  0.7990679509668719  0.2001568737304995  0.5991222696403297
  0.7991454452073560  0.1998653474294764  0.7999906914556425
  0.7986816292715218  0.3976844976398811  0.9991910913946849
  0.7995175684008002  0.3993614523240503  0.1999425627387668
  0.7995310713073844  0.3996901992046286  0.3992764703977411
  0.8000738183634550  0.3992926084520207  0.5990073621914593
  0.8004427201590960  0.3999647760605299  0.7991518136866825
  0.8001408427364038  0.5994432040595807  0.9989620933331228
  0.7997418271355768  0.5973257244377053  0.1987391317422008
  0.8006933415437030  0.6000455857254663  0.3988556198619210
  0.8015120185154957  0.5993425718875263  0.5992775737720611
  0.8014812820166516  0.5984581227787431  0.7988021490664553
  0.7987591601752010  0.7975535045760490  0.9961518099352412
  0.8000953631952463  0.7999115927293466  0.4012514759741491
  0.8021852297598193  0.7991696220707095  0.5984758844528948
  0.8023759990868800  0.7990327797923146  0.7986945078939471
  0.5993880900130185  0.1987375504280287  0.7993535027501918
  0.7978172373481216  0.1981603559259562  0.9991232530300660
  0.7989346460785260  0.2002714295694796  0.3997923610768948
