Zr Ti V  Cr
 1.0000000000000000
    15.4889002550493640   -0.0195313770937778   -0.0155534076795571
    -0.0195267745976093   15.5102089440028070    0.0059105293967036
    -0.0155475950656657    0.0058984254639578   15.5083315327291498
 Zr  Ti  V   Cr 
   5   5 111   3
Direct
  0.0000933222575008  0.9946202533818892  0.8013753664667576
  0.2100771459469847  0.8024751611915680  0.1946668153106018
  0.2165526763738484  0.8090497724109551  0.8033856531384644
  0.3933722565710800  0.9648972478582208  0.8363926590769509
  0.3845947110826908  0.7954022654325965  0.9975286965044112
  0.1992857537662510  0.4002997868824319  0.9985341033923369
  0.2101342795464982  0.8134113024732549  0.5932601571606053
  0.3995170890104121  0.0137346292687946  0.0259763636328053
  0.3901453602719799  0.9889493852587181  0.5968452684102645
  0.8012828210747519  0.8005495172609500  0.2000236084727631
  0.9964692260453764  0.9999842806732693  0.0051329344653347
  0.9993285012104686  0.0003898751347802  0.2010264596883003
  0.9991528560896958  0.9996330686336604  0.3986790773071593
  0.9977134097518966  0.0001896597859006  0.5953750090978916
  0.9980076401680776  0.2005112705686046  0.0000928651651622
  0.9986392126562120  0.2008609228711985  0.1991827729617209
  0.9991200365063176  0.2001900419784039  0.3988481800534700
  0.9987045920765871  0.2011779877121341  0.5994805382443812
  0.9983580676700358  0.2031777579974362  0.7999256213539753
  0.9962298694372518  0.4013479114557674  0.0007463968680606
  0.9990579467596786  0.4006051248155791  0.1998146013802601
  0.9990275520983211  0.4007337664930179  0.3990636137604271
  0.0002048280644855  0.4008931769329951  0.5987918192618100
  0.9999647516295262  0.4007744520918761  0.7996975653024252
  0.9979734050913183  0.6005182368600371  0.0009762164588061
  0.0037623786262852  0.6000981738366167  0.1995465806773929
  0.0000178504609544  0.6008929909807341  0.3986818420876994
  0.0026014427824974  0.6010710528571841  0.5998687161567678
  0.0031014538955934  0.5994976268804919  0.8002211494020244
  0.9949553681707979  0.7998741306738715  0.9994035911299805
  0.9992788727755633  0.7991429853125608  0.2011332412093136
  0.0008310096824120  0.7994527464855300  0.4001584673037372
  0.0021483639331285  0.8006498761485633  0.5999562710891279
  0.0029765009593741  0.7933932285374019  0.7979763840982290
  0.1953389974144307  0.0028782002461232  0.0000180839309281
  0.1994695125753041  0.0045638232358401  0.1997737994672215
  0.1980494199975641  0.0016776594355119  0.3988018845886491
  0.1941635125860688  0.0084361851825066  0.5982275738011508
  0.1980951817595628  0.0129809364603994  0.7988888477755249
  0.1986255895172035  0.1995155915843126  0.9983250005152072
  0.1992434329095972  0.2010281781148270  0.1993152970095585
  0.1996985230133846  0.2000923741662318  0.3999996020305152
  0.1988466455591931  0.2028253408303205  0.5990697090921887
  0.1998948267034103  0.2040562243842874  0.7993423724803443
  0.2002877295158054  0.3994479729442256  0.2012992083721172
  0.1993856802667611  0.3993195408839007  0.3998409357901649
  0.1999840080775206  0.4007165815797460  0.5990016067219270
  0.1997857501148223  0.4013691003800413  0.7976661037203202
  0.1987878914500559  0.6029695233813679  0.9987059995868433
  0.2011479387765267  0.5967250006096952  0.1996767000560245
  0.1997924838141965  0.6009390152896068  0.4005917999261526
  0.2016292485890012  0.6011194540350524  0.6008666568394245
  0.2014345325457237  0.5989985449578037  0.7996002080816179
  0.1855101483336506  0.8017997667248280  0.0021152636903103
  0.2001868027010173  0.8012464421566582  0.3987785416279501
  0.3989642361045876  0.9994679731453594  0.2092701165556202
  0.3981307568780549  0.9987490646560749  0.4001152632464631
  0.3980686910664353  0.2030463551782188  0.9983026709056615
  0.3991707598723431  0.2010799314970098  0.2010309476479131
  0.3992453983590456  0.1987430849618098  0.4006060383430319
  0.3988036607778799  0.1977690314337406  0.6012450662815427
  0.3992578429721621  0.2021125235071745  0.7986130200662396
  0.4014418203118648  0.3986227982130990  0.0004959401202873
  0.3997875295517165  0.3985079063000935  0.2007055785182432
  0.3996952530418478  0.3992799221452906  0.3997323827725168
  0.4003502478178681  0.3979094353798037  0.5982730492396485
  0.4008771258155627  0.3973785471434191  0.7981872393327376
  0.3984413945790268  0.5916373289099717  0.9997496313170886
  0.3996839057929676  0.5981061751154746  0.1992685095046068
  0.3990760985676379  0.5984953637337661  0.3992681963954879
  0.4000441563654430  0.5955277058105849  0.5976253337788346
  0.4010399420318142  0.5909646695950502  0.7997257200466640
  0.4092343691571380  0.7980598646816297  0.2052379172206210
  0.4017101894900632  0.7973645400285564  0.4010054204705606
  0.4077504436336531  0.7919090070783374  0.5952152133596990
  0.4170431296045067  0.7768071958227873  0.7887469959534489
  0.5972152600824134  0.9991546103660889  0.9989452104662025
  0.5979449637474712  0.9992566280808178  0.1986040681695993
  0.5989248904436344  0.9994802803197094  0.3993647002136304
  0.5991676746844700  0.9986148485307679  0.5992326285354337
  0.5988240720408751  0.9994889624783388  0.7983737802514912
  0.5982092362006934  0.1985798067632027  0.9980896809713390
  0.5990664541062724  0.1995439286506946  0.1992985876328290
  0.5985625392235688  0.1981354835035945  0.3995199935830396
  0.5990842030212632  0.1977659281978187  0.5994825719980248
  0.6002359359975949  0.3985752899663365  0.9992968339866953
  0.5996321062307391  0.3995304577177068  0.1987695396183957
  0.6004666460398077  0.3989144156601375  0.3986949336836560
  0.5995506275883268  0.3983096941518075  0.5991154364986633
  0.6009274328840073  0.3982270284274234  0.7993971713643246
  0.5992054508472910  0.6008394950936184  0.9992246680994296
  0.5977448927536126  0.5994695202126598  0.1980121879275269
  0.6010123995809206  0.6001789568884224  0.3977631969359968
  0.6010197322561395  0.5985474026800810  0.5996989121499472
  0.6019344766114983  0.5972050705874384  0.7993886636493410
  0.5995871312871426  0.7995478671358692  0.9971386775498375
  0.6000637547140134  0.7996849901835811  0.1970466224951413
  0.6007705605427929  0.8001949385371312  0.3994857345051857
  0.6041922002333083  0.7992792411129054  0.5985000673408679
  0.6049075733770809  0.7987674941261731  0.7981895199035536
  0.7976918817836778  0.0009830064543088  0.9998522907157528
  0.7978739166695881  0.0015142272003552  0.1997357873553322
  0.7992098439950703  0.9997105047133610  0.3995003391815217
  0.7988953798303383  0.0004617188626819  0.5993309002416608
  0.7954455078987175  0.0005709299882133  0.8000412399084889
  0.7983553980559339  0.1983731008059469  0.1992086243890270
  0.7991029399986905  0.1992084043993368  0.5996389673647474
  0.7988677840477652  0.2001538776331955  0.7999220006576002
  0.7984734941322340  0.3999460849842989  0.9987204614009312
  0.7994502815192323  0.4625160008205412  0.1995292295398103
  0.7995102767238443  0.4002323329463863  0.3998371740048549
  0.8000431174676969  0.3985648485629449  0.5998155305770309
  0.8002710148184248  0.3996714291264672  0.7989954265747075
  0.7995330342273443  0.5998357799643237  0.9979174590668944
  0.8008362604947963  0.5996714298162881  0.4009554944912148
  0.8015034995105748  0.5999763745029403  0.6001560103523961
  0.8012813211021725  0.5994522407657590  0.7990193517288987
  0.7983051428128177  0.8000353424508259  0.9966872548571168
  0.7999022357189342  0.7994992971828556  0.4014534130716704
  0.8021689804572298  0.8002596699915784  0.5994976298819715
  0.8020826131516923  0.7995139625258789  0.7982661399533302
  0.5988930131791682  0.1983926601667338  0.7992792325164347
  0.7976027373912425  0.2001835730749833  0.9994091218682573
  0.7988910704440751  0.1996498979931594  0.3997595887803434
