Zr Ti V  Cr W 
 1.0000000000000000
    15.4771126092992706   -0.0171409429028663   -0.0108832458615090
    -0.0171377985850307   15.4835452709138899    0.0089453070842751
    -0.0108770206815257    0.0089383803551370   15.5150560916889226
 Zr  Ti  V   Cr  W  
  10   1 106   6   1
Direct
  0.0122915069255303  0.0220144448498941  0.9684818205141570
  0.9966264974414075  0.2052565012168907  0.7916813339758463
  0.9908121822118819  0.3850553403998235  0.6010741442760652
  0.9934590733804081  0.7922939519369822  0.5935377795167289
  0.1725585881935590  0.9960461998800250  0.3184905458530864
  0.3775445026696183  0.9964843819518425  0.4082645329843444
  0.4021476245412087  0.2014228834282918  0.0015753142517760
  0.8108974499133810  0.3977533223878024  0.4162811460923552
  0.7722449877022730  0.4022122066355230  0.6341263119425911
  0.8092925496107527  0.6268862499271084  0.4187349050108272
  0.5977000285565832  0.7992944711315801  0.5990106153586644
  0.9924193525024952  0.9969765153932504  0.3959395050085459
  0.9988691013747265  0.9963574633587697  0.5907359393877786
  0.0005345277368236  0.9938261067070248  0.7802366509760912
  0.0010127551191937  0.2121821034273629  0.0027948331179797
  0.9997885904415189  0.2049374177511654  0.2000266527359759
  0.0038765847392780  0.1967943095502087  0.3966454179028717
  0.0018997050374755  0.1873004028050420  0.5892482252843947
  0.0028147329575630  0.4057706065725326  0.0068887548568639
  0.0140708249971989  0.3962873184129827  0.3913632467852333
  0.0021477596201411  0.4075105360557295  0.8096241000270139
  0.0008671018455030  0.6025046112631112  0.0003321383575789
  0.0003394147000907  0.5937590193972063  0.2016191123760393
  0.0099391005464151  0.5957836864738039  0.4001998538739067
  0.9978820525886150  0.5924138800851980  0.5987424569267258
  0.0009062300495507  0.6000995894742901  0.7975963753535829
  0.9994190432548726  0.7983598588905616  0.0007306354977055
  0.9981344304638425  0.7976948001439725  0.1965739139544376
  0.9982176306773803  0.7965976414516347  0.3925143081268262
  0.9980453479581769  0.7979406155650377  0.8007903857929468
  0.2028480530542349  0.0001878622369518  0.0523572675222412
  0.1978080182588899  0.9968320814813724  0.5745717379767307
  0.1978308069699548  0.9990291456020401  0.7996077709504135
  0.1972649779560215  0.1994352135542620  0.9999481678470511
  0.2024786586878180  0.1980702185660255  0.1984345533241717
  0.2077090040374354  0.1936905553523102  0.4027435259588104
  0.2006010981642944  0.1968882758146664  0.5999123858665539
  0.2017347575611692  0.4016368814763731  0.0004187532413926
  0.1991344943608787  0.3984639829585103  0.2004494765707926
  0.2056121824407662  0.3978271574777707  0.4020566301070569
  0.2009602896481719  0.3965964192172931  0.6007848278200678
  0.1999276716106728  0.3990158712059186  0.8010833728771880
  0.2018833560893235  0.6008485080408343  0.9987429505654256
  0.2012066735239132  0.5997717063430477  0.2012311550409586
  0.2035168741739863  0.5988066652611919  0.4019218606595449
  0.2000947218675518  0.5998079360472940  0.7997594678597413
  0.1987599559901888  0.8022443885842018  0.0016336041991976
  0.1994180591227346  0.7970944819226718  0.1998052512844946
  0.2021629043417760  0.7980281617603109  0.4018753962109244
  0.1996854607322688  0.7970057315063331  0.5993297771746258
  0.1989476954509488  0.7997035083059273  0.7986976868493796
  0.4020456015998956  0.9966582860910584  0.0016043872202999
  0.3993144210236114  0.9986868151365557  0.6077101987766420
  0.3980060763060552  0.9986803401879537  0.8010368981846532
  0.4021616088013547  0.2007538223309475  0.2051872350676956
  0.4047672120488154  0.2024425574645133  0.4024980671604011
  0.4007998422470199  0.2000879531533279  0.7977548325445656
  0.4005994118110573  0.4053843069105449  0.0027443314880711
  0.4006256631805941  0.4013779193486613  0.2024287239859748
  0.4009149211599465  0.3996991662115851  0.4013075677740602
  0.3963813327480689  0.3994081197839438  0.6030213552926224
  0.4001224553688539  0.4002224005107776  0.8020957272490562
  0.4010609050130359  0.6019995695641951  0.0013600939111815
  0.4008660382821940  0.5986048637210134  0.2022913074895132
  0.3996635997435086  0.5992942555746669  0.6022663399930320
  0.4002127916660428  0.5998537170849966  0.8001020321907252
  0.3993354739808551  0.7999933686450019  0.0008972470933415
  0.4002116785801754  0.7979487595223074  0.2007413734551812
  0.4022534227584345  0.7939736096206911  0.4013134806278154
  0.3979137195500201  0.7980911929507321  0.6022273694285559
  0.3989747288912183  0.7989827830610045  0.8015720266202017
  0.6006305944793238  0.0006031205076777  0.0017583537132434
  0.5966401510015164  0.0008431860964107  0.2013365896730874
  0.6014029085630183  0.0010525325956230  0.4022829521976291
  0.5984513261797656  0.0031754497582925  0.6010901251869881
  0.5992035741974272  0.0014150151595291  0.8011779709933797
  0.6065983589753778  0.2015914734171636  0.0019555158347717
  0.6024048241627709  0.2001990108984999  0.2027880805115293
  0.6021860080937547  0.2009125246543867  0.4033218685360228
  0.6017707711326303  0.2020805847866574  0.6013927997114751
  0.6003481728017632  0.2006674629042102  0.8008715188796122
  0.6024409484414128  0.4016558174718222  0.0040865313827585
  0.6029154733959103  0.4001060139445184  0.2036288899075737
  0.6000383029949862  0.4003635376662538  0.4008126875431933
  0.5855342548257698  0.3993049121071221  0.5998622322337052
  0.5982625724743645  0.4005783880998111  0.8053099591621776
  0.6010067957494398  0.6006459664487769  0.0024973291469714
  0.6017045986309227  0.5991971676468459  0.2038751996009133
  0.6011565237664434  0.5995752802703513  0.4031003232522251
  0.6001728291386327  0.5963234387020516  0.6016918505973506
  0.5991704834309185  0.5997494223291777  0.8022354294819035
  0.6001240903541516  0.8000862982185694  0.0023885611215668
  0.5997112818115293  0.8002737643416360  0.2010963088038087
  0.5990358263437497  0.7999283757227249  0.3983829689274835
  0.6003048510456943  0.7998619452363520  0.8040823775984213
  0.7999307493277305  0.0003300266666140  0.0008387338189852
  0.7980554907163682  0.0007414287974910  0.1982953333373145
  0.7977787742139475  0.0015868759593916  0.4000765070194731
  0.7983859483825693  0.9999080056748446  0.6025120803291556
  0.8004276718147232  0.9997879116501670  0.8002076115411813
  0.8035914677180621  0.1988874924292676  0.0014686293647731
  0.8005699753450439  0.1992594709642181  0.2033703998110456
  0.8019010226860164  0.1937224252435194  0.4017156314671212
  0.8013379976923038  0.1975055636376701  0.6012004791257520
  0.7956728992243169  0.2016114032246930  0.8009079110730616
  0.8003277955706369  0.4013264002985521  0.0069928936555573
  0.8048521051828812  0.3995246129258964  0.2021101717985646
  0.8013570431685328  0.4010538844015911  0.8207724095175307
  0.8000040421439750  0.6024622985374936  0.0021479888555338
  0.8010285750131441  0.6019465129238540  0.2049770468411193
  0.7987097857414021  0.6049938548434425  0.6153805771732083
  0.8002842893265183  0.6012285536451013  0.8048219911989773
  0.8004633596508497  0.8025184135126129  0.0018140022534596
  0.7990840004996338  0.8011968474596131  0.2016048092371371
  0.7975635447510612  0.8154203577365804  0.3985835381650966
  0.7910425499691039  0.8026085078235181  0.6024970064767884
  0.7989428527538148  0.8012329776783778  0.8035923881520423
  0.9957061024883606  0.0012028926642296  0.1945140938785687
  0.2035165930532359  0.1988721697790005  0.7988302999112861
  0.1989909584648254  0.5955640624005841  0.6007523569593067
  0.3985920634763850  0.9992813343036232  0.1997515004637596
  0.4010365020885444  0.1987064609334651  0.6018521510156263
  0.4008687284942525  0.5983981452384681  0.4027681522718917
  0.0011969922423078  0.3998595162453627  0.2004374643217939
