Zr Ti V  Cr W 
 1.0000000000000000
    15.4149939690695010   -0.0041197707411214    0.0051244012526811
    -0.0041210926464625   15.4234402589122102   -0.0060663359120509
     0.0051270839828618   -0.0060686626181498   15.4040961855710652
 Zr  Ti  V   Cr  W  
   3  13 106   1   1
Direct
  0.9892641431749307  0.7845367147716640  0.7978756110848942
  0.2057712720726447  0.4392214779075784  0.7995169532685255
  0.8123101590130071  0.6060960860278661  0.7938226867307023
  0.9978733519149652  0.3999679012169070  0.4085996395758971
  0.9944877131299525  0.6004201112688508  0.4052605377060868
  0.9882316244517035  0.6099182128982648  0.6236237259168882
  0.9961688203098810  0.8038116866580798  0.4014805775115590
  0.2004373779267435  0.9870902598120707  0.7979298937997145
  0.1989111900941079  0.2024630986720119  0.8042284271717280
  0.2068837890053027  0.6025241409870717  0.4095316718579712
  0.3928540571876420  0.7995215052711158  0.1988009589430177
  0.3998560345714027  0.8061068580877631  0.8025348243056617
  0.6007373309998140  0.7992178190785554  0.9897617635944547
  0.6049515929124025  0.7976048385769315  0.2007335390885150
  0.5991213183060966  0.7922219621008731  0.5992712437470933
  0.7961750689596788  0.9926610755118286  0.9976821128184290
  0.0025099832993543  0.9972405573173587  0.9979132603403057
  0.9990862154725004  0.9997467218347771  0.1990770793302372
  0.9987584817719080  0.0025761257341759  0.3990873978853040
  0.9997538014503715  0.9997859513380957  0.6004365986661354
  0.9965482375713030  0.9972591626242179  0.7989025309067370
  0.9984568169170740  0.1961261133510549  0.9997132748144326
  0.0002550587154696  0.1994565351765548  0.1992150512562732
  0.9990789169072103  0.1977905049515871  0.4009792370913560
  0.9998872096833792  0.1995036406500711  0.6013528186954126
  0.9996177454772655  0.1957149815097611  0.8014674439258451
  0.0026213090006022  0.3951750159508590  0.0019168234617346
  0.0002432428386745  0.3992911118408470  0.2000829108599708
  0.0016011711327391  0.3984123398925786  0.6051863312698661
  0.0013599817575372  0.3930103516223153  0.8020715410950184
  0.0017936879158382  0.5985284546672637  0.0062930994397870
  0.0012014349034273  0.5987847630572765  0.2026507064035095
  0.0190567482105912  0.5831659174606880  0.8166039615258407
  0.0005736895784637  0.7976970491300853  0.0042889615168755
  0.9989238957089031  0.7996789209110514  0.1996758777957524
  0.0006743978794141  0.8043639302887842  0.5927706171574476
  0.2001703067829979  0.9959153185001191  0.0007129219010922
  0.1993479879012426  0.0005020397239319  0.1992692343257141
  0.1999269302534614  0.9990347976152802  0.3998979481140721
  0.1995959576239799  0.9998130667571092  0.5977166459695139
  0.3324128911339045  0.1999029130868204  0.1327768211498450
  0.1977351968970326  0.2007189663996098  0.2024988630069244
  0.2000667457187522  0.1999804822412821  0.3997664127005816
  0.1993198309386768  0.1994258625480997  0.6002995281304452
  0.2023375246461130  0.4043679730806551  0.0057813353526190
  0.1995852071385803  0.4011301183162559  0.2027997977029937
  0.2018147200261358  0.4008922404861270  0.4015263953801581
  0.1999583228247675  0.4023407675968649  0.5958064108176476
  0.2034790174412442  0.6009178407843632  0.0012330785390213
  0.2006395337594502  0.6018914390289404  0.2024613740560757
  0.2025801253189816  0.6019866468447989  0.6053490404867989
  0.2082572974076260  0.6277117629320978  0.8020847980307306
  0.1982686210495718  0.7991859571607806  0.0002005250433537
  0.1948228800007879  0.7989261421009747  0.2031111724106377
  0.1994906210206263  0.8012338144642086  0.4028013635810346
  0.1990035447178736  0.8005562068009402  0.7979446333735393
  0.3984317549911539  0.0012510717619581  0.9993517914607990
  0.3990007942269689  0.0011975556742883  0.1989896851007892
  0.4001959971291255  0.0006313858664437  0.3983970384249600
  0.3995628276431172  0.0000537006899897  0.6000753998424222
  0.4026380182978180  0.0045113949000852  0.7991657033151441
  0.4006173327348450  0.1998697229221549  0.9980939390194099
  0.3999493763708639  0.1995756128928706  0.4013049451276933
  0.3988481303852592  0.2015008780301408  0.6003046444436396
  0.4013904869690911  0.2010463147078307  0.8004348562295243
  0.4006720201344614  0.3978874565989348  0.0006181870206989
  0.4000769015198724  0.4012727367091635  0.2003970604118355
  0.4009057925072657  0.3992009574976496  0.3993928592048257
  0.3991609365737748  0.4000348742890129  0.6013083870168755
  0.4069219268275555  0.4005301959556284  0.8001514485943491
  0.4034029505641040  0.6013252144727981  0.0005219051847430
  0.4010401144921543  0.5984583357178893  0.2002317683108345
  0.4031260646381657  0.6012263422354096  0.4012071057622792
  0.4037793869268588  0.6025797053824489  0.6017950691648968
  0.4024206125528241  0.5993529832119403  0.8019008253788678
  0.3977754428593984  0.8001793488718700  0.0022872331216337
  0.3992845254749550  0.8020094609211181  0.4011217365195462
  0.3955369254969444  0.8007455534801033  0.5980877146649444
  0.5966807608862618  0.0006422993823304  0.9984243078679336
  0.5987655019953998  0.0014739024285141  0.1978034096984032
  0.5982004031994829  0.9999030279090363  0.3994438364973029
  0.5994315442118235  0.0001555100988218  0.5982928842757151
  0.5994749559365511  0.0013932660244704  0.7978209258340929
  0.5998368822687318  0.2002712814806795  0.9989725111810310
  0.6015227205869330  0.2003740591550415  0.1989497614159754
  0.5988974564569797  0.2002273481065285  0.3989020344328324
  0.6005248014410784  0.2017102747773201  0.5996747524677253
  0.6014367017840084  0.2010214709158539  0.7986030185193056
  0.6017213299725348  0.4013293739872884  0.9989761002041099
  0.6002590804251640  0.4001457705607916  0.1992071263896389
  0.5998914337386575  0.3998809251832559  0.3992567627195029
  0.6006446731853886  0.4031949168129964  0.5995461376131621
  0.6046824625375258  0.4014872102524542  0.7997150761747802
  0.6018256126778906  0.5989019681809548  0.9969392764535976
  0.6006434659423578  0.5989012388137491  0.2002087716386050
  0.5979629619266849  0.6009482423454370  0.4037195602344800
  0.5999136631688170  0.6017085000018002  0.7947512872011226
  0.5987432763192894  0.8004871584439024  0.3978828164988049
  0.5986303221296152  0.8003833945790860  0.7959890212738024
  0.7998101926557408  0.9983331831261554  0.1999048230554498
  0.7976583185196895  0.9988013034653236  0.3988082169738922
  0.7988637192539935  0.9989442983984032  0.5971677102933493
  0.7985114263178176  0.0017000758022552  0.7950556724502611
  0.8005302670152600  0.2002833808445305  0.9991412880170878
  0.8001196613743567  0.1998598149254779  0.1995621057755760
  0.7990609948426665  0.1994401814429352  0.3994002367353632
  0.8005742188916883  0.2003931372687483  0.5982352654991070
  0.7994212382028988  0.1992577409682060  0.7982673576838654
  0.8016440984926857  0.4007993094621988  0.9986999644953851
  0.8014901391321033  0.4013470375746831  0.2001140045088958
  0.7978098637386930  0.4003007895071634  0.3988896189161821
  0.8025951301873901  0.4022021823797676  0.5980042884312974
  0.8030296191871588  0.3977605544612213  0.7992356661743391
  0.8015316982001592  0.5990173629689848  0.0024476777471420
  0.7996823280242704  0.6008120425636702  0.1996663779043531
  0.7960516733513990  0.6016826075757835  0.3971491833134788
  0.7911195013062546  0.6014102842979312  0.5909438869550730
  0.8041050335861444  0.7953867856982159  0.9952546377828185
  0.8026088577625089  0.7992583611530659  0.1982100758456726
  0.7963818120259675  0.8011446883149421  0.3980538534816214
  0.8033360628100176  0.7992595595417196  0.5967578245401161
  0.7880512680770526  0.8112828790337443  0.7971257561895129
  0.1979660507135100  0.8010515462051750  0.5993825216334626
  0.5997335120192439  0.5955391464525696  0.6005971208745036
