Zr V  Cr W 
 1.0000000000000000
    15.4863295998759050    0.0024137293282322    0.0105674120120943
     0.0024156779473548   15.5040449564505511   -0.0174543962439357
     0.0105707746262879   -0.0174578174046017   15.4782021514271442
 Zr  V   Cr  W  
  10 107   6   1
Direct
  0.0004410675907567  0.9679945457797628  0.7582673479239966
  0.9977974836718108  0.1992564887675958  0.6074936246572034
  0.0004044931342426  0.4336873270037286  0.0389098798940581
  0.0038804693013079  0.5779182003246937  0.2207466676338225
  0.9609832502083173  0.7912309289549530  0.1944797503783148
  0.0029590777408648  0.7959972802887647  0.5994166930580885
  0.1968748906308390  0.5971888158939709  0.5995067032619782
  0.3584152951288666  0.8031946881406183  0.1996563721524140
  0.8322762787710432  0.4314479183329785  0.3976750086370789
  0.7503494881581680  0.7916473616155854  0.1986965316246839
  0.0008524758913281  0.0061784411396460  0.9986820945230498
  0.0035276030951759  0.9983766254339100  0.3936450420699115
  0.0012165225910768  0.0014028056232365  0.5714585725225462
  0.0004919289358196  0.1992783649879222  0.2017927388103814
  0.0007517613129846  0.2000919496808162  0.3998604904837212
  0.0018617793825084  0.2063897029223578  0.8092357698868663
  0.9989299303108286  0.3864398038870550  0.2305892910455619
  0.0193808681934159  0.3992388538211596  0.4081365488054412
  0.9978971328949657  0.4024788823549219  0.6008035733908642
  0.0001614516550643  0.3979218641802345  0.8012532759710013
  0.0006622801535845  0.6231886463911211  0.0132390825758339
  0.0053465570776652  0.6055365782538229  0.4178021001684985
  0.9940761861421122  0.5949748393293038  0.6095896707711497
  0.0006815346173692  0.5915250127197389  0.8097011377301822
  0.0013877094352095  0.8116353315995765  0.9930553315295300
  0.0027281122299605  0.7998584651035436  0.3958641544522804
  0.0002977615082967  0.7815720872867595  0.8046609334067431
  0.1995539317623853  0.0026985531238115  0.9978800092024611
  0.1999315981981413  0.0021686301432753  0.1986986834176502
  0.2020049355378631  0.9995441155072170  0.3968254118323106
  0.2014112892642711  0.0004999616344812  0.5971079256681519
  0.2032975787190186  0.9999849050573606  0.7992827015048382
  0.2016781472324715  0.2025273128960811  0.9994827122443248
  0.2008121828412775  0.2005088771883919  0.1990987943968931
  0.2025016354508081  0.1992165834087708  0.3989896421726636
  0.2010742686140831  0.1975100649753260  0.8003396801128526
  0.2029963764588958  0.4013272257420106  0.0008692680279190
  0.1982445130128197  0.3995483926932648  0.1991588722046540
  0.2064156598616728  0.4028405618786217  0.3992525001301072
  0.2015313578344645  0.3982929246926925  0.6667049526737417
  0.2018514750931871  0.6024506940730975  0.0014443451993738
  0.2066296996360307  0.6011075053017665  0.1994040950421902
  0.2011129319669515  0.6011297537794561  0.3938205118860298
  0.2008054395957552  0.6027422972454779  0.8061232582732373
  0.1996296566931721  0.8033362899401583  0.0004839242775596
  0.1713910377594546  0.7975132177311013  0.1976638706139138
  0.1996333785356079  0.8003090686734159  0.3976727655610032
  0.2080282134169323  0.8026885708183815  0.5987932520960315
  0.1997049896635913  0.8005065410777288  0.7993701623836303
  0.4014260340380154  0.0007304015604186  0.9986345339016894
  0.4019857679905470  0.0038934033334350  0.1985836027673650
  0.4002992980444235  0.9991502701907421  0.3991013106067391
  0.4024910489011291  0.0007084090355387  0.5984577358477037
  0.4010993966796242  0.9987887379272509  0.7973678836760817
  0.4011023039368736  0.2002013363946054  0.9988671079589303
  0.4007346522168623  0.2005659204530113  0.1997522663539857
  0.4006753024767070  0.1991332853807556  0.3996841257301249
  0.4023640148954805  0.1999960898799769  0.5991862414945915
  0.3995333133520135  0.4000072175618175  0.9984270402916302
  0.3996094669647516  0.3979486860818937  0.1992545964097885
  0.4013513214251405  0.3992512161741528  0.4002411694543707
  0.4004640532770501  0.3998146430615375  0.6015988595154940
  0.4021022992422221  0.3998752059273730  0.7989034465958400
  0.4024573102080102  0.6010121854051456  0.0000093755855193
  0.4041526352285217  0.5942905145552368  0.2005845801132393
  0.4017603516141061  0.6012106620424477  0.4005481979339594
  0.4051651946308533  0.5992395908223102  0.5992556549307675
  0.4009129250430397  0.5995131248856245  0.8006900139509856
  0.3997388853867073  0.8011432148684730  0.9950793614742351
  0.4006047028511840  0.7997996641948366  0.4030111991466269
  0.4019989801021929  0.8004403356132900  0.6006840620665953
  0.4010839991444366  0.7990162632094150  0.7990129289068039
  0.6006729211312811  0.9992840174930347  0.9986427151744860
  0.6006058588060047  0.9963298712098728  0.1988498586292206
  0.6007573099616267  0.9977712897537209  0.3979481695081924
  0.6011444766153564  0.9993188299165626  0.5971012323158194
  0.6012006617182117  0.9977901296265198  0.7977652853505460
  0.5993622525822182  0.1986726561823229  0.9998124877002034
  0.6011310440109277  0.2001658891704290  0.1988346470238999
  0.6001231439673494  0.1989431057454951  0.5990553539344754
  0.6009449283348269  0.1994252012190875  0.7997628835953055
  0.6006870448216143  0.3990463664189672  0.9991139610292633
  0.6013702031097319  0.4003645085352640  0.1993418390838463
  0.5999865622580315  0.3984958367692765  0.3980234379355502
  0.6013759994803102  0.3995852258492952  0.5975164713828461
  0.6002487148398933  0.4001300832096815  0.7991595017552383
  0.6024044784664414  0.5998918731566886  0.0038640350888026
  0.6049817780439829  0.5993946073294832  0.3955535772994872
  0.6019284916631059  0.5995686427922723  0.5969491289344923
  0.6031766322922109  0.6001140311301146  0.8014938545113718
  0.6011536365206285  0.8005950577488151  0.9983382110071374
  0.5644663052983268  0.7907403040336892  0.1991135544893267
  0.5995464068504666  0.7998273571546037  0.3985301991376060
  0.6014065676675082  0.7993780316824793  0.5984660447612489
  0.6004117322180124  0.7981642292346374  0.7986270997929906
  0.8014874792426711  0.0013454206590620  0.9971820488479759
  0.8010011522933167  0.9974979945401364  0.1982917149593950
  0.8000845438311180  0.0007122662777099  0.3980795369167964
  0.8023787438583252  0.0001139575383259  0.5989478366009729
  0.7986878901646194  0.0001073620344509  0.7988306687314353
  0.7995089401526221  0.2002255860978500  0.9994686370607275
  0.7990883946198298  0.1994408205858848  0.1986470849341707
  0.7994856153305856  0.1967145451557841  0.3984950584882043
  0.7944660863558776  0.2015131192571034  0.5994100317304066
  0.8004802518617566  0.1990824985196657  0.8012508841916296
  0.8024292879167528  0.3976741647031409  0.1951762363396637
  0.7980993421775823  0.4001486117499785  0.6004773558419353
  0.8000486083895422  0.4002365897613594  0.8003442514068092
  0.8033829528666804  0.6007546543214637  0.0004137570747882
  0.7939835276298327  0.5945418907595774  0.2080001664189578
  0.8029451117089789  0.6187877270333872  0.4038554288734378
  0.7988281340538118  0.6001103173886738  0.6006592341514946
  0.8014688774902650  0.5995701385569072  0.8025747398348778
  0.8023784313931469  0.8024406778264656  0.9976988182814395
  0.8066023697498883  0.8064766812486601  0.4013892510939466
  0.7960730945979931  0.8002718586374657  0.6006654765887792
  0.8008579115833918  0.7988209180472924  0.7989558409010180
  0.9996807799392833  0.0028882509298787  0.1973590360605229
  0.0004692676501703  0.2011661471949412  0.0035676463011288
  0.2049304176249339  0.2017603559377477  0.5999607442709783
  0.4016002713844396  0.1997079023975725  0.7994709952763901
  0.5998526930766440  0.1984978475154760  0.3982690348802448
  0.7978648032616725  0.3995782125954994  0.9983696623918973
  0.6014301386009393  0.5981602528899147  0.1989800040605431
