Zr V  Cr
 1.0000000000000000
    15.5364267418827353    0.0141760265446098   -0.0034442262972265
     0.0141671620811882   15.5240745923983035    0.0049821264813726
    -0.0034426786392167    0.0049831204927505   15.5354998368454975
 Zr  V   Cr 
   5 117   2
Direct
  0.9512796511445553  0.4083768315422974  0.3981029249217657
  0.1990895852450542  0.5996240583084418  0.5590751485971951
  0.2007456325423154  0.7960846530115263  0.2046109873267888
  0.8004857198810238  0.1990472994355802  0.3988991222727677
  0.8053341390137252  0.5962010264302743  0.3989244029266603
  0.9996455501849018  0.0004279015729398  0.0005955237878048
  0.9999799450384090  0.9995098347880762  0.2001274624365418
  0.0015678922391451  0.0006807597592573  0.4002453682004329
  0.9997488970065377  0.0002884996039871  0.6004551653635511
  0.0007526709763719  0.9995400919441798  0.8005031794912231
  0.0032709458999980  0.1991070524557094  0.9995979183573959
  0.0066718754808537  0.1981478736857497  0.4010319362353780
  0.9999487888478822  0.1995383554561359  0.8020331030599148
  0.9986350896420471  0.3986591888111445  0.9995660031487925
  0.0015189554730276  0.3992641992490499  0.1959333932343604
  0.0004580290007867  0.4001845473507188  0.6043469254909284
  0.9998004649577020  0.4002023447726598  0.7998116276619283
  0.0004857903440483  0.6006303302275026  0.0003358433922933
  0.0015603312858203  0.5988467963712398  0.1986873100285595
  0.0129638801599688  0.6079047853127476  0.4007608624063358
  0.9982780548027212  0.6013650303951084  0.6025936264512357
  0.0023236777432434  0.6003697611598589  0.8009382625707805
  0.0012682737211060  0.7994756041741937  0.0004591736264148
  0.9963340510614318  0.8001879130206843  0.2012175803676713
  0.9997629655554733  0.8031059857537005  0.4019813664178568
  0.9994897814741120  0.8012970445882923  0.6020696104345030
  0.0008354144424458  0.7997926378271262  0.8002066986858772
  0.2010082391998381  0.9998286677301570  0.9998194804521026
  0.2009768697289182  0.0020381286395303  0.2008448186025447
  0.2007636919888514  0.0006305979089702  0.4001024918427727
  0.2005248035279509  0.0014545744619449  0.5994055741307712
  0.2004614652521312  0.0005107090769061  0.7997129443445190
  0.2007248665849152  0.2000313631581967  0.9998949800280325
  0.2008220601610236  0.1998997105047634  0.2004124324946427
  0.1989349669661104  0.2031616751791853  0.4000198459970782
  0.1998612458558345  0.2004834868095091  0.5992972232996985
  0.2006686679613224  0.2001311196123525  0.7989860736778072
  0.2010909952593296  0.3989211586260436  0.9996941164838873
  0.1992297942737662  0.3961787834297495  0.2001212803310564
  0.2064002043427797  0.4044014721335925  0.3993398508587025
  0.1985937896749614  0.3966381551087616  0.5983947966672408
  0.2001899392986922  0.4010989089078825  0.7994577033039160
  0.2014771782711830  0.5989050424140002  0.9994382083447428
  0.2019614762648549  0.5929962481826500  0.1942170451522402
  0.2042279100578168  0.6036499813385656  0.3680329449362920
  0.2014236958297260  0.5996790861016473  0.8035573297569448
  0.2009655992960356  0.8007489187079343  0.9984037016929419
  0.2019597048856694  0.8007574676826581  0.4069428828471933
  0.2008282225340446  0.8041676985039160  0.6027846944583758
  0.2008914456665446  0.7988427839457719  0.7995201936059326
  0.4005337533773216  0.9986952628890826  0.0004861874175535
  0.4013368241798221  0.9994623567060626  0.2002021269931646
  0.3990538915743395  0.9986543086233405  0.4005733637475649
  0.4009301917464499  0.0001938353018778  0.6003982929466528
  0.4005745519136045  0.9991903957832560  0.8006129215921465
  0.3999228577942382  0.1990256364062645  0.0001803826499534
  0.3996152846269180  0.1995319481292011  0.2003718433685058
  0.3971973227029690  0.1987325329910903  0.4001924607741814
  0.3996298729772717  0.1995829526499843  0.6003164570110420
  0.3996402877423817  0.1995859977501385  0.8000901950193597
  0.3997622251478725  0.4002618149034926  0.9994809869416933
  0.4011435271847070  0.3988437617594092  0.1990619010178978
  0.3998132996968684  0.4001060291878011  0.4001966189246605
  0.4001767347657243  0.3992232027357804  0.6024191725201443
  0.3998729769923931  0.4002054125553509  0.7999690217223966
  0.4024408909540000  0.5999618898552128  0.0006146253162365
  0.4031779860303055  0.5977988716077710  0.1989448951680233
  0.3986945237013396  0.6018009057306617  0.3999131673798846
  0.4033993509823842  0.5992390869839642  0.6005935869116786
  0.3995732898408076  0.6000980143671879  0.7994502352254925
  0.4009870067819771  0.7993697445349838  0.0001271415302306
  0.4057785716891573  0.7990199602690284  0.2008562994088341
  0.4016304032549045  0.8004791911357442  0.4018467915930256
  0.4018433802720944  0.8000570283842686  0.6019024480928435
  0.4006956565027250  0.7992280427456593  0.7999247144112065
  0.6014172864048749  0.9997788161316790  0.0007214217505525
  0.6008379432426457  0.9985771847017302  0.2008897954180224
  0.5989388320850865  0.9976794750978850  0.4001191516666230
  0.6009505155941640  0.9991890158114133  0.6004347700438151
  0.6005246962387473  0.9990490119174433  0.8003139332594709
  0.5974783376047542  0.1989776093243655  0.0002830046727694
  0.6005002500761071  0.1990409347454302  0.1992910938625221
  0.5929117652777098  0.1959873541198239  0.4009785938811680
  0.5989643339262668  0.1991457418248334  0.6003855541820751
  0.6005608433152544  0.1991886517454595  0.8015905467649347
  0.6015619229752481  0.3980775496468092  0.0007105465560358
  0.5994596375646788  0.3987413568122895  0.1993850214049058
  0.5917293472922598  0.3998531074483348  0.4002533837887621
  0.5989266080990376  0.3989183096190441  0.6020830772218841
  0.5999687374914495  0.3996169348274954  0.8005118255074859
  0.6001790553095271  0.5995887015766427  0.0000750688491189
  0.6023696544040862  0.5977017228529831  0.2006040209611331
  0.5965740530002923  0.6013813376693083  0.3999320585543030
  0.6012719127076332  0.5987451149950530  0.5994565543234862
  0.6004135223129032  0.5992640933393316  0.8005024552651707
  0.6008424058808312  0.7988080194901622  0.0006660255538399
  0.6022818955685155  0.7987763276497896  0.2009448208800396
  0.6004054371341362  0.7981659061156829  0.4011130812326568
  0.6015444400456413  0.7993456222856874  0.6005469409822376
  0.6007399919461186  0.7989865114502321  0.8003743581041601
  0.8005825765062923  0.9961222003682174  0.0004712525202384
  0.8008811311053120  0.9998835404524001  0.1991948780459736
  0.7999641523703707  0.9946473461084273  0.4006638989622087
  0.8007198027661233  0.9996246593939608  0.6005690992792011
  0.8006141318305775  0.9998434004350865  0.8017044076525239
  0.8002098774459444  0.1969443465864514  0.1962169259079394
  0.7998904935398392  0.1984660489521184  0.6042531473621888
  0.8006531840626010  0.1996506433549356  0.7985989367734673
  0.7998356635214224  0.4012304729503622  0.9993736867255688
  0.7998308151779402  0.3635727151174504  0.1649304957968724
  0.7644184101826103  0.3983845108818857  0.4013908466798643
  0.7991976703722175  0.3979895154482948  0.6002994405168264
  0.7997557441698934  0.3986210704819886  0.8020892260671397
  0.8010832588239165  0.5990377954178566  0.9996046098042450
  0.8018728752000123  0.6002500394634696  0.1949180775757453
  0.8004459630206285  0.5995368962134341  0.6049367786014221
  0.8003485026586556  0.5989277358427116  0.8005966601875323
  0.8004205046084046  0.7990478079901830  0.9998837313063788
  0.8000740066200606  0.7982328780068633  0.2008959555004908
  0.8006419849884844  0.8006574077978054  0.4011572059422164
  0.8003072943985113  0.7989242050800941  0.6008182876614657
  0.8006653482384453  0.7989050751306284  0.8006924652894510
  0.0013666861060877  0.1995430326130823  0.1988677908745597
  0.0008881911214245  0.1999307916876482  0.6015310052258849
