Ti V  Cr W 
 1.0000000000000000
    15.3720038313806135    0.0023998420144863    0.0001449001601191
     0.0024007571799185   15.3633006247875361   -0.0006442210894229
     0.0001450310074229   -0.0006449824026597   15.3697544548857330
 Ti  V   Cr  W  
  15 105   1   3
Direct
  0.0037392727438663  0.3935728169931123  0.6013942043170921
  0.9912694033469810  0.7999026961704228  0.2037874590759830
  0.0086294695199258  0.7980084463888784  0.6021361415374598
  0.2016763961468257  0.2027243282505300  0.3986835451829059
  0.1959294126807331  0.2048563408929037  0.6094640597238810
  0.1977803924921797  0.3968214974911775  0.2013795520935846
  0.2027051220663674  0.7982557461216289  0.2009577927799495
  0.4007727114535990  0.9988360653051952  0.8026490274482966
  0.4024085946420841  0.6013365867466337  0.8007278825672098
  0.5979865961944503  0.9951892171538084  0.9987014483285567
  0.7919332401493956  0.1978648261780162  0.7954810673932522
  0.7995334121860610  0.4040765388234427  0.1929123219751830
  0.8015976500174794  0.5934110325265506  0.0030192558670338
  0.8065074935447367  0.7978654077754977  0.3917537841898652
  0.7978947564915472  0.7965386988381770  0.6043618916103147
  0.9993303572057305  0.0012112886223052  0.0006887660458716
  0.9987498002280200  0.0013475821611042  0.2013767872712011
  0.9980299487495677  0.9999826794493423  0.4003702204500529
  0.9990950827640880  0.0000264748061334  0.5987023618019417
  0.9996410785801121  0.9999761778817368  0.7988726094505433
  0.9993969262270972  0.1995415017816819  0.9990085827108702
  0.9991666004270328  0.1996264769681575  0.2010050378743647
  0.9980444994124250  0.1964240237657759  0.5979971473333943
  0.0068724702729736  0.1990615994532787  0.7997105668211724
  0.9966850770533388  0.3988396318472595  0.0001431036570299
  0.0001922325788304  0.3991539368256867  0.2005228354662080
  0.9999993281883589  0.3982676679293374  0.3972370188339066
  0.0004488259060373  0.3984925983893618  0.8017121937554883
  0.0024274874145431  0.6001676966883652  0.0017162215934086
  0.9994539578468571  0.5975252313884958  0.2013652294451120
  0.9998150518438649  0.5989738619616869  0.4004656811571503
  0.0003699131266052  0.5986834352486684  0.5986330160163391
  0.9989753239071355  0.6004944132095519  0.7991952352151188
  0.9995384103566666  0.7992484733849697  0.9997437615676744
  0.0030929790771641  0.7996083013106331  0.4011920270560286
  0.9990040524497723  0.8002537498383259  0.8026397643265275
  0.1979032479349215  0.9990244793752358  0.9992958552972683
  0.1977254456405395  0.0007742252097586  0.2011804452380876
  0.1992321281179616  0.9990648213517699  0.4010747927132261
  0.1994118795933959  0.9994711917347364  0.6000448034948243
  0.1980603583196080  0.9991409812757025  0.8003903296313546
  0.1995783063273072  0.1977150269247357  0.2002929901200973
  0.2007363973139054  0.1998407198145428  0.9012374019039319
  0.1987448370912845  0.4003206571825050  0.9974830783846300
  0.1992052783908549  0.4028027191040129  0.4053094629928997
  0.2032395387678269  0.4037969104301636  0.6022874537402741
  0.2001229926570277  0.4022274225407798  0.8009222587963829
  0.1990803448905557  0.5995164513232017  0.0007571213951341
  0.1990151147387208  0.6000439623438539  0.2017017365730301
  0.1985136382508261  0.6009986591221137  0.4005392866550910
  0.2000129188881735  0.6019739751270674  0.6006507492752445
  0.1972439262694570  0.6003535612362103  0.7997804394709599
  0.1992163371999281  0.7995850447030027  0.9986504506042745
  0.2005104275934350  0.8004481369083963  0.4036594602182757
  0.2048008237146475  0.8001963148375091  0.6020134723191953
  0.2002111899653355  0.7996139867866093  0.8003709068149994
  0.3954817144823378  0.0006835423085646  0.0037097524191641
  0.3982672249549449  0.0002709507112630  0.2008485807968128
  0.4025454215523336  0.9999145430755882  0.3996430648808215
  0.3990576757387153  0.0003504597020032  0.5974483279732549
  0.4005151198187850  0.1999185132055925  0.9989134424840319
  0.3991688747660826  0.2004263878053965  0.1974955502954964
  0.4019106610256255  0.2008857953810561  0.4002361052327083
  0.3995177266995321  0.2006004537302373  0.6004263101231050
  0.4035825378098977  0.2017124872852164  0.8005010694323367
  0.3986564370418950  0.4002233567379255  0.0006205224020479
  0.4018301235746722  0.3998335021764815  0.2001181406314047
  0.4003738542854652  0.4002426246097722  0.3996255961221041
  0.4012445767000606  0.4014945978880400  0.5997527338689642
  0.4000612634244189  0.3987638252034919  0.8006590869776670
  0.3992567361782919  0.5989923151953535  0.0033386751956812
  0.3995761245398826  0.5998785517083002  0.2010782843968966
  0.3995265160770157  0.6002994922949061  0.3992435088710507
  0.4008535706114790  0.6003877927742233  0.5969023513017254
  0.3992726566585713  0.7994096372141117  0.0002232143952834
  0.4011947579053081  0.7998169036531435  0.1993192565125613
  0.3995122311816373  0.7996930630541081  0.3990138591879090
  0.4005985504677617  0.7995277950966073  0.6011329484804759
  0.4013293690968468  0.8005449471279167  0.8008536076309848
  0.5993753658699056  0.9993762417032370  0.2048586196284281
  0.6005476295761760  0.9999997343730599  0.5945084246648845
  0.6040156739329025  0.0041587017182849  0.7945270001695240
  0.5996449430950940  0.2014582214903449  0.9951213703319346
  0.5992678402436566  0.1995562043197201  0.1979505520711945
  0.6004280945568837  0.1971488802055811  0.4005992524965122
  0.6008826053648038  0.2005024539657007  0.6029375596251791
  0.6042415445469461  0.4011466127518476  0.9994940219957362
  0.5976625824179721  0.4007736969172793  0.1999445668818922
  0.6010737095779142  0.3987447788054546  0.4001332852625084
  0.6006404187897587  0.4008422117059791  0.5997544815265770
  0.6008988043352945  0.3974825107979365  0.7992534977949040
  0.5969855217025732  0.6001204043157641  0.9995772047340181
  0.6001810847889190  0.6014330670042312  0.2016640034067091
  0.6016745017465983  0.6018133741111011  0.4000752970827281
  0.6008358373897863  0.6006073723976534  0.5988993943929333
  0.6033389058691835  0.6008075392379276  0.7988674853265800
  0.5994745358843658  0.7974736560228273  0.9983361926409023
  0.5987650883349704  0.8003572994232278  0.1978249799628857
  0.5988459316840861  0.8043609524990178  0.3998736300218722
  0.5988608745725216  0.8005489729212717  0.6001523572584743
  0.6005344289621387  0.8027729792309274  0.7997347982302032
  0.8019665861210244  0.9994498459982936  0.9996339135324158
  0.7991193631419240  0.0001866900922537  0.1987647405868184
  0.7963398819776581  0.0014889642183971  0.3989015890597391
  0.8016088635247987  0.9998464371470815  0.5979141759568363
  0.8012944130275101  0.9975700121636253  0.7987965459165567
  0.8001893143776827  0.2022771141960852  0.0009190790250100
  0.7985231672730898  0.1987612404470348  0.1982369574294797
  0.7995322254346657  0.2016667971179449  0.3974339513294117
  0.8010817494889251  0.2014796620984065  0.5966960668209812
  0.8003478538032081  0.4001029431666403  0.4003157723221846
  0.7999939903849750  0.3998068398193393  0.6001388379729787
  0.8011365460170856  0.4031251922893239  0.8012856170157593
  0.7990833423088355  0.6038500267907269  0.2031714425504695
  0.8014430448909924  0.5970830147633724  0.4002152772570620
  0.8015415818936221  0.5974089308916916  0.5992647679679592
  0.8009458025024272  0.6009096478688929  0.7975822486844144
  0.7989237917755162  0.7999522603606666  0.9987711592548437
  0.7952374475432428  0.7999629023513993  0.1938847859844001
  0.7998731843103645  0.7991475503156414  0.8027538732788063
  0.9965872176586104  0.1996218576496550  0.3996376661468214
  0.6001018656652456  0.0009584261119986  0.3994798474763738
  0.5977180175143723  0.2003851483020991  0.7978565254209445
  0.8004876720216478  0.3983891261239353  0.9957484127138121
