Zr Ti V  Cr W 
 1.0000000000000000
    15.3990340272275770   -0.0170018773457157   -0.0022529018582575
    -0.0170107766548915   15.3787801482628375    0.0165544931564424
    -0.0022517709109467    0.0165430754876648   15.4057927644380346
 Zr  Ti  V   Cr  W  
   3  13 106   1   1
Direct
  0.1890881966507574  0.2017434288098000  0.3731298477113105
  0.2049228833621229  0.6160129154778516  0.3824085771496994
  0.3854465448065820  0.7959549107692364  0.3895055104089719
  0.0021884011192115  0.9994728555003952  0.0025735455008185
  0.9995337376369472  0.1647232446016822  0.7952119081742164
  0.2045961265320414  0.1996166087031388  0.1751896087014896
  0.2033009388036549  0.5893491555248120  0.1828661075418847
  0.2112110138117060  0.7982019054974298  0.2121632512106538
  0.3933867434447189  0.2044158234632282  0.5978503595305529
  0.6101447276461804  0.0161118371854583  0.5928697965005351
  0.6023723576809457  0.1928905283386334  0.4133206223289592
  0.5876425689051210  0.2034861647429996  0.8130608274898233
  0.7927645282720021  0.1996492620119001  0.1959479431160188
  0.7826479002771741  0.2000935364877026  0.5940692424555790
  0.7961353811959652  0.1973450225343039  0.8032373281459827
  0.7986293386265196  0.7976943951845732  0.1951466548233721
  0.0026302808669108  0.9993348802291349  0.2048383922408185
  0.0018587787856207  0.0016924555975737  0.5932458007345289
  0.0008857813448668  0.2004852079747717  0.0042668196924489
  0.0010335417166546  0.2002257711975878  0.2010607174707395
  0.9888854774591582  0.1969209265595540  0.4008375002708681
  0.9980154021164263  0.2001668119948041  0.5970337466997943
  0.0007861399792894  0.3989817494078500  0.0015918204293948
  0.0005033122951512  0.3987586017995366  0.2034384112086187
  0.0015348854517162  0.3984695366730384  0.4020516859637223
  0.9995492641079502  0.3989314958463438  0.6015750248778449
  0.0009716138677276  0.4014436422232777  0.8013034858712260
  0.0019660809720865  0.6007277826551682  0.0032291985825845
  0.0010825183978576  0.5992653101842610  0.2012732813521336
  0.9969635735075077  0.6009482961125076  0.3997570688954823
  0.0016392867880793  0.6016150059168264  0.5977402458518929
  0.0001230862453530  0.6008266982089415  0.8016890345561222
  0.0029475356468851  0.7997461565687525  0.0035137819597464
  0.0019719551610720  0.7997746298706222  0.2023124921447931
  0.9944288186067647  0.8061981456343075  0.4010777798176016
  0.9998718406594855  0.8026318157494947  0.6037994379027163
  0.0001364299991604  0.8010426104762634  0.8020323330517771
  0.2026146430835408  0.9989746768917589  0.0012847497395714
  0.2038877898986686  0.0032904034931640  0.2009932075186248
  0.1980799715118355  0.0013296364644968  0.4006765619016454
  0.2025365909394566  0.0037908291656081  0.6000592072150783
  0.1681896260488094  0.0015477540674709  0.7994344997342199
  0.1995157581685225  0.2004703436198232  0.9875355370157409
  0.1965173892148950  0.2034200919458844  0.5963535331337151
  0.1996278790408812  0.1985658558475127  0.7960224758485152
  0.2005537446821770  0.3988350845274985  0.0003468261618957
  0.2018355155819379  0.3950828955146173  0.2017820762123407
  0.2001382299349131  0.4042971710507361  0.4020964681540297
  0.2002308595942401  0.4023011881190403  0.5995690436761055
  0.1990312271917357  0.3988543646959155  0.8008112199145943
  0.2012668195993874  0.5993595785603050  0.9934124415502353
  0.2009761361801784  0.6020064400324613  0.5997211843290425
  0.2013639702361570  0.6005191714556093  0.7981974945045475
  0.2020131395575579  0.7991798627185797  0.9998928859180137
  0.1872604839810394  0.8126260468396364  0.4092982567569479
  0.2005097894148438  0.8021402888476010  0.6039004223846407
  0.1985412490811437  0.8050648215544892  0.8019670899605839
  0.4012145650720251  0.9996287829790981  0.0022321209600583
  0.4024274828825310  0.9975930167022679  0.2018301684201929
  0.3996313711782507  0.0047229999381416  0.4005410219166799
  0.4016654991188998  0.0006859800614962  0.7980768378512493
  0.3997473767055020  0.1986339620250863  0.0017637684261322
  0.4014707914568133  0.1988850607354296  0.2011989977982725
  0.3983570939838305  0.1988443031808204  0.3987461717871768
  0.3950125588998617  0.1994433459809291  0.8044645399566144
  0.4011212175590462  0.3991129537188944  0.0023611377687551
  0.4021095454787358  0.3978195037618552  0.2026248043188603
  0.4011912770404844  0.3948781977177783  0.4023381719526257
  0.4002017877076490  0.4027540998058319  0.6015893163729233
  0.4004112667939762  0.3997409536017774  0.8008655013831529
  0.4013113672464335  0.5990010878554313  0.0014386535740381
  0.4045242268884507  0.5969809426545314  0.2005438071974502
  0.4098861367814821  0.5905845743270531  0.4003841326549819
  0.4015191855932234  0.5998357533328109  0.5992753274429853
  0.4009719395818360  0.6004763689900144  0.8015184875711511
  0.4003387290447520  0.7997192769571639  0.9977133785745823
  0.4064696193176705  0.7990877126035774  0.1911156522227476
  0.4005220777743785  0.8014364147582841  0.6016292272465252
  0.4004264081352988  0.8007445189626651  0.7996836422596741
  0.6015268848636126  0.0006602168106218  0.0013363886366320
  0.6018777731065462  0.0000602673863952  0.2023399726502332
  0.5995774044913063  0.9954821702399239  0.3984800261942781
  0.6000350577982858  0.0012119277962041  0.8018382975478545
  0.6000329948839678  0.1999349217706899  0.0080843751595068
  0.5971507783620517  0.1985518649236524  0.2029404379961547
  0.5905352752751832  0.2077137582752403  0.6092561483946413
  0.6018665482649318  0.3998397280810192  0.0020154314858580
  0.6011942549391062  0.3980431990709482  0.2036889420377152
  0.6020303313716422  0.3995982277876658  0.4028455454500325
  0.6005283846307271  0.4034528117374380  0.6032716207057200
  0.6009790307318517  0.4026170405906965  0.8028524595407690
  0.6012236491629728  0.5998353566025009  0.0021223398484188
  0.6030833451844535  0.5998309068816270  0.2011743213410669
  0.6035321768233617  0.5992621038442972  0.4005962023448359
  0.6008130531650971  0.6030395149794546  0.6010210284327794
  0.6009934252877426  0.6009171852304208  0.8015041038100807
  0.6016857230494159  0.8005982161700841  0.0010247563384131
  0.5998530144176185  0.7995311651975967  0.2006905002744113
  0.5992933166397219  0.8003728307495193  0.4006654560071159
  0.5992309915283578  0.8024252855425089  0.6000660519709869
  0.5996948498141993  0.8024556775639287  0.8007735975148743
  0.8010344596788225  0.9998204343894513  0.0006421508871521
  0.8010075618780363  0.9999296243824907  0.1990095722921166
  0.8098467435026909  0.9969149246976466  0.3953078452814516
  0.8055161709694508  0.9967012842487766  0.5999327853233837
  0.7975434930227248  0.9999289710044635  0.7985479368968306
  0.8009214018584921  0.2008895455387258  0.9986445094834746
  0.7982564351546378  0.1986221029767876  0.3965382569847546
  0.8018691576570645  0.3994397105918921  0.0015051073220540
  0.8015198546293537  0.4000399269568972  0.2014656233513511
  0.8014090434886508  0.3980974136203858  0.4010308204600258
  0.8002457796647083  0.4019429395414629  0.6006219773938968
  0.8016773675209437  0.3992848402637565  0.8000720778574204
  0.8020821747972737  0.5990651749445324  0.0002973301541789
  0.8010248196532676  0.5966112175381743  0.1998911634070826
  0.8010379242748188  0.6004636729029915  0.3997226997811158
  0.8002655313428826  0.5999546824161277  0.6006585540368614
  0.8004739744163201  0.6009348893180623  0.8009798367088553
  0.8012712811785757  0.7994425778703212  0.9970384267165566
  0.7980685641298995  0.7998044659896824  0.4027107473896473
  0.7994437431841938  0.7993820434274005  0.6023977020341298
  0.8017014825590006  0.8027647129590468  0.8008919315809322
  0.3995833441420379  0.9988536291753422  0.5982416717940660
  0.0049734728161051  0.0040968350807183  0.3998317623702848
