Zr Ti V  Cr W 
 1.0000000000000000
    12.4460440271870478   -0.0309947616971239   -4.3989253883522315
    -6.2384413668072662   10.7678790108888940   -4.3662527767173627
    -0.0053679371909291    0.0306881249957397   13.1816589784411669
 Zr  Ti  V   Cr  W  
   3  15  75  16  15
Direct
  0.9921734697844443  0.7953669323151222  0.4004353064840819
  0.2090971637315765  0.7959444897969099  0.4034507586757778
  0.3855982779147038  0.2119833444756995  0.0014536707320819
  0.9978265244265276  0.0063671889270790  0.2005564009638662
  0.0045316488959695  0.6075257511484681  0.6081892249173624
  0.1964555098047638  0.3943593102462836  0.5935260680744762
  0.2005939146554849  0.5945582484990831  0.9978768288672563
  0.4051195039832747  0.2070352368370345  0.2116196745033141
  0.4016572179251429  0.6008050292781508  0.8032165736054739
  0.5979230583708192  0.9983095434178687  0.5962189607320358
  0.6035953250772359  0.0000068956480497  0.8048793684900697
  0.5958708885447136  0.2051695741698288  0.4004741385013862
  0.5979265375571891  0.3965833921504917  0.7949494252786588
  0.6134849612062541  0.8112631697284147  0.0101970936397885
  0.8033422474063734  0.9968192020769819  0.3965842918777781
  0.7968511442454747  0.1980307622100340  0.3922496674295147
  0.7948519827933638  0.4061782568479010  0.3954968617085675
  0.8078625382796306  0.3963184632093407  0.8072320275793249
  0.0082321148270684  0.0126273866087391  0.4046685674733428
  0.0019387260263097  0.0143670903120582  0.6098140572466846
  0.9970586397531164  0.0026982903405936  0.8022122066618896
  0.0008705868169452  0.2007605010835036  0.9987302359378842
  0.9950183579782997  0.1928986764571302  0.3881068124829041
  0.0026541301168697  0.2037262602119028  0.7981546529668784
  0.0000851610627051  0.3970885409742810  0.9974945616547510
  0.0006666898453331  0.3969450359541444  0.3959391761145190
  0.0007054646026800  0.3952855602960445  0.6044725013967919
  0.0038910108144170  0.6039595710942383  0.9973035776091255
  0.9927252320182236  0.5811648230390176  0.1878912289631387
  0.9955008154526075  0.5821322934608375  0.3925607163754369
  0.9947249366557485  0.8058113042626880  0.6114411275304936
  0.9986616097625007  0.7954769286577612  0.8012983447028332
  0.1952429105691975  0.9975029601627461  0.9963195521149892
  0.2012855715366747  0.9988091873896899  0.1974427862948719
  0.1998682679506784  0.0067257462237307  0.3981750714657031
  0.1881488452874535  0.2034474264331432  0.9312368924731026
  0.2043284970216624  0.2097162890860917  0.4051577955022007
  0.1928479467671460  0.1982731042624086  0.6009758720422316
  0.1982572006708206  0.3927305996201474  0.0047797110986054
  0.1972503253754434  0.4021214532815063  0.1991428844822126
  0.1974833397523966  0.3988374974232426  0.3935609996347073
  0.1919504679205800  0.3928036513115321  0.8002918393865459
  0.1990550112577717  0.5956714742991411  0.1987869274202403
  0.1950337204299302  0.5823603572374887  0.3938745549453305
  0.2038394029803288  0.6015360267170773  0.5992912770055482
  0.1926463883627159  0.7977148111354752  0.9927606693873532
  0.1991028173944467  0.7940257686486963  0.1904816003305156
  0.2034326693740861  0.8001249843970492  0.6154929249660570
  0.3928927009829624  0.9936244194950561  0.9935601715964609
  0.4032963766009200  0.0017206518975775  0.3996790930818480
  0.4085652858024438  0.0080061471529324  0.6192714909435239
  0.3942863479608773  0.1994638368913728  0.4062169263518650
  0.3971710395444869  0.2008291898583888  0.5951249266225188
  0.4025716016428861  0.2016503408607454  0.7957011437090408
  0.3990871666422189  0.4200605996128153  0.0050896452236107
  0.3964625786773212  0.4087693386841612  0.2027594376192342
  0.4024079788906185  0.4029162628114799  0.4030229277622706
  0.3975502005989730  0.5983043912734430  0.1948345561117057
  0.3984729080745666  0.5959359149313495  0.3982480845242584
  0.4003163193068254  0.5942213564949157  0.5962890551234626
  0.4004752170907437  0.7957545397048087  0.0015877037123854
  0.4043238426279438  0.8004505983017173  0.1998297564340306
  0.4061653378429581  0.7908250728976942  0.3928230635585214
  0.4024144231151821  0.7933726823465932  0.5990364587238221
  0.6025392124175009  0.0061415918265949  0.0057755051645715
  0.5999940295236875  0.0004406702402609  0.3921544541887569
  0.5933134541412265  0.2006527925555532  0.6006513918013461
  0.6073914607061135  0.2045458271713941  0.8101806658791388
  0.6017792329293122  0.3962638457570740  0.0027501363370826
  0.6013762186893641  0.4073828323800791  0.2092972463808776
  0.5965496826833849  0.4016143514684817  0.5944543316611172
  0.5991435695664517  0.5995487538139277  0.2001884426126173
  0.5970630188681857  0.5952075359900333  0.4009170995653683
  0.5991393408270467  0.6020862623354897  0.6020095321066432
  0.6021469033462469  0.6015775271605275  0.7948081301043943
  0.5999211282220992  0.7960958403422536  0.6020591388582200
  0.6020179491288591  0.7954629096777598  0.7977012600074413
  0.8033405322762966  0.0037238581577679  0.0032703513196160
  0.8062231720060393  0.0013749602251547  0.6063088043751567
  0.8025906873959138  0.0007805657342337  0.7988979032756289
  0.8058425127530431  0.2068717997363962  0.0047431426900326
  0.8033192341162213  0.1975931824632340  0.1931802268159581
  0.8044407782187973  0.1950578758799338  0.8065465151314672
  0.7983615708978272  0.3953581124530109  0.1872237287484299
  0.7902431723729842  0.5890067118474773  0.1928031944795006
  0.7962787187716411  0.6050120155992165  0.4017928987929228
  0.7928643571909457  0.5993900212378722  0.5981799074198711
  0.8045948219707327  0.6043090108354727  0.8014727983006825
  0.8024137717241531  0.7970415363289204  0.9927997575323100
  0.7973808075791595  0.8051741854766795  0.1986118102477593
  0.7894053950031394  0.7935548655775192  0.4009386414406491
  0.7992155591406410  0.8011265272063630  0.6033989969954853
  0.7975138384390192  0.7989239336787112  0.7970875114688066
  0.9997057376757340  0.2067929239314199  0.1966621033812546
  0.9993462888327345  0.2026382748364287  0.5986984253050990
  0.0000629661242229  0.3932654026245788  0.1954761771964380
  0.0024925471117263  0.3947573852585318  0.8006203274347855
  0.0001264265986709  0.5979468998538020  0.8045457035807008
  0.9999949118662369  0.8002452410595318  0.9975211478287704
  0.2021301534394426  0.8015197382986562  0.8037238967730811
  0.4026944140621301  0.0050035020721033  0.8059400718823022
  0.4021417595037089  0.4025368048734106  0.6006725987037010
  0.4063464791673138  0.6044475200840779  0.0067903311302348
  0.5993046772184158  0.9946727526837196  0.1950379710888553
  0.5988808014471984  0.1977659045784054  0.9963072248477175
  0.5985343895618479  0.4118118659934745  0.4055923155063875
  0.5973515851038155  0.7979469956685000  0.1973376443826759
  0.8017286938254282  0.0081858561652903  0.2009155411565541
  0.8017293090054320  0.3976074808188478  0.0028209197085672
  0.9974660117952050  0.9959381209289353  0.9951373691272447
  0.0020354818603435  0.7992602753721922  0.1928921878577653
  0.2056692846369093  0.0068208566358085  0.6060364906022702
  0.1923188772176219  0.9954822960581950  0.7970957579801742
  0.1969246848143466  0.2032666301251811  0.1977641019682156
  0.1946932886206491  0.5980778516529621  0.7964363706351262
  0.3974811469773414  0.9929890318836760  0.1944470688154029
  0.3947530431863919  0.3958640830653774  0.7966739629683830
  0.4040449905007267  0.8063584819092875  0.8040832977557762
  0.6000124645851376  0.1961738764942414  0.1889609744780815
  0.6000489055874987  0.5990877720817990  0.9996053782185449
  0.6005502670411761  0.7994944789254158  0.3979997270983283
  0.8013691836488981  0.1989280788975218  0.6026408020851212
  0.8059069323333387  0.4069309742889561  0.6065182842571996
  0.8024113274041329  0.5970155322614883  0.9991330134451238
