Zr Ti V  Cr W 
 1.0000000000000000
    15.4546529229448950   -0.0040749683285616   -0.0054037382233372
    -0.0040912970430347   15.4638570505567383   -0.0473148360752500
    -0.0053791826064366   -0.0472533129127416   15.4680791581891697
 Zr  Ti  V   Cr  W  
   7   3 108   1   5
Direct
  0.0049316523797767  0.0016905949517865  0.0338237927198595
  0.0095938724046018  0.1904655721071818  0.3946799733260399
  0.2040512265726726  0.9949394457074989  0.5998547290036053
  0.1978045398238696  0.8393708241383045  0.4198503524540707
  0.6034507804284787  0.0084057135174121  0.2145164017859439
  0.5995166660277180  0.1910367406074039  0.3931540869564131
  0.7678168429244688  0.0274938246268018  0.3883220034251598
  0.1936688947847095  0.0345455323202761  0.3838807883549007
  0.6104168384741259  0.3976406613646155  0.5974372255956851
  0.7888796027822633  0.5893796404380678  0.5954912318670293
  0.9987132397396282  0.0017154086675900  0.2225041519294049
  0.0028538653251640  0.9869564500134042  0.4054631879450943
  0.9942096999556395  0.9963295241473571  0.6012742691909886
  0.0015895826264925  0.2035769799586939  0.9952021933432592
  0.0007268724256879  0.2006097461067373  0.1900688461004874
  0.0006849762196979  0.1945113205326199  0.5993171759256016
  0.0010510738137708  0.2019149800693660  0.7956169820726399
  0.0008211206126585  0.4011694253720109  0.9944291657899955
  0.0001418135114215  0.4007001983552189  0.1984085320974141
  0.9984114372871017  0.4019433859691722  0.3994045115382451
  0.0013774611536854  0.3968838846094204  0.6021764282037766
  0.0011523136720711  0.5997114280802611  0.0016087682758645
  0.0009349169554767  0.6008952749641303  0.2005564202967169
  0.0012110047911384  0.5996420033003561  0.4004057295333092
  0.0025996779724009  0.5967257822941907  0.5978904979831583
  0.0007693627324959  0.5940671710023330  0.7980904660013354
  0.0000377285342187  0.7964993806282259  0.0006955692076709
  0.9998583195114320  0.8013114513211779  0.2030907151273295
  0.9939799801078318  0.7956235397761290  0.4030094975932312
  0.9984394115481854  0.7931430615320215  0.6025719244989152
  0.9956128240960515  0.7959670911930229  0.8009505327225578
  0.2055080782048354  0.0015959662938956  0.9967945294648899
  0.1963131932254867  0.0025398150651084  0.1926547486199824
  0.2026480066560580  0.2004331651995221  0.9983514004351045
  0.2004061071195182  0.2045631278079859  0.1976705581459545
  0.2006407558730937  0.2002376659888164  0.5924066122607189
  0.2013415248247971  0.1933749826609806  0.7955779979844724
  0.2020337801980691  0.3995342967285565  0.9994764250721251
  0.1997094593577315  0.4013156067921406  0.1972627776026365
  0.1971111738846733  0.4017728815814207  0.3983265105934129
  0.2014816439351174  0.3969568385836424  0.6000402344829692
  0.1966082804394801  0.3962832439420104  0.7992042564349017
  0.2018559704473377  0.6002213287134651  0.0004962739727350
  0.2000581928531268  0.6026996158947874  0.2022932180423307
  0.1997952729983187  0.5981119841060044  0.3999526880016835
  0.2035619621720210  0.5957663754609154  0.5994479598416704
  0.2002180303091195  0.5986947690307168  0.8020426104457875
  0.2001754725881099  0.8003746576913809  0.0033778042053071
  0.1987614376439039  0.8018842852484565  0.2034935674148279
  0.1986635316412411  0.7887689134958171  0.6127458786762814
  0.1979430931806793  0.8026873688346009  0.8064549533936551
  0.4034495454717325  0.0000237622232276  0.0043434498391961
  0.3946272159645359  0.0009367023032873  0.2017043452432824
  0.3872786310953077  0.9983635798670845  0.4027635461306855
  0.4057544108643953  0.9974433924154892  0.6050974544859471
  0.3984732561616918  0.9984431154937679  0.8018803711939341
  0.4014992784676180  0.2004658641279823  0.9989143300271310
  0.4018430459203229  0.2003304301397788  0.1994509947282306
  0.3951474221620078  0.1989562542133401  0.3999111617965643
  0.4033168018334063  0.1985189110784971  0.5975275010220693
  0.4004313364797806  0.2005413315901217  0.7974474275693759
  0.4011630738561824  0.4001938391785876  0.9992867530710891
  0.3998789504893268  0.4012312959438140  0.2007656490905601
  0.4029837830236675  0.3974969032633058  0.3998574040975476
  0.3995327533537750  0.4011616086194135  0.5990494237569560
  0.3996010905925233  0.3972077397870842  0.7986096103037178
  0.4000961175489693  0.6000369151383352  0.0003985242211073
  0.3994278769252557  0.6000156227946070  0.2022649743428176
  0.3974556578697146  0.5994595390867817  0.4034561973434982
  0.3997736707602735  0.5988595800790234  0.7970970555417367
  0.4023154639236926  0.7993403737181671  0.0014968376592212
  0.3995969861446106  0.8015207161936625  0.2042824995701637
  0.4009315385463428  0.7972569144613714  0.4016467797186168
  0.4028298746637162  0.7914243326750527  0.6029278610883398
  0.4005874594663571  0.7988411098131223  0.8028911375010773
  0.6000842728542256  0.9997619127872491  0.0018250422180899
  0.5768110087168816  0.9858573091378132  0.4166697238621547
  0.5999176058287439  0.9954694101546535  0.6078144011773463
  0.5983003358215816  0.0010970073266924  0.8037803628958374
  0.6010576179027054  0.2000772963602483  0.9975765512821213
  0.6014804266015248  0.2105870757376858  0.1896361317463303
  0.6016335614234890  0.1968637820231751  0.6009521442644724
  0.6014228098733782  0.1993166607691409  0.7980394879491132
  0.6011752730227581  0.4011050386700530  0.9979564605856386
  0.6020824886859354  0.4029268212347138  0.1983851127728198
  0.6005489892399243  0.3998504429951067  0.3960218233492281
  0.6027023218119795  0.3987734305871155  0.8013543108844652
  0.5989772989850006  0.6011638423240102  0.9987516474458901
  0.5989409898443733  0.6005009392719434  0.2005889270385660
  0.5977518646810904  0.5973773134089777  0.3999797938517148
  0.5918258177554965  0.6006389238109348  0.6006938371578193
  0.5999467031917664  0.5955722819942113  0.7997587381734182
  0.6005618981046372  0.8012482925951840  0.0071981806243467
  0.6023919042160035  0.7986672211273054  0.2023691831813003
  0.6005727048662958  0.7957921114244391  0.4022239034225936
  0.6021024807969894  0.7964527122780563  0.6004601507690319
  0.7983329713338388  0.0002433338974311  0.9964477760466892
  0.8103257021800679  0.9998188334748516  0.1896193983895903
  0.8000185909790124  0.9964093226888224  0.5991313931456048
  0.7998630211556989  0.9988051887986886  0.7983290890562754
  0.8005487025636864  0.1990532994426483  0.9964054999517170
  0.8030274240357776  0.2021626187949448  0.1987690367429521
  0.8074225039618994  0.2161050501516554  0.3960206242865594
  0.8014910297656002  0.1952819907853333  0.5927135323611766
  0.8018739920071424  0.1980308103556189  0.7973909709047139
  0.8004805391113913  0.3996487926328011  0.9991182748415995
  0.8022415910353317  0.4007242205270754  0.1970362446554560
  0.8005749529327577  0.4047057735962672  0.3981287474688686
  0.8039448003960367  0.3934378503718324  0.5979305942095627
  0.8066040360925355  0.3970370468347308  0.7977854275994744
  0.7989241327390071  0.6000268414105981  0.9991704814666209
  0.8007458047469543  0.5996796160869162  0.1981895843603958
  0.7982170845691551  0.6004618403964559  0.3963635619677152
  0.7992107977202586  0.5996119201905947  0.7994411256596938
  0.7993776445872669  0.7996811151936248  0.9970620193242145
  0.8016969579680832  0.8013157216034700  0.2000935649465636
  0.8002305165273469  0.7982698449871133  0.4001540615776613
  0.7985104270870094  0.7992727396348996  0.6001745666441723
  0.0018933250378796  0.9984016648935121  0.7980180284508864
  0.0023216203043905  0.3982399906924570  0.7985328263342066
  0.2014686453955195  0.9991403156529811  0.8040824047545472
  0.2070064739282616  0.2143735705582450  0.3964389788805254
  0.3987015587872048  0.5961692072523302  0.5999415459272229
  0.7695833545049149  0.7983316537553422  0.8002136810453259
