Ti V  Cr W 
 1.0000000000000000
    15.4603446293932016   -0.0041322082870834   -0.0012082850725322
    -0.0041323107289872   15.4623066666688764   -0.0009055477358807
    -0.0012084946887904   -0.0009048943237887   15.4540012347107183
 Ti  V   Cr  W  
   3  99  15   7
Direct
  0.9929989769367126  0.8115408340661941  0.9955987532596833
  0.5924267411626435  0.3975272358265785  0.9996994487162539
  0.8046364961159720  0.3969977663991311  0.9988800336042922
  0.0001689511072966  0.0018039375431385  0.9993392642958460
  0.9987454437073822  0.0007162308776107  0.1993984151198122
  0.0024412571828873  0.0003018039320260  0.4044755025419416
  0.0008162153612739  0.0010480117457830  0.7948440473846682
  0.9985839092416069  0.2009084367272513  0.2001563940147366
  0.9988033312898731  0.2012067869271905  0.3988490482042409
  0.9999470662389301  0.1996093038488839  0.6020091014369978
  0.0005520393085467  0.1997934396804147  0.8015866884594534
  0.9973599703957667  0.3978407498585010  0.0021526037718620
  0.0032463161409109  0.4022753768206935  0.2014012114042300
  0.9998942037512427  0.3996697485608000  0.4030048389946791
  0.0008061529163611  0.3989895734629144  0.5985750331495800
  0.0023717492101833  0.5994572599113902  0.0027704791336378
  0.0008676165023545  0.6015986889731044  0.3950814087601450
  0.9994035361259653  0.6014009316727997  0.8027119458179671
  0.0001166902791598  0.7998377147980201  0.4003441720378134
  0.0001595135055885  0.8002820798010076  0.7968087904271072
  0.2011934471204620  0.9997483687898007  0.0024338972160320
  0.1995729406021178  0.0012210092443388  0.2018472135956485
  0.2008785637012822  0.0001666780418210  0.8017336457079676
  0.2003269267738477  0.1982679297521691  0.0004907437239623
  0.2003044587650709  0.2044282429328132  0.1984995052700634
  0.2008438342217169  0.1941992541749121  0.4005313984356175
  0.2012992288389913  0.2013940181560360  0.6002569372949279
  0.1993388852495556  0.2019639413892011  0.8020138298015281
  0.2018092599524141  0.3991646606064944  0.3979486938155003
  0.1987093926862349  0.4011922766958479  0.6001876855370516
  0.2014692526954653  0.4002484253781624  0.7986258429848138
  0.1973981708492229  0.5963182151306816  0.1960824693934499
  0.2010955871375868  0.6029788290464748  0.4013939861824366
  0.1982822444504331  0.5984773910679881  0.8044492618859272
  0.2014910019416575  0.7993842423399151  0.0001852718932870
  0.2015326059856704  0.8006011853374714  0.2004271885056387
  0.2014672987683595  0.8037969809768784  0.4006483398071821
  0.2018021089427915  0.7980167467445461  0.6003673077228064
  0.2011805192629658  0.8010964839436465  0.7984221448268236
  0.4031153098978834  0.0003478568064350  0.0005358474320625
  0.4001827705068376  0.0002935322247575  0.2006123587219017
  0.4015477636322755  0.9999893007683727  0.6005879291511241
  0.3994480970990518  0.0010202229738873  0.7996295878812111
  0.3993385776193253  0.1995759238100605  0.0006959616371151
  0.4011152667256188  0.1990116589101284  0.4008846811061343
  0.4006978255028521  0.1995232426235207  0.6009352913254142
  0.4000138386328895  0.2005439847679197  0.8001999386878341
  0.3992336115797474  0.3998471374209417  0.0006503421444513
  0.3966360423288937  0.3997257110217861  0.2012482551082339
  0.4006445978800914  0.3989809263808834  0.4009974100989210
  0.3992585091947813  0.3993217279509826  0.5996282877234869
  0.3994706731424260  0.4002849521219027  0.8008243090330890
  0.3957846033244812  0.6009937398777301  0.9998362551096623
  0.4014448813057759  0.5994591693168748  0.2001802008216033
  0.4001588585528481  0.6002669746962545  0.3991663314205461
  0.4010841344712086  0.8015121971950409  0.0003434386547090
  0.4008194452975518  0.7982834572239194  0.2004725235319293
  0.4007487858438514  0.8002750541910808  0.3997500663421547
  0.4002526606877254  0.8011658629620515  0.5998538200046752
  0.4005023316720149  0.8004868723769022  0.7993737068258406
  0.5999006339694753  0.0000942579218400  0.1979101037802885
  0.6004597920371821  0.0000841125529473  0.3998259539829100
  0.6015187129014474  0.9989460314874088  0.6006857768860615
  0.6006336741190855  0.0001191046462949  0.8032712662613668
  0.5993983444977943  0.1940629239642706  0.0006697837395700
  0.6002923571888521  0.2006417912607294  0.2007072457149967
  0.5999984157954869  0.2000547821352097  0.6003600611933315
  0.6005547507692512  0.2004382291717028  0.8002227491859787
  0.6005720627384844  0.4002856329884760  0.2004520058965203
  0.5993086904564856  0.3990104996914470  0.3990610675238725
  0.5993179683311454  0.4051104611268885  0.5996195817096355
  0.5992919064256931  0.4004718026498270  0.7993520869920929
  0.6013349545259344  0.5998001761861907  0.1989561545419506
  0.6004522808796247  0.6002369019543551  0.4025665103457699
  0.5993829335509486  0.6011872673195888  0.7974846160940239
  0.5994232191804398  0.8035871905791198  0.0001612262123847
  0.6006612885073609  0.7992701260909705  0.2009724251774215
  0.6001701907964816  0.8011923247591886  0.3988352421256798
  0.6001528209210728  0.7967767483306218  0.5996106939918804
  0.6000757027451461  0.8000601857829097  0.8003753540261035
  0.7968058847047629  0.0006332486508310  0.0007393238242853
  0.8011812897767771  0.0014017503762356  0.2006867333685041
  0.7999133306529259  0.9997337399510495  0.3983505492717956
  0.8026739149547638  0.9997255223763545  0.5998227094113375
  0.7997845992856691  0.0001514412547799  0.8009036063121802
  0.7997711149961115  0.1988659969621022  0.0007837341760790
  0.8005142536991912  0.2012564253730106  0.2006629934863019
  0.7989787556178747  0.1998932635732133  0.3997367800577497
  0.7972317511922753  0.2021629856551957  0.6001138972746752
  0.8009571175612217  0.2019072766538806  0.8003781398110800
  0.7995564094842570  0.3994883256990538  0.4000408585348160
  0.8027319683776698  0.4002743602845064  0.6004511805647552
  0.7985164570274594  0.4010200312284550  0.7996718487730345
  0.7967227213116377  0.6015797025012261  0.0006044781090142
  0.8031061511300676  0.5998206873755342  0.1986939180083372
  0.8016395770799936  0.6004548638363280  0.3987982848802964
  0.7987531978600194  0.6004589830112083  0.6001236168215408
  0.8026260331864388  0.5995742301217850  0.8011518759997883
  0.7976423346408549  0.8007873746120133  0.0006222759518147
  0.8004076509245079  0.8010524549007711  0.3993032350251044
  0.8011979469829630  0.8000626334638578  0.5995835854747890
  0.8000047716896919  0.7994952050852981  0.7997476901144185
  0.0005758700692581  0.1988662072905640  0.0003133175277017
  0.0004386211034605  0.5340922873576119  0.6663705823543274
  0.9994992310063330  0.8009667385018849  0.2013373508374666
  0.0013243689399918  0.7978937377355265  0.5989907882551522
  0.1999156856165341  0.9998415921806250  0.5995362754028668
  0.1988768490011229  0.4001851197978253  0.0005220273655840
  0.1987644022836070  0.5997298734408072  0.6013712511720096
  0.4000116283522740  0.0000521050746263  0.4005802043319562
  0.4003948641070187  0.2000774788534731  0.2006757913552713
  0.4001925545429815  0.6002148653989355  0.6007656637182014
  0.3997570583473061  0.6000510422693137  0.8001190308775327
  0.5997794697638323  0.1993996532581539  0.4001810265320005
  0.5969315901853237  0.6044385618545428  0.9988170204520069
  0.8003931283634790  0.3996520783367724  0.2025737209072892
  0.8001738992649755  0.8000304339965182  0.2002623459921263
  0.9967954254484537  0.0064487269976614  0.5995500090554562
  0.0013794918136335  0.5987757381676705  0.1997050282850339
  0.1962939178991948  0.9991901761607338  0.3952086273021047
  0.1997839517871138  0.3994232616501217  0.2039481223962450
  0.1977221718154523  0.6054209877718149  0.0020813544042888
  0.5995399263862837  0.9995660142764045  0.0016123718065194
  0.6049538012884011  0.6004714884993642  0.5991368355128804
