Zr Ti V  W 
 1.0000000000000000
    15.3687751858679373   -0.0034047973547748   -0.0004629384474201
    -0.0034058626285429   15.3762737440467472   -0.0028872120149207
    -0.0004620936853672   -0.0028876454386987   15.3933118945991367
 Zr  Ti  V   W  
   2   2 106  14
Direct
  0.8017024164988414  0.9926749115272825  0.7958890358093317
  0.8141780036615177  0.3850251398710393  0.0149824983558173
  0.1964570501882659  0.4044188152585724  0.3938410638449827
  0.1987433274941882  0.7965809737807011  0.4036138967178778
  0.0004251548904448  0.0018922710508882  0.0029748259565086
  0.9998666838357606  0.0011439682070795  0.2006859770655024
  0.9988736508877682  0.9990558798557275  0.3978384882714164
  0.0014381469509741  0.0022542125814991  0.5969451112790499
  0.0049058601485356  0.0014021384700502  0.7989794035627242
  0.9962607726444627  0.2020551977604038  0.9989332920157062
  0.0005356529344631  0.1994436685384933  0.2000709695487971
  0.9986406233700706  0.1990966748422798  0.3997246354759992
  0.0000318943754445  0.2003726090556188  0.5994613541301252
  0.9986514416582440  0.1993682098961540  0.7993486707983009
  0.0115222331350033  0.3999574108596436  0.9973836896476148
  0.9950988155550395  0.4004880811887742  0.1982859645629274
  0.9970568413832716  0.3984714817852689  0.4009461523364154
  0.0038682411214082  0.3993348721275712  0.6007231943566563
  0.9969640002859939  0.4016262640130746  0.8012592512370444
  0.9998937569020199  0.6010988307499856  0.0020605042591850
  0.0038171021194976  0.6005547455117113  0.2008479161756973
  0.0014262810734040  0.6024600608175694  0.3990356519339736
  0.9986734096296553  0.5989804878587556  0.5977861881929449
  0.9990868758479196  0.6006450424385832  0.7976062338852856
  0.9997154726328510  0.8014936669419150  0.9995156280333576
  0.9962970515557441  0.8018086956208036  0.4033355217755035
  0.9995567254349595  0.8005164779953902  0.6000572270612917
  0.9999994259650905  0.8006862360052595  0.8008321386217684
  0.1993625248653323  0.0031924865336048  0.0000571861365937
  0.1990754931819648  0.9956217901603271  0.2002902997808964
  0.1993024744801090  0.0012569790780479  0.4002338836495570
  0.1998405354031083  0.0014816889234858  0.5988498627969829
  0.2005102811874354  0.9959842159372816  0.7999062227701649
  0.2006792875982572  0.2036851466872511  0.9995341173719584
  0.1996937772076031  0.2018749920721420  0.1998896740122223
  0.1993397171286094  0.1996328319844631  0.3989601837523132
  0.2026543920640729  0.2059240364486528  0.6006414978498688
  0.1991807847459798  0.1991065166987181  0.8014767742262550
  0.1994368822552603  0.4054357673243330  0.1922905477085160
  0.2000261110597051  0.4034825365962612  0.8023459588433497
  0.2000144970534007  0.5959496918894215  0.0034843149545510
  0.2008344737466695  0.5951078919300121  0.5945914741801299
  0.1993626658892085  0.6047809854074572  0.7994663600510699
  0.1988837644576384  0.7997737986131098  0.9964336862585031
  0.2077307379665331  0.7948095207882953  0.1949840085811267
  0.1996712481759904  0.7986618133405748  0.6058898017902552
  0.3989182963283001  0.0022654089591265  0.9999571653952039
  0.3975891913893724  0.9962124088936932  0.2008212464940010
  0.4032084532232774  0.0005090228582569  0.3992840954803447
  0.3986862024107751  0.0038499004386057  0.5979764643702936
  0.3998120553229444  0.9986830978882255  0.7985059413209578
  0.4028043172065821  0.1983328623092415  0.0005192973192178
  0.3980745685889550  0.1998631590688124  0.2018331348381044
  0.3999443121520418  0.1997357645142268  0.4028557481146916
  0.3990136994170647  0.1975629960398060  0.7954639615586299
  0.3978404977957873  0.3984081306793278  0.9995844693141350
  0.4017348742639623  0.4007322966160040  0.2009307122993341
  0.4022767570080217  0.3989142590244129  0.3989780209272543
  0.3949340384696310  0.3959427717517514  0.5999405638866513
  0.4034534272985665  0.4014343300048290  0.8002524049081193
  0.4002430924182861  0.5993467060102532  0.9986403553946956
  0.3966011478248695  0.6026763701383602  0.2005580343773942
  0.3961600786579922  0.6008416452630073  0.4002978686627777
  0.4020420469539250  0.6006172615067380  0.5967829098622799
  0.3996386515457594  0.6023167310734753  0.7984803442287125
  0.4015620618055744  0.8016228714793137  0.0005651955009600
  0.4012782615199271  0.8019571283816443  0.3956260592105090
  0.3991982805733300  0.8017858514314876  0.5991249050913067
  0.3966412370801853  0.8010638436334598  0.8007787198719055
  0.5996991667330300  0.0063039340238498  0.9998792512809361
  0.5996798087949720  0.9972518276477219  0.2037429109033908
  0.5982154855137595  0.9999171089953235  0.5952750506387653
  0.5961918830152199  0.9991120039254237  0.7983492029984594
  0.5974379927315882  0.1990457414274470  0.1957049722166340
  0.5999835549616757  0.1968688251768792  0.3986497235254877
  0.5951270709380911  0.2017189278041155  0.6009622711409345
  0.5994345927191134  0.2051919376843098  0.8043111921529464
  0.5978702636150212  0.3963368110298798  0.9955372431273424
  0.6021163369280171  0.4027127620853993  0.1990425701477402
  0.5992724104308125  0.3991179757953126  0.4001356303648924
  0.5987640751161709  0.4029443887916357  0.6042144945291462
  0.5994095347954046  0.5971257699961852  0.9992842080142070
  0.5970786984091990  0.6026209477652044  0.2012161999713687
  0.5993776675111624  0.5995419880804520  0.4035046019572581
  0.5990169386383003  0.5972750307615716  0.7948222057149881
  0.5991970331747748  0.8006222099530458  0.0016106191373948
  0.6005196399965204  0.8034905194078757  0.3968335488294313
  0.5981293033476316  0.7961764128949618  0.5995957405109535
  0.6021444066463894  0.7992960728963941  0.8015669936726577
  0.8003492431778763  0.9963954863181533  0.0046298661704736
  0.8013522908521561  0.9973358755825035  0.2008290756357811
  0.7965710404873919  0.9999618621484327  0.3979591998427856
  0.7994031217464721  0.0001791609647590  0.5935960273843308
  0.7937788392364223  0.1880929898485052  0.9989902189624542
  0.7990981507224026  0.2043610094760099  0.1986798311510337
  0.7986925846046302  0.1991476244540344  0.3999542279210601
  0.7987849292763732  0.2007420947523720  0.6000646133791453
  0.7991655463450653  0.2013649790787821  0.8001136969235739
  0.7996227434966751  0.3991515029171038  0.4021884802279387
  0.8008212756174385  0.3993895155998087  0.6004279191345722
  0.7974324441997417  0.4011841966836192  0.8014317804854780
  0.8003654114141859  0.5980670906637986  0.0005979758724610
  0.8011323645488345  0.5975278988211529  0.2007384133953611
  0.8007494261010454  0.6011153615397119  0.3993702063943086
  0.7964757280783072  0.5988291632387879  0.5966300752351644
  0.8004802103522726  0.6004456290510024  0.8000615852066816
  0.7999415730274355  0.7978709930603010  0.9983785145695665
  0.8275326030954725  0.7973084415438195  0.1979785895106580
  0.8008617430439997  0.7993136940739277  0.3984827690876351
  0.7992636684719547  0.7990487800826038  0.6040067796320319
  0.2037775981685302  0.4001209549015577  0.9977944108839246
  0.2003254400192505  0.4010256272047253  0.6080221651779358
  0.2001845164457509  0.5998945478007756  0.2025049008416933
  0.1988323324755586  0.5994765015993601  0.3964587007297997
  0.1993504609152889  0.7988771255614626  0.8005805997357389
  0.3989137041671559  0.1996006651261657  0.5997324248857898
  0.4028424946074508  0.7994305629054577  0.1971312710904183
  0.6009931746602062  0.0001383148391829  0.3993867867080288
  0.5990627875530629  0.2027036828190340  0.0002938774680550
  0.6008016570793656  0.4022867976051295  0.8010020537151952
  0.5975947865115877  0.5991429524064039  0.5978695222270469
  0.5960349690609851  0.7988577231547267  0.1981767384868413
  0.7981051173124099  0.4016626983070131  0.2116358726043943
  0.8003721040259514  0.7932328671983531  0.8008587838652284
