Zr Ti V  Cr W 
 1.0000000000000000
    12.2882735461728885    0.0000000000000000   -4.3445607757035454
    -6.1441367710433559   10.6419570608175889   -4.3445607757035454
     0.0000000000000000    0.0000000000000000   13.0336823299999995
 Zr  Ti  V   Cr  W  
  29   9  50   9  27
Direct
  0.9926723465262884  0.9973009986017272  0.9914033502258056
  0.0375800360843130  0.2128711178226667  0.2206895900654035
  0.0078122926385089  0.6094817037609412  0.5940344803963650
  0.0071124115456229  0.6034255104080039  0.8056112082741680
  0.9920940582859679  0.7950848830104728  0.9956851221277222
  0.2000544066154681  0.0072377955538906  0.1867034290421147
  0.1847536885871991  0.9834652054599973  0.3809380225734103
  0.1852761909904788  0.1976238769009271  0.8016450847721677
  0.2658500953753867  0.4736622355131765  0.4582815438928912
  0.1683499374504132  0.3785953464019962  0.5800946612760831
  0.1111160466878370  0.3826617359105474  0.7910006665221582
  0.2065170366846071  0.7938766418927041  0.9896644674342251
  0.3955092414940720  0.0023356782210443  0.5963697953259838
  0.3963703278182937  0.2036700681692581  0.0061459721370597
  0.3990915488520164  0.2046135527147074  0.6072344417232867
  0.3767261143244697  0.4033375243100314  0.8162937508550503
  0.3905895693705779  0.6064321396034723  0.0057670151087198
  0.5576656360745281  0.7550180791443759  0.7490659803176669
  0.5942414523521038  0.9904805583744418  0.9930387325109108
  0.6097428308035446  0.2108838865907063  0.3953142549056984
  0.5980703216773219  0.4020261671369998  0.0091969039606779
  0.5990871453740496  0.4030432301124520  0.8093209485118270
  0.5912973987395816  0.5988523893642643  0.2014991260766225
  0.7866714444351518  0.9846205806220945  0.3788918530727900
  0.8074457796447269  0.1971928387458621  0.2077980002952581
  0.8402157390882986  0.2272192424582850  0.4176268743591739
  0.8125254663459736  0.2019500501803010  0.6037696796305807
  0.7991019501819656  0.7924142508837294  0.3925726937924013
  0.7762673646820473  0.7860244656879768  0.7806075957784825
  0.9887081980957532  0.9885627077026455  0.7854865019976471
  0.9959786028169059  0.1976664450492427  0.9979499282491069
  0.0153599093704986  0.4165818789266609  0.4105355938352394
  0.4006785507955807  0.3993558673225395  0.2151254241709807
  0.5971637816849144  0.9960590801213454  0.1956794461228647
  0.6056188988665858  0.1987188884387713  0.6028192354070059
  0.5965185088149790  0.7941426809957314  0.9929804042167637
  0.8027842637364286  0.9928661488634007  0.6023990802767104
  0.7995330194020053  0.7870877402923414  0.5931645989963079
  0.9935883839889929  0.9886486142840489  0.1951254244669145
  0.9952927616265824  0.9842343475638032  0.3880213971180256
  0.0011134006569428  0.1665615381784576  0.3852733902351328
  0.9943249362281993  0.1669477431429942  0.5872237755392186
  0.9888243916426815  0.1866871797755717  0.8045596250467970
  0.0019263738986508  0.5956753815461141  0.0052652683462156
  0.9875558920833434  0.7882792513351378  0.1922879151844256
  0.9960427296508806  0.8010236220550598  0.5947907918182657
  0.9943550203239151  0.7967092027969761  0.7843718065065290
  0.1992210812820532  0.9908478197845206  0.9809690532345265
  0.2013913256051652  0.1983483845143379  0.3987861086071707
  0.1973291785754378  0.6020479873080201  0.0100916149377782
  0.2073641687447549  0.6048962896049722  0.2052414206953907
  0.1989903929702989  0.6107455333898010  0.3969232377752984
  0.2130389828101087  0.6213266213108846  0.6048204832922560
  0.2030592835052800  0.7945206153241312  0.3992719511720397
  0.1960390196087146  0.8006632211193949  0.5915860174728207
  0.2086827866229525  0.8057592181774310  0.7905061710426451
  0.3982436092978541  0.9996713646838791  0.9946959915330842
  0.4005902656942052  0.0006974878836434  0.3902031790710476
  0.3944435712216770  0.9937756721185041  0.7943041114338393
  0.4091415076209384  0.2045420420476307  0.2030982756870109
  0.3862446566140736  0.1802756252766460  0.7976779250763530
  0.3847286026785211  0.4048776498740796  0.0277011663441929
  0.3959259716835318  0.3934479126250975  0.3934959853961293
  0.3857368371279801  0.5995675196679725  0.2099594866061305
  0.4066427483680018  0.6129462946800940  0.4131240470747666
  0.4038842019533982  0.8016829864452807  0.9964448979564102
  0.3971865258430330  0.7985435005746260  0.1986609868960332
  0.3935039860418190  0.8006002195235842  0.3954429398224069
  0.3908608592406587  0.8010688099476581  0.7907087368056281
  0.5974154004653925  0.9937137182867475  0.5973915513214929
  0.6033836579861938  0.1988989285952401  0.8059579215273838
  0.6041787015996738  0.3981220108677480  0.2161463049500374
  0.6002846580636498  0.4053519266511273  0.4014864385954039
  0.6021268969976334  0.4022376735315025  0.5975876653268437
  0.5785132596088685  0.5771058617695045  0.5854916294291125
  0.5913752029120773  0.7981749878284525  0.1899496359315259
  0.6019647696268146  0.8057900294449485  0.5903988261554471
  0.7975367450854552  0.9970350230621053  0.9956601980794202
  0.8055337612417651  0.9840526942970994  0.1846845248528687
  0.7910871153609635  0.9967742519175370  0.7953444560005881
  0.8069125370700896  0.4004375139110261  0.0031167851223957
  0.8000614899160193  0.4107218800323861  0.3959847544144137
  0.8076064414584047  0.5994934223557826  0.0096281367067465
  0.8063181695480164  0.6034410655276120  0.2025474567656429
  0.7989166153024014  0.5932180243921080  0.3960590118852390
  0.7939424446254295  0.5964712244977201  0.5918124447374480
  0.7941560844199760  0.7959132202585300  0.0010726342788022
  0.8005241020101478  0.7960601948408204  0.1907645575848297
  0.9999098233320510  0.9873359766143807  0.5914292565571891
  0.0076230223448193  0.4154396474445973  0.6067419666077860
  0.0055935160753464  0.4064394936426837  0.8020478793859275
  0.0047367810801288  0.6031442021264147  0.3992544408062960
  0.1899824788079603  0.9972090464381532  0.6016398025719147
  0.1867089648945397  0.2074357980417103  0.2090619186259162
  0.2045777028781059  0.3984506016006334  0.0116345091821887
  0.6004295096601866  0.2046114058430697  0.1948891162632095
  0.5999125136821323  0.5894898906118013  0.8040462152532356
  0.0111774339532441  0.4036832430142478  0.0020892063372905
  0.0131049258625473  0.4084929001495011  0.2080385821343475
  0.0032719749287581  0.5998795803198729  0.2010915516851133
  0.0060999236671068  0.7939265390283731  0.3992643589698631
  0.1928927368910029  0.9870832334319157  0.7898953318714392
  0.1934234397964460  0.1940141570689184  0.0111196680426174
  0.1850189815643907  0.1846234865640041  0.5886353824902251
  0.2112170335656095  0.4102887551016062  0.2055286150131873
  0.2126977129946569  0.6036509359323213  0.8012784638257584
  0.2005216047412012  0.7935325866629731  0.2003920038600332
  0.4063569602386118  0.0028512334332681  0.1944475260604412
  0.4017275085010137  0.2066375830098048  0.3991290131393353
  0.4101674639068586  0.4131953230090765  0.6035294732600164
  0.3982523059262047  0.6030121262370554  0.7806148707852204
  0.3934762764782848  0.7881803590976809  0.5864557148895879
  0.5880680464099485  0.9970766241834883  0.3979145284322956
  0.5953704399791865  0.9946856739913212  0.7893866084425074
  0.6027469195524914  0.1994091559357663  0.0015301945168810
  0.6064846985484568  0.6085351384442814  0.0006343281655959
  0.6008860822499209  0.6012056467441580  0.4136951220291825
  0.5857855136863297  0.7945722315783323  0.3925327386668253
  0.8038841495046030  0.2020098592047529  0.0035984492042593
  0.8006623341345005  0.1963740194185832  0.8020391262730685
  0.8075306800219874  0.4083419952090387  0.2051905420681968
  0.8070065736687480  0.4112160492929401  0.6004174741322964
  0.8077636861869928  0.4011653368805860  0.8058056087144595
  0.7890004947950033  0.5910569981281103  0.7942101709724925
