Zr Ti V  Cr W 
 1.0000000000000000
    15.3161674756862691   -0.0038639056753981   -0.0081742366427040
    -0.0038625530149281   15.3180417040563182   -0.0084288121243241
    -0.0081714294601317   -0.0084252347079361   15.3251398317997438
 Zr  Ti  V   Cr  W  
   1   2 101   1  19
Direct
  0.0004831558283436  0.4060453592226169  0.6036077258193553
  0.4072440641828833  0.9895724147875357  0.3983135923994986
  0.3968215899326554  0.7974167263556242  0.6163152245351908
  0.8649459845808549  0.9984961171034910  0.0003494820236527
  0.9992532860009186  0.0005895404642144  0.2023477307499501
  0.9972664983997023  0.0058600290088254  0.3992017204704248
  0.0025047541785604  0.9980291976269373  0.5994113045922461
  0.9988971959934191  0.0011233140370714  0.7989264416718458
  0.9986294783097186  0.2054510023551437  0.9994326362815398
  0.0035095315432052  0.2016940762928735  0.2028100455894292
  0.9979201403387210  0.1981543045217395  0.5949826147389160
  0.9980209988374728  0.2008568878596205  0.7991478879360844
  0.9976572405589971  0.4028422568019355  0.1952943171792409
  0.9980097250229070  0.3975459697648772  0.3957227260937706
  0.9991105017483191  0.4053575572796673  0.8079497811368133
  0.0012717926640775  0.5986189250169631  0.9957818156537537
  0.0053229933298813  0.6002204629226751  0.2018550269744581
  0.0008407457530075  0.5993632827987090  0.4017271106957246
  0.0055514396366355  0.6099822280304048  0.6015262935089684
  0.9970508362876893  0.7990147480233192  0.9984820831877355
  0.0002374182508174  0.8008026450204278  0.1984561482758734
  0.9972717170253991  0.8008801226623538  0.4044283653901717
  0.9955763975236446  0.7963087728863344  0.7984215835512483
  0.1993635318177910  0.0007970022293054  0.9996713314935616
  0.1997979785699412  0.0049951329096969  0.2013721878587860
  0.2007828625606197  0.9999472799203509  0.4031567446575637
  0.1979674308180507  0.0021521696345011  0.7977680676224146
  0.1989087853235451  0.1989215093364040  0.0034619622350693
  0.1979382535307881  0.2003153358428451  0.3962296185403835
  0.2023591454844591  0.1965832186886437  0.5995811636298665
  0.2012976727321071  0.2008081766860221  0.7995965464913061
  0.1969354517979526  0.4001051019092211  0.0011488847814029
  0.2022218870486021  0.4004668918271343  0.1991875609433826
  0.1986892024731858  0.3999592734070814  0.3995456721121141
  0.2060011907440968  0.3975680933174638  0.5997844261671048
  0.2006400127288852  0.3994999578515587  0.8014195509355666
  0.2015409147619871  0.6009006942568630  0.0061204829719665
  0.2043061687511874  0.5998767414399042  0.3974233667153718
  0.2073693913355981  0.6038403059624244  0.5972058521454582
  0.1970162383132280  0.6005298269264540  0.7990541865206136
  0.1993944804769353  0.8033853944339543  0.0007050078816551
  0.1997725810790950  0.7975004093067428  0.1991634429805146
  0.1987053750325120  0.8024641824892577  0.3989762140377460
  0.1940145113707625  0.8060375915085156  0.6008672280854830
  0.2029044604089141  0.8007282950410705  0.8016539403877888
  0.3989972038083248  0.9962396960343369  0.9996467501514895
  0.3996265688272834  0.9987594447670458  0.1974335819719027
  0.3943815415747878  0.9999818859401719  0.6025148986999110
  0.4002374879012111  0.9950677954559574  0.7994559039276463
  0.3991323903859532  0.1986539976521230  0.9987783658987268
  0.3968487631203709  0.2016355753220042  0.1998639189936587
  0.3984656734327855  0.2038498872930932  0.4011158751462732
  0.4019184032567955  0.2010202791331620  0.5997299303151202
  0.4031975161399123  0.2001656648933780  0.8012541983512623
  0.3988791666643821  0.4027825365917288  0.9982760799589477
  0.4041069637337032  0.4019025826123348  0.1985090986848317
  0.3997877001838889  0.4035376180301622  0.4008942466183670
  0.4006330191953554  0.4024284941823736  0.6020737376220375
  0.3995099902845888  0.4022391209776992  0.8027650123469138
  0.3998964181318095  0.6039387972750230  0.9989174516230404
  0.4005234016455926  0.6007003293648190  0.2059623586386200
  0.3999503296909604  0.6024751592599175  0.7977974674266443
  0.3999135564339834  0.7995705126264255  0.1936926996834485
  0.3992281001722078  0.7944663255608292  0.3987454690331370
  0.5977034100209943  0.0014918976645176  0.0025560336443050
  0.5979659647942027  0.0032267831475141  0.2054646496076971
  0.5957235061831666  0.0051152540924400  0.5937263870869771
  0.5990992406928812  0.0035274308442201  0.7979679197850522
  0.5995928184176568  0.1992272333961708  0.9974116933558381
  0.5985888603572707  0.2040645675821389  0.2016822637969396
  0.5982506575583224  0.1973601566339170  0.4039583737502051
  0.6010567770087089  0.3994758187068735  0.0032693378532984
  0.6024515589404154  0.3960390949732672  0.3961608766623484
  0.5990211999750299  0.3982006254661704  0.5983794833306614
  0.6009488619718515  0.3966381438215487  0.8033340955771440
  0.5989648566956429  0.5986918235862284  0.0054666601311677
  0.5953169543059270  0.5987092935812729  0.4005460956175984
  0.6011121127139275  0.5954739729257604  0.7940148032543851
  0.6001144002849572  0.8006076954216657  0.0002952447583593
  0.5996499700098061  0.7945178975332978  0.1992517245595897
  0.6002567393054378  0.8025908874546963  0.4007529998326348
  0.6025323536205727  0.7951224748934257  0.6010373173827639
  0.6008025744883680  0.8010514433790233  0.7989281863156028
  0.8004042356146469  0.0001562952937445  0.1984428398174332
  0.7972442977506520  0.9980921591518721  0.3987607401809068
  0.7989867622987542  0.9992778589506209  0.5990616498175440
  0.7994931155327613  0.9968778703385319  0.7986655417518220
  0.8010575721132520  0.1973420098036817  0.9991217858095741
  0.7988189290395654  0.1995897511269404  0.1974642268052596
  0.7959882865538694  0.1997909281386039  0.6003302260460111
  0.7963328774744781  0.1986820339325673  0.7999588018588951
  0.8029607738625382  0.4016048288102175  0.0001666249649118
  0.7972003992745326  0.4013028089248041  0.1982296178694163
  0.8015310942752746  0.4015458929867003  0.3983794675561251
  0.7950055719658665  0.4021330499456145  0.5996805092731665
  0.7998466979745684  0.4014551930217495  0.8018490237793471
  0.7986897595593089  0.6054366154954985  0.0005829555215633
  0.7949792781201670  0.6020372197273701  0.2020092572230145
  0.7998383927698868  0.6019517407472549  0.4007640902433257
  0.7919751420825285  0.6017621423825648  0.5983104922797818
  0.8020439754091556  0.6041463776364315  0.7985286228416651
  0.7991984268544036  0.8001029425637642  0.1954227749131475
  0.8011060444231156  0.8004650786674762  0.3985891592346744
  0.8013173875384042  0.8017616387823386  0.6050982684992782
  0.8004314837891139  0.1998931329425810  0.3990895929688549
  0.0017197026990106  0.2026544627198675  0.4000315969385511
  0.9983913305156025  0.4017292059770966  0.0004386254492242
  0.0005666321974620  0.5994482374315901  0.7962855929351694
  0.9982108804165204  0.8030808149042312  0.6016077918357859
  0.1990845290986429  0.0017073967799143  0.5987806087398280
  0.2010234149504389  0.2021998120091811  0.2000997047089470
  0.2029764262527793  0.5993041475039094  0.2030636291633203
  0.3991884084531596  0.6006323592452664  0.4044504681894900
  0.4047069533765794  0.5975633523113321  0.5989167775846966
  0.4010191496965754  0.8001666429700824  0.9955302644038343
  0.4013895088559444  0.7982364522353207  0.8087052902853282
  0.6028904553968067  0.9999138476090972  0.4005223087549213
  0.5980784697793941  0.2021974736541206  0.6028763152362174
  0.5999079619111364  0.1998744166416049  0.7972017502433438
  0.6008963352214155  0.4007592576260406  0.2004061794814738
  0.5972796820433784  0.5956401987384532  0.2046526963832815
  0.5952536834984765  0.5968658663618703  0.5962464406490839
  0.7991228021620509  0.8004015789848545  0.9968782620498017
  0.7985581951606469  0.8012569038270907  0.8039076636706548
