Zr Ti V  Cr W 
 1.0000000000000000
    15.3990340272275770   -0.0170018773457157   -0.0022529018582575
    -0.0170107766548915   15.3787801482628375    0.0165544931564424
    -0.0022517709109467    0.0165430754876648   15.4057927644380346
 Zr  Ti  V   Cr  W  
   3  13 106   1   1
Direct
  0.1876928811108315  0.2011551426120024  0.3728393675876754
  0.2050796578993871  0.6160979560922200  0.3821082299622845
  0.3856026096405916  0.7956286266021458  0.3892877832942028
  0.0023710554078813  0.0021731855411002  0.0062538438288124
  0.9992536013869585  0.1985303616254141  0.8012103002090453
  0.2037200278900990  0.1995117180164552  0.1750197348415573
  0.2032062060884065  0.5891868668388511  0.1826602194569164
  0.2113602876715811  0.7985187006041995  0.2119483993702719
  0.3886610317416353  0.2017152717492630  0.6032406374152721
  0.6089601456292206  0.0150883605207444  0.5933608623817724
  0.6015111634354332  0.1934111340546119  0.4126944772381573
  0.5900934733365796  0.2022185078328472  0.8135685941045369
  0.7927395298355182  0.1985280582548301  0.1952487872641287
  0.7815004830930876  0.1972476835031714  0.5949182213398624
  0.7967880903547102  0.2025664198541418  0.8025915846500428
  0.7999159136999054  0.7980034969063908  0.1952616245101444
  0.0025068296814412  0.9996392178963900  0.2066936046521899
  0.0020441551462988  0.0018631837930437  0.5966567245402813
  0.0011876496249724  0.9998912818221256  0.7982464982748092
  0.0013449651782917  0.2010073171771053  0.0054513832194178
  0.0005145623119696  0.2002958713653995  0.2011412726030843
  0.9883076132840433  0.1974443443083399  0.4009692399112402
  0.9985784417867684  0.2004325044535957  0.5964070308334944
  0.0001573688420238  0.3992473872056369  0.0015679971674206
  0.0006419341319865  0.3989599498155870  0.2033065247386424
  0.0023060941105549  0.3984887719833916  0.4011977091573039
  0.9982784265273669  0.3988290020557935  0.6013924699684202
  0.0034020631864498  0.4005523006946622  0.8010191718345088
  0.0021108421870910  0.6004309051778695  0.0019824384632927
  0.0013672445676203  0.5997081994926967  0.2008310280462895
  0.9972220201769940  0.6009898275593027  0.3995194362694827
  0.0019264049067718  0.6005418950467397  0.5980304186340852
  0.9996038747389269  0.5992349564557866  0.8011318559808306
  0.0030020956033381  0.7994446614954609  0.0032486744505316
  0.0025540912457728  0.8004402264602569  0.2019340908340939
  0.9945501513851863  0.8072343702397309  0.4011324537642816
  0.0002412971426588  0.8004132054603064  0.6014714275743382
  0.0010695889214167  0.8011975297090579  0.8004682053341472
  0.2022871878768310  0.9999022522118788  0.0005031724805009
  0.2033228661035582  0.0037840294059708  0.2013338495151581
  0.1974852533490420  0.0009282060602369  0.4013854143275531
  0.2031249389963555  0.0034321100513677  0.6000036717302001
  0.2006614655770677  0.0005642020869298  0.7987237777240143
  0.1991964771170557  0.1993262132983599  0.9873709120002468
  0.1954242416530712  0.2011858219908273  0.5956173045268879
  0.2011682100287559  0.1996022909083516  0.7954292324629127
  0.2005367605063910  0.3981370709251957  0.0001413350642199
  0.2015105064083691  0.3945267762179021  0.2012204015992395
  0.2002515257459916  0.4038956663518116  0.4014599514094632
  0.2004066651927191  0.4012927359342850  0.5984933412487953
  0.2004558719734074  0.3999301966734410  0.8004592957754160
  0.2009296262713723  0.5995176546466744  0.9933706815898610
  0.2009727830443526  0.6008777644252682  0.5991642289510258
  0.2016589834248699  0.6001522446157301  0.7979444960790590
  0.2016125418267503  0.8000381294197715  0.9990880216960185
  0.1872543803613845  0.8129744984260878  0.4092307059146945
  0.2007779558537799  0.8010153778303778  0.6030667176771506
  0.2008001684176741  0.8024030233244673  0.8012607620492079
  0.4007911514008393  0.9993903265256461  0.0020924615909831
  0.4017155960409500  0.9970540611169951  0.2018055181876311
  0.3992785997760767  0.0043769119392720  0.4007559250581715
  0.4019339471372056  0.0002595137327432  0.7985154915560965
  0.3990345920316047  0.1984053196054607  0.0024284615411514
  0.3999237490307960  0.1980800532060502  0.2017890534590984
  0.3968662121575760  0.1980743532220958  0.3999114581857891
  0.3954811434756256  0.1991281625973562  0.8057042304356125
  0.4006391105528841  0.3987843789558956  0.0027213927186938
  0.4017028865666741  0.3974798924963377  0.2024301043030990
  0.4013346035494871  0.3946434015329589  0.4019802798978543
  0.3997122843270134  0.4004478832742326  0.6008763611407779
  0.4007727895481916  0.3996370826767413  0.8005687174217951
  0.4013400194950539  0.5990617888400978  0.0008740816458981
  0.4044404356277622  0.5967630009379351  0.2001584394274759
  0.4100600671424925  0.5901835696490806  0.4002679189439973
  0.4018341597654292  0.5984640043938543  0.5992605742263378
  0.4016437329930706  0.6003531980545870  0.8013238040468523
  0.4003244605719147  0.7999271753949458  0.9976794040772496
  0.4065242499281461  0.7988583608099760  0.1907152433658515
  0.4009262318100601  0.8004864657457814  0.6011570867519604
  0.4012211933810322  0.8002855981759293  0.7995623200965538
  0.6013352550533516  0.0002901771870312  0.0013516402282604
  0.6015294109040740  0.9998653826998308  0.2024755162607493
  0.5988509975073864  0.9956920239031288  0.3985738555722513
  0.6007824679210472  0.0007206379174753  0.8019171132426504
  0.5992204155701195  0.1992133892429993  0.0089298973942704
  0.5964068433553240  0.1982728500480294  0.2026452561719228
  0.5887651596244066  0.2059904969988955  0.6091038772244605
  0.6023735074529432  0.3992412268453364  0.0012719628926570
  0.6006406356470650  0.3979014958689499  0.2036705291711712
  0.6015006942522619  0.3994351235630854  0.4019876132195769
  0.6344023155522904  0.4014730568185080  0.6366446206768238
  0.5988402945578722  0.4011100331321205  0.8031976595568543
  0.6018399170897519  0.5998209278837483  0.0016371357135680
  0.6031881898134878  0.5997070868501543  0.2005580151174494
  0.6038081506469092  0.5991389096930624  0.4008290189288587
  0.6013161073991611  0.6025977593234768  0.6009434389271090
  0.6021543471733219  0.5992507239116833  0.8009562260156029
  0.6020748762108553  0.8004892118893729  0.0008309795108363
  0.6001039811919744  0.7995094727245594  0.2003953881190604
  0.5995934753177858  0.8004995742739741  0.4002709058834202
  0.5997678563290649  0.8018447728771657  0.5997276711861598
  0.6004818867119806  0.8027800114957093  0.8005996319378490
  0.8007877078491213  0.0011983667684639  0.0014672286856808
  0.8009856282556340  0.9997508840878717  0.1995395074901676
  0.8102065662906579  0.9971660347792533  0.3961285192220366
  0.8043395601944665  0.9976089752644540  0.5996786015643378
  0.8015213611760289  0.0005064432416522  0.7990439306203383
  0.8005403155573151  0.2005695147396211  0.9959866735522812
  0.7976890536184928  0.1986071836298784  0.3964233321507887
  0.8020091142226388  0.3979222502981473  0.0033368926277300
  0.8014971394632692  0.3997096559710366  0.2010695323796702
  0.8011420793795869  0.3981907830714012  0.4005866502666609
  0.8004778711067141  0.3992127303669393  0.5983152819030013
  0.8026722872484929  0.5972701419624807  0.9990822049136634
  0.8013883707889707  0.5971957045200009  0.1995551123762479
  0.8014969154015421  0.6009949733000735  0.3996012418430683
  0.8004016201164592  0.5972620499755160  0.6017105640737338
  0.8013552500704187  0.6022463624821862  0.8008946344832667
  0.8022091809379025  0.8007633872682735  0.9969106832538633
  0.7981709364456790  0.8001804753826058  0.4025831770780962
  0.8000072809112608  0.7994057821293389  0.6020079967627175
  0.8009011359992344  0.8014146502147054  0.8005255826306722
  0.3991362792787990  0.9976245996458895  0.5985367010905100
  0.0050989945741307  0.0050007531903515  0.4016420061674797
