Zr Ti V  Cr
 1.0000000000000000
    15.3990340272275770   -0.0170018773457157   -0.0022529018582575
    -0.0170107766548915   15.3787801482628375    0.0165544931564424
    -0.0022517709109467    0.0165430754876648   15.4057927644380346
 Zr  Ti  V   Cr 
   3  13 107   1
Direct
  0.1905214169497884  0.2016959857411935  0.3740969671292588
  0.2039873412580008  0.6185651489870526  0.3830257432977058
  0.3833655233936655  0.7945632870521312  0.3901082384123018
  0.0017206282922240  0.0060642043659840  0.9967421444787253
  0.0008263735425194  0.1949947604779913  0.8087797114805633
  0.2035604088320275  0.1994254195643617  0.1762563662357732
  0.2025242013474969  0.5907987259248062  0.1833164053350247
  0.2093488564322178  0.8008273461364830  0.2130020823745752
  0.3928320619893071  0.2040934770782895  0.6027504841498399
  0.6103359384770286  0.0137437073287905  0.5909976077244156
  0.6055906806513243  0.1908876559937413  0.4116919398482298
  0.5904280936333413  0.2021373206014759  0.8117452256273505
  0.7967942315005124  0.1965171164311687  0.1967494736332434
  0.7855950329421006  0.1948602685200686  0.5923701859750639
  0.7978392640221893  0.1986926095501901  0.8020950259982271
  0.8001897330793396  0.8036903961121105  0.1994908188947495
  0.0029019681467002  0.9994717997173541  0.2056081027934136
  0.0016461592481103  0.0012976567645197  0.6011800800426768
  0.0019550029379639  0.9974667399857406  0.7982562292996643
  0.0009164744088632  0.2031978643931932  0.0069702235258136
  0.0023377449757831  0.1988189135344969  0.2025928098331096
  0.9907571778561163  0.2029298698009959  0.4015382122323023
  0.9988874430056197  0.1992084634490577  0.5974540084444184
  0.0005006331636108  0.4000918862843563  0.0021614890540667
  0.0003398802511625  0.3990946676820329  0.2020343201572699
  0.0007855801313940  0.4003683843466466  0.4014496690365914
  0.9991387194526574  0.3990200161463410  0.6018675954697468
  0.0009544209669989  0.4004466084388247  0.8012564398644607
  0.0011957426265372  0.6000441565714330  0.0016552621860342
  0.0003890965710887  0.5992730930839300  0.1998221563182796
  0.9957727668626700  0.5993531084793104  0.3995262042648243
  0.0013847413191714  0.5999217324010221  0.5990511822817364
  0.0001590282452283  0.5995642609579482  0.8016160990046537
  0.0023706592982588  0.7991575651865999  0.0029636718094079
  0.0021105750905027  0.8011231681660510  0.2017046952803440
  0.9918082913115333  0.7981095636855379  0.4006868728623678
  0.9997334642616531  0.8010884781372762  0.6005036462784945
  0.0003877253439772  0.7988103753286948  0.8010538103804815
  0.2030007689061857  0.0000969341570434  0.9999581949150267
  0.2015023878798553  0.0033849422568786  0.2012862229164658
  0.2002906138081961  0.0019092365696500  0.4019139016070998
  0.2014012678070614  0.0034919534778365  0.6002885395515611
  0.2024036385630262  0.0005907055861132  0.7989319063627206
  0.1993436414050814  0.1998001333799270  0.9884209486166660
  0.1961553362856155  0.2010192201642371  0.5964417868237000
  0.2016454451561589  0.1995834536156895  0.7960865510265789
  0.2001003614832925  0.3982815162958890  0.9994910660030633
  0.2013670361612755  0.3958623145395340  0.2009679281891967
  0.2000144706374275  0.4061980755173843  0.4017427910043074
  0.1999054754611504  0.4012540296899044  0.5992274015407744
  0.2002221003373073  0.3995295223532625  0.8001228153836425
  0.2006875511657313  0.5995653390832386  0.9933959534518328
  0.2004756707161808  0.6014217553201459  0.5996697929535478
  0.2011415096822287  0.5997653041482497  0.7982078663835057
  0.2009087914272662  0.8001562556765072  0.9997073594673951
  0.1820506060784041  0.8182804483328870  0.4094070863318795
  0.1995546965498269  0.8015979321216048  0.6030565265973095
  0.2004366204035451  0.8022363265514868  0.8015353945851789
  0.4013701893694421  0.9997223931245114  0.0020647308243975
  0.4012628915086640  0.9975807004928707  0.2011250796465777
  0.3985683166535909  0.0041297734002103  0.4006345774402951
  0.4022754504433561  0.0001901166096572  0.7986971900825472
  0.3993401679383693  0.1986588977539426  0.0020054912780195
  0.4014410712653897  0.1983443501409927  0.2014754920736728
  0.3990468330994165  0.1992193609392535  0.4002730358080785
  0.3962604420210636  0.1994283325347798  0.8054513544515820
  0.4005621488118522  0.3987214716999441  0.0021089311171407
  0.4014900572755856  0.3975893786931788  0.2019987189375624
  0.4001641070595961  0.3950562384419541  0.4017309783059574
  0.3997819921062144  0.4014307200824017  0.6014831370076786
  0.4006866550278296  0.3994019384148998  0.8007846552344351
  0.4005338018555241  0.5990011205131508  0.0008778020055777
  0.4037773694779242  0.5969226942272541  0.1998064097938108
  0.4089482111004846  0.5901339929931271  0.4001680433677298
  0.4007640113769345  0.5987792695570757  0.5995815732931244
  0.4012697606396460  0.5998939549480130  0.8013643277429595
  0.3996637630750899  0.7997419272016240  0.9974940060027463
  0.4052988259140097  0.7994555514968592  0.1909633918574690
  0.4002157230405384  0.8005224754368530  0.6019111224497415
  0.4006686781855637  0.7999832478419047  0.7996723969122758
  0.6014748683683929  0.0004229975745744  0.0002983097397837
  0.6025447406227525  0.9996688724752235  0.2027934028162680
  0.5938014499199484  0.9943815243937569  0.3977704094379236
  0.6010200378676666  0.0004515760484879  0.8010163334763966
  0.6000052618529542  0.1998680286381403  0.0069880544718616
  0.5978337496616467  0.1982746069080065  0.2014984064296487
  0.5925115381156832  0.2057487413121458  0.6084632652723254
  0.6015351046644869  0.3994891657602690  0.0015126838727680
  0.6006864870967319  0.3974704320983610  0.2028975830556132
  0.6012732293772073  0.3987400399653893  0.4023085393973571
  0.5999190073459332  0.4019343096612634  0.6025248950193596
  0.6006685249692815  0.4021023721079468  0.8022785686747991
  0.6012811975627008  0.5996799724540812  0.0013532870358070
  0.6024861117766940  0.5994844636582320  0.2002152277981943
  0.6022531283578206  0.5984549522764280  0.4001862841328255
  0.6004895985997030  0.6022601870954851  0.6007740507133187
  0.6007913857675251  0.6004716662511442  0.8010225120811781
  0.6012288114862611  0.8003148867698161  0.0007065895257157
  0.5989170027327765  0.7988133635554935  0.1997886911353139
  0.5989050375873297  0.7999790420862845  0.3997102259201458
  0.5988421505387189  0.8013755306157313  0.5996131741045506
  0.6001566047455613  0.8019787422950437  0.8004437867911249
  0.8000014417993345  0.0001922951897733  0.0007789440891034
  0.8022501982181732  0.0002319064695630  0.2000513905108259
  0.8889246967677120  0.9999861059068064  0.3988122373202493
  0.8063285578538573  0.9966000533087932  0.5991843546480097
  0.8010110227830288  0.9979036014676307  0.7986594000136042
  0.8010741693871161  0.1995740193943535  0.9983706711147907
  0.8010401306143805  0.1981979124298476  0.3959609984980261
  0.8012518376394188  0.3985620568037090  0.0007942269336811
  0.8013114587335045  0.3992596448665913  0.2006992679259789
  0.7998871343421936  0.3983906088961613  0.4004021647412169
  0.7999084932466390  0.4006255980105612  0.6002318318390621
  0.8006707762946637  0.4000147253722179  0.7993938558978901
  0.8015875652412858  0.5990874115230159  0.0001379214665229
  0.8006796325171837  0.5971617550216146  0.1994475179890304
  0.7991156894544920  0.6001754473910641  0.3995064884185043
  0.8001389474874196  0.5990512658192861  0.6004337817380874
  0.8006826575163239  0.6002114520775851  0.8007153989450988
  0.8016132164659509  0.8002579774162848  0.9975988910938782
  0.7966078720166142  0.8005769009332024  0.4026718150760591
  0.7990467390993341  0.7996133128685023  0.6012984956856466
  0.8006220702191729  0.8000296470704350  0.8004686866705560
  0.3989673182088695  0.9979424738103647  0.5989032164216812
