Zr Ti V  Cr W 
 1.0000000000000000
    15.3851496618916386    0.0378637842912335    0.0360535677128027
     0.0376475107496842   15.4659857014880320   -0.0530459481988028
     0.0362961802138095   -0.0533161668178472   15.4180768133282857
 Zr  Ti  V   Cr  W  
  11  14  86  11   2
Direct
  0.0135701861893185  0.9490903312405727  0.7572751623029030
  0.0094031015134710  0.8172199767059145  0.2007528520892271
  0.0026815627898844  0.8035986962706102  0.4207916846525748
  0.1842067460354823  0.3377077626392717  0.3552837939373035
  0.2025688946120428  0.4323422974201238  0.5694222244187823
  0.1917588224942606  0.6451356442286157  0.5858995810919826
  0.1877042682991910  0.7953677505176195  0.8038326774922631
  0.3921771103651909  0.4212566955684985  0.4158940867024942
  0.8395994883963047  0.0095120705061432  0.2044524980622372
  0.8437899122530460  0.9978041725824925  0.4320819210181821
  0.7935685124383370  0.9916624111690162  0.8255309196354764
  0.0395237656553060  0.0214872778757065  0.3245284856835191
  0.0245962087275411  0.9964677583578636  0.5612801276259034
  0.0005973780553263  0.8103807935179925  0.9683737201833671
  0.2134078604427609  0.1562664807552072  0.2197561330726339
  0.2094912032607118  0.0060289878011432  0.6082217933495623
  0.2007798811503195  0.3998648054307329  0.8031662196254311
  0.1942838278581628  0.6017168940787431  0.1932310568397473
  0.3644399135359959  0.1848412039111747  0.4019723019136658
  0.3955247042260169  0.5842038667882813  0.6042796975991511
  0.6050299573992387  0.0013154507402322  0.4067505847673933
  0.5980140567601779  0.2013794971654691  0.9961831108402287
  0.8052118861272524  0.1870181631938057  0.5956208401541310
  0.8303893886600126  0.6281731049899495  0.4008778891488606
  0.7992004797111822  0.5939358101479150  0.6055529854491585
  0.9862508758232713  0.0150332911273494  0.9683797696620543
  0.0366816082046146  0.0146964414373716  0.1431443075344968
  0.9985575632430923  0.2095715818173821  0.9899466181343574
  0.9822387507811784  0.2143355377623219  0.1837415998389874
  0.9948465537915193  0.2014706644470661  0.3982942195760669
  0.0011650591629200  0.2007007607957471  0.5947180035097254
  0.9961041194023745  0.2025757297578723  0.7908395725235021
  0.9967548732611037  0.4055629827739322  0.1990090509609689
  0.9933462710710439  0.3964695011412562  0.3987990465379355
  0.9941918029505821  0.3959281363241663  0.5958590008038200
  0.9964664389160519  0.6040613537615734  0.9980153854653516
  0.9950099829995671  0.6006620489363594  0.1995276722206243
  0.0175616074486856  0.5872949463501232  0.3974632732112333
  0.9979291456814032  0.5890147417448808  0.5971392991609742
  0.9999596428128041  0.5823299795179527  0.7973468282427737
  0.0046727684284565  0.7870852613407363  0.6187006316563738
  0.9873930869622447  0.7687043561470508  0.7839244285847768
  0.1893993498629107  0.0072634904799103  0.0130918746786324
  0.2127652181390013  0.9780511403640904  0.3928922337090118
  0.2029855207028093  0.0088574205434951  0.8160260665566793
  0.1958394724383405  0.2102673867709070  0.9871771321486019
  0.1762001288632004  0.1447268140266009  0.3983562373111144
  0.1985326181538382  0.1993765964435567  0.5908926283824733
  0.1967553745772033  0.1995938466351245  0.7926588308807556
  0.1965680431476845  0.4033858807644634  0.0047681281884249
  0.1945512596251915  0.4044075650746394  0.1763667256452066
  0.1936456416757204  0.6089370839396679  0.9921331515638984
  0.2080489018300412  0.5997462973082009  0.3871970923036495
  0.2003001461904753  0.5935890679190785  0.7966419650492478
  0.2001866054835293  0.8071572977734415  0.0174031812635403
  0.2115306666632106  0.7916916877402059  0.2116146601609755
  0.2038151218174171  0.8246372848415715  0.5956691033988071
  0.3900681321368039  0.0042539606016775  0.0125804702692507
  0.4057928396988620  0.9963078537301888  0.2120271592943391
  0.4053768586970658  0.9924172237116013  0.4094897507963267
  0.4079162952100723  0.0010038704473666  0.6081435315481560
  0.3953071741958995  0.9981338027531648  0.8108192915468073
  0.3931761001904006  0.2026721923228240  0.0048980412228883
  0.4028579424550373  0.2004885703737179  0.2028725675566076
  0.3988410645716993  0.1971115276970431  0.6065465887346713
  0.3981694507665765  0.4027373326188472  0.0062154161043467
  0.3933001144522555  0.4016901328738057  0.2052391754856323
  0.4027076601499452  0.3891055735576456  0.6165579172766398
  0.4013217057651997  0.3993796157473852  0.8086929077503630
  0.3968579923685845  0.6026743350560968  0.0036517022454821
  0.4026023002281253  0.6055309782333111  0.2024131573237556
  0.4036368488486367  0.6095730388454667  0.3988168439385441
  0.3971265168096150  0.6006938607965260  0.8070169933292325
  0.3973871606355500  0.8051779514425659  0.0107947792427746
  0.4034797919493080  0.7995807218359755  0.4068982145581172
  0.3980023414524801  0.8005425003646442  0.6089107994274265
  0.3981435177669333  0.7996662557999035  0.8074846335364910
  0.5953037402619288  0.0022919787243509  0.0073815414476312
  0.5975114382419969  0.0045032486162453  0.2065535156411642
  0.6035341189897639  0.9996780975525613  0.6108269606150992
  0.5887639821586951  0.0012232291494056  0.8078888103365035
  0.6030324757855182  0.2024304811561834  0.4048597348969365
  0.5973129188527704  0.2009516508283506  0.7993085411948468
  0.5975673732034751  0.4040247237376681  0.0034477859096544
  0.5988262536338728  0.3974703776303510  0.6037404321579840
  0.5977668556091389  0.3995566378768461  0.8027309658279824
  0.5985200821575088  0.6025668754638773  0.0039230337372835
  0.6008728502700128  0.6003613826946790  0.2050661682089255
  0.5965343841289606  0.5982121126041302  0.4050261669291170
  0.6004453448321578  0.5984547951323870  0.6033913023186976
  0.5963114033472630  0.5992323562821000  0.8029802718873097
  0.5972315237635318  0.8016232633551118  0.0051586082392681
  0.5982203638317112  0.8030648034303546  0.2069342255450830
  0.6025181787549233  0.7972157747349072  0.4081250688242681
  0.5988093627775848  0.7978740353815799  0.6045747131937460
  0.5981433038283385  0.7994771753454835  0.8035459176205261
  0.8004770405789566  0.9945465450588916  0.6276108347284102
  0.7996956140665210  0.2018480072029373  0.9971693604383493
  0.7910473934478058  0.2102441144840037  0.1975526661091060
  0.7977589222496051  0.1970824514376207  0.3952902212436322
  0.7982007399467578  0.1983582428029853  0.7983767387473256
  0.7960792109219651  0.4019932040530331  0.0014160327064512
  0.7960360634516069  0.4064910228820968  0.2001461720016131
  0.7985456153311991  0.3954627616571949  0.3976316769040792
  0.7959959687122088  0.3978726198361648  0.5980596804421314
  0.7955817931776512  0.3974412919503203  0.8006651953174889
  0.8001176343521881  0.6036147245576293  0.0010925369225299
  0.7976616626483671  0.6048672244801128  0.1988006248276418
  0.7952800812971648  0.8036682256173916  0.0024486131955332
  0.7999779484691283  0.7968125414801708  0.6005953929708234
  0.7954596899138213  0.7883860485847204  0.8020015578775327
  0.9953038651526179  0.4053472485271589  0.9953181178637305
  0.9950866074282984  0.3944755079898583  0.7952655225426053
  0.3973653274561216  0.1986618327881952  0.8040045207561956
  0.5965386548595153  0.2044129081069931  0.2048632718716619
  0.5977207299703111  0.1983883435299715  0.6028014488355907
  0.5955415091850151  0.4022988466400254  0.2056054168832716
  0.6006822309500548  0.4009180373279497  0.4043752976273257
  0.7940913713247303  0.0036704037837211  0.0059966709385666
  0.7961613211816129  0.5941108916658328  0.8050298062754531
  0.7974399134582918  0.8030688297237466  0.2035716861712648
  0.7978673602158778  0.8051549006918504  0.4042605838444995
  0.2085418383227190  0.7881365598076180  0.4078457660426620
  0.4019276421999280  0.8021799076500048  0.2087905820265405
