Zr Ti V  Cr W 
 1.0000000000000000
    15.3990340272275770   -0.0170018773457157   -0.0022529018582575
    -0.0170107766548915   15.3787801482628375    0.0165544931564424
    -0.0022517709109467    0.0165430754876648   15.4057927644380346
 Zr  Ti  V   Cr  W  
   3  13 106   1   1
Direct
  0.1872744782651337  0.2014331561398116  0.3745923835949179
  0.2040242837469232  0.6163960788972122  0.3831107749756461
  0.3850359659201998  0.7963173407624374  0.3895215204753820
  0.0014693131675141  0.0017593767764707  0.0057905332339991
  0.0010385307083860  0.1972306154438380  0.7997780178683165
  0.2043863920861166  0.1994790168609418  0.1761514965477958
  0.2036148656616918  0.5889505387786871  0.1830600653822630
  0.2107880074399765  0.7985525894824035  0.2125649915555489
  0.3878776488330894  0.1998628711079591  0.6050680863633497
  0.6079778183417824  0.0186482993762718  0.5978185989839426
  0.6023958964542730  0.1939432984803418  0.4143238062150058
  0.5936377296119429  0.2346584480395875  0.8059348848362258
  0.7947189542166594  0.1994042775485537  0.1974154073946171
  0.7856867167156832  0.1949008353307340  0.5933926042451807
  0.7969337054615470  0.1993173541996883  0.8027379691030161
  0.8000843090234541  0.7967334848866118  0.1955687090699323
  0.0023128616273123  0.9994899449765859  0.2070524722977306
  0.0016683912854007  0.0018033318787647  0.5971728728553857
  0.0013249104710197  0.9989591364322508  0.7983061321246884
  0.0005605813244312  0.2010697105283780  0.0049262344779225
  0.0015527649224705  0.2000218094804235  0.2014157891288907
  0.9880597820194018  0.1969456946280718  0.4012649300838430
  0.9981442445275754  0.2011553589751638  0.5971179423369423
  0.0005535595902129  0.3988649273843957  0.0024044691910153
  0.0004093943255832  0.3987304194989356  0.2027680337327756
  0.0015099702502257  0.3984422576256177  0.4010212018022834
  0.9997126316388137  0.3995137042195201  0.5994538561598872
  0.0004628628885295  0.4007764027082382  0.8002137671501465
  0.0015798003544392  0.5999841396518005  0.0017821465925273
  0.0013742133155898  0.5994906711524562  0.2008574379605168
  0.9968619819563624  0.6010396732261202  0.3989914018128806
  0.0017015269098945  0.6006906827839925  0.5977759944440579
  0.0006645277194256  0.6004560479272220  0.8010831415619816
  0.0030953813205341  0.7993329937907137  0.0036189917773595
  0.0024032117999309  0.8001004767557125  0.2020465552394024
  0.9938680287851019  0.8073184744845049  0.4011791849908113
  0.0003971611596686  0.8006713055004613  0.6013877894862538
  0.0005601531407220  0.8003801099839201  0.8005170429948495
  0.2019925799704378  0.9993124737487700  0.0009956047394908
  0.2032828749359461  0.0035015176928268  0.2017962985043934
  0.1973239943048856  0.0011828431381791  0.4019087413443918
  0.2033297609868982  0.0033990627356223  0.6005120220144009
  0.2009270895686932  0.0003288325741250  0.7993145211423344
  0.1986832733002858  0.1987833119359512  0.9880065261803750
  0.1949406235910613  0.2013271493099676  0.5963628033553581
  0.2011422008421331  0.1994917959900444  0.7957492919863145
  0.1993019811434205  0.3972065085271942  0.9997377312698809
  0.2014738461618348  0.3944925875825026  0.2009330367644024
  0.1998909437612004  0.4040835159613528  0.4012384321411999
  0.1997154575688526  0.4009804028300072  0.5982303725693469
  0.1994573444089103  0.3994727584575813  0.8001056846045004
  0.2006799311445382  0.5991587369107059  0.9933278242162802
  0.2014696119582267  0.6005982205620233  0.5993300920983670
  0.2004732632095902  0.5997198559689551  0.7978383362691652
  0.2011089816774330  0.7996398470262575  0.9992035746092888
  0.1867470861564062  0.8133761161702860  0.4096696394763713
  0.2003872890420345  0.8008040260430402  0.6033105831383837
  0.2011666538581624  0.8020314499743464  0.8012138738410732
  0.4005675573877261  0.9987208215450704  0.0025969265340812
  0.4017841645089023  0.9965588925596096  0.2025383971234541
  0.3997440146349943  0.0048209826680459  0.4016250168538926
  0.4036448418252658  0.0012242056413614  0.7993654809797889
  0.3990917981598058  0.1962291990955850  0.0022957118601070
  0.4009903059387110  0.1981058576925973  0.2020244103497698
  0.3972007662652847  0.1986140085475351  0.4008432302786042
  0.3970982702283511  0.2002556805567546  0.8055259555347126
  0.4010059608078637  0.3986646982893053  0.0010588796515754
  0.4012761043567861  0.3968084027234486  0.2022081480390223
  0.4003071478153863  0.3947746053431153  0.4011528188027698
  0.4000622399870184  0.4011320821183433  0.6010641926459820
  0.3966374651022012  0.3989976879675255  0.8002455930982674
  0.4002733613276769  0.5988083319226577  0.0006327544872193
  0.4053334636450271  0.5959093591388983  0.1989848863048248
  0.4094716630559346  0.5906543016437358  0.3998351895221248
  0.4010311963391426  0.5988036550906524  0.5986906542683530
  0.4031608409302415  0.5976563387941065  0.8010633114216403
  0.4004015565063782  0.7991100402654513  0.9975072961670034
  0.4064304622310538  0.7981609600405158  0.1908404466210494
  0.4011440437785592  0.8004822348954247  0.6014386130213669
  0.4008740880395629  0.7996050787447202  0.7993609239520230
  0.6011012134203798  0.0008569374481395  0.0001344733758818
  0.6016422352198423  0.9997492444355065  0.2029761309893625
  0.5993625482321311  0.9959369511664332  0.3998803370215987
  0.6021828665934661  0.0007677498818506  0.8018052923116193
  0.5998380106421695  0.1999276592114877  0.0067864955449772
  0.5972996399233458  0.1978529323533566  0.2029717606889588
  0.5909756931392550  0.2101915998694101  0.6105769085757372
  0.6008279220579068  0.3984062471259724  0.0044204057679043
  0.6008540463731367  0.3976358046469751  0.2029006284639160
  0.6018786475667579  0.3998869624388767  0.4019317198852379
  0.5996651552835927  0.4021041586506112  0.5984220932945910
  0.6014787931112809  0.5647580433959197  0.9668975651001220
  0.6034502684492815  0.5998267752313333  0.2009731668880542
  0.6035362389974031  0.5997436239632802  0.3993302560254533
  0.6010960445167963  0.6003509269679423  0.6013245419985220
  0.6013186466978523  0.5994830768470305  0.8002162817906889
  0.6018109312711989  0.8003893334006305  0.0010384793742682
  0.6002275967600669  0.7992192090315298  0.1997756365826712
  0.5993727564061875  0.8005994101407496  0.4004402400949770
  0.5994720641981832  0.8004184096779748  0.5990500215572745
  0.6008900171778812  0.8015109972084810  0.8004406690316636
  0.8008578263093883  0.9991067267471110  0.0019403840543490
  0.8010362278523490  0.9989585190988443  0.2001392594613615
  0.8094880043977880  0.9969451849551539  0.3970258269527938
  0.8040865625491831  0.9961039066214731  0.6001417091777050
  0.8013472026741087  0.9985206832572157  0.7997907775876728
  0.8004975770176180  0.1977120321685391  0.9993850416407284
  0.7982821360974396  0.1988406652173300  0.3968936297631828
  0.8005782374433138  0.3990230415836942  0.9997918095489448
  0.8017560188775988  0.3993842075564394  0.2007739788126732
  0.8017982916272404  0.3983069892620907  0.3998267056440833
  0.7993394516117058  0.4014520886031253  0.6005729873844341
  0.8029490448397495  0.3977418531025368  0.7991590096360782
  0.8029491301250277  0.5987453720081608  0.9998465977373304
  0.8012030844505279  0.5963212703097052  0.1985888173585229
  0.8012459733898062  0.6006764285491908  0.3996227241708999
  0.8008779062820612  0.5989105589320072  0.5999818350231724
  0.7999582797888418  0.5975141415137104  0.8006473867498380
  0.8016910237808196  0.7992462250749527  0.9966479873904570
  0.7978286998315950  0.7999125271272958  0.4021669369669955
  0.7995614968314173  0.7986198888599949  0.6019672030736897
  0.8013721755636456  0.7993634172570476  0.8003082998344137
  0.3997024294116917  0.9977620833546128  0.5994385783356857
  0.0045443557747592  0.0048145908788230  0.4021493535298429
