Ti V  Cr W 
 1.0000000000000000
    15.3720038313806135    0.0023998420144863    0.0001449001601191
     0.0024007571799185   15.3633006247875361   -0.0006442210894229
     0.0001450310074229   -0.0006449824026597   15.3697544548857330
 Ti  V   Cr  W  
  15 105   1   3
Direct
  0.0019724668049559  0.3931858560019026  0.6016545154037929
  0.9915888608965462  0.7993030664673333  0.2036241601001055
  0.0080680067110859  0.7975490531898343  0.6017242816204709
  0.2025164750109858  0.2020421447192775  0.4037547766183003
  0.1947855239806819  0.2051337757527213  0.6129274087053446
  0.1973983116112789  0.3986867838914814  0.2032412279867542
  0.2030375630396384  0.7993370057796186  0.2004931109044353
  0.3948205422920300  0.0015558696643619  0.7993861741195250
  0.4024401240814037  0.6037917056705857  0.8002557663789471
  0.6017340281964353  0.9952782844713652  0.0029374717296890
  0.7923843316696627  0.1977268919556666  0.7959860022314315
  0.7997224543757846  0.4036373279556826  0.1925373277285244
  0.8014094119809163  0.5935648732726664  0.0031068325524697
  0.8061751169278547  0.7978128760416284  0.3916641301591497
  0.7971193328922928  0.7962325237809862  0.6042720238715387
  0.9988742754358582  0.0006091205972718  0.0007407348164923
  0.9991332035151562  0.0012019542231103  0.2011398308170061
  0.9979384967665443  0.9996899652910328  0.3999298892175027
  0.9978193552008178  0.9993401156192123  0.5981346244712231
  0.9995470910081118  0.0003925927424493  0.7988608905193684
  0.0016333341167927  0.1995483030879478  0.9981886062063295
  0.9994698629773812  0.1996570966110958  0.2018821014254419
  0.9984367238984266  0.1960810492222233  0.5978453047084759
  0.0114647651858158  0.1991241385961177  0.7982825633185341
  0.9958271904715775  0.3993258423283794  0.9998590239275900
  0.0007779539080601  0.3989976758192353  0.1999588631864309
  0.9999695196627805  0.3981857583630177  0.3965463657288261
  0.0007669309472742  0.3984267144843345  0.8015052862565570
  0.0028047356835736  0.5998082397384630  0.0015488211823114
  0.9995479211469643  0.5973101821318280  0.2011311691401054
  0.9996570537222591  0.5988298033827343  0.4002753335373738
  0.9999621791659629  0.5983466724891953  0.5985135969721058
  0.9986762324929446  0.6010623122153075  0.7990656415165335
  0.9997875971177451  0.7992994839760045  0.9997382584556401
  0.0029375588736242  0.7993895743912328  0.4008784355988644
  0.9987997350551759  0.8002083248169882  0.8025785696512234
  0.1982341609679920  0.0011794571353356  0.9982060141771816
  0.1979557748629960  0.0004897173500491  0.2022085351757175
  0.1992921977602625  0.9990791277340081  0.4016802371385166
  0.1982862410359342  0.9997199872644977  0.6003157289535738
  0.1967482164784701  0.9973682942317121  0.7990361879718690
  0.2002419565014673  0.1976861686321273  0.1996658350729150
  0.1996877905789199  0.2006412888667523  0.0022625598730943
  0.1993260050669922  0.3980016472366764  0.9951601202686809
  0.1992397666352391  0.4026041413006841  0.4054943277100761
  0.2027366637073041  0.4030681737783403  0.6019410881080081
  0.1999426806424520  0.4046873771399274  0.7987680847538091
  0.1992225804520913  0.5990903451426236  0.0008388791060354
  0.1990728775481636  0.5999028286174957  0.2015419797373640
  0.1983677928919151  0.6009694527041416  0.4004016804112404
  0.1994936133421755  0.6017795225337097  0.6001702105353623
  0.1970361217113674  0.6005389966737699  0.7996857943165929
  0.1992449768891896  0.7994982210038267  0.9992884458025936
  0.2004151573457202  0.8002795110202098  0.4034858506370362
  0.2042400925619291  0.7998470717537037  0.6019053006229484
  0.2000081304838227  0.7997165274796598  0.8009759029011864
  0.3971496719031476  0.9998574132547670  0.0030605127051170
  0.3985553931546749  0.0003321360379587  0.2005140275051515
  0.4026978143138911  0.9997277479345821  0.3992249986645568
  0.3982671900202757  0.0005546098605498  0.5965343124136939
  0.3990173971469860  0.1998476096142928  0.9984857359558482
  0.4000423547259221  0.2004284487220222  0.1988522729276312
  0.4018914775472104  0.2008420449847362  0.4006082310365259
  0.3983788604475735  0.2009667685188913  0.6010759770803665
  0.4052104804464403  0.2016823165211563  0.7998401188233591
  0.4000024555978794  0.4007591005362593  0.0001344225070712
  0.4016486332002832  0.3996784814423678  0.1995847677600965
  0.4005346433824292  0.4003980330459339  0.3990561106318175
  0.4012302649721833  0.4017934424861144  0.5990614522837581
  0.3991534658551562  0.3982586243091298  0.8002154593731893
  0.3990481007700210  0.5987975095988269  0.0030823223898833
  0.3995648006994800  0.5998934131324986  0.2008091428007167
  0.3994409874048193  0.6004090481170208  0.3989649564442575
  0.4004300315501480  0.6003408729490146  0.5968866614894704
  0.3993576969459106  0.7993581445892738  0.9999670565804439
  0.4012308710872950  0.7997185104321534  0.1992127409718010
  0.3993762959570068  0.7996803250907830  0.3988676156468031
  0.4002771784366230  0.7995877228883904  0.6009245935630345
  0.4012217094517482  0.8015060898205038  0.8006979629042739
  0.6000793478242700  0.9993909902823329  0.2055628910432881
  0.6000112972513355  0.0000399640910419  0.5950896916213199
  0.6030937150214718  0.0039087611732078  0.7955659152657355
  0.6002383180821053  0.2009973327764819  0.9959112428951531
  0.5995699743609852  0.1997521912741908  0.1982469153919874
  0.6006934536882037  0.1971003098396081  0.4009407606560245
  0.6009320226479035  0.2005085872760231  0.6031025058198851
  0.6039743824495908  0.4008379580159509  0.9993852948336653
  0.5979579539789242  0.4006738060187587  0.1999361483397925
  0.6010512320571584  0.3987281432266984  0.3999320505433532
  0.6003409170490333  0.4007114301873370  0.5997066232104081
  0.6010839594212408  0.3975758602132343  0.7990049213432830
  0.5970724155864719  0.5999623668433403  0.9995834420981479
  0.6003220801146182  0.6012307298502777  0.2015545169523291
  0.6015697860537362  0.6018128023863711  0.4000325054035540
  0.6005154052304166  0.6006055796888811  0.5988887217604769
  0.6031487651333134  0.6006196812908754  0.7989062427329078
  0.5995522081512198  0.7975070699998474  0.9983699686830482
  0.5987170856663030  0.8002790191754565  0.1976914922575883
  0.5988368815642829  0.8042900017313147  0.3997267725469212
  0.5984344938295901  0.8004797110501345  0.6000934653683397
  0.6002743472435040  0.8028931760041432  0.7999588384252612
  0.8026582883478270  0.9995306443437826  0.0001108143160107
  0.7997126218516813  0.0000918221587132  0.1991470245313889
  0.7962448461500222  0.0015844104599099  0.3987440191486597
  0.8010268165953676  0.9996970190828128  0.5977423075884997
  0.8010714919103181  0.9979849895344294  0.7987937350097221
  0.8011831091570552  0.2024017401968249  0.0006229456293290
  0.7994227097563719  0.1986624632262794  0.1980445175100199
  0.7997975727118757  0.2016575737794596  0.3975646854490652
  0.8011817343439828  0.2013820003771065  0.5971342023423013
  0.8003436057739516  0.3999792591353082  0.3998961015924853
  0.7995761691011996  0.3998453793762249  0.5998173740173853
  0.8011762546653731  0.4029071078140235  0.8010253321435541
  0.7992875447872193  0.6036679890831113  0.2030994399486070
  0.8013036848737647  0.5969405604172746  0.4001278180186060
  0.8010188381239201  0.5973978252478911  0.5991631562091980
  0.8009051241179549  0.6008897791112175  0.7975903805716164
  0.7988952152703050  0.7997754552735645  0.9986717821403901
  0.7955585776757919  0.7998308901763108  0.1940065681521863
  0.7998889533221678  0.7993475440591123  0.8027254052812921
  0.9971741580426238  0.1994781399218516  0.4000521462691023
  0.6000504876234938  0.0009898917349951  0.3998943003456583
  0.5976651131529861  0.2000874340157361  0.7987067547661063
  0.8004883369717664  0.3983432264260631  0.9956943797420851
