Zr Ti V  Cr W 
 1.0000000000000000
    15.4219977637485020   -0.0153525296692176    0.0018800521315798
    -0.0153399539639544   15.4042384266248558    0.0149563524432868
     0.0018828811446291    0.0149768248118706   15.4308175709018371
 Zr  Ti  V   Cr  W  
   2   1 100  10  11
Direct
  0.6001660464707506  0.9869158981667513  0.7909458597484307
  0.8061021811642928  0.4055491344876557  0.2021237997766677
  0.5983247000229227  0.4049406199521363  0.1964377500033185
  0.0007362592966233  0.0014874915751757  0.9999950120576936
  0.0007918372725314  0.0001430048743154  0.6006477337749964
  0.0004399524224319  0.0000616412085340  0.7999529618953469
  0.0057188486940748  0.1997370228460046  0.0007323033761112
  0.0011974085623716  0.2025683151044761  0.2004077082432275
  0.9972231050688312  0.1993185833061476  0.3998686830433285
  0.0014122224808446  0.1996358500150699  0.6006740849427586
  0.9993322610509835  0.3983339978545403  0.0039124549749578
  0.0010803250328561  0.3996206744379320  0.3980399598327219
  0.0009732642362660  0.3998149050021785  0.5994530457350816
  0.9993893266859036  0.3992532153108441  0.7992050666588921
  0.0026023762334956  0.5998506616392432  0.0009267750031728
  0.0015245368091846  0.5989402206995591  0.2001203984497801
  0.9997960355776192  0.5992282160044373  0.3995561383193831
  0.9991796679731115  0.5986116661533091  0.5989378777811946
  0.9995197105764188  0.5992657246834442  0.8009148450266812
  0.0000004379238847  0.8018437914162507  0.0003323457094011
  0.0009715174277643  0.7992907615352582  0.2006851534249333
  0.9996324707056935  0.7994719933410281  0.3989883377126456
  0.0027635042970342  0.8002719015133587  0.5997470537014780
  0.9967856300547354  0.8005383942300706  0.8000106631590648
  0.2007178528808302  0.0054414755511481  0.0006696227504601
  0.2021659786874445  0.9990839822197575  0.2002342580231000
  0.2018130331145041  0.0006735432820321  0.3989674719866422
  0.2008470476360471  0.9966351109305595  0.6007468094584185
  0.1986570426013541  0.9988589482464189  0.7996156003271159
  0.1997913018157450  0.1994610211440875  0.4013915614799328
  0.2003623206112484  0.1988483484590235  0.5999672249672942
  0.2009169419515896  0.3970370129110383  0.9993143214576002
  0.1992602087518207  0.4014668542168204  0.2018394762863351
  0.2001483793741216  0.3994119223356511  0.4019004889112543
  0.1996666020752300  0.4049940077305630  0.7983794227087775
  0.2042481360473762  0.6013486438228848  0.1956338716500702
  0.1994937092376843  0.5990089113190399  0.4014270421058817
  0.2010206759098061  0.6024883005506320  0.6049989909987848
  0.2009927396673465  0.7987089667345715  0.9979615948081579
  0.2003976899584974  0.8017561939404740  0.2009307776491137
  0.1996055957383661  0.7993046465193639  0.4042077331786019
  0.1999681294855632  0.7966334719704544  0.7963812247626187
  0.3999344283127079  0.9998832637296200  0.0650727631110701
  0.4014473498456579  0.0021844268771829  0.3977576452405703
  0.4035811821850143  0.0013571523039317  0.5982860050052913
  0.3940461681673790  0.0015022779301552  0.7982635953323725
  0.3998587315808730  0.2013968032125716  0.0020284019630197
  0.4019466084917214  0.2053280471345114  0.2020034810621273
  0.4021174277017898  0.2008982795213386  0.3980563014995441
  0.3995280676248881  0.2010614749755281  0.5992188333963285
  0.4009887885379440  0.2013032145611666  0.7988976256618757
  0.3998204398334992  0.3995932924595398  0.9986568452459917
  0.3971659373611792  0.4065519297785983  0.2023690835616822
  0.4005109373805273  0.3997347520454562  0.4007754775109321
  0.4000426185257407  0.3996194429714728  0.5988214359144957
  0.3994614376260738  0.3999854402041728  0.7974617771324379
  0.3963850623731055  0.5993447746058888  0.0022984355531184
  0.4000428326931443  0.8027154385153918  0.0000704863124632
  0.4008427421247724  0.7958534410146973  0.1997161933733289
  0.4014245943530403  0.8014820960665130  0.3986381610092411
  0.3957818251550860  0.7993967164857044  0.5972498511186816
  0.4025026464814950  0.8022256132753522  0.7997572504187194
  0.6008179797984272  0.0048499842096843  0.0029400248088485
  0.6013150421416862  0.9983311526991551  0.1998516278636933
  0.6000879692258161  0.9995737504505263  0.3990819271846610
  0.5989084083919620  0.1975800209205671  0.1949349526656396
  0.6053893997326826  0.2008822772068355  0.3986478454541642
  0.5999525009566545  0.1955358650961798  0.6036281133279222
  0.6007298939766771  0.2022717304585347  0.8040829872053635
  0.5995581362308829  0.3960069577944798  0.9960599579377803
  0.6004136370499796  0.4004721243022973  0.4033231490962557
  0.5994853400284065  0.3998879193632974  0.6007040945854843
  0.6000368234385082  0.4057069233295412  0.7977757971685971
  0.5988569414565770  0.5981398439920531  0.9960826462105679
  0.5949867672517172  0.6050129011740821  0.1971275977001796
  0.6011001116940662  0.6002665661085865  0.4000528347162203
  0.5994637091755916  0.5997163783911927  0.6024419154342117
  0.5996854829848051  0.8032661974689711  0.9947022889259240
  0.5996141978641720  0.8024202289655914  0.1985367327456374
  0.6015167734924819  0.7993226060892383  0.4007962289238681
  0.5985518361604268  0.8018135394138851  0.6015069989594712
  0.8023899653260761  0.0013617387723834  0.0003522965886631
  0.8021359534281725  0.9988436912586139  0.2008323413654775
  0.8015889587631326  0.0033212914155794  0.3996113330119614
  0.7976400353114982  0.9995607203549649  0.5997369706736790
  0.8064008932137080  0.0002806995021545  0.7995702047692348
  0.7952563006252394  0.1999872889448638  0.0004550922552741
  0.8014906744691884  0.1967606177935131  0.2041013394257609
  0.8009494070775953  0.2000348700985189  0.5969361282537765
  0.8006803637261317  0.2002882179381083  0.7993926436191241
  0.8017305186486761  0.3991096433986150  0.9966546263546660
  0.8000652874241352  0.3954618361705544  0.4065702189824235
  0.8006743205191779  0.3989048932265808  0.6017691856831912
  0.8005905404709466  0.6003350481664007  0.9999640291678885
  0.7980635756605805  0.6073019508200805  0.1993279109028965
  0.7990159629766180  0.5987758469818466  0.3998806862890186
  0.8006283878871925  0.5996351655914010  0.5989089763328951
  0.8001730652308903  0.5991299975625823  0.8000065679775880
  0.8004289005303358  0.8007779249794541  0.0003373014588807
  0.8006498521316249  0.8019980611105710  0.1998270994177388
  0.8005790479058532  0.8003019499703657  0.4003378688160226
  0.8029166200516319  0.7991411297737471  0.5984554535133045
  0.7987712840164538  0.7995150512132800  0.7993273732887746
  0.0021654050640962  0.0001782995986169  0.2004831168723793
  0.0009242261467471  0.9999673865979229  0.3998995159745603
  0.0005426000657507  0.2007369395007388  0.8004629516970960
  0.2015218153611732  0.2005152431491551  0.2014989234371795
  0.2001393237124110  0.2015744936330883  0.7998635691198626
  0.2003951820002787  0.4004848088984950  0.6002466580661145
  0.4003839757915147  0.5999320938119840  0.3996730331258101
  0.4003824574559115  0.6001034074768992  0.5994196847989022
  0.3992378384293765  0.6001798831325084  0.7997521234513782
  0.8014958301109599  0.3997215001855838  0.7990199488789256
  0.0068243218938540  0.4025076896445078  0.2016479511917137
  0.2033832308629754  0.2007684300944460  0.0007104275100429
  0.1995023374759169  0.5993892294827525  0.9972175147244781
  0.1943930707372090  0.6014959597268192  0.8053349058302769
  0.2006327802913502  0.8000571434861801  0.6006018455225139
  0.3988764235561149  0.6020222587103088  0.1970153860242312
  0.5999528977059915  0.9984172891112616  0.5928380740686365
  0.5986574198107666  0.1991602255183483  0.9979672340591472
  0.6033261429701973  0.6022631954117292  0.8000694107052095
  0.6002239402869411  0.7876005475801647  0.7986687274850153
  0.8001202006717009  0.1997091769569229  0.3999985375748111
