Ti V  Cr W 
 1.0000000000000000
    15.4171836946855763   -0.0006458025225840    0.0021743795697675
    -0.0006464432342440   15.4108214600062574    0.0048957167363750
     0.0021730867805691    0.0048939939426410   15.4267125679285311
 Ti  V   Cr  W  
  13 101   9   1
Direct
  0.0011984582330544  0.4003773102646491  0.4005904289303391
  0.2084587654115191  0.2005527758269185  0.7912590783775195
  0.1991353087143849  0.6136469113460294  0.0053946891236418
  0.1991138850473789  0.5987322110508669  0.7910205452011440
  0.4008477658474502  0.9951643195151041  0.5993374827547747
  0.3952616356720078  0.2048277340594823  0.6063996073196531
  0.4028757738014277  0.6022062907125306  0.4013921615426106
  0.5948937105972344  0.9991393184735345  0.9964728333093692
  0.5947177071770723  0.3988827192731142  0.4038957212267749
  0.5906551023665835  0.7982843456502000  0.4016236192980709
  0.8018888297440930  0.4058930444180662  0.9906617200083544
  0.7976463616706863  0.5927371522976146  0.8044346194590261
  0.8042292972001961  0.8020484164308606  0.4020649028962797
  0.9997425271358709  0.9985764899176547  0.2019537728754909
  0.9999395652643359  0.9990629745605335  0.4005579444825980
  0.0014758124443811  0.0001718384732143  0.7997316268994208
  0.0015124031631015  0.1994303682272553  0.9987564320269005
  0.9992029665430801  0.1989018223837697  0.1985226053090025
  0.0000632338473721  0.1980677901023983  0.3999839211161912
  0.9989653334974196  0.2005457817847681  0.6000856374885877
  0.9996526864525213  0.1986465228639922  0.8003927020797114
  0.0038381588034900  0.4000977041819019  0.9987526197814575
  0.9999958385900594  0.3995554147146043  0.1967285606729094
  0.0012940908654844  0.3985989051232430  0.8004031905980818
  0.9975742852674898  0.5999167381712874  0.0005872916469909
  0.9976539215451951  0.5977618790331005  0.2018038618170387
  0.9990524686150080  0.6010192771444417  0.4002058144787576
  0.9975799049514169  0.5987596333319488  0.5999405706816334
  0.9992491815657232  0.5984287096065755  0.7997183267583715
  0.9999763363852144  0.7976011309966664  0.9998788276345613
  0.9985547581992852  0.7989151187789596  0.1997673270601573
  0.0025772387936280  0.7987604770264866  0.4017124977609810
  0.0006284275270505  0.7982444093391305  0.6020104868292451
  0.9996597723345186  0.7991762550851892  0.8010053976546100
  0.2011361600813394  0.0009182636343824  0.9992947436612309
  0.1992824463315418  0.9992926764545292  0.1999762968102639
  0.2002870592287594  0.0001021963504753  0.4001335136777301
  0.1979114669385345  0.9990590005159522  0.5989114555724561
  0.2011411918621477  0.9982144038249228  0.7989095910598869
  0.2004640837087610  0.1987956400697817  0.0009844830791028
  0.2010736119400576  0.2003088912806111  0.2003592165305010
  0.1996493921121719  0.1993677746154235  0.3990790588760531
  0.1969584005018124  0.2002122920854700  0.5954532490109660
  0.2007015463367761  0.3977076316393188  0.9994819227780948
  0.2007708467806650  0.4001295862660676  0.2002164700817931
  0.2021481691856081  0.3997525017388597  0.4000836727528370
  0.1981535990688309  0.4006823354863954  0.5991720275751347
  0.2015021425726377  0.4007326433083966  0.7995452952450696
  0.1998620106185658  0.6003154462657199  0.2038463361238745
  0.1982542592022548  0.5996708978670473  0.4001083443038672
  0.1994601093221404  0.5995653815228208  0.5953206514084506
  0.2006699014540327  0.7993921872907187  0.1988641078706140
  0.1998712310013521  0.8007857576091127  0.4001965355684717
  0.1997577303804957  0.7986161247869531  0.6014091604195740
  0.2016153773965971  0.8002855853033891  0.8019112116248504
  0.3979869696980790  0.9996551571296641  0.0011293007378004
  0.4012831014924439  0.9990847605472526  0.2001110255942051
  0.3995594229220572  0.0006857893013299  0.3993037997895836
  0.4023738850157536  0.9982853843724206  0.8021484587337001
  0.4008188073284364  0.2002817701973680  0.0016551647216456
  0.4013151970436151  0.1999994896482613  0.2000606160945728
  0.4003382135038883  0.1995930854881801  0.3984993334755630
  0.4050683621906052  0.1995828764511597  0.8036401740358996
  0.3985437912697315  0.4004438673735094  0.9987845623907482
  0.4012861029610186  0.4008099340671389  0.1995783494993081
  0.3978232981845358  0.3981110015101320  0.4008380822464476
  0.3990570677137649  0.4034519803305400  0.6015495175250000
  0.4001961026261442  0.4001939369315202  0.8013073042084939
  0.4014082857223678  0.5996931506006289  0.0002919927775785
  0.4014686785985151  0.5994637199640422  0.1987097185180065
  0.4005163612836208  0.5998912035888730  0.6020147518390725
  0.4024293152784822  0.6003151876842409  0.8007535809315172
  0.4004871126147818  0.7993075938660111  0.2006907491418208
  0.3958887142460946  0.8017562921448328  0.4008321785896610
  0.3994141869704394  0.7967789616723331  0.6018879048914982
  0.5998390955369540  0.0010440688784088  0.4005758212351677
  0.6024584738426265  0.9992831881178627  0.5991872988805200
  0.6009784565773019  0.0001303505359900  0.7963600476169782
  0.6009612988052445  0.2015775365630110  0.9995885382204630
  0.6012359750740371  0.1996644815799981  0.1995831914083921
  0.5989874103897700  0.1981436774496742  0.4003177837635800
  0.6019636415331223  0.2004234180973820  0.5998731976669684
  0.6017426283883550  0.1996965618091739  0.7994863232364803
  0.5981332204674991  0.4004465786516664  0.9994260438810011
  0.5993049829288115  0.4000715934315007  0.6021353989302062
  0.5991069837166042  0.3993105126685755  0.7987059523318666
  0.6007170432152639  0.6001159669505282  0.0003236638228247
  0.6006777579200170  0.5985873329846437  0.2014756180978732
  0.6015826766722153  0.5999539082715667  0.5986949103083622
  0.5985934548989965  0.5988577858600621  0.7996724850393337
  0.5993483378066216  0.7980994153560488  0.0001182118231235
  0.5998986162132254  0.8001797281585047  0.1987915081407459
  0.5994560302025899  0.7990408057251134  0.6023654940899743
  0.5998301940204397  0.7991361272862371  0.8002031664917475
  0.8052649827561299  0.9995664034495728  0.0010538847227630
  0.7994484069835174  0.0005571971404512  0.4003380455569060
  0.8007936766377526  0.9991860023057966  0.5990713572730623
  0.8012107876580635  0.9988677835339353  0.8005351075956950
  0.8006632335545187  0.1971404293535558  0.0004162517863281
  0.7992679624454968  0.2002341009075850  0.1990178121956374
  0.8000057703849793  0.1998735538978710  0.3992620948027204
  0.8003147765620892  0.1992637556634135  0.5988913766101595
  0.8003230013701322  0.1984978702080779  0.7985781890965694
  0.7984583620827393  0.4003499625711457  0.1997864133260959
  0.7991415341275517  0.3990336093559466  0.3985052597994815
  0.8010494807659513  0.4002019888602074  0.5985075956843610
  0.7993596182251774  0.3952525627103873  0.7960212932978475
  0.7990729741409393  0.6029429461375103  0.0048812776818998
  0.7986503672779377  0.5976707383709101  0.3988822328039188
  0.7997294249963078  0.5991622264182515  0.5973253153623280
  0.8010096868080953  0.8015264862202217  0.0003665835317666
  0.7980801508883588  0.7987179402833418  0.2000477476424034
  0.8000746715535403  0.7981345001532409  0.6031799362389810
  0.7992652673970158  0.8007606276705244  0.8011602286159989
  0.9996315528569176  0.9987145727770331  0.6006188000788280
  0.0000952106794674  0.3998700196298220  0.6027982631657205
  0.3996518783063269  0.7999158076690615  0.9997575189840688
  0.4003826094547905  0.7989178661290267  0.8015925293415678
  0.6008781796749026  0.9996041557924740  0.2023172046630653
  0.5995905437296578  0.3991820982196364  0.1972779080779087
  0.6020141845422953  0.5990713149731623  0.4000173114240376
  0.7995610529701621  0.9994358199507618  0.2011798586282330
  0.7993381508782121  0.5996565613521965  0.2007733478140049
  0.1305230848666637  0.8704317934700107  0.0000649846225254
