Zr Ti V  Cr W 
 1.0000000000000000
    15.3161674756862691   -0.0038639056753981   -0.0081742366427040
    -0.0038625530149281   15.3180417040563182   -0.0084288121243241
    -0.0081714294601317   -0.0084252347079361   15.3251398317997438
 Zr  Ti  V   Cr  W  
   1   2 101   1  19
Direct
  0.0007056695474867  0.4058889020601686  0.6037776829299741
  0.4064622231278704  0.9894432617800362  0.3978615729518700
  0.3959732244055522  0.7966687155547680  0.6150981000621181
  0.0002955725193932  0.0011682563238476  0.9991888932694356
  0.0003079229491303  0.0007708439550105  0.2007769096579825
  0.9971423171266164  0.0055782361024277  0.3993860960149272
  0.0023553940772086  0.9980148384140299  0.5990856958097744
  0.9997707426502063  0.0019227335576417  0.7994273539084850
  0.9986914525319566  0.2043009092109630  0.9991789575041226
  0.0034488135150035  0.2022879605390887  0.2036836934933531
  0.9978673637436323  0.1978911974460702  0.5949498839051844
  0.9980990099517224  0.2024817137805471  0.7974754648467012
  0.9976697078829172  0.4025774126867428  0.1950513030145683
  0.9980789486179212  0.3974731656053178  0.3957173215689572
  0.9993760575228063  0.4052468503951255  0.8082994772644243
  0.0010860175293936  0.5987139049926665  0.9960179759027491
  0.0054549840518863  0.6001035846315043  0.2017947073248814
  0.0009284801356291  0.5991727821407146  0.4018105098259426
  0.0055452283632950  0.6098730857490617  0.6014168112365746
  0.9962861194897462  0.8006547601959993  0.9986170399063348
  0.9999889490821332  0.7999744746870535  0.2000172847994964
  0.9973372816434068  0.8011317180516000  0.4041945596980006
  0.9951889427150802  0.7953684698680585  0.7975530665329104
  0.1985824883049911  0.0007579406796195  0.0000263590396405
  0.2009638516721001  0.0051303026948941  0.2027341898355800
  0.2006858696163319  0.9998478204472995  0.4030485998334691
  0.1989084125878229  0.0019649692069404  0.7967396852394848
  0.1995895958905956  0.1996418101182099  0.0037350928822764
  0.1977303088477520  0.2002357451989191  0.3962809615205566
  0.2020733237728382  0.1965672913977695  0.5991546997601789
  0.2008744143862592  0.2009335922654695  0.7996486356806429
  0.1967985916222905  0.4000888159673628  0.0011550230096829
  0.2021373501613293  0.4006617779253428  0.1991645019432738
  0.1985505815339684  0.3999600000848111  0.3995167294744071
  0.2059465733186907  0.3976228357132734  0.5997997627417948
  0.2004064622919726  0.3998984535583681  0.8014829074853685
  0.2014028941983804  0.6015367962590593  0.0061242294885377
  0.2042226662428430  0.6000232353727327  0.3974175356536385
  0.2073459369621971  0.6038956036803308  0.5972908941126921
  0.1971900196274373  0.6005837793547771  0.7991220177940164
  0.2003648434326539  0.8027545720092842  0.0009975714371824
  0.1993795230045479  0.7976944556519253  0.1993217153538717
  0.1983693148277981  0.8024401826646098  0.3989990378867626
  0.1936840446910458  0.8060777612938835  0.6006199837440750
  0.2023966261742837  0.8008253485129502  0.8019067043402207
  0.3991801317229793  0.9968081906146137  0.9990710948962380
  0.4000819682956294  0.9986596881612009  0.1960200789688520
  0.3947533491752926  0.9997294192128783  0.6033101362353832
  0.3998525291107138  0.9956139383075113  0.8003859626585459
  0.3998655678459837  0.1975632717346291  0.9989378287017578
  0.3967907874133636  0.2016968010469309  0.1999703046210403
  0.3981427236671561  0.2037114116993186  0.4007980579286052
  0.4015020938438075  0.2008573281052520  0.5996747913802082
  0.4024530937458217  0.1997950582535655  0.8012315776932881
  0.3988461546137169  0.4032216970355069  0.9982037784196298
  0.4040055311704260  0.4017879613713183  0.1984012464536475
  0.3996692792466317  0.4036375864304655  0.4009455483279331
  0.4004238425700125  0.4024099310316015  0.6022054034329887
  0.3990315069753850  0.4023981985930692  0.8029113100849909
  0.3999325857831635  0.6042977706272528  0.9990059719969112
  0.4004087717599034  0.6009907010034210  0.2061334290407098
  0.3998401287591919  0.6027186897818408  0.7977421454564826
  0.3997699407429419  0.7998409610673721  0.1940487321369840
  0.3991575507456405  0.7946584362430208  0.3987429732505740
  0.5988551530226395  0.0027461630719433  0.8999584819248901
  0.5974425700302682  0.0026718967061337  0.2071157575957736
  0.5955897285512185  0.0044172812959038  0.5925398040296791
  0.5994123939992080  0.1999672328412854  0.9973015538024573
  0.5983822456726021  0.2034776522460989  0.2009543159113175
  0.5981909597842162  0.1974880635961088  0.4038647174978903
  0.6010235166101063  0.3996494193701043  0.0036522622473332
  0.6024822524957130  0.3959617497156768  0.3963488921051775
  0.5990936735568990  0.3977634304903147  0.5986988257174551
  0.6011203727456751  0.3969078540508281  0.8034575965088896
  0.5990905929312537  0.5984867290437569  0.0060156322330318
  0.5954826886475717  0.5990965464338788  0.4006351655970637
  0.6013205577765987  0.5952857816015399  0.7934676585867279
  0.6002633957219708  0.7986598158299316  0.0002493791739564
  0.5996155165983968  0.7946842074194445  0.1983974077034568
  0.6003540010763954  0.8022843409846533  0.4008246574869390
  0.6024136093382071  0.7955897785989362  0.6019475781120482
  0.6004603730596419  0.7993540031598491  0.8000215427196580
  0.7997693066136246  0.9973825364097757  0.0002636910564386
  0.7985808241071849  0.9999122546222413  0.1982201120696267
  0.7980744739432842  0.9980946153598459  0.3985257822386291
  0.7982451867296978  0.9992580783126701  0.6001342150118617
  0.7994743506016052  0.9970345435231902  0.7998765789112678
  0.7994022221381932  0.1965404944836185  0.9991425365201685
  0.7988186002223699  0.1996496332887671  0.1980779606851902
  0.7960301929672550  0.1994960760700619  0.6001604963314777
  0.7968651556295611  0.1987423653366224  0.7993533242638375
  0.8032553357358463  0.4015028160372473  0.0001286818747970
  0.7972948985321084  0.4011845518673988  0.1981285797420947
  0.8016664560311223  0.4015454641207955  0.3983602059874444
  0.7953780212697179  0.4021168673410330  0.5997671732594869
  0.8004082142429767  0.4017456885475653  0.8020504265790902
  0.7990847352220448  0.6055120500387546  0.0008268848298378
  0.7951695456746186  0.6020456126784089  0.2018167050750204
  0.8001374465982554  0.6020046842411676  0.4003994025803456
  0.7922917117367523  0.6017472301004257  0.5980825369112862
  0.8023454459963614  0.6041518401549202  0.7988908746309585
  0.7994245585689631  0.7999589221055567  0.1955062844796021
  0.8013031994721955  0.8006109613131103  0.3985630593566273
  0.8012898736965791  0.8017257860495811  0.6048124908130181
  0.8004569209643541  0.1997475815621927  0.3991266870653810
  0.0018225443723823  0.2023950848311971  0.3999606295468212
  0.9985084050709926  0.4018007784312822  0.0004535721505996
  0.0008678359141432  0.5992284505879035  0.7962926479961290
  0.9979178565117056  0.8031637581942240  0.6015097534161171
  0.1986106394815666  0.0016688698890775  0.5987046035063317
  0.2011713463234526  0.2024059221223722  0.2004417720267260
  0.2030502127627493  0.5990891830875855  0.2031412451397479
  0.3990950299837010  0.6005261825503709  0.4042541406047807
  0.4048803273097885  0.5978132184528901  0.5987449460891114
  0.4014117643905087  0.8007155015093462  0.9958272958464642
  0.4013744934477111  0.7984407863712217  0.8081666849158851
  0.6033737026021919  0.9996318759005519  0.4003045988720526
  0.5980165352978951  0.2016796312228813  0.6021618051557699
  0.5996793485076973  0.2018773274997689  0.7966828203293448
  0.6009912190987791  0.4008016365376504  0.2009540184326639
  0.5973882576736788  0.5953127879246372  0.2052163386186802
  0.5955463222521430  0.5961893312681726  0.5959592442591137
  0.7982204851307109  0.8020003991344749  0.9972474560348354
  0.7981790826809267  0.8010788247633734  0.8040287946745318
