Ti V  Cr W 
 1.0000000000000000
    15.3720038313806135    0.0023998420144863    0.0001449001601191
     0.0024007571799185   15.3633006247875361   -0.0006442210894229
     0.0001450310074229   -0.0006449824026597   15.3697544548857330
 Ti  V   Cr  W  
  15 105   1   3
Direct
  0.0054555109529326  0.3928441349370896  0.6014777428756320
  0.9909936778908424  0.8019966472022583  0.2042591288321672
  0.0090750744880291  0.7983327715016739  0.6031697239193394
  0.2009455207903751  0.2007214740104030  0.3935570769662468
  0.1964647783018843  0.2048001076039341  0.6035816353929256
  0.1988487730028915  0.3765419865080805  0.1976393785723585
  0.2017855962290650  0.7972134316781642  0.2009085866309312
  0.4068383734792113  0.9969549319731587  0.8065261487138674
  0.4016335356408130  0.5995470540372124  0.8009224589065229
  0.5935952035164956  0.9959308118612925  0.9946422580018865
  0.7919680826532319  0.1978804236048886  0.7956937890206914
  0.7992060541216002  0.4039358884988143  0.1927131187964985
  0.8018344193528455  0.5936027552754443  0.0028175650007011
  0.8066175139675653  0.7978583673157590  0.3922757558132976
  0.7985777325577494  0.7970012821355430  0.6049650430953279
  0.9994472223397045  0.0011518248869158  0.0011008926329812
  0.9990061247198183  0.0034824981041954  0.2016374233206792
  0.9982061678479388  0.9996098061866260  0.4009499548980234
  0.0003617965273291  0.0004871840404908  0.5993933967886897
  0.9997450513103949  0.9998654981378620  0.7992295434179393
  0.9984033619678114  0.1996419044590798  0.0001549570572380
  0.9961922837481626  0.2006165739670139  0.2009753072515046
  0.9976474191458616  0.1964500251200007  0.5980008186925971
  0.0008990440367519  0.1993164535686455  0.7999415393826012
  0.9966955713441331  0.4002639025239859  0.0003107800075979
  0.0005488145739834  0.3991383503819115  0.2007055361285172
  0.0001610613319398  0.3990648328292900  0.3975437775399692
  0.9999895783586503  0.3986494826933480  0.8017130616052214
  0.0024324689984541  0.6007932289600639  0.0015305812900133
  0.0000466734489264  0.5973488616441049  0.2016379962629030
  0.0000725712089319  0.5991066974299820  0.4009812597925344
  0.0008378346961217  0.5988358821064027  0.5989592163087617
  0.9994256099235582  0.6004596311710532  0.7991799004592056
  0.9993767794881629  0.7996808451985856  0.0000947399302995
  0.0031786742098683  0.7997437239593884  0.4015363102785524
  0.9992169021926880  0.8003902794465464  0.8030883755782726
  0.1974888196957152  0.9997711965825999  0.0012437204646622
  0.1980650763611730  0.0109812590093277  0.2014020136763343
  0.1994995638893977  0.9995233640861532  0.4009188524621983
  0.2005646207480329  0.9987268160378405  0.6006255111796164
  0.1993296288811194  0.0003515179609225  0.8010165779943332
  0.1986973719562739  0.1990086870386687  0.0976557367809672
  0.2011335561882441  0.1992493555850923  0.8002170041210527
  0.1984346675137222  0.4001716907790941  0.9988022463304718
  0.1995112815803880  0.4005314051492527  0.4034635952956166
  0.2038174056563559  0.4040779509077199  0.6017142022019841
  0.2002468170347956  0.4004864342957825  0.8013413053675111
  0.1989466136638110  0.5991878116532620  0.0011233261977104
  0.1989671021608727  0.5998433852897173  0.2016172476591067
  0.1988219821704394  0.5997266824617333  0.3999684725487478
  0.2004723586980576  0.6017049662674308  0.6005219588240421
  0.1974410028944076  0.6001517792129855  0.8000269804309584
  0.1990653184620813  0.8010238426842241  0.9989425408542245
  0.2005912213072971  0.8010136444773459  0.4031528786178457
  0.2051550940111883  0.8001052541223775  0.6019760006171403
  0.2004207137882330  0.7997419450761099  0.8006392300355968
  0.3943139399894534  0.0007170052449667  0.0051000067439316
  0.3980741787634854  0.0016763119789849  0.2016183993782720
  0.4029517371619121  0.9990636801639426  0.4006310497335832
  0.3998651173179441  0.0001102679865990  0.5987828889632902
  0.4000441249883185  0.2003978051939174  0.0002887041372882
  0.4006182296690871  0.2009120659206540  0.1976673006868079
  0.4018883978327910  0.2004946877073024  0.3998469904880158
  0.3999617237797518  0.2003389117352803  0.5994364935817599
  0.4023864722969863  0.2019706434227934  0.8006179257888947
  0.3984966784597860  0.4017602007902276  0.0007336400525853
  0.4021844728022309  0.3994305784685210  0.2003162545729273
  0.4006815438008873  0.4010380265700990  0.3999658003191652
  0.4014815108623161  0.4012192442946087  0.6001682749938607
  0.4008754736481162  0.3991920664239875  0.8009503924137759
  0.3992416772781908  0.5998495381397738  0.0035404480896593
  0.3988941889033752  0.5994041056735105  0.2013946747826199
  0.3998591932542319  0.6004896975115241  0.3996524484591786
  0.4011547901177025  0.6003695525822390  0.5971276584502279
  0.3989844321661701  0.7997471828968379  0.0007202232599286
  0.4005183085289508  0.8010450589800027  0.1996050821123905
  0.3997680565278260  0.7994817733140754  0.3993831375307973
  0.4007331688161421  0.7993467580572273  0.6018138163702895
  0.4014099567068659  0.7997858262667341  0.8013128852507799
  0.5992294671742607  0.9995650081260434  0.2043584708373186
  0.6009769876037808  0.0000923388422652  0.5943831580659362
  0.6051325422214286  0.0045240689375682  0.7936888880586653
  0.5988085815975943  0.2020145275891072  0.9941667052274104
  0.5992142804122015  0.1996093558604133  0.1974962111811953
  0.6002555702326811  0.1971268526620084  0.4007251983957341
  0.6006686915239071  0.2005366446233256  0.6029057430657354
  0.6040925409283435  0.4013129339207998  0.9994106799938176
  0.5977910537463893  0.4009309434580216  0.1998647960966147
  0.6012793319436178  0.3987037605298970  0.4003180523465701
  0.6009916989384572  0.4009578463213601  0.5998942642373696
  0.6009789463560490  0.3975091494532829  0.7992676247646572
  0.5969579428283556  0.6005258058888581  0.9996688121268567
  0.5999617187007315  0.6016989972514167  0.2017266291222732
  0.6019507476871908  0.6020166718265932  0.4001387106776122
  0.6011868335368888  0.6006258855156819  0.5990571332015637
  0.6034231601930846  0.6010017399696560  0.7990044674142815
  0.5994007798563751  0.7976465738267584  0.9985084942704520
  0.5984324228749132  0.8006617161764508  0.1980488598072413
  0.5990151511086858  0.8043039838604729  0.4002913157260856
  0.5992454975631780  0.8006915086608515  0.6004851215064739
  0.6007202056284004  0.8027975533530671  0.7997923928673007
  0.8013050068920925  0.9997784811538235  0.9993347209105089
  0.7984508695852602  0.0002377636007078  0.1984894233458626
  0.7965789877526380  0.0013668072839081  0.3992189377947493
  0.8022092496154978  0.0001772628310483  0.5982944936563427
  0.8014619327324594  0.9972224822530755  0.7990843547702605
  0.7989706658645734  0.2021218385330508  0.0009858389759897
  0.7976892942543676  0.1988723466013710  0.1982527524214830
  0.7991056383122845  0.2016682026071730  0.3976569014800104
  0.8008153316235517  0.2015034574306040  0.5965020415419345
  0.8004114378668963  0.4001847753533532  0.4005449701532960
  0.8005115686321290  0.3995720779213369  0.6004451162532375
  0.8008745777089594  0.4037205621930156  0.8016135331823637
  0.7993535150476175  0.6039181339975120  0.2030503065173440
  0.8015586309610944  0.5972653691760297  0.4002528248296254
  0.8021185174285399  0.5973285385408298  0.5994301625518169
  0.8010261043432672  0.6010964856961738  0.7976102961416893
  0.7987347731520329  0.8003200546011148  0.9990854198750038
  0.7950685610594544  0.8001574133764752  0.1939527127445051
  0.7998918299014171  0.7991993996724240  0.8031053353216528
  0.9958455457345730  0.1996100010806193  0.3995479639599484
  0.6003027276350899  0.0009774233210735  0.3994021604059599
  0.5976823595041101  0.2008348100502088  0.7970404418468454
  0.8004970753548316  0.3981457133071050  0.9957500469112189
