Zr Ti V  Cr
 1.0000000000000000
    15.4866812533483102   -0.0138389071891856   -0.0042650055420354
    -0.0138393523722023   15.4879634038831639    0.0014184031787679
    -0.0042741725747290    0.0014267905633447   15.4705250654031623
 Zr  Ti  V   Cr 
   5   5 111   3
Direct
  0.9983362911723068  0.6001325827956685  0.9993640142050876
  0.4332431089235702  0.7958413341871141  0.4124353084011504
  0.6020367809370830  0.6007843682266398  0.5943830542551471
  0.7843975554229936  0.9648456503141999  0.5994296274386797
  0.7847955046752458  0.7502381641891190  0.5994158696362505
  0.2000409700451591  0.0001244069112623  0.5979356474203897
  0.5970470467772278  0.8017568738132694  0.2270514881968598
  0.5844211151374361  0.8332804221630594  0.6029602829957322
  0.8012343192941118  0.2060711511457694  0.2060151903720348
  0.7967170059340318  0.3986191893102770  0.3917620327679320
  0.9985984016707836  0.0021466196348268  0.9992387999248785
  0.9995896109890876  0.9999181416291426  0.1998854605301121
  0.9989429707997383  0.0009473585585554  0.3983353583729191
  0.9981755580419027  0.9996872411528236  0.7994351258395774
  0.9990777452350594  0.1991070056674419  0.0014884477251894
  0.0017270634159028  0.2000727250518154  0.2009445344432899
  0.0000358045845681  0.1987594525774393  0.4010113743255278
  0.0008926957240958  0.1984236635205583  0.5979296937583712
  0.0000935197836578  0.3945137221530101  0.9981195203709323
  0.0006003888510777  0.4001614519842855  0.1996637599210023
  0.0025401022396816  0.3995926704432179  0.3991593729398518
  0.0026878136061380  0.3969448095454167  0.5995787965786995
  0.9996453647963298  0.4023859238644200  0.7985481118875183
  0.0001707704860892  0.6003023479066012  0.2043063913607580
  0.0004141400234242  0.5991155093647154  0.3995759233014406
  0.0007276122533101  0.5995320264929046  0.5966986469936550
  0.9996873487100478  0.6014235313209122  0.7940959543156498
  0.9995381149704450  0.8051150766694408  0.9998906904191092
  0.9998358226140459  0.8005988961816930  0.1996777879930123
  0.0034475567662748  0.8008894835294846  0.4000914872431323
  0.9959785353665517  0.7977637687898222  0.5988148181355103
  0.9989851272186936  0.8012447041116193  0.7984000992106615
  0.2000008348949441  0.0010617224010367  0.0006046984365073
  0.1993838224309086  0.0005243078008019  0.1997089427106343
  0.1996599694922752  0.0000604565856255  0.3979882870915724
  0.1974484317333123  0.0020182920629325  0.8014054243212702
  0.1995475969045521  0.2006456689848705  0.9991750240450118
  0.2003740641809126  0.2009450017795858  0.1999977194391284
  0.2007334134452575  0.2016215257712556  0.3991459946643545
  0.1992045800677572  0.2032854250605683  0.6004636536214212
  0.2015647572864582  0.2014317408631531  0.8000929128919865
  0.2006676367662588  0.4002833415542232  0.9993896374707402
  0.2006316700634060  0.4013076186750194  0.1987803294881172
  0.2009763042317914  0.4009210798182911  0.3988745177269216
  0.2006601013404088  0.4022988828464657  0.5990581527029988
  0.1994161145524198  0.4007536623206671  0.7997692258161507
  0.2043711998819773  0.6011695707885660  0.9991558941953217
  0.2005178327453623  0.6010548161916396  0.2001729390093758
  0.2019524480677765  0.6009960520956195  0.3986538447648074
  0.1995579239853852  0.6008289797072068  0.5978900248314506
  0.2005482264886160  0.6013050521868297  0.7981019910658654
  0.2007051585454253  0.8015848107887472  0.9998247799582042
  0.2002458600845930  0.8002640610153241  0.2003270253533820
  0.2018832662518129  0.8004061796340176  0.4002247734144558
  0.1971465445938587  0.7994899221569062  0.5999661191271839
  0.1989886322239164  0.8006075315561112  0.8006612166104096
  0.4005361079086783  0.0013893748411891  0.0007281659691687
  0.3989025456270215  0.0009802812880415  0.1998009299419366
  0.3989565605745127  0.0046764630817124  0.3990798938082711
  0.3952961707324205  0.0039710327390876  0.5998324419157139
  0.3988776028124759  0.0016230993021942  0.8020237938923549
  0.3991933311958743  0.2016453113481997  0.1998593991489460
  0.4009641108743987  0.2009537780086145  0.4007756468621342
  0.3984208746877320  0.2039885973500231  0.6001450163695985
  0.4005849666441750  0.2015893722103927  0.7996796689907337
  0.4009770835835459  0.4009702980677619  0.9991028359321190
  0.3996697728437655  0.4006171248627453  0.1990238054759292
  0.4020660015564652  0.4001210001101758  0.3994183773195549
  0.3997596951368307  0.4027259489556269  0.6000827563681082
  0.4004176618241698  0.4030696041476550  0.7992018090817646
  0.4016230916434078  0.6017248609067890  0.9994062993181068
  0.4000240905754308  0.6003326363416710  0.1984113972941166
  0.4008245658154714  0.5950467184891494  0.3989463121698222
  0.3963120485773220  0.6029537797840702  0.5976822292832721
  0.4013598782898926  0.6025772459994067  0.7983055350488305
  0.4015487935717106  0.8014211565146302  0.0011295489829377
  0.3982170877122692  0.8007172246582395  0.2002204970330481
  0.3923652533659268  0.8035471179775929  0.6091939172278115
  0.3995627300174245  0.8011596577208163  0.8014003380775861
  0.5985058764365301  0.0008417989262441  0.0015321762085375
  0.5990318846683056  0.0039608102998355  0.2004399715127355
  0.6003037501332389  0.9996277819386030  0.3997986330315974
  0.5904649281911006  0.0173493724360780  0.5997870729300195
  0.5992215694923927  0.0031221640708323  0.7981297946979389
  0.5994026782469840  0.2009687572634975  0.0010257246984817
  0.6011151381009265  0.2002552095032235  0.3992641067836842
  0.5983922875168659  0.2043399688674839  0.5986843163313870
  0.5993320255186833  0.2019439214636910  0.7999422166775958
  0.5995448227060075  0.4004009934326041  0.9998565475744959
  0.5994912432066526  0.4001056544545656  0.1992590209629959
  0.5989798914532124  0.3999960131880799  0.3984333941755461
  0.5987354488138233  0.3983709383552583  0.5984489614943067
  0.6003185321779333  0.4017519630225514  0.8005996441909611
  0.5992345505527251  0.6026170476353269  0.0004922785962096
  0.6005877345386897  0.5989556878047493  0.1986808763872443
  0.6018614694468420  0.6007897877877079  0.3923933515529948
  0.5998530834329200  0.6021711210204613  0.8001761695409840
  0.5996705668513319  0.8024838950923124  0.9929207041020194
  0.6252126437205965  0.8015524007768606  0.4193733449455607
  0.5996160957083239  0.8024598695348962  0.7983174334723112
  0.7972517012939436  0.0009379763657000  0.0024856444711696
  0.7978339901564858  0.9975903554692785  0.1986542373414170
  0.8006585974715321  0.9987514196103706  0.3955818498757349
  0.8002309437045988  0.0009608608031950  0.8038117431563790
  0.8000334623818743  0.2005951040701141  0.9981524365888714
  0.7986854845259421  0.1947456893465526  0.4022653713700262
  0.8015686675304942  0.1976234775701289  0.6011276821300718
  0.7967468117773441  0.1993836446586092  0.8003040920112381
  0.7984694841386279  0.4000240607200177  0.9980362221801097
  0.8002968770197850  0.4030557945028918  0.1955871298121574
  0.8016364083364240  0.3937200243376892  0.6000549920896601
  0.8005853086796941  0.4003587648486062  0.7997442568507350
  0.7945476489125615  0.6007376896872115  0.9988696575106566
  0.7993755822233326  0.6004606490898734  0.1983048354808013
  0.8014524420460923  0.6008001580724701  0.3976309721283651
  0.8066684204236768  0.5678910746992009  0.5955109015224183
  0.7995345333849284  0.6007869733870951  0.7975905249783577
  0.7968650576726017  0.8002798621530878  0.0010350249843385
  0.8017308609862271  0.7986794997442094  0.1995032629559746
  0.8102592519800614  0.7999808904485728  0.3962896874725560
  0.7999517410610809  0.8022546576975392  0.8003216724364640
  0.9972055926872516  0.0315431789978158  0.6317918360033266
  0.3996953081632785  0.2010101195218259  0.9997588581681913
  0.5968585369423413  0.2008031128885917  0.2006090570676752
