Zr Ti V  Cr W 
 1.0000000000000000
    15.3960504026614231   -0.0029059402776773    0.0109527228615838
    -0.0029019596058232   15.4211892961187402   -0.0178703021294289
     0.0109643357546517   -0.0178836246684765   15.3929296075496413
 Zr  Ti  V   Cr  W  
   3  13 106   1   1
Direct
  0.3833871206966785  0.4144906474308678  0.8026718226440954
  0.7988079217035715  0.9710449284953382  0.2230751727880572
  0.8082954595805836  0.2105690191824144  0.7836857682870951
  0.9845244100994612  0.3873313069176881  0.7988367762100831
  0.0075017839734797  0.6041785473391795  0.9877866342011589
  0.0009623855390959  0.6355196170625739  0.1957679189333195
  0.0119259588380494  0.7912410780322567  0.3889432684651035
  0.2088141312818309  0.0007333684912316  0.0002114449305484
  0.1999240023538833  0.5860056379213169  0.8091005084823396
  0.1874602266251733  0.7941022665973722  0.2042927289922910
  0.3956437749467581  0.0030931813851758  0.8087454542460297
  0.5937077478293913  0.6025504040959550  0.0007923308702844
  0.8040926201191269  0.9946902885854428  0.4244863857601332
  0.8006379808194605  0.1925436021711042  0.1881774874294913
  0.7985328374955388  0.2008627002529178  0.5786235919578262
  0.7975365258226521  0.7727981423464633  0.1944374419538646
  0.0005056786047602  0.0025694130936530  0.9995297503979194
  0.0042919072932564  0.0063190994564251  0.1974940014437029
  0.0014828109972898  0.0012518824542655  0.3972757977223616
  0.9993799735461222  0.9977070311123732  0.5985290167979280
  0.9990590380960483  0.9981025526712284  0.8003785816224377
  0.0015018686253248  0.2007660656291020  0.9960288870446417
  0.0034237926612213  0.2003754259103597  0.1968266266649507
  0.0007555789399516  0.1979705207667521  0.3980172525731242
  0.0027002977920463  0.1997419721840640  0.5985133093005141
  0.0084783989842232  0.1916080811505855  0.7988296537672509
  0.9987853872969159  0.4002087653323612  0.0026288498837221
  0.9989407799796893  0.3957224548659359  0.1998652198141870
  0.9995084053960031  0.3975965681786338  0.3987888111280657
  0.9993902692676147  0.3998922826045793  0.5980849534961670
  0.0003207942038841  0.5954667741420924  0.4014943133004640
  0.0020035088128547  0.6010532119957178  0.5992833731712044
  0.9948086234285090  0.6014777093647220  0.7947119981008651
  0.0007646072843553  0.8070731283136032  0.9939397604223447
  0.9902907336219728  0.8157284186338221  0.1914425813259775
  0.0004188897984099  0.7998260015896492  0.5964744225372166
  0.9993425439364444  0.8004158935072309  0.7955105374485596
  0.2011508444121701  0.0011253668142725  0.2038738425402697
  0.2008386303475584  0.9989777841620412  0.4008842159304540
  0.1998144160352350  0.9996103613018804  0.5991749037050783
  0.1961833893009139  0.9983893842823187  0.7976312541867456
  0.2001304075943245  0.2042279758908305  0.9990756563491692
  0.2010002600023512  0.2005851387112839  0.1991270555303387
  0.2008515756891794  0.1997958901766647  0.4005777382458263
  0.2007574990626414  0.1989486728681597  0.5994880511852797
  0.2027261400803895  0.1979721688731967  0.7986356377844468
  0.1983794010578996  0.4011305603681456  0.0010805443275144
  0.1976070592968310  0.4016324690082834  0.2007792079640943
  0.1993446888844789  0.3977888807683914  0.3998158201177834
  0.1984329293901341  0.3996542631067643  0.6015307238408589
  0.1864140417523511  0.3922907523218293  0.8010941492684420
  0.2013561597246470  0.6007155367910486  0.0068245634197741
  0.2011612721423506  0.5972186942421129  0.2016775821280853
  0.2024572013238099  0.5950591639021726  0.4022634090763069
  0.2000139469935978  0.5998528157046153  0.6004749478730682
  0.1988565806720556  0.7980556071612391  0.9979325185845499
  0.2062248377448862  0.7995082079099426  0.4041213736247709
  0.2002541154082911  0.7988756105028743  0.6021979863543042
  0.1989986972074588  0.7990715047942407  0.8009539928737708
  0.3981856634870970  0.9984610158615735  0.1999303419060826
  0.3997283641503955  0.0007448759791793  0.5997139271652541
  0.3992878291225280  0.1975391268258015  0.9997146700162007
  0.3990814456489226  0.2009949131837526  0.2002890728087083
  0.4002256508404977  0.1990665722239913  0.3986233828916277
  0.3998580989938338  0.2008369730880517  0.5996569673359989
  0.3998408359561529  0.2035229532172357  0.8000838254256701
  0.3992307766613097  0.4006178757308180  0.0056942434878937
  0.3991708134654356  0.4013410843556552  0.2002106831772823
  0.3999483076231173  0.4002968354920221  0.3989356080240374
  0.3992432201834541  0.4016494263985195  0.5969508959904685
  0.3965628416729177  0.6041872022442504  0.0010346574102168
  0.4007554118840296  0.6030429573860416  0.2000689435023513
  0.4013562849740705  0.6005826238811526  0.3990507709948947
  0.3996073577565917  0.6027531775439154  0.6000548077687229
  0.4034834179528458  0.6119707641611724  0.8023291047575627
  0.3986939258214613  0.8058011695884790  0.0021491263782799
  0.4005779134875497  0.8000536416357664  0.2003695581951230
  0.4015342498879560  0.8001676275482847  0.3987057619956751
  0.4003119995566968  0.8025469919776231  0.6013814939844546
  0.3986426485990392  0.8024178100386573  0.8012260666227132
  0.5981333241935700  0.0028834522716379  0.0020560009054833
  0.5958712100084813  0.0025853599251848  0.2017766314546248
  0.6011936187799308  0.0000277976029680  0.3991519980137459
  0.6002091230772546  0.0015272762037353  0.6014888343839623
  0.6023827409047092  0.0028636684871810  0.8019323179665767
  0.6007384441376177  0.2019714862428449  0.9983638850580908
  0.5974163474336927  0.2002806266245533  0.1987939172134253
  0.6001519785802116  0.1992490492688451  0.3987540882457873
  0.5985711473049068  0.2016098114093060  0.5989235346343798
  0.5975465348384780  0.2023233416812142  0.7986266753276496
  0.5983183546234820  0.3991409769503639  0.9998770613841194
  0.6005094834641188  0.4000601874248557  0.2001211660036049
  0.6008881268552220  0.3987764344409798  0.4000427669946187
  0.5985793082389033  0.4015226002576363  0.6003524014956504
  0.5972822682378306  0.4009272761966329  0.8000958271251851
  0.6007630748033406  0.6015697337313631  0.2015592598265030
  0.6015076562651213  0.6000485700040076  0.3994022719592939
  0.6003771036025775  0.6021735267663032  0.5993909062981937
  0.6002296458589115  0.6022352437426141  0.7975629543185587
  0.6003276533967600  0.8047743345999598  0.9995799884039255
  0.6023842908041716  0.8028493220542435  0.2010429554892884
  0.6012239081644618  0.8004837453182594  0.4019131854731294
  0.5990501397910092  0.8022773628918100  0.5999291418205327
  0.6010910925277797  0.8028134490641599  0.7987703860850053
  0.8001776559505650  0.0033074227649486  0.0056197652788144
  0.8002975297960406  0.0036842792115284  0.6127283713428989
  0.8001422772906651  0.9987178680902180  0.8063065997548172
  0.7995290806658394  0.2017268345839276  0.9954160840858423
  0.8011257932473922  0.1973596138547137  0.3897639547790800
  0.7998220933777324  0.4033406666634237  0.0000119586591229
  0.8010082071741081  0.4012715867473282  0.1987349482396911
  0.7997455000381138  0.3964725436358780  0.4001607577019370
  0.8005867156254378  0.4193554460278104  0.6001551606875281
  0.7922844514512858  0.4121732147345716  0.8015606057435417
  0.8037822260952112  0.6014491945133236  0.0007200984774181
  0.8005066944680658  0.5912419435514092  0.1990417231354605
  0.8028550131662504  0.5960358229721653  0.3977426309052473
  0.8010172937682423  0.6994378681126046  0.5992329952020095
  0.7982908787969405  0.6053352039402593  0.8008154221453864
  0.7992409611560461  0.8015963043936809  0.9965319086871646
  0.8004955041812528  0.7920203345851534  0.4134755268353697
  0.7998357696421603  0.8000533499568931  0.8004874492190821
  0.4011867252922969  0.9999544332885772  0.4004299713230727
  0.4040568012014740  0.0015339989624568  0.0058761269576906
