Ti V  Cr W 
 1.0000000000000000
    15.4557498811443548    0.0004941212289126    0.0018267395804492
     0.0004939353714327   15.4692164812837163    0.0004600942864290
     0.0018268799168668    0.0004596930157856   15.4533924520731851
 Ti  V   Cr  W  
   3 114   3   4
Direct
  0.0068641138157240  0.7946482897176046  0.6001714791250495
  0.5980520203599761  0.8096800782355218  0.1984733526129478
  0.7984627693821922  0.4059971711579644  0.8008474509244281
  0.9999257880120926  0.0000638724269202  0.9998913549569596
  0.0006820020407164  0.0002098780406745  0.1985303640853999
  0.9999871409364999  0.0001159751454209  0.4003022880900472
  0.0009635706575650  0.0023783237196449  0.6007162653812033
  0.9954533604024129  0.9995844620874584  0.8004895279278205
  0.9996561698644939  0.2000636467359761  0.0000352542218545
  0.9995196146721287  0.1997771449571135  0.1997390167346649
  0.9986584950868829  0.2001531400657749  0.3998470556416723
  0.9994712630977396  0.2006778385565922  0.5999288621102895
  0.9998234385036590  0.2004471651533455  0.8004654667008813
  0.9999261242144450  0.3992288732281165  0.9990783898736558
  0.9992497737155778  0.4000461243758495  0.2002097085356121
  0.0006001563708944  0.4001616789798848  0.3997762046055617
  0.9993689738060022  0.3989157122037237  0.6005474640511026
  0.0022624779264759  0.3998042345391493  0.7999323026539715
  0.9991040907639063  0.5993152375304650  0.0002953742200797
  0.9992237704469256  0.5983956247033660  0.1990010002714489
  0.9993958264279968  0.5989098626457151  0.3992202615030150
  0.9998291943819282  0.5964195046192459  0.6004750132603336
  0.9995498883085687  0.5996388149206957  0.8005274955876671
  0.0001039125013195  0.7993664073970200  0.0004745537298379
  0.0008683228957502  0.7992225607056039  0.1988652488390129
  0.9967900230810940  0.7997826335716840  0.3978726709282440
  0.0010368517654089  0.7988456002914547  0.8018765119300654
  0.1997356647079577  0.9993508558798517  0.1999360007130133
  0.1997432019262902  0.9990559230983640  0.4003557966507507
  0.2001657655389807  0.9997590737765468  0.6008698446366952
  0.1989295980947508  0.9998563287272278  0.7999653618638434
  0.1989565301077207  0.1989186087567427  0.0001600317290174
  0.1997051234731236  0.1993884814047807  0.2001741273534912
  0.1993216823775727  0.1987818347391402  0.3999224723079504
  0.1993917771829934  0.1994287471697696  0.5998142282239918
  0.1992086122390118  0.1979768124871738  0.8003321068061856
  0.1992970962995183  0.4000906414634452  0.0005240534603140
  0.2003768102283550  0.3999262093710245  0.1994317893665445
  0.1998004256151967  0.4001854334445148  0.4006488114181688
  0.1992848691719341  0.3999117591820534  0.5999705091269032
  0.2029107793052401  0.3999604649606128  0.7997791766590262
  0.1991087418978792  0.6005068930662436  0.0007144426902875
  0.2004255253153960  0.5999065824727845  0.2001898164303455
  0.1998018936926829  0.6011351581017128  0.3994784894869941
  0.1993747817748826  0.6002025316385406  0.5996329509988236
  0.1995869727909296  0.6010215304847615  0.8004273093243348
  0.1995821297173671  0.8001278078494179  0.0001040354938433
  0.1996631887964265  0.7995650378139447  0.2001825663430842
  0.1985401180247960  0.8004114007041266  0.4000064490928403
  0.2027509340426137  0.8000149159960537  0.5999287550131940
  0.2003165916846072  0.8008124419911022  0.8003151432990255
  0.3995985387893712  0.9994356099664655  0.9992779203029896
  0.3991095102253625  0.9996875517033840  0.1998314245217542
  0.3999526622564786  0.9988258675924010  0.4001891615844400
  0.3998194422947888  0.9998936373973911  0.6009494668137237
  0.3995761214236301  0.1981995217620550  0.0001459022885149
  0.3992889042337638  0.1994944616177109  0.1996210035755100
  0.4009850732174753  0.2003214065378733  0.4003734968837915
  0.3995505420087712  0.1989773675575349  0.6003582198487771
  0.3994012134893756  0.2021876495035901  0.8001957023250146
  0.3984935945080839  0.3996440473918781  0.9957420854402140
  0.3993681041299859  0.3981991273969477  0.1999210892340978
  0.3980179010725933  0.3999513658327086  0.4017700253037738
  0.3996105613623898  0.3997850003186920  0.6033214775861234
  0.3994477138276281  0.6004854664249718  0.0001171674876564
  0.4030934178060825  0.5991932385078798  0.1998856993827320
  0.4004902759847601  0.6000358354826848  0.4006360974797882
  0.4002798910930729  0.5999785758944685  0.5998415231061983
  0.3999507836815074  0.5967426228908764  0.8003177513576877
  0.3988075518648461  0.7997375322606505  0.9987724859497413
  0.3971814253178591  0.7995410369952630  0.2000382554540487
  0.4004154821621176  0.7996174963009990  0.4006463881686845
  0.4003118702215969  0.7996752201751679  0.6007243468258134
  0.3997102948091707  0.7995356785185480  0.8000103440677314
  0.5990927528150740  0.9997260084624083  0.9993461185489111
  0.5993378733015403  0.0026452455700490  0.1990236378914262
  0.5997739837831851  0.9995839098749629  0.4009448963972759
  0.5981303158935845  0.0004982743087720  0.6014739119780665
  0.6028627313014087  0.9994931516963029  0.8002605255478126
  0.5999053444738192  0.1989003763466791  0.0002596109926571
  0.6000382482975184  0.2004904584400919  0.2007678576506507
  0.6011122587258237  0.1983447283314056  0.3998851619765241
  0.5999673077288079  0.2001059735635693  0.5989069675742017
  0.5997184541594004  0.1991220841463372  0.8000985588319544
  0.6000495306440308  0.3975413991577078  0.9989209405158567
  0.5994893888602369  0.3982135464367423  0.1981977457544465
  0.6009040099116184  0.3993585067762545  0.6003182323726979
  0.5946477312516065  0.3999457823953661  0.8004422196825962
  0.6003553860288576  0.5997735758208333  0.0041979684506428
  0.6004777390217828  0.6010441417377209  0.3960581398730246
  0.5996812062181553  0.5980070024597413  0.5983072513689877
  0.6003831014114733  0.6005333446151194  0.8010331986005729
  0.5994405253455265  0.7991765300475111  0.9978950749350697
  0.6037440408786721  0.8000555806799862  0.4019363934201300
  0.5985461385776960  0.7988606104735654  0.6009014441778440
  0.5981819794492274  0.7982737440233609  0.7998627362817869
  0.7995895573156779  0.9984565418816586  0.9964089216329746
  0.8002162170841814  0.0000624471152363  0.1981952987461756
  0.8001602003469360  0.9957594785785292  0.4012480090938818
  0.8001421920562816  0.9994875486227002  0.6050861618562715
  0.7997488023262065  0.1990360021149807  0.0002708796112603
  0.7999236325286845  0.1992389646196920  0.2009040548847044
  0.7991441886085228  0.1972066716439432  0.4000883776183591
  0.7997400611566119  0.2006424472782707  0.5992102798619003
  0.8000667207613683  0.3997952253605497  0.9999784071328576
  0.7995711569292471  0.3984369796689501  0.2003773906861966
  0.7338751763345985  0.4007175578921137  0.4005559971787091
  0.7986699349158871  0.4000996260316197  0.5984521251072371
  0.8000695290014342  0.6015428748080472  0.9999826328663612
  0.7963132129483784  0.5994281057849650  0.2003967887941014
  0.8000984522220534  0.6054142474320696  0.4002191957818825
  0.7994343443073147  0.5995024280578892  0.5997503718633913
  0.7991712329082872  0.6047901298266293  0.7999561458561631
  0.8002976122318542  0.7989079839810377  0.0019261236821866
  0.8020163846122326  0.8002656771495956  0.2035991045949958
  0.7984742103891984  0.7991538891018589  0.5958546848813890
  0.8000207160745969  0.8022735828214834  0.7982955492092839
  0.1997559582249535  0.9993031923600627  0.9994476411450380
  0.4002053132343134  0.0002554214119350  0.8003929972261500
  0.7994928688827726  0.1978299995481319  0.7996524349859142
  0.3989149783656639  0.3998491377719921  0.8001630220972911
  0.5996496629570698  0.5909922407710086  0.2000922425987776
  0.7991356849063119  0.9951809924048501  0.8008199240129233
  0.8010380378546006  0.8008232683134509  0.4007925720854798
