Zr V  Cr
 1.0000000000000000
    15.5277836321495606   -0.0011014415353407   -0.0036444284316418
    -0.0011015311309700   15.5268057001839015    0.0012045176117796
    -0.0036459540422085    0.0012051907892001   15.5242636607114743
 Zr  V   Cr 
   5 117   2
Direct
  0.9994268093209068  0.1996263858735863  0.3987955327624478
  0.9901200220159743  0.3992431051827238  0.9936165534710264
  0.5993867360035565  0.0003670884771043  0.0068733375026169
  0.5977526709468768  0.0009145918736283  0.7844374699773485
  0.8060221976787899  0.3988215226841005  0.8098461973633102
  0.0005338419240588  0.9985223987883420  0.9996482699941707
  0.9999397033964217  0.9987345846341867  0.1995109099892961
  0.0001856306663555  0.9934244356191049  0.4006564267986390
  0.0005408556074735  0.0018421310984005  0.5991451626242419
  0.0010633721559499  0.9977333123011840  0.7975322169295166
  0.9986381445723382  0.1947108294373830  0.9980877147810547
  0.9990810564865572  0.1993694297519754  0.1950677652612101
  0.9995134482350644  0.1992018024481920  0.6027817825424500
  0.0020452581172944  0.1986238331021770  0.7990683265849459
  0.9994273681895949  0.3994474242711067  0.2011749159569482
  0.9999492065434806  0.4037442408795721  0.3991371671934945
  0.0011707582846829  0.4002031041704066  0.5977582092873521
  0.9988782847596503  0.6032916059002340  0.9996990742921480
  0.9994195817981819  0.5989997339387764  0.1992440939011388
  0.9996861226122492  0.6012986499396663  0.4006118789520725
  0.0000786363379786  0.5988305697274838  0.5982532824638116
  0.0024480539670521  0.6023353142445910  0.7963508727633667
  0.9992639180961185  0.7995990015938073  0.9993181595681775
  0.9994336182277385  0.7992928177405186  0.1990445372636553
  0.0000020661542830  0.7980380160294203  0.3970082877825130
  0.0001462019828573  0.7999464415358328  0.8017194448059661
  0.1980106132026190  0.9991908574673135  0.0003279923015971
  0.1988398047669898  0.9996813234659087  0.2004942366581520
  0.2007363827769175  0.9986333460683146  0.3997780436692756
  0.1989515886515223  0.9985781553689015  0.5989427291505997
  0.1980937177950209  0.9996023746297263  0.7992720476742452
  0.1988011896403815  0.1999877567794803  0.9994592110913036
  0.2001306938006979  0.1992805877681448  0.1987708975194902
  0.2043333426450334  0.1992743166923322  0.3992633351183777
  0.2015436494449288  0.1999316141542822  0.6006864591965174
  0.2009603986280397  0.1990882691353750  0.8004550250359646
  0.2004877859529963  0.3991724982141989  0.0004679662051251
  0.1987295946355987  0.3988707209717924  0.1998404752420978
  0.2011118230215643  0.4001471087512991  0.3995406097691556
  0.2015968985895605  0.3988910021420108  0.5984386997529646
  0.2024721354394854  0.3998882557258363  0.7987151967220688
  0.1990295159082069  0.5987951008455135  0.9996377353117247
  0.1993033431806278  0.5990198163095021  0.1999035724543485
  0.2004375162688937  0.5995986484474783  0.3993113771742585
  0.1992840133102779  0.6001125089638678  0.5997115601787182
  0.2012283605101918  0.5998912342944779  0.7999966178657518
  0.1999650339307459  0.7992163379598687  0.0001822823312921
  0.2000939460428870  0.7992168469952093  0.1991846332084171
  0.1994960889981546  0.7986700744464328  0.4006655612285550
  0.2035598080338290  0.7999176877076920  0.5998203682999230
  0.1988986458364450  0.7992309117294608  0.7988635817964068
  0.3941648103073759  0.9994346397655621  0.0009771336932911
  0.3984830931137014  0.9996207642755172  0.2008706780902616
  0.3993237608818900  0.9990814010336710  0.4000432159581659
  0.3997005743541874  0.0002273078298097  0.5997452615136061
  0.3938283609257318  0.9996635742570857  0.8003320145563212
  0.3994207069197213  0.1993387637916055  0.9999329791394047
  0.3995157116280150  0.1991883173334430  0.1994170224471027
  0.4012089173976041  0.1991118148714606  0.4003330529912654
  0.4010674457578741  0.1992455379920143  0.6009941178330754
  0.3995936183008039  0.2000382842400599  0.8014372655255001
  0.3980807633696187  0.3996325557269080  0.0006443908630915
  0.3991044022536143  0.3992088988092867  0.2010448962486009
  0.4001501563715900  0.3998287237627933  0.4001629225580694
  0.4006274075512136  0.3992879332281942  0.5997908875066704
  0.3997058403838725  0.3997456616126779  0.8000994438214423
  0.3995593322204745  0.5997029778335949  0.0003356812147804
  0.3993868948209836  0.5993970423341596  0.2000060454387089
  0.3999093497247208  0.5995651879302052  0.4000395347226898
  0.4012804106652103  0.5993696071073813  0.6001303468075611
  0.3996423182504314  0.5997045690743890  0.8003417942639525
  0.3990876152046129  0.7994440409797748  0.9999499874076018
  0.3999288818613827  0.7994820246781981  0.1999620333929959
  0.4009124857374509  0.7993870634307823  0.3996231574183814
  0.4010286796225918  0.7996732944166250  0.6002505124904483
  0.3999099971090814  0.7996898746350765  0.8011640826285431
  0.5994741893005505  0.9996713935748873  0.2074142053069729
  0.5996774650146345  0.9991740573276261  0.3996799117795613
  0.6003819754622104  0.0002257476048910  0.5900335916569509
  0.5987236391659976  0.2048385679084379  0.0007909985498803
  0.5989979985313130  0.2005984790831287  0.2011543487977967
  0.5987101361662908  0.2005748144539664  0.4008593286241015
  0.6003572449008168  0.2001639646241092  0.6007574758807857
  0.5997623690017885  0.2054961028483802  0.8007664486493895
  0.5948929725668690  0.4015409982324953  0.0020570312870871
  0.5980803204850120  0.3998819517791016  0.2025683934671882
  0.5988105203710065  0.3998982095940067  0.4009395311463106
  0.6004040247033292  0.4001024436480886  0.6003498259493212
  0.5977306886120046  0.4013573700951090  0.8000320729079147
  0.5987484232986229  0.5986188327283648  0.0006546525219888
  0.5993115507576152  0.5988257902498404  0.2010770600036679
  0.6000541344125120  0.5986971381576985  0.6000943135558069
  0.6002032656970292  0.5985306991987973  0.7999772905980449
  0.5993907149689922  0.7947924345939115  0.0007737914298827
  0.5994415403099205  0.7983699981768348  0.2011778167732339
  0.5993133880565934  0.7982795312103821  0.3996626969064327
  0.6001231556360810  0.7985828584039382  0.5995985239194029
  0.5993047790658268  0.7955469622846518  0.8004856484884499
  0.8040950853154979  0.9986828062847363  0.0012602781507161
  0.8006671646171694  0.9995134734588110  0.2014061315116339
  0.8000091476781774  0.9984574563431547  0.4001880285699125
  0.8023898332171183  0.9982008576471626  0.5990428887471722
  0.8042645066472133  0.9985362781395255  0.8002339247567524
  0.7977056343268083  0.1978687137037755  0.0012540855824950
  0.7987093395412850  0.1987453653263216  0.1999211805678267
  0.7947389501429101  0.1983987396278045  0.4001208594166852
  0.7991934262973249  0.1997876952638314  0.6020334419583317
  0.7996558855446160  0.1945931169234833  0.8020469527336794
  0.7878376585592749  0.3988986469326931  0.0124103587743717
  0.7983033382495361  0.3988596426491165  0.2048705305494327
  0.7985238426317026  0.4003399981044392  0.4012957793963907
  0.7992657247528160  0.3987542530675278  0.5992814743112959
  0.7982741938865074  0.6006500143596216  0.0014551621303485
  0.7994836233245206  0.5995384671684190  0.2011508494995118
  0.7994299968867570  0.5999162324033857  0.4000994954900098
  0.8010203376650801  0.6002846818494729  0.6007343809726422
  0.8003876600575333  0.6037926557403692  0.8009834281468861
  0.7985924198973585  0.7999598059963997  0.0009674162051330
  0.7987729601074554  0.7993586952088578  0.2000023576944435
  0.7998877805908492  0.7989815486792854  0.4013145985642401
  0.7969579105076876  0.7995148981931507  0.6000553971448470
  0.8011076470217655  0.7999841150213804  0.8005184250492993
  0.0078839324225495  0.3998771069098725  0.7921948243327604
  0.5998944304614714  0.5993112065464214  0.4007339004796907
