Zr5 Ti9 V104 Cr3 W3
1.0
  12.4571276848306791   -0.0076925238638799   -4.4065500779846634
  -6.2343775058545825   10.7542072599132386   -4.4042393430509792
  -0.0104331067832253   -0.0152247289677524   13.1901590298834623
Zr Ti V Cr W
5 9 104 3 3
direct
   0.9970474234298405    0.2011559387220531    0.6054136364526138 Zr
   0.0021831973341666    0.4046156599175434    0.8005917716323092 Zr
   0.3941835017189946    0.1856600087293231    0.5970155563026622 Zr
   0.5970395754664933    0.5969064891905530    0.5962586265451352 Zr
   0.8016055336718583    0.2006982623032703    0.0026132233950678 Zr
   0.9996717540382641    0.1983475125610035    0.1971523852328440 Ti
   0.2027572369036073    0.8072411037925189    0.4027191742567580 Ti
   0.4018399947405960    0.9995128709849246    0.8014624640838581 Ti
   0.4022599714773214    0.1962405839277061    0.1893308714475286 Ti
   0.3965208867195824    0.2006793786175206    0.3915320636733848 Ti
   0.3953881609876557    0.4090841168969628    0.2040888607419884 Ti
   0.6059629555445347    0.4052512166256151    0.8084084585893618 Ti
   0.5974915952491296    0.7980883732985848    0.1971558610536277 Ti
   0.7988634082594792    0.4004369766920416    0.5975219086444469 Ti
   0.0017274827470322    0.0011383331599414    0.0015008081988620 V
   0.9993044978531382    0.9971708406827936    0.1999362299533590 V
   0.9971663375320994    0.9987764584433385    0.3997326387824170 V
   0.9990477000869741    0.9911498963574227    0.6001591371760532 V
   0.9996640724797072    0.9941702906160186    0.8007339923609536 V
   0.0103719182440149    0.2007017906604742    0.9966028173589914 V
   0.9978365509379759    0.2003718999985259    0.3967109254151942 V
   0.9977475037649824    0.1906119912790594    0.8145732518924457 V
   0.0059352275377409    0.4069201614458713    0.0088849556396743 V
   0.0118580448443640    0.4162397079672646    0.2129919521914336 V
   0.0065660303202643    0.4104347426836599    0.5808597129728168 V
   0.0031049410718967    0.6035184722757135    0.0039863237201941 V
   0.9987038338338118    0.6004657013011657    0.1974650451202293 V
   0.0004804432760534    0.6024945829254699    0.6011451414844262 V
   0.0029062641044522    0.6174736444445093    0.8069519626456381 V
   0.0016442954016710    0.8004954752444853    0.9993536903172394 V
   0.0020440743095518    0.7995715636776185    0.2022071383431205 V
   0.9966864399621116    0.8037019614073706    0.4009956077323663 V
   0.9999222022635167    0.8025550160185705    0.6025826561384150 V
   0.1909416348426949    0.9916678286129533    0.9933028206570357 V
   0.1934757064410809    0.9943504859530529    0.1912902746817751 V
   0.1823782332414727    0.9928323417694430    0.3828292282138696 V
   0.1956206326895178    0.9970628207664058    0.6005438650871444 V
   0.1961980390508472    0.9996313296160634    0.7983658852705261 V
   0.1983117330263698    0.1958363370659382    0.9967864677392081 V
   0.2006603819070108    0.1984982172160983    0.1988424135794893 V
   0.1906663726804209    0.2003677078974862    0.3966535943359031 V
   0.1949918459311996    0.1965717852432953    0.5993415570733300 V
   0.2006399177459707    0.1990831204951738    0.8029369877105641 V
   0.2050334806300194    0.4033534197211905    0.0057978514787957 V
   0.1953609206791102    0.4037820509250237    0.2021506886466634 V
   0.1974318203105386    0.4035642898994871    0.4040866628116822 V
   0.2031084508513021    0.4014939047617712    0.6011150400490417 V
   0.2223876490268294    0.4131868428355541    0.8129889835592304 V
   0.2075497335956413    0.6090263065958365    0.0088028609163542 V
   0.2009628179545623    0.6030286309676332    0.2025398821803823 V
   0.2023397341519766    0.6016462001465001    0.4015621534452312 V
   0.1993915136354195    0.6008562418362764    0.5996190281730769 V
   0.2054941505914367    0.6046405489599800    0.8013527344776507 V
   0.2016452762235619    0.8005116566753783    0.0020198311394590 V
   0.1989823937973070    0.8007815843442847    0.1970723438424515 V
   0.1958546062402631    0.7993951209202580    0.5995831927714409 V
   0.4005326581042312    0.9979700234379396    0.0028309951159862 V
   0.3962549038004037    0.9935432251753644    0.1966853720286772 V
   0.3973302838741261    0.9913848372325030    0.3940292465018226 V
   0.4156057986861639    0.9955173342804966    0.6064377047742908 V
   0.3948621567747445    0.1939389421489465    0.9860886068997783 V
   0.4037278996192322    0.2051516487123660    0.8128793840589085 V
   0.4004112422103990    0.4010186017016337    0.9981096375378060 V
   0.3813777124413591    0.3929496196648359    0.3949037250388515 V
   0.3927974325207093    0.4020357310765097    0.5984174134478331 V
   0.3975360927872181    0.4024701893927131    0.8032030342786726 V
   0.3968165118232092    0.5992934031607912    0.9977271819195717 V
   0.3997358253220399    0.6074731272714045    0.2023005586554776 V
   0.3956647569434316    0.6000250430961733    0.3974690446477626 V
   0.3894683014034897    0.6001101901904451    0.5990641083914819 V
   0.4012493601995615    0.6025763875838444    0.8011497714254332 V
   0.4015871447041253    0.8002083645714541    0.9996691706879101 V
   0.3953620261835878    0.8008384067881077    0.1999016533794843 V
   0.4019637719176079    0.7988896166985663    0.3990436699367500 V
   0.3985946096612690    0.7992177505569095    0.5993892797202790 V
   0.4015819756211276    0.7971816928609105    0.8020728332411685 V
   0.5964296981317372    0.9947121198948482    0.9982386054321533 V
   0.5996802222959192    0.0010311677165201    0.1958645624461640 V
   0.5953195934903187    0.9933322123684037    0.3933478052572387 V
   0.5998599356441263    0.9938267088935538    0.5977052905239438 V
   0.5976079939425667    0.9925559701529435    0.7938831535845464 V
   0.5978149826207215    0.2061064740765177    0.0038044959651210 V
   0.6083908676574148    0.1941321420992309    0.1989283751763443 V
   0.5985608448634642    0.1953029486008875    0.3922306000200675 V
   0.6059201194574746    0.1969990815703201    0.6006493614250019 V
   0.6018185564167036    0.4064973762428534    0.0063454271771912 V
   0.6077519026772152    0.4012566948781725    0.4103825348311247 V
   0.6002433375475777    0.3951638808992927    0.6014876157201141 V
   0.5992275495427581    0.6014185143959428    0.0042171270974989 V
   0.6002729445467909    0.6001540662848533    0.2022449891140614 V
   0.6084672487170317    0.6066014469692785    0.3959309200852397 V
   0.5983994361943602    0.6043035139510047    0.8081286081766099 V
   0.5981308576514809    0.7995674846225916    0.9964174425183369 V
   0.5999142240103142    0.7978086548378635    0.4022890720595328 V
   0.6000337178031171    0.8050996442873001    0.5982749546520508 V
   0.5978898851110449    0.8002280867565612    0.7996027017131780 V
   0.7938523694244393    0.9855261626658725    0.9942758513193999 V
   0.7987949899221196    0.0003827227314756    0.2001358289215198 V
   0.7973096852908005    0.9946900517205989    0.3940963059433018 V
   0.7957117597793870    0.9923675093634794    0.5986808536884409 V
   0.7993456219208608    0.9931243464966504    0.7976142115135254 V
   0.7987572808800653    0.2013872586106322    0.2107224442308392 V
   0.7977782068975616    0.1980991193146051    0.3962840763662773 V
   0.7741773582761956    0.1805020573028843    0.5868269243584381 V
   0.7939609936949588    0.1964923288898425    0.7949490419418656 V
   0.7990419772574257    0.4068327188509054    0.0003653102978633 V
   0.8044360254366588    0.4056148157126727    0.2021154454812024 V
   0.8015744831577893    0.4007832356015620    0.3971154440263784 V
   0.8008820863907146    0.4038174377534044    0.8096165214888316 V
   0.8066453702416230    0.6063629715160970    0.0088331346489277 V
   0.7994517704202571    0.6026354209841305    0.2023588124740643 V
   0.8045080918416023    0.6065868552322052    0.4046594157031789 V
   0.8141020356467461    0.6101274853196754    0.6066286833362672 V
   0.8016619916979968    0.5980480384786084    0.8020762306688878 V
   0.8035013730687347    0.8012234205735832    0.2037242308882653 V
   0.7996063623390988    0.8008195879199840    0.4000585828310003 V
   0.8006696815709845    0.8016695826891360    0.5993030789411788 V
   0.8103257778410313    0.8042887212069766    0.8063513747006288 V
   0.0011759141393572    0.4013281112318575    0.3997063011104401 Cr
   0.0000357386436548    0.8006032957373602    0.8020958251545018 Cr
   0.6034902344655444    0.1950064357290408    0.8030068213274517 Cr
   0.0013592619045743    0.6035945263342032    0.4014662212745341 W
   0.2005517380698911    0.8014716775594295    0.8010776890998113 W
   0.8004262752625032    0.7991051788091307    0.0013916219068272 W
