Zr Ti V  Cr W 
 1.0000000000000000
    15.4549315649027950   -0.0222495129286640   -0.0105509386160289
    -0.0223053274730288   15.4776580052303601    0.0156777599783081
    -0.0105831741986949    0.0157005871891177   15.5087905410777189
 Zr  Ti  V   Cr  W  
   8   6 107   1   2
Direct
  0.9971434325982733  0.0008860508932319  0.4246194203410718
  0.9959918553572598  0.6437174182558117  0.9632767972692343
  0.0066880867012694  0.8065480079632620  0.8000835690673714
  0.2178204183913215  0.1850619616281993  0.9895538708891133
  0.2185241833322226  0.5730609707856157  0.9962899822263825
  0.1857475657257487  0.7887089089329137  0.9903847972246447
  0.6168444190041565  0.2010187703338611  0.9964679773254046
  0.6007362558800341  0.1975089109577184  0.4031086813219195
  0.9981187279676484  0.9905198369273058  0.6260859888286068
  0.9877257796027044  0.4040039533976499  0.4235531016715022
  0.3911866365670829  0.1982464558007473  0.8098740850291972
  0.8057452644741057  0.4014797440960547  0.5902916937557189
  0.8007345508990504  0.5942532384404208  0.4071040955596495
  0.8127377767699471  0.6011503904809614  0.8013197988513752
  0.9987828481921687  0.0119536983520758  0.0061191008933617
  0.9991635772066116  0.0031149364057874  0.2064657650432292
  0.9997305804000005  0.0102135194459842  0.8124081429488059
  0.0028562097581089  0.2057506298118333  0.9961647931102421
  0.0022252168074464  0.2050473122083479  0.2028968503841997
  0.9998911732812577  0.2029425027085819  0.4017090821983206
  0.9997166386738423  0.2012362868198275  0.5993867878933171
  0.9994960227500530  0.2055525699551639  0.7972821353986573
  0.0029759632044690  0.4018413118459537  0.0027052239500897
  0.0037948217770984  0.3987464881804479  0.6091691069161869
  0.9994463326038713  0.5927026723757779  0.2073496575633637
  0.0023052878011582  0.6024883240640516  0.3998225203725336
  0.0022547872234369  0.5990173710719838  0.5938206676694200
  0.0061423748895171  0.5965895022637117  0.7791610174067503
  0.9845210945090080  0.8282508413503540  0.0112442308153754
  0.9979743590311790  0.7970328533718593  0.2020002651730675
  0.9960174196727039  0.7968037717147920  0.3987398051818666
  0.9982649341071987  0.7962083797155318  0.5938245147781889
  0.1983643035423050  0.9929240603010736  0.9989928969221120
  0.1996863719490316  0.9977966023154342  0.1976650749816570
  0.2021051350797155  0.9978106712720918  0.3998511222217304
  0.1997168981568815  0.9996528802532525  0.5983891165816999
  0.1989604507252174  0.0015911222229690  0.7980129547633819
  0.2003771534809372  0.1982929268047206  0.2009521754756280
  0.1986588810630304  0.1996914367682394  0.3975455714652624
  0.1988202805475757  0.1997114276128240  0.5956827699293168
  0.1931744166293367  0.2019901670816329  0.7881831329892837
  0.2020637967511481  0.3884541874777406  0.9987368318687724
  0.1953911215760671  0.3984192541934211  0.1999615724017086
  0.1989149027454329  0.4000275591241828  0.4021206173613332
  0.2019598472668087  0.3993841530574720  0.6008233999098160
  0.1994143221750279  0.4018694414151156  0.8008254324601193
  0.1989434271348809  0.5992700451076920  0.2010715895282922
  0.2014854349562964  0.5989237215250821  0.3996478799938855
  0.2012853453125525  0.5984111849028966  0.5961831596923283
  0.1989515752046696  0.6034066197926028  0.7933281104280555
  0.1961013347106356  0.7978406000460583  0.2015786907374147
  0.2009059621430626  0.7990083900843005  0.3977553712571484
  0.1992652602575434  0.7988919720686058  0.5941307325766707
  0.2083256617813340  0.8026265102996991  0.7869945929952293
  0.3988355796898645  0.0008527682119752  0.2003422771555661
  0.3984211105143041  0.9990255301072303  0.3988870972831847
  0.3992614727374634  0.0009290699831216  0.6020975537469910
  0.3992399094803759  0.9996308819507331  0.7996758340441890
  0.4124157934298385  0.2027566013645449  0.0060112226809288
  0.3986646160354463  0.2003671214979363  0.2015787195294120
  0.3967164247663719  0.2000771880152599  0.4018225948442836
  0.3986201231465895  0.1995591526599921  0.5983037853847967
  0.4052956734894355  0.3990100211451564  0.0016756088761001
  0.3996339012020392  0.3998881671021929  0.2008938871878981
  0.3979985822570890  0.4002201178334022  0.3990550951118234
  0.4016065986227733  0.3989889386017536  0.6021118243168596
  0.4000054047897803  0.4014825534552746  0.8014996229803659
  0.4115818668072636  0.6015264104636810  0.0002658947821992
  0.3984460535016922  0.5971922648801070  0.1986061407134842
  0.4000330128780103  0.5991799198931147  0.4000952602858459
  0.3990116041643074  0.5989788055081562  0.6012365009190006
  0.3994112969352273  0.5994951219727426  0.8009418317838737
  0.3980608549826606  0.7949613684409605  0.9983860524445141
  0.3972103004332579  0.8651652419006396  0.1318007744304526
  0.4030365793488221  0.7987577896072212  0.4012858367872768
  0.4003054282670703  0.7990467530570136  0.5996460068668232
  0.4006819656946426  0.8014299995978289  0.8004428978883188
  0.6007680657097109  0.9962900815873922  0.9995610918810407
  0.5974058978819669  0.9988760674145699  0.1989173974114652
  0.5971831016657604  0.9918813171660147  0.4020576405729379
  0.5993790249838493  0.9995145292395501  0.6024313561243737
  0.5971769487642153  0.0009851857334708  0.8001581831907408
  0.6017937830173413  0.2014126894038657  0.2008594578092313
  0.6002880099021061  0.2016174128545896  0.6050575475787335
  0.6037743674225418  0.2019039437589242  0.7951081991417323
  0.6027066672990257  0.4056309139395856  0.0005187954514181
  0.6007646181603402  0.4019695686512151  0.2006265308260043
  0.5989877334478109  0.4050149691281216  0.4009529866429682
  0.5999109684074707  0.4015698504634435  0.6003225238213031
  0.6019732320321920  0.4033861425058687  0.7993887395786845
  0.6039332730162089  0.6024046505932560  0.9988217282505736
  0.6001693149823630  0.6000740002539593  0.2011587081178266
  0.5980898385292677  0.6031159051205440  0.4010341527879950
  0.6006814108259245  0.5998743900709200  0.6024620602562701
  0.5998873340571167  0.6016533119419588  0.7994087088056676
  0.5965553167366274  0.8014251080945325  0.0017693420361060
  0.6009902317357594  0.7985470184879252  0.2043770279332520
  0.5999843562914124  0.7999290470235634  0.5962803355267728
  0.6005896331935027  0.7998535456338367  0.7980870295344639
  0.7956637565990808  0.0037770176203744  0.0002902549018753
  0.8005737530737849  0.0010937018225814  0.2005944997132306
  0.7941044647503104  0.9988911734185155  0.3999067425619671
  0.7979546481964587  0.0013910305239340  0.6019215201390937
  0.8014922719414934  0.0019840713313999  0.8009846058023792
  0.8102521277246868  0.2000107282239615  0.0002446874186640
  0.8013277755945296  0.1999588966030632  0.2004321246880571
  0.8039766203155095  0.1964248259206824  0.3984564390041874
  0.8013990967439458  0.1980203022451056  0.5983088004939838
  0.8019136594853120  0.2022790154842562  0.7970572556647503
  0.8012980747964389  0.4030450871329646  0.9989280734436826
  0.8031580333353692  0.3990718771796706  0.1982871867055493
  0.7941513533884641  0.3960744994873160  0.3948965943591091
  0.8027022497206950  0.3995723372049573  0.8027256523241719
  0.7971260515222793  0.6024930126878872  0.0040879960314103
  0.8015290134416955  0.5985081341387987  0.1992120795003744
  0.8017830583223374  0.6031459628999962  0.6020899177030454
  0.7943484343422398  0.8036789346197901  0.0006248123089359
  0.7992711811524993  0.7986672229495110  0.2017635190771484
  0.7951104429434303  0.8008380524582711  0.4003566067796238
  0.7998229200941327  0.8005671817906552  0.6006403455197509
  0.7967068716657600  0.8044512821589593  0.7996013652407034
  0.0011402173589068  0.4031194403105927  0.8024967005049050
  0.9989876900916128  0.3991733971967587  0.1960139386345012
  0.5988959373495387  0.7978443478188879  0.4003203584347184
