Zr V  Cr
 1.0000000000000000
    15.5176564344983579    0.0055358052127085    0.0009235349890332
     0.0055289702635454   15.5339659065587714   -0.0041197367383691
     0.0009253811786535   -0.0041210125583897   15.5341853465245965
 Zr  V   Cr 
   5 117   2
Direct
  0.0004607020677531  0.4099760208828473  0.0030651853597198
  0.3756713558799382  0.2011951693026884  0.1973093663701533
  0.6007925802913001  0.2000730671841269  0.1998512709343111
  0.6083223959094213  0.7923422662279088  0.7998050679561682
  0.7918562685119644  0.6077382753013431  0.7995123509268913
  0.0015018907814710  0.0010695652861179  0.0001243980680389
  0.0007826102166031  0.9998143293086288  0.2007771980678623
  0.0011598512107202  0.0008228102984142  0.4004297213707403
  0.0008137891582070  0.0001822240010593  0.6003728148827538
  0.0019270228080133  0.0010531134570064  0.7996259671330487
  0.0003758896061870  0.1992191457962484  0.9993503713274333
  0.0017989071947974  0.1993087745543239  0.2009255220674538
  0.0006080279471922  0.1992841638731976  0.4015760187329548
  0.0009399246316888  0.2000257446252875  0.5997662719597536
  0.0013016861925410  0.2003748793303353  0.7998606253772216
  0.0000239645593726  0.3981765772320939  0.2052317503756538
  0.0007246596639281  0.4003582188984184  0.4008079606774727
  0.0000259517641867  0.4003167013013554  0.5999156511053313
  0.9998315007307531  0.4009875851164396  0.7964176977190279
  0.9999374344327210  0.6048357127267771  0.0291907526199407
  0.0004749224825560  0.6002603273446037  0.4023234638506411
  0.9999738799438690  0.6006837662498951  0.5996628224396299
  0.0013212400625627  0.6007587239857570  0.7979429944573275
  0.0014017564860189  0.8012112728234594  0.0008893295498498
  0.0016610948441819  0.8028895203951363  0.2001210040140422
  0.0010944350752762  0.7992837693086224  0.3993770251211016
  0.0015153614467536  0.8010532873393459  0.5994575612722821
  0.0041618519175528  0.8015146350551599  0.7996128255015704
  0.2017234548929719  0.9996555491820105  0.0000480667783802
  0.2002745423243114  0.9994024420334274  0.2006731237068498
  0.2014731305475095  0.0003321640983494  0.5998646455336109
  0.2014085267021108  0.0010730383018027  0.8007052717744649
  0.2003983006524088  0.1995185130597083  0.0002684880271211
  0.1996457742080794  0.1995434867011678  0.4012099639440588
  0.1998825805007702  0.1997584009736827  0.6006477751663496
  0.1997856206940369  0.2000103472624616  0.7999882286756637
  0.2044792881165063  0.3995357021563922  0.0002062448460172
  0.1995976136230053  0.4010193712156109  0.2013144262313722
  0.2008037927699913  0.3999544490019133  0.4004487546002217
  0.2007418271803386  0.3996381682922375  0.5993659005467059
  0.2009594234324002  0.3990039914489391  0.8001848456544354
  0.2005172677888578  0.6001531970985601  0.0016870087476536
  0.2007913397699865  0.6003885283103072  0.1999729923248322
  0.1994912072509871  0.5992636539471293  0.3986676552841702
  0.2008554953295668  0.6000651182080031  0.5999993509137852
  0.1999741149699428  0.5997092524605974  0.7997773640378710
  0.2009339522523649  0.8004202654060146  0.0008862717761634
  0.1992454530091654  0.7988424316564623  0.2004988746084038
  0.2009827524020666  0.8004947479523381  0.3997234552513542
  0.2006879664721086  0.8002394311875397  0.5994791725199101
  0.2013036266127538  0.8004782959746284  0.8002563201512978
  0.4016354826923229  0.9997810148826199  0.9999833112230329
  0.4009956076880640  0.9954471077471161  0.2002187801816805
  0.4010553808553669  0.0000608825604211  0.4001126355762191
  0.4009549008807758  0.9993620806420931  0.6000486936291606
  0.4012348677625808  0.9991806618940433  0.7996457225380204
  0.4017526252259878  0.1993189348236059  0.9933284959907254
  0.4004283570028899  0.1995984243318182  0.4042848490939392
  0.3995230871710278  0.1992826158954353  0.6008881475361409
  0.3991165807216466  0.1998614315983855  0.7984052998716104
  0.4016453962289949  0.3999916544107434  0.9997696268663138
  0.4017634262714669  0.4055788723193851  0.2002286573392336
  0.4008302604155310  0.3995902920193882  0.4000616110662174
  0.4006759183602820  0.4001131046593935  0.6002342323730607
  0.3997436453936556  0.3992194486918817  0.7993058957099952
  0.4002632229107516  0.6008296025328924  0.9994903038751242
  0.3992615730420627  0.6015194766136404  0.1997517606873521
  0.4002438962747114  0.6003615423833703  0.4007075043443922
  0.3997807806594366  0.6003880924097914  0.5997176655292984
  0.3966141907583908  0.5992631019231914  0.7997532408491824
  0.4012023218383600  0.7999395894373493  0.9994422335210326
  0.3998021463372165  0.7995703846179434  0.2004975851642587
  0.4003744877431345  0.8000410180933617  0.4002660681911031
  0.4008674967602364  0.8001545117518389  0.6000289224444051
  0.3993851582198159  0.8000923637875939  0.7997583371755335
  0.6007290106726196  0.9993521166278982  0.9995164592772883
  0.6012898581040639  0.9948114791768473  0.2004837844261861
  0.6006743876315206  0.9998733673688670  0.4003940300633287
  0.6005323484207801  0.9993661719522183  0.6001818830399241
  0.6004492489158741  0.0011122676191913  0.7997397190282168
  0.6012900177241356  0.1998994761471148  0.9944118094469361
  0.6010265484792304  0.1996552235172067  0.4053654272322389
  0.6011139296517970  0.2001009457231591  0.6013650391383580
  0.6008287369465829  0.1993964318288489  0.7982333757381327
  0.5996670802569676  0.3997620565755953  0.0001339812851182
  0.6008629632110963  0.4051770808177765  0.2003110734226658
  0.6005053055499485  0.3998388453090269  0.4003970225986903
  0.6001588790844304  0.3995699909409725  0.5995122922425342
  0.5992219094642715  0.3966110965314850  0.7993340620978805
  0.5982481986529252  0.5991057462562821  0.0007726337587575
  0.6002011585892217  0.6012672162450484  0.2005817209620977
  0.5993135536223415  0.5996974590776408  0.3998162013844023
  0.5987285421606199  0.5986017009156008  0.5981331150247754
  0.5899067851078582  0.5897676634333722  0.7997504416209507
  0.6012376984304639  0.7996688821340335  0.0040102420278636
  0.6012428848580420  0.7985339606579307  0.2008504647886810
  0.6010203646281730  0.7997070597834404  0.3995169592741923
  0.6014371241668158  0.7993149084255201  0.5958371534937672
  0.7999859903078139  0.0007013932934515  0.0005783388022159
  0.8010022511153065  0.0006409258786868  0.2001575424635936
  0.8001256346291631  0.0005329337915669  0.3999856546673641
  0.8002731335427273  0.0010458324715063  0.5994808006199210
  0.8014251585351403  0.0040065767051015  0.8002956118772019
  0.8007932601382850  0.2001300883849700  0.0000681242198249
  0.8051522350017593  0.2001679495936398  0.1998978609195083
  0.8013449517339893  0.2004381196653077  0.4002200854254954
  0.8010157077619293  0.2002375498129605  0.6002393940102997
  0.8017138225124332  0.2009202412742760  0.7998191121169298
  0.7959652078758946  0.4008041027855861  0.9995612954036776
  0.8012798267444496  0.4011956891474931  0.2007799733710900
  0.7998452580445921  0.3999916162330135  0.3999938225231461
  0.7998175269437792  0.4005739282645785  0.5994451764189725
  0.7996927833612669  0.3988743017333776  0.7994972434642021
  0.7996237240824247  0.6013982345741871  0.0053356875715542
  0.7989227401843721  0.6007916922375640  0.2005677995931300
  0.8010830769956656  0.6002621492462278  0.3981332139435773
  0.7992998407199834  0.6010108558878723  0.5955900377191066
  0.8024171158974324  0.8021345430715837  0.0020244942150052
  0.8029382445164324  0.7994521461527853  0.2005232862898927
  0.8012786862715232  0.8011096420166528  0.3991324393580499
  0.8022362474739207  0.8019977876241829  0.5980242911989052
  0.8108338521949910  0.8104461343005701  0.8000663824677905
  0.2007090063058685  0.9992838799014206  0.4008017682746085
  0.1924231538426933  0.1994689695256957  0.2004893790122508
