Zr Ti V  Cr
 1.0000000000000000
    15.5054759955686290   -0.0026938295988576    0.0222345561511436
    -0.0026911951043345   15.4937529874400166   -0.0133710719798359
     0.0222461462953622   -0.0133733789628594   15.4975574155639322
 Zr  Ti  V   Cr 
   5   5 111   3
Direct
  0.0059796402850261  0.6389640010944188  0.1862945111467497
  0.3995906693654264  0.3992786013346883  0.6001536351115875
  0.5998392321922686  0.2000088468609405  0.2004642001329213
  0.6105021490500226  0.7984933276466363  0.9915463356834843
  0.7920588229582920  0.7967039747222064  0.8108349975802993
  0.9990056274500158  0.7949359960818785  0.3718813934608374
  0.1873736890619769  0.6003900414036629  0.0130357881343203
  0.2066488334124365  0.7975722083173217  0.3990732772124028
  0.5967121970707752  0.2016930393243270  0.7981653404024305
  0.8222886055166896  0.8007154451067694  0.0219989076485451
  0.9990433899261824  0.0010909099476719  0.9939675299712234
  0.1670148716406623  0.0012111527827152  0.0335858052524603
  0.9996332076384858  0.0008569566038434  0.4029872152287640
  0.9986461736320267  0.9972321991437616  0.5988175883983674
  0.9985206930239103  0.9984370379949721  0.7989010186925707
  0.0011095365382058  0.1969903174068839  0.9996872904036266
  0.0015118488677455  0.1991694066327805  0.1985346549971987
  0.0001614861283375  0.1975916596570849  0.3986522971380235
  0.9993023148771500  0.1990669284274844  0.5997375639121014
  0.0000791548183271  0.2001395438370590  0.7986532764160631
  0.9996945401376117  0.3995792634629511  0.9990163484676244
  0.0006021585184472  0.3998444064892763  0.1986461756566832
  0.9997279062428034  0.3993848868821097  0.3978022649368104
  0.9982312906468261  0.3991772264706567  0.6002029722186173
  0.9995165957089124  0.4001589775033021  0.8001028185065758
  0.9927957048566668  0.5984982410825863  0.9901970844244359
  0.0000312122553037  0.5960473099092005  0.4002471272709384
  0.9979966840433906  0.6007381742138624  0.5984157781508090
  0.9973755182002901  0.5994354406417371  0.7969973600716923
  0.0094836584570558  0.7993496811755622  0.9957604626497858
  0.0037453601200563  0.8665492005346445  0.1917630758265131
  0.9985171713616496  0.7992125179106279  0.6052882241768935
  0.0015896834820621  0.7987737290216117  0.7995362836259629
  0.2058769105297581  0.0009673573664658  0.2004000925933375
  0.1995657758969720  0.0011975994531288  0.4000306048929859
  0.1990312354018467  0.9989007716114282  0.6004689500731488
  0.1993388945719301  0.9991789129107387  0.7989979781201070
  0.1996146032791300  0.2007082721579407  0.9997448922520062
  0.1987216234423921  0.1969732252017265  0.2003399291255835
  0.2001817034734785  0.2004010157881996  0.4005195127949208
  0.1984022998771569  0.1984640008258334  0.6001965800760763
  0.1986365999862150  0.1993983461460011  0.7998192119629625
  0.1992133836362504  0.3973466035075229  0.0010003489514099
  0.1998483289561488  0.4002910245155478  0.2003945491995310
  0.1996543785747247  0.3977912477912313  0.3999354594081777
  0.1948255003188530  0.3991051164693253  0.6002306395458201
  0.1984061318069267  0.4007040666521810  0.8013054754052629
  0.2064049502638092  0.5978644219434109  0.2061187814856085
  0.2011583210006756  0.5956029887783570  0.4028336629685919
  0.1980916554249006  0.5999389057460129  0.6008675478689688
  0.1979890978006300  0.5995638724572557  0.7992888491773787
  0.2021824928674138  0.8015288290472722  0.0006463201239559
  0.1996604824223318  0.7977793239500718  0.2006940208567340
  0.1977401448052417  0.7996787634511529  0.5989946429035596
  0.2002228153703279  0.7988922391201408  0.8009940156248454
  0.4023322919363450  0.9995972706244363  0.9988251291509866
  0.4012146779326893  0.9972460747247738  0.1987311976254907
  0.4018164269268909  0.9993326468644688  0.3996038587166036
  0.3994417559293416  0.9979062382454060  0.5991610898322663
  0.3987898540513191  0.9992785965456038  0.8002041502974577
  0.3988610987991120  0.1988603397760429  0.9995025299063127
  0.3958980291457738  0.1995853736555859  0.1989717452892854
  0.3996759457566238  0.1984837885905175  0.3994664229242460
  0.3989801161437284  0.1943945335987806  0.6001949178459425
  0.3961509418308699  0.1991106627430140  0.8002402485911901
  0.3998152522753781  0.3997077755510632  0.0006322285701819
  0.3994342110638716  0.4003086145747874  0.1980811911711243
  0.4004719752356291  0.3988112343926423  0.3953993904027515
  0.3981444826380980  0.4000534731150341  0.8048759721815174
  0.4019335075681589  0.5997657594381390  0.0012018124335786
  0.4023089536403509  0.6002449570622325  0.1996947284733165
  0.4014436239074334  0.5989528828360104  0.3994459174090129
  0.3992437977733436  0.6040231670127584  0.5999104642031917
  0.3964670808982218  0.5998495260698097  0.8027994910205617
  0.3985705662754752  0.7994342921880765  0.9996083958423774
  0.4013550424566486  0.7981938832929657  0.1984759620905540
  0.4023665203727940  0.7992505417018074  0.3990118264294344
  0.3988686481631422  0.8004076614469747  0.5996297318696656
  0.3955512105231880  0.7992496723719298  0.7991793018876000
  0.6007440041302174  0.0032452215649029  0.9969640046479978
  0.6000684329435609  0.9938387704911138  0.1981501387454067
  0.5998328259009001  0.9982321987369173  0.3995631879163121
  0.5977702007841740  0.9982305672703508  0.7967508318778366
  0.6001122823352403  0.2003281181343575  0.9958211876937264
  0.5999289601937910  0.1986708549627844  0.4042014011280761
  0.6001480036008234  0.1976490799165958  0.5988873320469902
  0.6010551250152943  0.3990770482112253  0.9995729503303270
  0.5999833750622378  0.4038720884704546  0.1995285590187687
  0.6005585383055766  0.3992403587543401  0.3991073202315035
  0.6040784165865789  0.3995602761080957  0.5995460442328879
  0.5988537846425457  0.4018441019336771  0.7995190296808549
  0.5997594311964890  0.5947816204043688  0.9982104677795568
  0.5995757078486971  0.5982586107810880  0.4002442385983933
  0.5996192866773912  0.5999700948746889  0.5992373867082939
  0.5970438657879669  0.5987106748829685  0.7976118760729390
  0.5996577947762063  0.7981046651750595  0.2004762651993231
  0.5985403242945294  0.7990450965405067  0.5959409970075878
  0.5893608497855058  0.7986424032070198  0.7891326029349794
  0.8014766886104104  0.0043217984300870  0.0018335518019308
  0.7944756430876362  0.9991782518675704  0.2002062473182102
  0.7999016728827271  0.9990858324492368  0.3998208628035929
  0.7983951341991634  0.9983757734637392  0.6001081167202853
  0.7974058254179591  0.0030170334723844  0.7991265851501458
  0.8017047506783683  0.2009277291020518  0.0002998004429964
  0.8058137078187050  0.1963610480234231  0.2006196937285582
  0.8002009044892321  0.1996479952632554  0.4004489847051623
  0.7999669573090602  0.1979211799556488  0.6001602091538003
  0.8013408659762432  0.1999697833472717  0.7997191727526402
  0.8001415194899397  0.3970467961558217  0.0008194288667667
  0.8020501984055509  0.4007188750968891  0.2000327824387173
  0.7998992668172683  0.3979019739788116  0.3994013474088567
  0.8004753881517589  0.3984689324255484  0.5999117626519217
  0.7991976000722205  0.3978111419095059  0.8006048002293740
  0.7992691662774816  0.5942096895363294  0.0026753343202399
  0.7977828795141891  0.5988321241421144  0.1997890952737172
  0.7990515937388865  0.5970525225292239  0.4000731682968984
  0.7986162118218146  0.5995009128301602  0.5999129280239862
  0.7969530209454980  0.5937323770896680  0.7991976778403068
  0.8050855911895310  0.7967509679578297  0.2088762874569546
  0.7973882518818586  0.7984247920208878  0.4021020247077875
  0.7999198761174944  0.7996515844493401  0.5983698881168145
  0.5994170314571404  0.9979162344437892  0.5979067834693983
  0.6006846001943540  0.6003851516425776  0.1997387359674884
  0.6000725890509535  0.7983603045861067  0.3987672265759081
