Ti V  Cr W 
 1.0000000000000000
    15.3720038313806135    0.0023998420144863    0.0001449001601191
     0.0024007571799185   15.3633006247875361   -0.0006442210894229
     0.0001450310074229   -0.0006449824026597   15.3697544548857330
 Ti  V   Cr  W  
  15 105   1   3
Direct
  0.0054723668628807  0.3932160159528338  0.6013631263272184
  0.9909791005263668  0.8014985400926763  0.2041563385720650
  0.0091136937682746  0.7983777941970901  0.6029624830977092
  0.2009091196211386  0.2016164866008629  0.3935754892266684
  0.1966676193281842  0.2047263737469848  0.6043879938427562
  0.1986200064596212  0.3826800613690115  0.1982655444483773
  0.2019812911837421  0.7972004499399892  0.2010798826391087
  0.4068005425245302  0.9966753749641153  0.8063213927349344
  0.4018813788281302  0.5993251919657021  0.8010149721895062
  0.5938098570751522  0.9956539245196122  0.9945833136437325
  0.7918061046451974  0.1979212025367143  0.7954545701988185
  0.7992521594131792  0.4041291755629439  0.1929045179382795
  0.8018182422532446  0.5934875674437745  0.0028556030610000
  0.8066916326989164  0.7978782247136283  0.3921316499490586
  0.7986085484021000  0.7969491460554845  0.6047939485132487
  0.9995602945516706  0.0013723688070568  0.0009461941804045
  0.9987928821268401  0.0028194021024963  0.2016295301222515
  0.9981779121428230  0.9998316686603012  0.4009034871595500
  0.0003648011273388  0.0005624006913454  0.5993522975700132
  0.9997417229243007  0.9997635864322494  0.7991144717391989
  0.9979890807576749  0.1996061697978586  0.0000461577766290
  0.9970826351243365  0.2002763350864157  0.2006928629420989
  0.9976490377393824  0.1965556828497767  0.5980502091145024
  0.0013594211445451  0.1992106558159102  0.8003405496963375
  0.9969780354411221  0.3996270754713704  0.0003495811338887
  0.0002347134658558  0.3991956328653204  0.2008326266676731
  0.0001170864592723  0.3988264143847457  0.3976717423396418
  0.0000366258607004  0.3986191492270284  0.8017817414882875
  0.0023050590474736  0.6007045371861317  0.0016482615281774
  0.9998177804815342  0.5974793346444578  0.2016250940919749
  0.0000393974611116  0.5991104384668677  0.4008728494539984
  0.0008177721598303  0.5988973207403157  0.5988902892260318
  0.9993752117228143  0.6002819255153010  0.7992282099440385
  0.9993475941906378  0.7995197177303688  0.9999795815134358
  0.0032019159001468  0.7997714920496035  0.4015260796900991
  0.9992140580765816  0.8003599112509189  0.8029592367194590
  0.1975166580977605  0.9988039649267786  0.0009577124488932
  0.1978750897134763  0.0076737503627078  0.2009854608843755
  0.1993903954181520  0.9993657477139460  0.4007690177374441
  0.2005555865489745  0.9988920094268854  0.6003416334651025
  0.1993439193076616  0.0005389014138460  0.8012592090931688
  0.1987698000218983  0.1985870864315605  0.1320772062430713
  0.2013507054751264  0.1991796206441726  0.8002154173922915
  0.1983443347143404  0.4009943495621739  0.9991368430538409
  0.1993977844357488  0.4013547024019491  0.4040172629556520
  0.2037924083803538  0.4042271829658088  0.6020207412588361
  0.2002656462470649  0.4002467788443990  0.8019196811913263
  0.1989437788855474  0.5994393936034347  0.0009740053598846
  0.1989638520836744  0.5999572888832155  0.2016986629089698
  0.1987678159835387  0.6001604101545175  0.4002046126654791
  0.2004923139434289  0.6018594534184287  0.6007250685544037
  0.1974445788721206  0.6001572280748738  0.7999763484957478
  0.1991061114782764  0.8005731845902090  0.9986325123714682
  0.2005960468185814  0.8008813505837582  0.4033796090117355
  0.2052239142965809  0.8002520220553566  0.6020245484165742
  0.2004185590077714  0.7996651120819263  0.8003481236000020
  0.3941472123468115  0.0009812272840986  0.0048530018736915
  0.3980424714273952  0.0011874631141791  0.2014733109483394
  0.4027655010382001  0.9994095661814932  0.4004410768547509
  0.3998594653643476  0.0001222818388849  0.5986427071531321
  0.4007003641557403  0.2002616757282424  0.9999728524289306
  0.3998439513814725  0.2007494862433596  0.1971578096789925
  0.4019022133898743  0.2006396403973268  0.3998526534683074
  0.4001933468369981  0.2003039874707147  0.5995498767764543
  0.4022425132557759  0.2018946482982877  0.8007992905397012
  0.3981012584684942  0.4010693381733490  0.0008579674673984
  0.4021268531845077  0.3996165599492123  0.2004280075495225
  0.4005253842634254  0.4007210897712696  0.4000422274169070
  0.4014073033841901  0.4012114139597276  0.6002601884806308
  0.4009066694299713  0.3992177196486096  0.8010011664698987
  0.3993162420476482  0.5996287323571425  0.0035586413935993
  0.3991252753956785  0.5995573005437076  0.2013789251861054
  0.3997768104192252  0.6003897771652799  0.3996089860720670
  0.4011955633027383  0.6003912725879700  0.5970577860048122
  0.3990521602345241  0.7996518318775419  0.0006399395766599
  0.4007317539270743  0.8006684716113796  0.1995453120927009
  0.3997280931539733  0.7995564492151948  0.3993087925968699
  0.4007954200437283  0.7993871278064263  0.6016563120461653
  0.4014189807185590  0.7997184856562659  0.8012116742864185
  0.5990434394213542  0.9994971697920761  0.2042904299627351
  0.6010126457028595  0.0000480607798694  0.5942311579467738
  0.6050675724290634  0.0044855933794995  0.7936219537302145
  0.5988895771010905  0.2019827217941408  0.9942216360745122
  0.5991314223169103  0.1995263096953587  0.1975488703709307
  0.6002246252969755  0.1971503852985236  0.4005693803761561
  0.6007235237098393  0.2005232033006766  0.6028613665206480
  0.6042312628336629  0.4013603784431146  0.9994747030484807
  0.5976497727832664  0.4009118249106143  0.1998941925390738
  0.6012182836619685  0.3987229784813349  0.4003235415582679
  0.6009744394691328  0.4009628952891138  0.5998636227724951
  0.6008905139871488  0.3974691534297348  0.7993457745919464
  0.5969381711584619  0.6004433511886348  0.9996361972078673
  0.5999878422882278  0.6016777995536727  0.2017422493685452
  0.6018935709379474  0.6019490964963392  0.4001318367057088
  0.6011766455409779  0.6006203120459298  0.5990081111428389
  0.6034584556637410  0.6009996257080974  0.7989458875829385
  0.5993994744434206  0.7975777965664412  0.9984398017132200
  0.5985593122511547  0.8005863373413004  0.1980187290942219
  0.5989617613404201  0.8043466236625556  0.4002010396496648
  0.5992594168139362  0.8006670840380373  0.6003938307205189
  0.6007449739791915  0.8027492963879485  0.7996985145899157
  0.8012949658928024  0.9996420033201505  0.9992754848566129
  0.7984759478675624  0.0002523617424033  0.1984537677779910
  0.7965309644368567  0.0013757108482335  0.3991656781867723
  0.8022031365617418  0.0001167936244823  0.5982250105459527
  0.8014803998698736  0.9971999997663241  0.7989893554546375
  0.7990456171091523  0.2021320550871490  0.0010622967908901
  0.7976674044328477  0.1988682369568441  0.1983116340639685
  0.7991593849273416  0.2016708085569254  0.3975390067232596
  0.8008708092936569  0.2015280795603049  0.5964206714611768
  0.8003916591887523  0.4001987259682263  0.4006084611194919
  0.8004783163110029  0.3996374853683758  0.6004501781450157
  0.8009486642622391  0.4035948003835518  0.8015909894175640
  0.7991953899752289  0.6039561108311221  0.2031146860623400
  0.8015665556101361  0.5972520691538433  0.4002694620515895
  0.8021004535068014  0.5973590378723839  0.5994089016101182
  0.8010128965244778  0.6010408293396385  0.7975982363601971
  0.7988073048615977  0.8002563915499994  0.9990137920397684
  0.7950178131765342  0.8001365804264794  0.1938894764352080
  0.7998803583671317  0.7991154519723397  0.8029976706398755
  0.9958971229145809  0.1996618591795657  0.3994397046481458
  0.6002528996590591  0.0009606023770496  0.3992899051396697
  0.5977118802946595  0.2007841608962932  0.7970290599231579
  0.8004937192603976  0.3982421508120058  0.9957675131693255
