Ti V  Cr W 
 1.0000000000000000
    15.4557498811443548    0.0004941212289126    0.0018267395804492
     0.0004939353714327   15.4692164812837163    0.0004600942864290
     0.0018268799168668    0.0004596930157856   15.4533924520731851
 Ti  V   Cr  W  
   3 114   3   4
Direct
  0.0067791951317521  0.7942989878614553  0.5999632581021005
  0.5973130092950063  0.7939951536550448  0.1986452747977245
  0.7975567311141294  0.4059702620176079  0.7995878680534535
  0.0001053229780470  0.0001656311864193  0.9998907398451353
  0.0005033790614565  0.0003626356750503  0.1985130110686333
  0.0002051814210041  0.9998268835341048  0.4001961431742579
  0.0010865454735756  0.0023551003974482  0.6006122598871306
  0.9956037794071761  0.9994895720273936  0.8005454787330737
  0.9997222832786155  0.2001766576665128  0.0001022232299712
  0.9995981369631941  0.1998953509107758  0.1996581376016096
  0.9976309755380348  0.2010544364250155  0.3997780129668482
  0.9997564929913870  0.2006552223100742  0.5999556385517038
  0.0000398423220185  0.2004537709058675  0.8003675929026368
  0.0000822379731311  0.3994192158459322  0.9988023363962004
  0.9980518743132737  0.4003845732711897  0.2014690865775357
  0.0020179155022739  0.3998582174911738  0.3999455253774667
  0.9984462916797623  0.3990568805552626  0.5994614256923571
  0.0024560647821250  0.3997967305946817  0.8000374779273101
  0.9990055391621331  0.5994882416102019  0.0004981406957041
  0.9992087817872051  0.5985082663284647  0.1990482610263939
  0.9979258696238849  0.5978239319351222  0.3990687825047733
  0.9999031046805037  0.5963102288301874  0.6004190859893727
  0.9996912671459480  0.5996196227002288  0.8004341145720145
  0.0002399978022231  0.7994497585369523  0.0003648770715849
  0.0007180994362188  0.7990019130296602  0.1988297815063964
  0.9970321610340249  0.7998833902176984  0.3978041570588200
  0.0012641597237035  0.7988737779208008  0.8018271161227667
  0.1999954965923680  0.9993980349448457  0.1998606179170598
  0.1995658512469927  0.9989804164269808  0.4002316835262702
  0.2004880559941771  0.9997536282844984  0.6007505311538972
  0.1991580821894912  0.9998248668364280  0.7999542687824224
  0.1992237785984240  0.1990455829889504  0.0001478429405153
  0.1996235671391537  0.1996775157427880  0.2000785440496528
  0.1996108668621154  0.1986991781868942  0.3998133991261291
  0.1993627283281938  0.1994578212328884  0.5997357652792327
  0.1995204874873285  0.1979805828965274  0.8002090268603382
  0.1992917502269075  0.4002392878378392  0.0004809040739642
  0.2007729468009458  0.4002221462830901  0.1994292010496496
  0.1998910652453662  0.4002098802131979  0.4004919819167096
  0.1999361179242125  0.3999816805912619  0.5998346350881979
  0.2029296882279698  0.4000333315346039  0.7998199388517360
  0.1993754990630922  0.6006626750036068  0.0007092206305011
  0.2004152255135191  0.6000536676808167  0.2001677440560157
  0.2001520555611219  0.6011320590097182  0.3994028952499168
  0.1992834346912553  0.6002784327932489  0.5995274370705244
  0.1998391441466297  0.6010586831029099  0.8002985329950050
  0.1997249529052420  0.8001184810418747  0.0000616332064549
  0.1999296530941923  0.7995875254612468  0.2001252080216863
  0.1983549913945378  0.8002171545675639  0.3999295444076743
  0.2029206703472138  0.8000317091906430  0.5998796022425122
  0.2005057584666302  0.8008739838527834  0.8002790839680523
  0.3998879611317301  0.9996144394192570  0.9994766742239971
  0.3994808785222598  0.9999659616756509  0.1997344154384533
  0.4001086120305636  0.9991210618009541  0.4000712285794955
  0.3998645171068014  0.9997877892980441  0.6009305446603876
  0.3995101407591047  0.1983657557596082  0.9999064884173997
  0.3997694855924302  0.2002047124307504  0.1996399519863644
  0.3997586601884978  0.1990870575991545  0.4003423238274516
  0.4000138560529740  0.1990742062005033  0.6002775976706199
  0.3995026312351908  0.2022895205686739  0.8003829907606003
  0.3989539373738941  0.3997200771679006  0.9962096002536439
  0.3989057080767509  0.3990078375478515  0.1986498410011464
  0.3992826089650803  0.3997198157410884  0.4016618264730982
  0.3989624536959979  0.3999570578257505  0.6042600511535234
  0.3994050363383988  0.6006382716432926  0.9998111691414194
  0.4033873399342465  0.5994064268869677  0.1997484074903856
  0.3993603282861461  0.6008976587488107  0.4005220712646527
  0.4007402031986306  0.6001273331452830  0.5995841015309648
  0.3999743346514671  0.5968131428202632  0.8005271888587573
  0.3989025035223432  0.8006844787813262  0.9987710934569088
  0.3972256162916619  0.7998541468100842  0.1999548634468156
  0.4006085805310163  0.8003110541030194  0.4007300404358305
  0.4002082856735348  0.7998024629022955  0.6006826768076152
  0.3998851286611625  0.7993944491461220  0.7999384414855567
  0.5990854852010349  0.0001610283790867  0.9997714491455537
  0.5991198723446463  0.0011865432656775  0.1991294064239999
  0.5993433388533148  0.9994708241237140  0.4001961212455065
  0.5980973505892065  0.0006970648275411  0.6011575210929324
  0.6029352922188954  0.9994487171540629  0.8005063599149707
  0.5999099226523250  0.1999545772503998  0.0007697086986926
  0.5999236794338265  0.2006476420786904  0.2001678638561173
  0.6017066474503949  0.2009935614578771  0.3997683713596007
  0.5999985934654114  0.1994636470668369  0.5996820561286873
  0.5996122607271326  0.1994017958431533  0.8001364217975110
  0.5998874638983223  0.3986730654114987  0.9996179320990787
  0.6003288000221342  0.4010682040597723  0.2014669656039910
  0.6020418780602862  0.3998061980552587  0.5978826166240956
  0.5945093593755286  0.4000511243071591  0.8006640868359547
  0.6003787918986918  0.5999411476364505  0.0041058115329906
  0.6011895448614113  0.5982257775800988  0.3965350592918511
  0.5997145141018034  0.5991319618426650  0.5995235243966706
  0.6003218324406082  0.6005118159135381  0.8009732251515763
  0.5994230778696373  0.7994968311387182  0.9980295580184508
  0.6031761633423948  0.7999867175938282  0.4018880505400371
  0.5984359738703010  0.7985314029875897  0.6006398492024579
  0.5981592337822378  0.7985066001013382  0.8000890546340225
  0.7995268793512884  0.9989062192921682  0.9964659444725547
  0.7994060641985523  0.9998098329014531  0.1978436971811792
  0.7997849730154596  0.9956349406242375  0.4011680405265034
  0.8000809987334632  0.9990742655267639  0.6055395983896313
  0.7998226954887414  0.1991377966443835  0.0000360961216304
  0.7995226299785866  0.2005017475049477  0.2017904812615552
  0.7997473623921163  0.1933750231075843  0.4001495563459539
  0.7998841756253529  0.2015402067426741  0.5982111605877334
  0.7997538557547041  0.3999474370896149  0.0002605893946356
  0.8000646448044424  0.3987301239960660  0.1978973397593444
  0.5965577692862796  0.3990583464090065  0.4006493604793629
  0.7996062213893935  0.4001906973516007  0.6007072544970591
  0.7999965671121136  0.6018869684232772  0.9997691710685050
  0.7959826240143557  0.5986923704628064  0.2014865206003815
  0.8004808799217386  0.6077779700651511  0.4005838570697171
  0.7992445079400637  0.5989719331933089  0.5986897219536556
  0.7993006939502150  0.6049980276469569  0.8002893119869233
  0.8004180441965107  0.7999069326324405  0.0020129094518451
  0.8016990481817764  0.8005551355521537  0.2032871046362574
  0.7983604089738683  0.7994248649237264  0.5961512511559782
  0.7999956343000530  0.8020371887309483  0.7981783888428978
  0.1998935686801600  0.9994465300080774  0.9994763066174487
  0.4004215346703938  0.0003559455679502  0.8003838373987088
  0.7995202778141045  0.1975890147011599  0.7997551630234017
  0.3990949042832508  0.3999306209677169  0.8002257917821474
  0.5996038119495379  0.5940251653388483  0.1997210952287722
  0.7992222300910450  0.9950189064635607  0.8010460277929046
  0.8006244873332318  0.8012557153669512  0.4007986800434640
