Ti V  Cr W 
 1.0000000000000000
    15.4073529780286407    0.0026422717652441    0.0115039126781883
     0.0026423919818586   15.4169890810637895    0.0057190451176722
     0.0115025714523025    0.0057202193077188   15.4178430470237693
 Ti  V   Cr  W  
  13 101   9   1
Direct
  0.9977122101707243  0.4105504936162687  0.5966308574899998
  0.9995479372429762  0.4078044210014468  0.8065891662691237
  0.9968164783719251  0.5992285858108597  0.0042687764869271
  0.9957959409842506  0.6010311803358348  0.4092543336210834
  0.1984924697281829  0.8075167447336332  0.8035706859533363
  0.4063689006946213  0.9979500871030967  0.3987189607609988
  0.4023207781092057  0.6040941439834397  0.9986848756760662
  0.6009454140551025  0.3987358096551923  0.3914305043172837
  0.6012879612343818  0.6078688101680562  0.3951218915560241
  0.5988226796176731  0.7923887895028694  0.0022364994423305
  0.7986867372016125  0.9985753696034544  0.9987085967834365
  0.8077438949135282  0.5981906719581095  0.1894359520351657
  0.8074590632748027  0.5929455020555987  0.5964352628993677
  0.0019289609809354  0.9985060893395008  0.0017005779362143
  0.0000496751140387  0.0000640715426630  0.1993314008970740
  0.9999666778999183  0.9991617514879592  0.3968051967919839
  0.0014002201468473  0.9987554194990445  0.7699101004370469
  0.0004156429489107  0.1992135299245079  0.9999290954159969
  0.9997990627754931  0.1992252116836845  0.1996339728443454
  0.0004168764905985  0.1991138731512316  0.4001848071983599
  0.9971589004903171  0.1985640243342915  0.6021084938242582
  0.9994754128814534  0.3988006807008346  0.0023414939880853
  0.0002936634370507  0.3996122129640967  0.2011758104619120
  0.0031331718026587  0.5998861994064550  0.2023307206262252
  0.0058513542596663  0.6048558071155076  0.6051233386187659
  0.9991128550394616  0.8003670738185292  0.0017359854020975
  0.0003841909563156  0.7993966134432298  0.2020177784596599
  0.9993027246878603  0.8026273944126388  0.4014749348030017
  0.0014497758265950  0.8020095668237648  0.6013260736516559
  0.9983156034736997  0.8005141466189167  0.8011219372168692
  0.2002197173572387  0.0007168756761519  0.0004809075621348
  0.1978221445137247  0.0000791685375423  0.4009099975485780
  0.2025819403716227  0.0000547578189257  0.6004989722906804
  0.2007771265267166  0.0023907086515868  0.7998819055968579
  0.2001031716772135  0.2001439892024393  0.9999281488834316
  0.1996999402488375  0.2013991798999261  0.2004173145539025
  0.2002126780529406  0.2000865399984686  0.4009803830921781
  0.1979225280593005  0.2003906725244335  0.5998344328038365
  0.1998367440182578  0.2017207815941080  0.7992794054040872
  0.2004294042729687  0.4007042335955470  0.0005770018909368
  0.2003423064160660  0.4011153735126062  0.1998525115567397
  0.1987040904870131  0.4006069075157043  0.3988392812388060
  0.2010584102793155  0.4007065638976551  0.6001751730908556
  0.2015829809117699  0.4016840855350685  0.8004138532269552
  0.2009207227304041  0.6006991498592499  0.0001296359799098
  0.2004407235338113  0.5997114740683771  0.2015160895727437
  0.2014203520988860  0.5994188156976956  0.4014546843729080
  0.2009969576006180  0.6001959322394480  0.8001965641281352
  0.1994082309562515  0.7996226899514494  0.0039030625047543
  0.2000843278353082  0.7993575664746846  0.2014970612594315
  0.1997698189872937  0.7995597864247214  0.3995719656807761
  0.2012704248853512  0.7995597469238162  0.5995151303501917
  0.3995081700690553  0.0000483984770412  0.0000121131193116
  0.4001986389458020  0.9995491596719075  0.1981707328000231
  0.4010742478417126  0.9997398211620829  0.6025282418757703
  0.4008439525107073  0.9994723316857214  0.8009979406825110
  0.3995361417798668  0.2007731641164545  0.9992317030133520
  0.4007446731983455  0.1998071135625348  0.1999104838722782
  0.4002774365812962  0.2025019986022278  0.4004841234486303
  0.4014461279358499  0.2013790262253190  0.6001044268774168
  0.4015063010816130  0.1999801773891061  0.7993731239526440
  0.4010984629349856  0.3990731523651466  0.9998455201762276
  0.3995943188301510  0.4010443482180086  0.1995001085303413
  0.3993006793393350  0.4009755132314844  0.4002271970594538
  0.4009079006093706  0.4016545365565758  0.7992810770067331
  0.4007378585840547  0.6002176240905138  0.2013631674377865
  0.3995513467997560  0.5987826425698040  0.4005583438556199
  0.4009106095087405  0.5997038619832771  0.6004412257948577
  0.3980613843120240  0.8014409526008605  0.0004353068628168
  0.3996699492967649  0.8003599157724286  0.2011433432793333
  0.4011034620077133  0.7966258041216826  0.4008351496379916
  0.4006019629369704  0.7986569566550421  0.5995178889650453
  0.4036777743444961  0.7989448257935078  0.8004646504328883
  0.5998839156178022  0.9997661467624041  0.1972009607005672
  0.6026381727491932  0.9991941727315529  0.3977351497737843
  0.5986101760795832  0.9993627721697841  0.5987146425068918
  0.6005716375614562  0.9985843680792339  0.8013225515067279
  0.6012229056804306  0.1994388499049416  0.9987073185817239
  0.6004560696065552  0.1995973462424449  0.1985475423793028
  0.6001244932406093  0.1984228345729911  0.3978747226231432
  0.6031454882665731  0.2000198773067257  0.5990915516562993
  0.6001404490334911  0.2005829566310479  0.7991999176269153
  0.6000098811232669  0.3994085310593013  0.9981858850179105
  0.6002452275481881  0.4005337476746111  0.1955529357057876
  0.5989046452921590  0.4025942735452832  0.5989707664922425
  0.6004826646120338  0.4010241694477790  0.7991665383652250
  0.6014402974240609  0.5960021090259836  0.9967832463387037
  0.5988731463913929  0.6007013643040400  0.1942737619946102
  0.6010268989675946  0.5997523783298767  0.7974634433477035
  0.6005634791194914  0.7995974179721055  0.2012443465984572
  0.6012088522947084  0.8024504937552079  0.3992619975261735
  0.6011516034898983  0.7981142221317383  0.5995154365438565
  0.6020241259479354  0.7989971653113827  0.7984803899700003
  0.7985852297655401  0.9990239404712487  0.2001917120239218
  0.8013693564990190  0.9998094328635431  0.3986194769640683
  0.7964146501139798  0.0022215531067196  0.5983926382360241
  0.8014906796569956  0.9984259756654216  0.7962378897233443
  0.8004770092154366  0.2009505195234038  0.9972117497436038
  0.8003807154891461  0.1998818094079439  0.2001650693296214
  0.8009009645898122  0.1998738190505159  0.4024360294172955
  0.8013926125905089  0.1987655000391582  0.7951555073099861
  0.7998798343282510  0.3982044439078098  0.9991532088356088
  0.7998334415863960  0.3983250896830552  0.1983705356990636
  0.8017284992953339  0.3996843888198248  0.3963532454696919
  0.7972595824169237  0.3926802269366398  0.5981809877078047
  0.7986276698818637  0.4001776687839692  0.7992475813632680
  0.7973342707583734  0.5984485979241413  0.9933033173414715
  0.7982605394575354  0.5994455836283377  0.3976319992311059
  0.8018232277874310  0.5991695467496224  0.7975669045333085
  0.8008195162349597  0.7964311766682510  0.9997503796631243
  0.8001870118802512  0.8011370579020640  0.1996432514207364
  0.8000589265641342  0.7991999674286638  0.4000426777371428
  0.8014710697132795  0.8022369191226466  0.5986091039124963
  0.7999226226329206  0.7993756954493406  0.7983840862963387
  0.0006706056841379  0.1974884396819145  0.8007488645000564
  0.9999726057941399  0.3974981888137445  0.3977034979713860
  0.0009936661836903  0.6059427286405237  0.7998867208643134
  0.2005697012400650  0.0000024604794322  0.2001914903864358
  0.2024309909188452  0.6004312292895108  0.6002482502726875
  0.3999460055962782  0.4002981338557559  0.5992489500494809
  0.4011593955369404  0.6003864168655489  0.7972135000539365
  0.5970188472349645  0.0011391650924415  0.9995972657593245
  0.5999664573403367  0.5999767231113148  0.6005633846976738
  0.8007055061967256  0.1980777428130508  0.5971462228047927
