Zr Ti V  Cr
 1.0000000000000000
    15.4866812533483102   -0.0138389071891856   -0.0042650055420354
    -0.0138393523722023   15.4879634038831639    0.0014184031787679
    -0.0042741725747290    0.0014267905633447   15.4705250654031623
 Zr  Ti  V   Cr 
   5   5 111   3
Direct
  0.9985949668448079  0.5995571843128177  0.9984203735008769
  0.4368830567674721  0.7920119139459187  0.4124969259827675
  0.6010190402909166  0.6009726203616697  0.5940018522962761
  0.7868996405900897  0.9646423876004246  0.5986823496554562
  0.7833417557517132  0.7504471697567281  0.6013065215141159
  0.2017255027195838  0.9997710235413521  0.5992048162813128
  0.5981315731634242  0.8030155222989966  0.2264149226159813
  0.5839909088996216  0.8327140056221184  0.6047611546051734
  0.8011210991867243  0.1987982520995173  0.2033125471181914
  0.7974610461430602  0.4045381057703468  0.3942767893220678
  0.9985852821559613  0.0014998160076366  0.9998016973510236
  0.9983182638132547  0.9998269100901046  0.2016157568654409
  0.0008100640242572  0.0012940115243673  0.3995668055004577
  0.9983074500809856  0.0013122818117907  0.7990535123799253
  0.9994062462168242  0.1991043539155393  0.9988884668124902
  0.0015611835526934  0.2003556402794698  0.1997527007217834
  0.9989088940394335  0.1984201842246192  0.4003698055922110
  0.9999732554679708  0.1986759087576020  0.5992787693676151
  0.9992946472010280  0.1995313120407186  0.7977927439061081
  0.9999446255869365  0.3953922491045987  0.9989213689957206
  0.0003794107412225  0.3993186068400258  0.1995159410255300
  0.0022453002966580  0.3989811450929845  0.3996723506858129
  0.0027009464099668  0.3981875381166315  0.5988256941519244
  0.9995043079603220  0.3993569319300183  0.7982289099750886
  0.0002700771848128  0.6005145632407330  0.2044431373131511
  0.0004713782556788  0.5984415323180237  0.3997431939599916
  0.0006221816519210  0.6001313655263714  0.5967437267503660
  0.9996760302882148  0.6009388254013850  0.7938455833501933
  0.9997565415473120  0.8051307373441086  0.9995077957716898
  0.9997274747149716  0.8005199336965342  0.1986935917112183
  0.9353445348930848  0.8675092550763791  0.3987407788448422
  0.9958238001062878  0.7990943196089474  0.6004864798283818
  0.9993506318714701  0.8010191523602825  0.7991243087383102
  0.1995093699630932  0.0011550603768530  0.0003301254002677
  0.1991141619856436  0.0008165756727463  0.1993984879177752
  0.2000602487468942  0.9991938182251507  0.3982363796688344
  0.1986674683605933  0.0007755380627384  0.8016152777206589
  0.2003105658608481  0.2007375086811541  0.9995106100851108
  0.1997909231736968  0.2006146775569010  0.1993226153499796
  0.2002413067173579  0.2020495429546219  0.3992481871070255
  0.1994514795117277  0.2030721367621728  0.5993810542072037
  0.1992910312399519  0.2013379676224577  0.8001310962693042
  0.2005973308057825  0.4003393781101055  0.9991602701128267
  0.2004661088565185  0.4012224034311516  0.1986061817491993
  0.2008631098085807  0.4008221851792852  0.3985681856288440
  0.2002335584754379  0.4021113604857222  0.5993280048744527
  0.2004043194761018  0.4017515433712886  0.7999078184496037
  0.2043695964310606  0.6013828902301298  0.9990219795612537
  0.2001418274638892  0.6009159314625934  0.1998332658203861
  0.2010814209433372  0.6011907296504929  0.3986817589797969
  0.1990355172603835  0.6010201776548042  0.5981476265143288
  0.2002666861693702  0.6010873358632697  0.7978729153004660
  0.2009611575708936  0.8014498266349164  0.9996396165473662
  0.1996459681037312  0.8005246203788368  0.2010647117711335
  0.2053826241965010  0.8000632118722131  0.4006496720469971
  0.1966162117107858  0.7994334967085142  0.5995123396905808
  0.1985934707644445  0.8009129178107579  0.8007767675607422
  0.4004779821244132  0.0016444728089822  0.0006769583683865
  0.3986792099741142  0.0010399778924295  0.1995227482672109
  0.3997909015213127  0.0049839012621014  0.3994270093672532
  0.3955570623123022  0.0046167962571130  0.6004608109664397
  0.3987915651554049  0.0020148411444564  0.8023802877218013
  0.3988915687455076  0.2019638797809036  0.1994657115689583
  0.4003683076019109  0.2016158434108101  0.4004604483638626
  0.3979459493330627  0.2044604233411093  0.6004539645757431
  0.4000673200137048  0.2017350849083432  0.7995798086271627
  0.4009799822711945  0.4009969784719436  0.9987618645668112
  0.3995567099630083  0.4006391027921802  0.1985618346105088
  0.4016320258644919  0.4001167585920012  0.3994110339096089
  0.3993785896762834  0.4029861992906303  0.6002113987892045
  0.4000680036359230  0.4027830493903100  0.7990510323431326
  0.4014686330214237  0.6015970743086928  0.9989599296851702
  0.3998834169267214  0.6002668207065627  0.1980445511035043
  0.4003700553196403  0.5934811947296079  0.3988032209686405
  0.3955060395729317  0.6032055217911411  0.5976236477530450
  0.4013436574050420  0.6027592690695883  0.7981133009422703
  0.4014812866762494  0.8015288667527554  0.0009718442786655
  0.3981220932710079  0.8009958055109977  0.2001940920483193
  0.3920257297352802  0.8043282397002377  0.6092414949735514
  0.3996295673846330  0.8011514507272759  0.8013317557674506
  0.5981329870814071  0.0008390566138927  0.0013230158620882
  0.5998488708036208  0.0042480423328180  0.2014736027452029
  0.5991203509594344  0.0037070037010717  0.4004817477920552
  0.5908178029769028  0.0179019168316481  0.6008595006785167
  0.5992085143394610  0.0036119992953354  0.7986654582698377
  0.5992972035164602  0.2011900669045831  0.9998584886917177
  0.6008874506411649  0.2018929559797809  0.3987391436767321
  0.5980566052700259  0.2054218196541576  0.5992569366862006
  0.5996798236054021  0.2018971431777813  0.7997993867085533
  0.5994164706922933  0.4003028252254491  0.9995641240476828
  0.5994319347990705  0.3999267343103148  0.1988555705323798
  0.5991807684011892  0.4003978907436917  0.3983753972968394
  0.5981503058086031  0.3985518872762274  0.5987265117559282
  0.6005779398489552  0.4014372428098256  0.8005541208911665
  0.5991907507033164  0.6023233938943258  0.0000968559846961
  0.6008337140460123  0.5988742569099215  0.1979617943280143
  0.6015656431877447  0.6013854537764114  0.3922059098270279
  0.5996986064793476  0.6021466401019832  0.7998933465518047
  0.5996821996029553  0.8024536455864331  0.9930664872730880
  0.6323331929258174  0.8099480145400985  0.4199834778778115
  0.6000922743058501  0.8020480063612034  0.7983579470552574
  0.7975818535818590  0.9997721474848459  0.0007954703414912
  0.7978157674082205  0.9959824376952133  0.1965832888505582
  0.7984399478205101  0.9984906050832115  0.8026203326782212
  0.7989820652604362  0.1997033130593944  0.9984073355883201
  0.7981050009154985  0.1915989191720590  0.4005043566475572
  0.7994914727904356  0.1980018723136004  0.5988941003858060
  0.7992858804993230  0.1988440267389578  0.7997216992291951
  0.7985096275520772  0.3994502188391384  0.9985712623586779
  0.8003614970078261  0.4014714094454981  0.1966642847502414
  0.8017549113117286  0.3937326090570760  0.6006287547371709
  0.7997003560511524  0.4008328315842105  0.8003369288050582
  0.7947492379966146  0.6006028056598589  0.9993649441313821
  0.7996124297232666  0.5996367945010379  0.1982413895209329
  0.8020636368051698  0.6023902519679041  0.3982630342386240
  0.8063522303809011  0.5675385823160181  0.5977405877603446
  0.8000882227777157  0.5998792722504955  0.7986964985081414
  0.7968687903874730  0.7993399687711209  0.0009369314392438
  0.8027162754960894  0.7989585953530819  0.2005294846233486
  0.8065709715464529  0.7988731489622145  0.3971487596348078
  0.8006878191075051  0.8015542680202256  0.8012384852012132
  0.9958433801038502  0.9984607181773245  0.5988359762652871
  0.3994740029167463  0.2011037833561339  0.9993401748777405
  0.5968355783449694  0.2010122316550509  0.1997322022351198
