Zr V  Cr
 1.0000000000000000
    15.5277836321495606   -0.0011014415353407   -0.0036444284316418
    -0.0011015311309700   15.5268057001839015    0.0012045176117796
    -0.0036459540422085    0.0012051907892001   15.5242636607114743
 Zr  V   Cr 
   5 117   2
Direct
  0.9987653236550456  0.1995103885002144  0.3999934467064316
  0.9905383312321892  0.3930611472532696  0.9948256529461796
  0.6001517859312944  0.9996134611394992  0.9995008649370767
  0.6003907850647667  0.9994727000595022  0.7750595168599577
  0.8048340097143798  0.3988374365304856  0.8076145335277719
  0.0016843226795720  0.9982550718839411  0.9995998252739922
  0.9999640433970202  0.9989140699910676  0.1995978191172998
  0.9997479826404454  0.9948408304137009  0.3997840046989563
  0.9998714494696538  0.9984640935298116  0.5997328418133768
  0.0018435754454675  0.9989872981835904  0.7991610048538442
  0.0003332340103603  0.1997914282061181  0.1942198767294637
  0.9987794394510762  0.1984874703715725  0.6035823368361064
  0.0035189260117156  0.1984598947004786  0.7999908060240977
  0.9995062585837569  0.4000209014065906  0.2018331990026991
  0.9997273191154531  0.4040492157346862  0.3999568532573110
  0.0006936479383699  0.4002948496187629  0.5982485329346515
  0.9985995601790110  0.6023778905453103  0.9997341789897598
  0.9994196877270990  0.5997992249844318  0.2003066508095710
  0.9992317988203976  0.6008549142671386  0.4006854286673402
  0.9993257983949653  0.6004339185122259  0.5993718406245068
  0.0020105851232195  0.6005067598985956  0.7981699600700699
  0.9990210604162019  0.7990064710850202  0.9995645917780044
  0.9993383674181897  0.7995638491580348  0.2002191732054167
  0.9996588447538521  0.7982558923488322  0.4002356510717761
  0.9991177407273635  0.7995439966506842  0.6004110589634765
  0.0005258618137949  0.7995352464996779  0.7996238495311255
  0.1979444044916277  0.9972908077680650  0.0004614949393207
  0.1989426955636271  0.0004687166059506  0.1998204129401525
  0.2004690553452577  0.9983697576369613  0.4003239809598748
  0.1994711331092101  0.9992039621030746  0.5987535725397042
  0.1988645094785901  0.0001722682448361  0.7999163717949770
  0.0300747454146781  0.1952918071442393  0.9988675364898787
  0.1999441620581985  0.1995006597637474  0.2016698733403550
  0.2039758976631001  0.1996385275912275  0.4001357478235837
  0.2011012698711644  0.1993708775330869  0.6005228930838941
  0.2012566823973168  0.1990868947738083  0.7988653148681125
  0.2010463433827046  0.4023666989646417  0.0007290500263245
  0.1987688630166407  0.3985193839825304  0.1992892232687190
  0.2007475231740621  0.4005465956036438  0.4002262169649530
  0.2007352403908257  0.3993863178574073  0.5987583924498950
  0.2022183951945212  0.3987068591164269  0.8000937037499124
  0.1989094612986728  0.5997644538247546  0.0002767065208460
  0.1990975404184702  0.5997481032209111  0.2008701935903449
  0.2000431398105142  0.5998613547351351  0.4002024328200515
  0.1997009754791851  0.5990193117837586  0.6002438126894112
  0.2009048595702269  0.6002466651129718  0.7998589010707655
  0.1996670797133173  0.7990228186992601  0.0004335622248745
  0.1994691050264691  0.7991911710244572  0.2005907693291228
  0.2000265193695901  0.7988014195127980  0.4003386766078465
  0.2004042060604167  0.7998977010290979  0.6001628327547580
  0.2000831467567225  0.7989657173548297  0.7999126145791287
  0.3932866546547615  0.0003019019624120  0.0007966189734698
  0.3986173279257474  0.9996766139798723  0.2004568351406608
  0.3990612837583984  0.9990594754212678  0.3996517205793571
  0.3998747264836771  0.9995237146668585  0.5998144186447144
  0.3953694604577375  0.9993891528483053  0.7999769480044449
  0.4028994476652623  0.1991394266074281  0.0000921590149995
  0.3988693094839826  0.1995003532875506  0.1988322814051323
  0.4013207920129102  0.1991435899174503  0.4008630215914468
  0.4010179981247148  0.1992314556273102  0.6006847197540045
  0.3992467401170303  0.1999389682536798  0.8018051733857632
  0.3977796071650736  0.3987115617293325  0.0007353251625470
  0.3990727608424100  0.3994697595740535  0.2012307339483008
  0.3998795551125471  0.4002424494162704  0.4003344739745118
  0.4005698208925705  0.3993247403297849  0.5999635016397797
  0.3994445681351863  0.3996581276432458  0.8002122778195835
  0.3998066326413569  0.6000728468494397  0.0005678976395732
  0.3992853535462031  0.5995495671663279  0.2006504043746105
  0.3998256198029728  0.5998613763107425  0.4006348221387741
  0.4007842081328906  0.6000755211283144  0.6003641847947903
  0.3997454477729706  0.5995514268524507  0.8005157924968295
  0.3995276142840045  0.7992981939125208  0.0003476524934039
  0.3999557514422491  0.7997029919552886  0.2003824307087705
  0.4004752737119033  0.7993994331799756  0.4006413835854922
  0.4003097418427121  0.7993542863725128  0.6002629770723982
  0.3999571677471218  0.7996837940563747  0.8008139514361228
  0.5994905299410977  0.9996737339229849  0.2042684703051059
  0.5994160728555822  0.9990924974379806  0.3976218207848484
  0.6002343796098816  0.9995842155422526  0.5849663277316787
  0.5996084419946098  0.2049799385608517  0.0007261843256231
  0.5993268559786707  0.2006430116489210  0.2010598976644455
  0.5986585751320760  0.2008063453254453  0.4005001962667258
  0.5998930289846561  0.1993979016889434  0.6006796120206240
  0.6003228543217892  0.2046312831877310  0.8000717498414958
  0.5953357432042343  0.4020654934476177  0.0017942866606036
  0.5981774597382666  0.4002135247011129  0.2024646068132960
  0.5988116069003832  0.4002516559400399  0.4010955875691100
  0.5999835040458792  0.4001071763671092  0.5998245112296241
  0.5973650865784681  0.4012191381907763  0.7992814881291470
  0.5989175536931266  0.5987126878177190  0.0005569573720507
  0.5994997508815518  0.5993075692545784  0.2013273153402884
  0.6001677089132652  0.5993309940848507  0.6001580621637257
  0.6001221789819479  0.5986631441108052  0.7996724291704008
  0.5995031798869751  0.7942016794133798  0.0009841629085676
  0.5995588749491420  0.7986394100068215  0.2010077142368708
  0.5994900291052869  0.7982221658156199  0.3999968402623145
  0.6000708779260737  0.7991149362127835  0.5997308419384102
  0.6000435634380044  0.7948930567896549  0.8000067849590419
  0.8052053496466761  0.9987852427479492  0.0016874228691113
  0.8007075118165526  0.9997076911626055  0.2011460933370939
  0.7998982294548821  0.9986065330504933  0.4002604201946893
  0.7997651932471085  0.9992375638900308  0.5997474400458326
  0.8056941156379899  0.9984809707476051  0.8003509071204175
  0.7973024745722228  0.1984460978240194  0.0014038534037673
  0.7986020352055975  0.1989597612730283  0.2005462639101150
  0.7945827287208285  0.1987905980443161  0.4005515418777134
  0.7992338959812895  0.1994214434672811  0.6018039466679551
  0.7997954231555076  0.1947166640254714  0.8017823756619520
  0.7885257443348679  0.3999377210217279  0.0112740899098537
  0.7985093404222693  0.3995028723533701  0.2049772658236345
  0.7984881746193935  0.4006378973244132  0.4014614543433600
  0.7990238233506541  0.3990569579067185  0.5985227180334048
  0.7986290637271900  0.6007676058845655  0.0019496657791725
  0.7996101070688180  0.6000798251510080  0.2015621791365499
  0.7991433744230774  0.6002828134858336  0.4005684490183597
  0.7995453345798532  0.5997529825208313  0.6011025404527736
  0.8006235962084598  0.6036092460071252  0.8014235694451042
  0.7990523893050621  0.8000588802165678  0.0011334795626916
  0.7992112927498826  0.7996748131750423  0.2008340949215913
  0.7986647948493657  0.7994082885546961  0.4009427618984937
  0.7993244481329814  0.7997180431749614  0.6002999199307147
  0.8005344928960091  0.7999415977721362  0.8015730640910261
  0.0075642238790756  0.3999185893728676  0.7927161315099818
  0.5995454653507735  0.5996594801319312  0.4010415350774610
