Zr Ti V  Cr W 
 1.0000000000000000
    15.5087483082677728    0.0011241511672532   -0.0011658627052895
     0.0010760835604324   15.5496415199413960    0.0093654870697751
    -0.0010458555872954    0.0094419591705861   15.5080119952370001
 Zr  Ti  V   Cr  W  
  16   2 101   1   4
Direct
  0.9890597333494281  0.2179490150310578  0.6259450418969572
  0.9675603021252431  0.3869104963544723  0.4262307133550770
  0.2127357136930203  0.2104827611096588  0.9719008409075960
  0.1987850888958136  0.3660748585689640  0.7654968052931868
  0.1816361002400085  0.8012987532965081  0.6000911551432526
  0.3995026991177290  0.0395897812855208  0.0022046938169838
  0.4259330931570159  0.9433138451104691  0.2117866478534550
  0.3831603709359224  0.2436388928099758  0.6218264929411266
  0.4299821501449446  0.4008020900030272  0.7865245035683167
  0.4108136188414233  0.8104835173956746  0.0139683474803432
  0.4101162769029703  0.8027281210852319  0.6008627257275023
  0.5954759019075736  0.3816638063204307  0.6100920265490755
  0.5987765811580068  0.7953636476431547  0.1890028860906348
  0.6342853871420673  0.7967290222160223  0.6030307352902521
  0.7678175653760017  0.2124091242916496  0.5859338163108538
  0.7487941664713930  0.3968330173317237  0.4319639656006137
  0.0017884438083754  0.8045237957937685  0.4162546147533757
  0.4034752109906963  0.3927331005685208  0.2006368675904035
  0.0014937551277129  0.0038401740414925  0.9976675346164741
  0.0009059084350417  0.9971009549688393  0.1975467911766441
  0.0060987354586470  0.0001464547346237  0.3986810196290370
  0.9986907661776877  0.0019767383292553  0.8005733826847879
  0.0025466279008717  0.2042281452443672  0.0046161540367077
  0.0018890880780178  0.2013722408903502  0.1938817669322043
  0.0052325224499241  0.1925560896729432  0.3869678501877324
  0.0060685301986971  0.2002563919819891  0.8201638772059091
  0.0032648536115927  0.4037449456756041  0.0041167829140933
  0.9987203375110285  0.3998368464105300  0.2083786418984383
  0.0049581315484709  0.4146887532108403  0.6202589404416813
  0.9983962449969679  0.4000525390499833  0.8109675993030940
  0.0014814869314233  0.6019798050823579  0.0047612106557307
  0.0036862344997371  0.5978975944810331  0.2058327493223656
  0.0001376886228159  0.6022040459475415  0.4047895923996064
  0.0053130650111279  0.6062965706037170  0.6052159601372701
  0.0038494075460460  0.6009247223632292  0.8063767522528046
  0.0006948872132004  0.8016015118805864  0.0024352873581766
  0.9992039203033446  0.7978152916807556  0.1999314530478966
  0.9882769479255445  0.8006373410703469  0.6125085682550121
  0.0016806853002376  0.8034037976949099  0.8080885177271934
  0.1972167880103943  0.9952691364831555  0.0001671495960840
  0.1958471231017077  0.0029233421901975  0.1977817373155646
  0.1709738684640398  0.0004754688694486  0.5862987474760275
  0.1964164857880068  0.9864035528521190  0.7858107258478561
  0.2029776679894250  0.1975280032175673  0.1855666527989036
  0.2034344261084096  0.1933671821269072  0.3853986890894758
  0.1885435233078357  0.1899613216960485  0.5812606627871925
  0.1893577897887836  0.1746091494351820  0.7729999729024820
  0.2021954808830885  0.4151292077803989  0.9973961531979391
  0.1953826252473261  0.3988946579758669  0.1909850417768600
  0.1987191198462673  0.3937501634113876  0.3818587283389970
  0.1610159109390015  0.3831790775659210  0.5669965719993133
  0.2046084403103279  0.6064981796103477  0.0072902282164142
  0.2026590789835685  0.5975001303041341  0.3949898728517459
  0.2014013318788866  0.5872980298642478  0.6012668548474281
  0.2038339913748189  0.5968101438864402  0.8075323694433569
  0.1996402404337258  0.8029139040127651  0.0011274191147443
  0.1962935175261149  0.7877077140531770  0.1976967042151231
  0.2047334539539137  0.8066553545295402  0.3932972289592197
  0.2027173193230255  0.7937859288186379  0.8062449383572998
  0.3968763263781601  0.0051589943330483  0.4056562974454480
  0.4006177188953614  0.0077059198377969  0.5986403723963420
  0.4006621421506565  0.9986181193493131  0.7958034027120525
  0.4133334027661780  0.2367195853194377  0.9971839239335120
  0.4024366228440572  0.2041874051547626  0.1897674069694575
  0.3993934204428640  0.1987392425630167  0.3854131160531814
  0.3717775024047401  0.1907829653932784  0.8168158025791413
  0.4052764400637078  0.4102992232165427  0.9940241788148744
  0.3941417014375691  0.4005058397625150  0.4049263740104581
  0.3447841360281753  0.4236277726602830  0.5922510774400521
  0.4042735443858745  0.6024262928212575  0.0024900011764938
  0.3961312639327821  0.5846630394848282  0.2087799149711287
  0.4003389069928935  0.5994646693540071  0.5990800538474852
  0.4023366027195022  0.6068149909732344  0.8024546106648578
  0.3923600073193980  0.7612794048966994  0.2078749526659087
  0.4020756802950747  0.7925892362934640  0.3947969367536887
  0.4018070539695789  0.8019974104392481  0.8064229198472155
  0.6076639643209012  0.0063632326604617  0.9938447586296266
  0.6136683999577343  0.0082242407238511  0.1949499123287731
  0.5980151530374650  0.0002998934447849  0.3933072819741262
  0.5988592126864598  0.0017833075486673  0.5964868086334292
  0.5987809084713310  0.0042633941489784  0.7975473827994104
  0.6044849498149500  0.2045161810257537  0.9935451035807135
  0.6045589438661916  0.2013551789122238  0.1948320364369502
  0.5935802089805184  0.1984545618319409  0.3938696441423048
  0.5788622655011724  0.1870181729932116  0.5980242490635509
  0.6149379840980503  0.2053412720370802  0.7925504038583241
  0.6047242322874496  0.4040476185503336  0.9977424269685367
  0.6077132504687843  0.3965924266517576  0.2010872575992409
  0.5671081112014832  0.3976848406501790  0.3989580591040573
  0.6023145937658837  0.6027502855021383  0.0036706212795921
  0.6019768022446057  0.5901799580235775  0.2027913083152876
  0.5927502430866737  0.5966596486729266  0.4022631239348416
  0.5986271439455159  0.5942787580055295  0.6012542928879373
  0.6012971383192927  0.5970421170424602  0.7995191325747734
  0.6141780063858475  0.8022640684636588  0.9898462808847612
  0.5983582145503088  0.8003947128687601  0.3996441569424722
  0.5999904245192216  0.8018795807597136  0.8027395698515918
  0.8040281337285156  0.0028180123055963  0.9977595619662375
  0.8054662855067840  0.9980721759877605  0.1999593705030901
  0.8015976981130359  0.9995527215966780  0.3981388684742252
  0.7944079928175332  0.0001288412976279  0.5945868462640279
  0.8027978456444358  0.0019434211827640  0.7953299727381006
  0.8030450251094235  0.2022196137546402  0.9968642030653854
  0.8012668717222122  0.2005768708357470  0.1960884937234606
  0.8132597599530426  0.1961693045830597  0.3911531195242552
  0.8041802374312570  0.4033851354458874  0.0068640141196177
  0.8036432733789716  0.3997132705964572  0.2040287465001913
  0.8280010256002507  0.4115348567089664  0.6180690948069242
  0.8047564732957933  0.4042723198689350  0.8102271054689476
  0.8029618009026105  0.6035172651872760  0.0047349093204487
  0.8010709651765840  0.5991182088288067  0.2064748519332882
  0.8015353408108955  0.5986734040720242  0.4028003185848212
  0.7990621191574397  0.6033592519178691  0.6014437224669296
  0.8019626422939594  0.6036851472614443  0.8035848273188314
  0.8052967034566741  0.8022997746137499  0.0015500219807789
  0.8052353936304163  0.7983159878751709  0.2026851162627927
  0.7934272719991894  0.7995588915595313  0.4006427084655305
  0.8221727382340879  0.8031813804706415  0.6013163061863580
  0.8006536771587350  0.8006109076652639  0.8006411394768480
  0.8090124104309901  0.2015805784356761  0.8003711514168840
  0.2043386694838777  0.9983732948735012  0.3896285145153477
  0.1990257260626944  0.5936505258754088  0.2026287979361284
  0.3983396561183825  0.6003343577604279  0.4058207381759252
  0.6226106705064882  0.4034929188890488  0.8082891211720939
