Zr Ti V  Cr W 
 1.0000000000000000
    15.5037299355992140    0.0053875915022060   -0.0049673339968089
     0.0053888447929185   15.4932120490820822    0.0008447035454455
    -0.0049676779853922    0.0008426987699688   15.5021949562625245
 Zr  Ti  V   Cr  W  
   5   2 106  10   1
Direct
  0.9872172154103940  0.6034046812858079  0.9889946911458501
  0.9994188401363241  0.8001335626784969  0.3998669203510811
  0.6069758162805988  0.4002726382109723  0.1821755482503910
  0.6351283956076341  0.5989386411936696  0.6389031159286902
  0.8026326866823842  0.5993543295420360  0.8054011851863133
  0.5979275090384865  0.0007254809582059  0.8029868909989900
  0.7817090353906814  0.4007522153959468  0.0036040130352617
  0.9984721882432521  0.0010992878750633  0.9985742117589392
  0.0007415008296243  0.0035703928910796  0.3998401371361834
  0.0011499020158550  0.0005078531069586  0.6005562868310554
  0.9999085275272774  0.0007277587811767  0.7996538824111336
  0.9975318537517750  0.1992843666269480  0.9999006856319151
  0.0002530094654667  0.1996836889519265  0.1985367874537970
  0.9993473042792561  0.2006860988308969  0.3984225825028455
  0.9997818565443780  0.1999463434979132  0.6001255022182448
  0.9988146071454976  0.1998037339917837  0.7999836164425640
  0.0039852473963724  0.3987604011083588  0.1985181745152918
  0.0025601694828903  0.3973557043480226  0.4014380838094823
  0.0014856196459155  0.3976935291571887  0.6010651792017877
  0.9983188834154236  0.3979789240540512  0.7992683193064163
  0.0005626343932075  0.5989708313683969  0.1980977529128049
  0.9972032190041507  0.5944155108688804  0.3972213906162559
  0.0079489865996368  0.5990588832959701  0.5980442856593372
  0.0065011643893944  0.5997391383788143  0.7908506337664699
  0.9981031686324098  0.8059840212180447  0.9980906281156445
  0.0002276169048290  0.8002380204834314  0.1940613514351837
  0.0014118314252472  0.8010843286907805  0.6044862326923712
  0.9996765514978831  0.8008897137708331  0.7995230369841133
  0.1987876676290959  0.0001239849686581  0.0001354020326298
  0.1998837549283387  0.9995707879902416  0.2001224777698289
  0.2009069114790960  0.0005872692923652  0.4001698284645100
  0.2004834252441418  0.9995165126226434  0.5996229987772284
  0.2002580887642738  0.0003022520973487  0.7993656774210642
  0.2004679474572922  0.1994914905995090  0.9984713104771493
  0.1996158501550520  0.1994909047353394  0.1994765446889592
  0.2010600495983638  0.2002261995626555  0.3994159685496053
  0.2296880002073809  0.2004793754953860  0.7997601821258632
  0.1971949254336067  0.3995803479402555  0.9994962676792740
  0.2008965637020785  0.3998106056289253  0.1995658786583616
  0.2014726607957264  0.4002973163488366  0.3997915414195993
  0.1986935504108064  0.6000995697941063  0.9999609721507817
  0.1985328900229239  0.6002395265344531  0.1999800200530490
  0.2002625094599599  0.5994329100789316  0.3998011235134727
  0.2029604906134469  0.6001356854448431  0.5983546263882824
  0.2004944440112038  0.5996716833899686  0.8000747323532784
  0.1990009899684468  0.8002142153328571  0.9992228523739034
  0.2000264769251279  0.8004588978173931  0.1987158721209376
  0.2042490792833398  0.7989139222595000  0.3996600289025178
  0.2002389657444545  0.7995193487419000  0.8000988237142295
  0.3990951565625649  0.0005999676865402  0.0002246696571379
  0.3993638292249256  0.9994868193063581  0.2004884519302409
  0.4010301564281367  0.9995949031994164  0.3993216912147662
  0.3996246653956659  0.0014212737103647  0.6008954522552924
  0.3978529336824333  0.9966785906986559  0.7999353598793223
  0.3984922904312042  0.1990070604441665  0.9987490955617784
  0.4016280550898333  0.2003589806571185  0.3995755320171123
  0.4004425518216073  0.1995371837816584  0.5982858903908537
  0.3952326321893030  0.3981331301449268  0.9973627793762676
  0.3972760051844192  0.4000844772834319  0.1997386792765129
  0.4012416917081262  0.4004406041044145  0.3990507481807535
  0.4011558740203930  0.3986029265144888  0.6013447792687203
  0.3977574227473803  0.4023816370478271  0.7983550602207095
  0.3965335111789358  0.5997938525416958  0.0028012329487066
  0.4040272193056592  0.5993467654529980  0.4018894534867417
  0.4007530435130562  0.5999673902368786  0.5988835175312869
  0.3994268231890648  0.5996083220501792  0.8007952988064546
  0.3999418036641332  0.7990779617197293  0.0002627917924402
  0.3991076398281213  0.7998793264886640  0.2002843631454165
  0.4017627208437413  0.7990141238091845  0.4006462824976576
  0.4018775445485860  0.7992425162477325  0.6000813261781691
  0.3994441088276730  0.7987473518390135  0.7997889969768306
  0.5990246966861854  0.9983152046915700  0.0018032444178247
  0.6000547327973685  0.9991815136680490  0.2002702512450324
  0.6007129999206419  0.9995300999249648  0.3997200518658950
  0.6017471108069551  0.9992632075490037  0.5987103386710230
  0.5976887905252498  0.1973880428099824  0.9980650895117674
  0.6000771076821756  0.1949110679904410  0.1999361793378074
  0.6016959957745787  0.2000851794973356  0.3982611983511960
  0.6006364058871628  0.1988771291048885  0.6019641013733814
  0.6013452781604449  0.2001752193398039  0.7998282762114123
  0.5892487622438720  0.3969129147825481  0.9869037850443987
  0.6003363111793459  0.3998712210479983  0.3993357820628592
  0.6002925366452252  0.3954485414001966  0.5983983573457118
  0.5978976025472812  0.4007150941193876  0.7959604021945532
  0.5954299170528100  0.5990871312330655  0.0092530360442835
  0.5974546056228348  0.6055978169935071  0.2034121753380410
  0.6058491887400423  0.5988637797706745  0.3969694437747464
  0.5927999302806295  0.6001960643195331  0.8222765166766802
  0.5981109122265239  0.8003376777095788  0.9995976498976635
  0.5992849302911912  0.8013773381435216  0.1984008032447905
  0.5983066936202271  0.7995120911356950  0.4015164009822134
  0.5997666248649625  0.8030445454283870  0.6010519515065675
  0.5994800773019426  0.7958632487781957  0.8009445270223959
  0.7987509115342780  0.0004571317266859  0.0015257398359086
  0.8008660327792986  0.9987287174234846  0.2011956507742588
  0.8002141600710809  0.9985895705366804  0.3991987970569494
  0.8016318153615892  0.9990940094690892  0.5985527505638328
  0.8013572401700347  0.0002826466538870  0.7994902002508706
  0.7975999920251620  0.1976586600259712  0.0007204430378436
  0.8022919872677672  0.1995219863475880  0.2012308028880810
  0.7995018877066626  0.2006065009446292  0.4008168786009664
  0.8005830091833331  0.1986663892121451  0.5990110006757320
  0.8014862475806867  0.4038314713926375  0.4023639019152034
  0.8016153833204831  0.4002268922055806  0.6008349277196945
  0.7989811183038504  0.3946929705530760  0.7992399218181198
  0.7889174456318934  0.6031319170900762  0.0117632062781252
  0.8034987233295441  0.5996758956484969  0.2081296778701074
  0.8188142776884175  0.6004763155013854  0.5920581088085306
  0.7957512917139835  0.8012803940750789  0.0001481433726358
  0.7996889904328702  0.8008910640984090  0.1998492010700465
  0.7942384555691906  0.7950966257696229  0.3999346802717196
  0.7997194482258063  0.7992674388040032  0.6023011464975745
  0.7997125325184425  0.8048752082153886  0.8008673538498309
  0.0002528884532324  0.0012029156554272  0.1985382858772745
  0.9997200051723757  0.3948082681801405  0.9995593658509576
  0.2004570583370469  0.1996038350908329  0.5996524318600203
  0.2007135697725595  0.3985955158804734  0.6005359627660625
  0.1989092859425590  0.4000553355025424  0.7995823642572801
  0.2018826420903008  0.8004805970914298  0.6010222828887717
  0.4001979261333037  0.1995154087637653  0.1993501188030971
  0.3987024128867064  0.6002452304207686  0.2016620100282643
  0.7998104518614315  0.1993957628786340  0.7996876618170715
  0.8098522821760538  0.3988664628038974  0.2066104193786461
  0.7998303680456780  0.6005275217648780  0.4036005381911999
