Zr Ti V  Cr W 
 1.0000000000000000
    15.5087483082677728    0.0011241511672532   -0.0011658627052895
     0.0010760835604324   15.5496415199413960    0.0093654870697751
    -0.0010458555872954    0.0094419591705861   15.5080119952370001
 Zr  Ti  V   Cr  W  
  16   2 101   1   4
Direct
  0.9924641471965476  0.2202094177854074  0.6286428584096660
  0.9718548186339738  0.3803364830529962  0.4248146472520822
  0.2129111633954319  0.2168913676468842  0.9664713723126577
  0.2012693361226816  0.3660897778810565  0.7658459328952808
  0.1673036739279949  0.7956876903326230  0.6029977474502074
  0.3872627280414299  0.0435362452574217  0.0016217422662305
  0.4403067714436901  0.9484003541236519  0.2062488213752252
  0.3842745024155612  0.2401205466293771  0.6233327951520022
  0.4330760532274601  0.3957431361155133  0.7885903000264678
  0.4074557677441786  0.8155102438439517  0.0126050359199155
  0.3950586171453623  0.8002457240132229  0.6008309228027986
  0.5957389998327725  0.3799303707407585  0.6101605204464100
  0.6096107627669359  0.7999418338159440  0.1936116616547393
  0.6216660785959101  0.7969511676997335  0.6077003069435453
  0.7708426742752641  0.2123233781322901  0.5870647317101562
  0.7509391416961945  0.3972836407841335  0.4344483446754331
  0.9997290946672502  0.7964635703906512  0.4124004160612003
  0.4013540194510987  0.3899398173257743  0.2005468119339258
  0.9984250812585335  0.0037243895970221  0.9986136886453587
  0.9992470549398723  0.9957188471943992  0.1983730298801066
  0.0034963112738054  0.9986371487420107  0.4001935371420456
  0.9986347168996361  0.0055942703896045  0.5993210814475520
  0.9997060156762092  0.0032224725124381  0.7983806432707286
  0.0044996875113961  0.2038923618378880  0.0062006331230260
  0.0035249500916317  0.2022862681655919  0.1959487949467268
  0.0056645508252651  0.1899405640136523  0.3905717004342306
  0.0066274442617897  0.1996393109343542  0.8217445347061570
  0.0045108188681931  0.4043290278276790  0.0038733899736625
  0.9993418896646912  0.4005502624608974  0.2084193229856688
  0.0079379607595478  0.4168954832346401  0.6200179285148351
  0.0004404888099104  0.4002411553583290  0.8104362874889429
  0.0008407013477517  0.6029424985085278  0.0037194866517285
  0.0032389647799014  0.5988932552066668  0.2052993039932037
  0.9994954843681282  0.5984942636544429  0.4034360254278778
  0.0041201109347595  0.6067199613380200  0.6037310484336533
  0.0037202463794406  0.6018659244743608  0.8056951257384443
  0.9980793887333377  0.8017617338998289  0.0021298971817474
  0.9982034303730442  0.7981737738330583  0.2000172553700388
  0.9807186251158083  0.8031808289758807  0.6107017151143209
  0.0034930717462347  0.8038582615850967  0.8054022238688406
  0.1915860619299032  0.9940220556226383  0.9981135465876405
  0.1962609145297974  0.0015740880388770  0.1968142200090549
  0.1986371324951095  0.0011641725294472  0.5850999613150947
  0.1977208218091193  0.9841844888492581  0.7861283049599387
  0.2033430579647856  0.1978533147243116  0.1882222256182840
  0.2042196481321473  0.1921471256996265  0.3871167620940163
  0.1917268482032135  0.1930608074411441  0.5825577081136651
  0.1893789166435105  0.1733586543509594  0.7709748172367895
  0.2032430429225180  0.4166350563565151  0.9991405149998449
  0.1957016458826786  0.3990920881151039  0.1925019920483459
  0.2013214469851450  0.3929737670029699  0.3828988648995665
  0.1644664747552870  0.3851444138248697  0.5682310789929623
  0.2039269746350314  0.6069819014040032  0.0072528289263503
  0.2029236944013519  0.5924108646070571  0.3952387552518089
  0.2009684848400713  0.5848212128714004  0.6010582822358419
  0.2036656598644858  0.5957944193150270  0.8079927989056561
  0.1978073972078522  0.8024703907711496  0.0013491239758813
  0.1955459233038331  0.7889932698927822  0.1991733296229556
  0.2031363326295813  0.8084872261123577  0.3959207371565329
  0.2034107476807448  0.7936551968423746  0.8059515442478982
  0.3951175870179144  0.0019279822722305  0.4027158376706690
  0.3990636591643821  0.0059736936715914  0.5975331787868581
  0.4009400590904947  0.9967866872211706  0.7954428222445814
  0.4149879778098565  0.2375235520590575  0.9955041929030668
  0.4033956984999764  0.2003962087484668  0.1888241895785349
  0.4011476065282153  0.1968622891998325  0.3858151996422043
  0.3729314059217768  0.1868726449383845  0.8166449804247837
  0.4048696240052559  0.4103751595904911  0.9954282619282611
  0.3958188913870122  0.3976098651265191  0.4044351275293508
  0.3526058897910460  0.4201405112919687  0.5925658274153000
  0.4043759650411001  0.6035766069473927  0.0026535081980770
  0.3957515966739195  0.5885563270695229  0.2084596287545792
  0.4008724231392798  0.5966998771200045  0.5985860777374560
  0.4025295430605695  0.6043403263201833  0.8021790182949275
  0.3930729275529848  0.7655053222404160  0.2073768241807199
  0.4012999327697292  0.7928216534692315  0.3946978988514901
  0.4021780688864846  0.8007412262976469  0.8062331230798522
  0.6069057893456737  0.0066236165359439  0.9952764592390999
  0.6270664489978436  0.0089252916479494  0.1963023365230836
  0.5978401253759007  0.0000278713988082  0.3948924245725079
  0.5994419025911862  0.0028686990484361  0.5964298759483146
  0.5987129843324952  0.0045302668862601  0.7976728961885381
  0.6055637385735232  0.2042868602649321  0.9930580799550841
  0.6055180582420827  0.2021215301171567  0.1935687543814160
  0.5958360468129775  0.1980582480485191  0.3931304796783233
  0.5806847983026580  0.1870612264308108  0.5976942706911166
  0.6157210860930787  0.2052286266841392  0.7922772375159023
  0.6055485067297632  0.4053435516090915  0.9974116705513200
  0.6071158121219422  0.3972026318053563  0.2007797459397587
  0.5685838396703696  0.3975038439069185  0.3979063767954666
  0.6018157478681089  0.6036357426425366  0.0038857385075588
  0.5996126453675725  0.5925073983466856  0.2024608553703475
  0.5920333555990529  0.5962262057822351  0.4029877459847994
  0.5999709785286039  0.5929056038677800  0.6013780220458189
  0.6016118809881202  0.5968245878708606  0.7994133316398785
  0.6116424165876201  0.8019967846492426  0.9921138521108135
  0.5973231118920583  0.8001182429004102  0.4029348552077418
  0.5996111893997949  0.8027361534994550  0.8061755044706146
  0.8028820548810330  0.0043561026522936  0.9955900032512868
  0.8054365606570483  0.9352418421170673  0.1997179778807873
  0.8000158387083047  0.9982774231013600  0.3972745346473820
  0.7983383859483051  0.0025384063955114  0.5946254741062106
  0.8012422301533730  0.0026906274752292  0.7959354123949812
  0.8046738612078862  0.2042846689110684  0.9948572831493618
  0.8027587819613874  0.2042879487899589  0.1949176275006220
  0.8110374835012547  0.1951757918278436  0.3892725291102056
  0.8054971836249231  0.4041334830424074  0.0055467590689595
  0.8040090665851853  0.4012607479462066  0.2021438489434606
  0.8320670654723173  0.4116760847535547  0.6181481603072836
  0.8063074558004601  0.4050159503250580  0.8099047151443159
  0.8027805433749204  0.6055934805011892  0.0053745811019559
  0.8000151139348732  0.5975138475243751  0.2067536174146767
  0.8000062981595114  0.5998180469648600  0.4019180641739710
  0.7990753343725194  0.6027156071401176  0.6011501280642279
  0.8025381038160730  0.6047920241951570  0.8028712596451152
  0.8039114122948503  0.8047099991710748  0.9994414746890619
  0.7932950035370808  0.7994274291637289  0.4018890620182861
  0.8136204939395487  0.8022897173878746  0.6017864104893547
  0.8009996715758099  0.8020901316389134  0.8011048828254973
  0.8101757523092714  0.2025586730728222  0.7985095320578111
  0.2029191511605486  0.9986852043975641  0.3898279034796872
  0.1992893972287041  0.5945730507702949  0.2027760399360241
  0.3981251792548506  0.6004871238046625  0.4051809695363464
  0.6249748479113126  0.4040043236393094  0.8075487654350457
