Ti V  Cr W 
 1.0000000000000000
    15.4171836946855763   -0.0006458025225840    0.0021743795697675
    -0.0006464432342440   15.4108214600062574    0.0048957167363750
     0.0021730867805691    0.0048939939426410   15.4267125679285311
 Ti  V   Cr  W  
  12 102   9   1
Direct
  0.0032681515967157  0.3991835205089339  0.3992327318691262
  0.2069424625155559  0.1988024013743033  0.7937008808499448
  0.2000740776650514  0.6059302532030792  0.0064866606176890
  0.1997038448114833  0.5965491665255352  0.7931769178552736
  0.3989916324466549  0.9965285316090721  0.5995867539498463
  0.3944006824224781  0.2057940039886078  0.6066670699109497
  0.3996184837800099  0.5984036335683839  0.4002633888145646
  0.5972440906563946  0.0013797237690303  0.9955175950613284
  0.5931028929949109  0.3994610427248009  0.4034748332932604
  0.6021135677201204  0.7996038466665146  0.4036622388498606
  0.8038222201510039  0.4016799741245510  0.9912777428233812
  0.7976058671863506  0.5992944270767709  0.7986466630107952
  0.0001126294409625  0.0001447966229983  0.9995903486555138
  0.9997204267140205  0.9997471237877993  0.2002656725132943
  0.9994071757312254  0.9992887514652123  0.4002869894938487
  0.0005394562525869  0.0009200297251912  0.7996371629961450
  0.0019307970787921  0.1993575075817089  0.9988795591080522
  0.9990750156480491  0.2005278712687599  0.1988933457468485
  0.0003124467279565  0.1980385239878051  0.3995029641179169
  0.9990407944110841  0.2013994380888350  0.6003132392012046
  0.9994874212238130  0.1996296926962443  0.7997150213904758
  0.0040647255722615  0.4001423040596532  0.9985217655053538
  0.0003502697706279  0.3999690910721059  0.1959234100094827
  0.0011069165821016  0.3991407102634399  0.8004635846200410
  0.9970909471308380  0.5991216259039311  0.0002452001210042
  0.9982082176330269  0.5982698640087348  0.2011393162951267
  0.9986997601742607  0.6016935565297593  0.4001157750611777
  0.9977059921000080  0.5993923578133196  0.6000726681721019
  0.9998407891029759  0.5986085582871705  0.8001644923486486
  0.0033137651526343  0.7990778816338744  0.9995431298283107
  0.9978162537918379  0.7988921188636362  0.2009538878739956
  0.0004005955907138  0.7996699776862011  0.4019384140662106
  0.0022228913104858  0.7989099917361285  0.6016477229759254
  0.9990371681123268  0.7988722213087514  0.7991318656376912
  0.2001159644715807  0.9973063877144882  0.0003890060627680
  0.2004605331827604  0.9998556329541567  0.2011950293679742
  0.1997968120622682  0.9993496554751795  0.3999395002418140
  0.1979318981746211  0.9993102070086555  0.5999939176862298
  0.2012675399616897  0.9981890971328699  0.7989858011636043
  0.2009309838107322  0.1983929330409845  0.0013413349890770
  0.2006040200201651  0.1996999008427250  0.1998054601913797
  0.1998137054760948  0.1986079936965537  0.3994387076855077
  0.1967852341068670  0.2001858109370582  0.5960556318258835
  0.2005641452592667  0.3984923520385668  0.9999169021757970
  0.2007965474767845  0.3993820290550675  0.2005502113988392
  0.2018253252994286  0.3988380496232478  0.4001344455824207
  0.1981616961151678  0.4004492659530612  0.5996687782092901
  0.2012997121336822  0.3997979589820073  0.7998135721301139
  0.1999223493091045  0.5989483722848784  0.2041411113411521
  0.1970282833487875  0.5994968280944941  0.4003510344256515
  0.1999259342237368  0.5992536478240247  0.5965315208464435
  0.2005910472457072  0.7991322901904407  0.1973294572123705
  0.2004391101140910  0.8003453113936440  0.3999303786332337
  0.1998046905944053  0.7986371274135928  0.6019512350667970
  0.2018872908058691  0.8003679751264487  0.8043988850717015
  0.3989433326776129  0.9995993031158922  0.0012096569521474
  0.4010709331604922  0.9997159633840534  0.2002683011946866
  0.3999446915765391  0.9999988856786944  0.3994877167011409
  0.4021075905392304  0.9984467146955515  0.8025716891202400
  0.3998144150839320  0.1997910993199343  0.0018172915272331
  0.4012339971202441  0.2002075512696838  0.2000133899067785
  0.3997088761747915  0.1992572807579541  0.3983747900185299
  0.4044063742445507  0.1993614900033077  0.8039357308267362
  0.3984250284651036  0.3999052818186895  0.9986124939747719
  0.4008351478045171  0.4003933038772413  0.1990379687005971
  0.3971496875124087  0.3975810233657048  0.4006959083041218
  0.3988866065941342  0.4035170307437220  0.6017324999589940
  0.3996890953112607  0.3994063560715700  0.8013004658393250
  0.4015932031717869  0.5989130014180680  0.0005233009949648
  0.4011604546273250  0.5990501979028277  0.1990564008543966
  0.4000065383291589  0.5996613752769833  0.6020380319166722
  0.4022691124867457  0.5997041059530778  0.8008945404141358
  0.4015671743112982  0.7991592442144602  0.2017916549479912
  0.3980386204567947  0.8007011409330755  0.4009111898148789
  0.3992196998053450  0.7969383982577278  0.6019902915589909
  0.6003275143328592  0.0019447646985933  0.4006499877224342
  0.6024045883228440  0.9993559915968299  0.5994994277529465
  0.6005471234168164  0.0003389458521097  0.7963202301296882
  0.6002792317102348  0.2022027839364603  0.9999686499747386
  0.6010241959722973  0.2002125515258173  0.1993696935101189
  0.5984447416921558  0.1988209087177705  0.4003021513009742
  0.6013612149578013  0.2013991842732157  0.6003784541399115
  0.6010950524520213  0.1998178490452947  0.8000169019603645
  0.5978994175111315  0.4006589678075819  0.9994669824701777
  0.5988343510733771  0.4004141753264356  0.6020857371701990
  0.5991854137687243  0.3996482063572031  0.7993054009909994
  0.6006768076564679  0.5995359069551254  0.0001572235916122
  0.6000612626764865  0.5988165943685230  0.2013571333360572
  0.6016706964080123  0.6009414964173275  0.5993217149914665
  0.5982826850290329  0.5989637881615670  0.8002086134868509
  0.5988993992419815  0.7982914566778544  0.0001668009852316
  0.5999488735923779  0.8005087484931296  0.1980408997790301
  0.5978507728415157  0.7995731890025056  0.6027739535706393
  0.5998553132730765  0.7993255639422285  0.8003239848147244
  0.8020265396570049  0.9996196094338061  0.0002758973158759
  0.7999745474091844  0.9997164447341998  0.4003654056222253
  0.8004250310938058  0.0013002406715388  0.5984009732499260
  0.8002631285460883  0.9987193718183778  0.7981715702681408
  0.7999316876043328  0.1977425202296646  0.0002005509335101
  0.7993318935597595  0.2006753990533760  0.1989104556175014
  0.7998024287252609  0.2004409811095443  0.3987675563233157
  0.8001271911171932  0.1999407106406973  0.5991053056841987
  0.8003176388473663  0.1993668825261186  0.7996315251914478
  0.7982921865267988  0.4006087049082777  0.1999609504171607
  0.7989964188261400  0.3992950242282165  0.3982407913299330
  0.8010157957108179  0.4004453081661075  0.5988706080267238
  0.7992590632339316  0.3967187909456549  0.7966574493795880
  0.7994639833290957  0.6020420840051491  0.0036074814970753
  0.7998174450178487  0.5988637300674858  0.3994728979287110
  0.8000416648411610  0.5990024976532297  0.5965779316078180
  0.8007951425619574  0.8005176025407750  0.0000241580210459
  0.7987304615461078  0.7992639138147966  0.1986991464162881
  0.8008562611912404  0.8000004275511848  0.4660386934608072
  0.8000369562058001  0.8016538057479619  0.8023861972585180
  0.9995016068586399  0.9992065455181496  0.6001877675816807
  0.0002708582649218  0.4001787907675529  0.6025306295149438
  0.3994478668754019  0.7992569367307324  0.0003695887513580
  0.4002801858184078  0.7985575887106520  0.8018264971631333
  0.6006968247495115  0.0002245858721508  0.2023337953746134
  0.5992617042059942  0.3996175426229638  0.1972816026451930
  0.6022026328368469  0.5997950569039561  0.4001003621597744
  0.7995037846470215  0.9999595888736723  0.2002606698648709
  0.7991963413547304  0.6000368346880043  0.2006314522950440
  0.1978527970392995  0.8020030577256895  0.0010926473854753
