Zr Ti V  Cr W 
 1.0000000000000000
    15.4411249493602298   -0.0057725826640909    0.0015034816595225
    -0.0057736157285930   15.4404920489432147    0.0129561230258158
     0.0015050534304008    0.0129519398306557   15.4493068869615229
 Zr  Ti  V   Cr  W  
   2   1 100  10  11
Direct
  0.3888110661446317  0.1965219864978500  0.9980734163130915
  0.7972443135578728  0.3990130857357538  0.2011194008404320
  0.7914482998799066  0.3974628382597919  0.6026436352235837
  0.0025116270107127  0.0020495305189705  0.9990390542157342
  0.9985206020767992  0.9990747315106324  0.2003492394124069
  0.0009681025691888  0.9987991616661198  0.4004340808531972
  0.9995070739224167  0.9977392109476302  0.6006803312443031
  0.0006004843611475  0.0001815624233864  0.8003077875550700
  0.9987516805530969  0.2009508686657229  0.9987700961826275
  0.0045256575615937  0.2008898357937340  0.1982617699767318
  0.9940507906628628  0.2008997208614352  0.4022848175918299
  0.0001072078574816  0.2008831401598711  0.6015414444377197
  0.0021849986118012  0.2012956794405656  0.7993793307462944
  0.0041719790642609  0.4014629380821623  0.1995058027413801
  0.0014679709113072  0.4010876204550073  0.4003235290662666
  0.0031630352096375  0.4041092916328051  0.5998444226438779
  0.0016215007321642  0.3984030945171190  0.8003994979385231
  0.9998873576061210  0.6002869636613358  0.2002363746958753
  0.9991753986029891  0.5994198107386385  0.4036778285449862
  0.9965543538419598  0.5987182520626303  0.7957322633664317
  0.0008174810592236  0.8001745191978593  0.0004070470704318
  0.0007874145598819  0.7988734783487546  0.2007448975644255
  0.9999561165249780  0.7999666149158744  0.3993211545604907
  0.0002682171739570  0.7958786058993804  0.5981766465735381
  0.0004168194587099  0.7996948662169482  0.8003102345751691
  0.1997965402763192  0.0012979852943975  0.4006563782479123
  0.1993644097845834  0.9990282272316006  0.6010301144572955
  0.1988578853546848  0.9981160904878785  0.8006588311015371
  0.2043976207539674  0.9970226022590905  0.9997845703025042
  0.2006256860039208  0.1994004775244504  0.2051053490703124
  0.1979103216943764  0.1984394278597957  0.4020296934750983
  0.1989994361309708  0.1987890602714343  0.6006316758672210
  0.2015922745252792  0.4052155524131956  0.9996324461288474
  0.2005370697564762  0.3989139075151945  0.1971612968970143
  0.2042354764851197  0.3983128412552661  0.3990279967408304
  0.2004112347589631  0.3982976188974444  0.6012772227825905
  0.1997677094685544  0.3990175412075041  0.8028989716806079
  0.2011971411596372  0.6020068856437757  0.9988974793903406
  0.1987869091219921  0.6006106277939357  0.1986446876140078
  0.1986298843908305  0.5997257318311575  0.3979270225456199
  0.1980616610567336  0.5999038490751625  0.6010888041800496
  0.1996822933093194  0.5997320339280583  0.8009499556210659
  0.2020463225267665  0.8003944721949514  0.0011091073630964
  0.2000991580513566  0.7992981226652995  0.1996802037416144
  0.2042547367095633  0.8009959994492132  0.3983713096374664
  0.1997184872642589  0.8005039020934295  0.5998555299329934
  0.2005347064838729  0.7992176198608216  0.8001361721890407
  0.4011452026923871  0.0013886775302903  0.1992138970199183
  0.4000997725922149  0.9987996159419849  0.3998281446180044
  0.3994221694819795  0.9983452065900967  0.5991150143238786
  0.3996899051230441  0.2001377637386199  0.2057016349375735
  0.4015319252125325  0.2027459912129176  0.4047490616308118
  0.3989657851834964  0.4018099290101659  0.2043207478445318
  0.3980716972269793  0.4046254763731788  0.5967798531020875
  0.4015354698139634  0.6018430739514317  0.9977863917424586
  0.4001271632615618  0.6004088811245890  0.4029572002799733
  0.3999811522708498  0.5984934640651300  0.7946128569758935
  0.4040032396066547  0.8015325077089865  0.9992567424645489
  0.3992760158580382  0.8001249866976904  0.2040935593104005
  0.3998198013006208  0.7960852416303423  0.5961599565891408
  0.4001202108962030  0.7986699400309680  0.7972025231067983
  0.5995240065348875  0.9950780054085544  0.9988978107578045
  0.6049534482214606  0.9997711383204051  0.2016643487987640
  0.5985127206319670  0.0000707565716618  0.4002306290956453
  0.6006196792377001  0.9982808396361207  0.6010677373341673
  0.6037582775604355  0.9980972471316361  0.7986004521398330
  0.6001520487092953  0.2010853169390069  0.0010402231394870
  0.5990279524334574  0.1997102611035851  0.2005602196723339
  0.6043303598183145  0.1992242163343305  0.4024849529570822
  0.6002540561965025  0.1983459173844131  0.6014785486890879
  0.5972974279946338  0.2005296933226739  0.7994943604649447
  0.5982959910938966  0.4016174567067463  0.0009066223153274
  0.5943511858482619  0.4015067665162779  0.1993656933680860
  0.5938669161151591  0.4004889375918338  0.3996053175495025
  0.5970436293424904  0.3996151060411068  0.6013974429164922
  0.6003363438314337  0.4001970389566721  0.8015742342946642
  0.6001468183990365  0.6037596505767292  0.9997957223805005
  0.6015394894118191  0.6009011793576033  0.1984722921280821
  0.6018806587476646  0.5997208875867804  0.3992055798362834
  0.5965893114732285  0.6004502322138513  0.6007215617546459
  0.6037322053510364  0.5977481772221974  0.8003243603485473
  0.5996170483199840  0.7989187525132130  0.1969601522560737
  0.5963265320001433  0.7993653924276907  0.3980607125302330
  0.5998029120545900  0.8003314301024919  0.5998789342645789
  0.5994510110230773  0.7988673227753537  0.8025310104586945
  0.8009055232672090  0.9973650928011946  0.6031477957870294
  0.8016054969214195  0.0001023118986494  0.8054047888625949
  0.8003030540795455  0.1974182016141240  0.9979678823807695
  0.8014887747672864  0.1920946308133044  0.2063847880669417
  0.8000587442410757  0.1951204941075192  0.5970025707847202
  0.7994392184935126  0.2001551308563673  0.7972711394954969
  0.7998512640824683  0.3992565664245614  0.9981796701754121
  0.7973158739904918  0.3956870776293299  0.4056216948644595
  0.7996842065010126  0.4017990110656932  0.8030998261187349
  0.8008322477425924  0.6019479028383981  0.9957711397298147
  0.8025315506205428  0.6046527198354784  0.1996025949230718
  0.7991032078650359  0.5992495224967926  0.4017893901704239
  0.8035823431017906  0.6023735371714087  0.6041597651623782
  0.7960469965648415  0.8030962450894501  0.9997811926660186
  0.8004976096942767  0.8035863798510962  0.2016094480769678
  0.7972944507496967  0.7998896670189384  0.3998926045020473
  0.7985133718366453  0.8017231474912794  0.5986858860156026
  0.7997189765845495  0.7959407835515383  0.8003216393702269
  0.0012541816421332  0.4012032135672174  0.9993697052904937
  0.0001580166054712  0.6007331199417161  0.9987619213799966
  0.1990684253193503  0.9996499419554812  0.2007962013101470
  0.2033997364043972  0.1989653784840306  0.7992169154571364
  0.4006070948651137  0.9988304311463129  0.7982894153223598
  0.3997235221134682  0.1996256653393716  0.6021678079541297
  0.3999035634761904  0.4042028770507938  0.0015167832963063
  0.3999385700096573  0.3995010206533402  0.7998561826092402
  0.3995415895398043  0.6010007752719796  0.1992975197503343
  0.7997111598036979  0.9996190774916215  0.3992390476840935
  0.0005571204534244  0.5998452453665504  0.5993281472851373
  0.4024070939290155  0.9967758853720274  0.0016179785218886
  0.4048205721330449  0.1994913151399024  0.7980177469065275
  0.3991926280390143  0.4005247504445709  0.4005135852327816
  0.3984534920450598  0.6012521775999843  0.5988177292893699
  0.4001125989037885  0.8016792345073228  0.3993199144249007
  0.5982328909981328  0.7990337432837659  0.0003640766864876
  0.7992707596645945  0.9994837447818966  0.0029926297521892
  0.8016035531515318  0.9990591108848621  0.1901770431657661
  0.7992241279630884  0.2011892098752411  0.4000901633366785
  0.8006200276246346  0.5992939216227693  0.7992425654442171
