Zr Ti V  Cr
 1.0000000000000000
    15.5054759955686290   -0.0026938295988576    0.0222345561511436
    -0.0026911951043345   15.4937529874400166   -0.0133710719798359
     0.0222461462953622   -0.0133733789628594   15.4975574155639322
 Zr  Ti  V   Cr 
   5   5 111   3
Direct
  0.0105501887116302  0.6124435726575618  0.1982205171192492
  0.3990670558012205  0.3992159745442468  0.5997878439991444
  0.5993851272123932  0.2008614301927749  0.2007524843107179
  0.6094523234582940  0.7896773453083121  0.9875578553541667
  0.7904369429584777  0.7877718991210197  0.8065158884842496
  0.9962479037550594  0.7877550768072583  0.3841490608238668
  0.1861350843434920  0.6000443407445593  0.0159181761627270
  0.2033415808838448  0.7967290081408280  0.3972912295833005
  0.5968854725513196  0.2014848473397034  0.7980448095430384
  0.8147402365728338  0.8491687251138359  0.0131170277799153
  0.0094224156653937  0.0044413309585696  0.9983612590370511
  0.0022079663272505  0.0044554623758284  0.1989782195539291
  0.0005153098787534  0.9993285296359345  0.3997418445512786
  0.9999632813137735  0.9969224856982775  0.5982545830779125
  0.9985568081769790  0.9986221968736518  0.8002126038068638
  0.0014677241749754  0.2020393166133687  0.1993278549676032
  0.9998597866042165  0.1993065407025387  0.4002848263099293
  0.9991278880508958  0.1978685651783338  0.5996019198776613
  0.9995913476214064  0.1998267050622314  0.7984840070104249
  0.9984224418886356  0.4025317640972368  0.9984668992578708
  0.0009660253570329  0.4006697178513187  0.1995517163361870
  0.9995602548749474  0.3984268784978642  0.3990717485442483
  0.9981140519193646  0.3989709018433843  0.6004382022387268
  0.9999697043951064  0.3994945925263244  0.8001557675881070
  0.9906588620260400  0.6038712768051789  0.9930443314552305
  0.0000179902341414  0.5936253116064245  0.4053907992625875
  0.9983977098277480  0.5997835025881242  0.6005053267129234
  0.9973618219253607  0.5991107226253325  0.7982728798194616
  0.0068847041697504  0.8031006043226412  0.9955199587144017
  0.0013418995353149  0.8112218255227370  0.1916901561247152
  0.9991410936022969  0.7990452092400080  0.5999745117445829
  0.0008688606211904  0.7982661661761005  0.7985575521341605
  0.2031784247627340  0.0010248418012139  0.9997740187637300
  0.2017814285355494  0.9992683618563905  0.2007062425226071
  0.2001546200442523  0.0002874649205387  0.3999909663839940
  0.1991476251090395  0.9987520855116655  0.5999405036047976
  0.2001441800356032  0.9991668034402847  0.7989831193549801
  0.2004521755529999  0.2012881270865955  0.9999760213696716
  0.1995904888763442  0.1999742440424281  0.1999564882844117
  0.1999628878528056  0.1998185512383530  0.4000189996830021
  0.1982952176040942  0.1983171198873202  0.5999410400318571
  0.1982033733419675  0.1996240976831734  0.7997449464703231
  0.1982458803577065  0.3987413496112332  0.0009270162895520
  0.2005423400563347  0.4011763530596999  0.2000408497801301
  0.1996572641793746  0.3980935241938941  0.3996272096705282
  0.1947711024394922  0.3988313243257627  0.5996055423821576
  0.1982587748992280  0.4006085053723171  0.8012332874202582
  0.2111025739400023  0.5990645104820183  0.2083089207534566
  0.2012827475219495  0.5958598884131655  0.4031952859280311
  0.1983498099887731  0.5998582599665843  0.6010004158874740
  0.1979262901413688  0.5990444736117750  0.7997496964424561
  0.2026585858966966  0.8017457788909071  0.9992542384257845
  0.2023321304724242  0.7998798363234317  0.1972852422247366
  0.1982995563514775  0.7994633444055721  0.5989155428079405
  0.1993033678957203  0.7982107741661947  0.7995351339970361
  0.4030721074587471  0.9994272534355805  0.9995215607000010
  0.4005460158033617  0.9976550725201667  0.1997876047612749
  0.4013573323275884  0.9991697341366053  0.3990635309283268
  0.3995375037425385  0.9980830609341909  0.5987466816411889
  0.3990904042928706  0.9988630626763714  0.7990721171169715
  0.3989052674016611  0.1999688597509899  0.9992740827066436
  0.3955885787419782  0.1987934684034335  0.1989159697834434
  0.3994989346513075  0.1985962636320042  0.3992768438036485
  0.3988101874572696  0.1945018277015380  0.5998819725744990
  0.3962961331192522  0.1987668881109714  0.8001084379902030
  0.3991787155638453  0.3998883358928046  0.0004844928170005
  0.3993656513212345  0.4006404535120464  0.1979983627208722
  0.4002124351650449  0.3988685613138802  0.3953527037733571
  0.3980113715242802  0.4002692080619265  0.8044744204279402
  0.4010548410899518  0.5997053128217921  0.0015769560062264
  0.4037342961621526  0.6008558557529806  0.2002803890722568
  0.4016498073958779  0.5992014490142691  0.3997071819999172
  0.3996870239230675  0.6039111768769804  0.6002520972582265
  0.3959933857187193  0.5999676244033447  0.8028087603999098
  0.3989776600648371  0.7983413803702555  0.9985383278847305
  0.4023173832272653  0.7993884572771358  0.1978242568055123
  0.4020237777768286  0.7988763348852914  0.3983180653691472
  0.3983281812478690  0.8003600701533657  0.5981262864525793
  0.3951820954502104  0.7994705002213259  0.7984130451390359
  0.5998955405436031  0.0021005272253544  0.9980424944323739
  0.6023032453796773  0.9951713459603516  0.1975063118396178
  0.5998554663878854  0.9980493273046825  0.3996656993937703
  0.5995394247640780  0.9972869837987407  0.7983329396327781
  0.6006000903363079  0.1998542919082233  0.9964415924900708
  0.5997814788608109  0.1987069935046154  0.4041573426101560
  0.6000955188644619  0.1975219543858590  0.5990024883387797
  0.6007378125247423  0.3992948916654906  0.9993604637056797
  0.6001924117493768  0.4042928615053928  0.2000381032649633
  0.6003332856978696  0.3995570263452005  0.3991445688609144
  0.6036249569832743  0.4000397802534517  0.5995307547141413
  0.5982794585227444  0.4019332598670523  0.7990220963414839
  0.5978358800378167  0.5917188034185453  0.9992299748233996
  0.6001710083323695  0.5984824772922379  0.4003465190302212
  0.5994029638984613  0.6001228289819684  0.5991509819190747
  0.5976035123245853  0.5997453359605290  0.7983037017477963
  0.6012994984692327  0.7987304460827708  0.1987999113888785
  0.5983748053293190  0.7992880873366710  0.5945215433712262
  0.5877691232577666  0.7996908426627004  0.7865267313064781
  0.9662744441618949  0.1678084264983482  0.9992685216331300
  0.8009978298677053  0.0032307209369470  0.2087306330414720
  0.8000278982474300  0.9996022170528941  0.4028589391372255
  0.7994670202278610  0.9978776980371065  0.6013402024363816
  0.7988720436340299  0.0010284504017378  0.7983175384612130
  0.8002161222349723  0.2018497758291021  0.0005500026730885
  0.8047955299820612  0.1995552021329033  0.1990815038255764
  0.8001713615620271  0.2006719423868014  0.4011912671554979
  0.7995020802867074  0.1985339009307297  0.6003673428651357
  0.8016279029604310  0.1988002611144291  0.8011654594715478
  0.7997347907500842  0.4013493336024893  0.0003508464756536
  0.8021148356707587  0.4032996650544076  0.1991160496537462
  0.7997066316228908  0.3995104117972177  0.3988094659205889
  0.8002119524417619  0.3984361701929911  0.5995474591938507
  0.7989010068588664  0.3978552180965302  0.8003829340487130
  0.7947445447514290  0.6055320955506528  0.9986721730279563
  0.8001173952441035  0.6030274046624720  0.1981166217459588
  0.7989827118124897  0.5982521750477914  0.4001541952244672
  0.7989041021035990  0.5999941203492628  0.5992309397312647
  0.7975456664446235  0.5906306046923059  0.7977177751090438
  0.8023389476720107  0.8020079695410910  0.2059286666557149
  0.7980744579627916  0.7985841628918275  0.4005986630947883
  0.7993987880506548  0.7996405899456319  0.5975142855306832
  0.5994052953274682  0.9978497666268069  0.5978207857308578
  0.6017807298957357  0.6007012384921367  0.1996772612004337
  0.6000184278509288  0.7986143979335929  0.3976601231974970
