Zr Ti V  Cr W 
 1.0000000000000000
    14.8324582906796856   -0.0185045700740163   -0.0297129300262830
    -0.0187871626291653   14.8100478764196648    0.0847122307100915
    -0.0298376269047005    0.0845975074211262   14.8356769384795424
 Zr  Ti  V   Cr  W  
   2   2 107   6   7
Selective dynamics
Cartesian
  3.4813711657839015  2.8627062158328243  8.4449866492752701   T   T   T
 12.0402277328992984  6.4993013131799922  8.5592741322665304   T   T   T
  1.2086788448432466  8.2737573610445381 11.9319072838601912   T   T   T
 12.2297135524317131  7.6045058445514213 11.9930001953997856   T   T   T
  0.6362508530501424  0.0721452450266402 -0.0499594077675108   T   T   T
  0.0136611051976198  0.8393853866499092  3.8940505489372450   T   T   T
 -0.2984320498153831 -0.9544534297130158  6.5891230012432978   T   T   T
  0.7253049772764791 -0.0144235627829002  8.8606744758263520   T   T   T
  0.1401039654425168  1.3451402523784544 12.7391487604751035   T   T   T
 -1.4838362132414047  4.1502922143097365  0.6569212812077427   T   T   T
 -0.3930452347246898  2.9742847969689765  2.5331364833796681   T   T   T
 -0.4534782227154101  3.5691318848257247  8.2403136508918315   T   T   T
 12.9632735076505377  0.2849786442168717 -0.7220296558319541   T   T   T
  1.0559095614739251  5.0420995155107073  1.2187508415883903   T   T   T
 -0.2180779994316090  6.2732108374799438  4.8289981537142657   T   T   T
  0.9429412213526883  5.5701659399687564  9.1874599868471378   T   T   T
 -0.3895437006527908  5.6822857259681019 11.9690097563548328   T   T   T
  0.1063520291530752  9.1541337871193065  1.1239393898115744   T   T   T
 -1.0489987348266023  8.7092791304854806  3.3135143064590462   T   T   T
  0.1551077140449034  8.3478635509033978  8.2293594342215926   T   T   T
 -1.0018007568656400  9.5033732535816586 -1.5687486617887785   T   T   T
 -0.0818398524469980 11.1122357010792729  3.6944785387797885   T   T   T
  1.4360928660719654 12.0400608562636986  8.3001016006945019   T   T   T
  0.3853287223389753 11.3075731774178561 11.4249161948539211   T   T   T
  3.7508253905641076 -0.6034239399473932  3.4626724225014525   T   T   T
  3.3120718496091199  0.7712793924067961  5.6938407004709308   T   T   T
  3.0576816518235006 -0.2283544836016715  8.5400133172899970   T   T   T
  2.0245298383717438  0.6314806800530115 11.0590979936774190   T   T   T
  3.2064908274247244  2.2198081469360424  0.5978699705614002   T   T   T
  3.3166127290916507  3.4191153325285066  2.7727327577015171   T   T   T
  3.6195759080839842  3.1364300371678979 13.1422081719962769   T   T   T
  2.1496541163014338  5.5809010850949408 -1.0384673654376644   T   T   T
  2.8249116041051590  5.9221691082736809  2.8055037894696335   T   T   T
  2.4004552955090466  6.1086284096097394  5.7424939996416891   T   T   T
  3.5515124995870422  6.0919574465675543  9.6462583582092876   T   T   T
  2.0377983524378069  4.7915309649854159 11.5804843303153184   T   T   T
  3.1877797394494438  8.4547095810940931 -1.2628032622245844   T   T   T
  3.1762416780375595  9.3580715873732814  4.2514258385628381   T   T   T
  3.0625618652504891  8.5426488962628184  6.5338572473470293   T   T   T
  4.3406168731952430  8.5688958535839159  8.9580296907674359   T   T   T
  3.7124620088229419  9.7222952671820302 11.0586375794268506   T   T   T
  3.9213152388623240 12.6202896366176240 -0.3898410812393779   T   T   T
  1.8937110524077727 12.5674376481514471  3.0438023171910435   T   T   T
  3.8571823560215499 10.9132335608079387  6.1700540087388696   T   T   T
  4.4420501964180561 11.2296573046872812  8.6683309117072653   T   T   T
  1.9491033694001676 12.7700720942559229 12.9732774790436949   T   T   T
  5.6713499062349078 -0.7107532463611331  0.1049350092639584   T   T   T
  5.3051277739196774  1.4218926810907251  1.9343513828541010   T   T   T
  5.3723674635386383 -0.4079835727759598  5.2479510337578894   T   T   T
  5.8497412946366021  0.2324928142225213  9.0012791944510937   T   T   T
  5.4911847009908383  0.7852362629511690 12.1224996004750469   T   T   T
  6.9490553546136731  3.1869934854496544  2.6841099554560772   T   T   T
  5.2747027890150022  2.5908232783590388  5.0237576741607555   T   T   T
  6.8141998297822912  2.3696701609846373 10.0626878236189192   T   T   T
  5.9315079357677414  6.3570414603728231  0.8972422372440825   T   T   T
  5.2068209152399039  5.1027085980187570  3.1403084493429634   T   T   T
  6.3611172057192569  6.1542987074544300  5.5717156255953011   T   T   T
  5.4404610283750898  5.9560645130507313  7.9274406096574301   T   T   T
  5.5996730577644742  9.1758685945964640 -0.4248088019813596   T   T   T
  5.4189229343853045  8.5662486918977336  2.5883331909777634   T   T   T
  5.5764946497990318  9.1997717518459510  5.1204510989878766   T   T   T
  6.3056475031709533  9.2716500815334246 10.0244709228458788   T   T   T
  5.6254968611001939 11.3473220826100345  1.2596012405967931   T   T   T
  5.7821622216239943 11.9181572945940779  3.8004511086862691   T   T   T
  6.6686268619333546 12.5147396083770310  8.9661831602947615   T   T   T
  5.9424302716674777 12.8255901928973799 12.0582933687552369   T   T   T
 10.3313937270148539  0.7479565257149028  0.0110892353434754   T   T   T
  8.4573234399198860 -0.6319549363095132  2.7889942767181037   T   T   T
  7.3570402013083882  0.6296155920288071  6.1724195210921380   T   T   T
  8.3915125963720776  0.9128602095870493  8.4078420416823150   T   T   T
  7.5763863450644413  0.3066101362018122 13.6078500183365101   T   T   T
  9.3449663866771591  1.7012865169550406  3.1151080533773303   T   T   T
  8.8101514656455695  2.7274914731438598  5.9268524072726887   T   T   T
  9.2587351619960199  3.5422540419768902  8.9698441933457058   T   T   T
  9.1893733318658786  4.2744573763900666 12.7736978507560917   T   T   T
  8.1259468085736177  5.0665042883253797  0.0329277227876997   T   T   T
  7.6750574704455463  5.4793411404491321  3.5989320193346912   T   T   T
  9.7205672747391656  4.8805460894474013  6.4573594607149696   T   T   T
  8.3208386578775464  6.0601696032616994  9.2232302492190588   T   T   T
  9.4813136694205671  7.1804685395603709 11.4172659114344004   T   T   T
  7.7241850800168788  7.8640220533157335  1.0029719341907666   T   T   T
  9.3593567422933148  9.1371439832084906  2.9416818027238354   T   T   T
  8.3283054168346009  9.3974652486076060  5.7180863783180671   T   T   T
  8.7927080184684350  8.3230163792703120  8.9093091043145254   T   T   T
  8.0571492089551633  8.4974620358260680 13.1365508493477048   T   T   T
  8.7230240970819857 13.3239006627052028  0.4119181683506915   T   T   T
  9.1627875425546588 11.8022415186259426  2.8550024076497165   T   T   T
  8.7568006631708784 12.1911544996209908  5.2860176794231091   T   T   T
  8.4586418797121468 10.7267727264907933  7.8581230311325392   T   T   T
  8.2824325679017488 12.4869418436290367 12.7296742299811267   T   T   T
 11.5751560108796685  0.1928521863910147  2.8391181023242780   T   T   T
 11.7366044495832522  0.1459224263653260  5.7720113072889490   T   T   T
 10.6002425174401242 -0.8528124362888093  8.1532245970213193   T   T   T
 11.7254933491050490  0.6447707444450419 11.3120552788848361   T   T   T
 10.7242231538862587  3.3075325295832547  0.8313545354383562   T   T   T
 11.8791817981968624  2.3547682484786563  4.1317433844831095   T   T   T
 13.2337256157939240  4.0844905393579678  5.6811623498455956   T   T   T
 12.0582989002161920  2.8756229682799606  9.5287195269679579   T   T   T
 11.2206037023510650  2.9863463257295235 11.8000090180463637   T   T   T
 10.0794522643317599  5.3959574932576659  2.4726391493344151   T   T   T
 11.6482135130438067  6.0073122952212668  5.0535227097846125   T   T   T
 11.7892197365948626  5.0809987674033898 13.3980069257258894   T   T   T
 12.6187847522624477  9.0233982164240416  0.8014205015730539   T   T   T
 11.4140649321711809  7.5432261455263712  2.7810284377821728   T   T   T
 11.8720036122330637  8.4511679221288745  5.2041138486152088   T   T   T
 12.9558331599268666  9.8815757867681331  7.0496838345587127   T   T   T
 12.0662015936239442 11.1776531057330164 -0.9686072435902606   T   T   T
 11.7582374219995103 12.5871187264727205  2.7736435485723208   T   T   T
 12.1915584843786391 12.5355364836317253  6.8132226097503423   T   T   T
 11.1809657099948776 11.5112591520574128  8.9991126415982734   T   T   T
 12.5981969165398358 11.0629772805972486 11.3333148416576979   T   T   T
  0.8685736242313988  4.3634444929244909  6.2621352943045325   T   T   T
 -0.1946798159073063 11.5400673387381758  6.2757776023399359   T   T   T
  2.9986032782629537  3.1223635716563889  5.5757360796482907   T   T   T
  4.5827753439992938  4.8998479636087504 12.5112065719509253   T   T   T
  6.7538966700967018 10.3806139766656003 12.1576151657811664   T   T   T
 11.8018044383342335  5.8986854472716903  0.7512415310579486   T   T   T
 -0.6497111101680314  6.8147307862473960 -0.5700711884776490   T   T   T
  0.3787689870953003  8.7341433713750440  5.5794155384414967   T   T   T
  3.1067374063688291  0.3964893333127181 -1.2938965179891169   T   T   T
  5.4585587064621688  3.8240854613923747  0.3834399180368063   T   T   T
  6.6384078098475232  3.1343686638892323 12.8557412353249063   T   T   T
  6.3522523321643982 11.7606736931407418  6.2821896402458286   T   T   T
  8.1988517980305122  2.5087661098633838  0.3590921704186700   T   T   T
