Zr Ti V  Cr W 
 1.0000000000000000
    15.2875008787962088   -0.0002149612413236   -0.0092996089533116
    -0.0002127464105485   15.3021989198499213    0.0047140076138071
    -0.0093053472324169    0.0047111790357960   15.3294306132340701
 Zr  Ti  V   Cr  W  
   3  13  94   2  12
Direct
  0.2122181291249410  0.2069809491848711  0.0155974466246136
  0.4002334680294061  0.4284615658902114  0.2306822465715741
  0.8118637329723704  0.4258529985758460  0.9970181684135984
  0.0008805589275453  0.1971126343458655  0.4311347926826952
  0.0020169055854420  0.4075553627624902  0.4040432880171754
  0.9983225883539575  0.5966117608394229  0.0138220367462153
  0.0009686598121533  0.5934661927931703  0.8004213751866159
  0.1814712708758839  0.1991393566304061  0.6006413644436480
  0.3845366795977699  0.2035799577110649  0.1897207691721262
  0.4011679473549777  0.2036500798954722  0.4091007071927357
  0.4095280743198983  0.8060279497635168  0.1928755667964487
  0.6028036441444425  0.9973703905489357  0.2013992071622159
  0.6082016728280315  0.2018328948680178  0.3924359646341703
  0.6108823612317152  0.5822155365244988  0.9995374569805763
  0.7922367747271917  0.2019298434548727  0.5613099302405160
  0.7897546229002669  0.3943428633487318  0.4008673325627425
  0.0039714819976482  0.0026260789165344  0.9973433736833296
  0.0046057324128359  0.9952939285540143  0.4038627150334456
  0.0013587192838027  0.9987186962807189  0.5998467295381613
  0.0010147481608511  0.0023315737447282  0.7995200998856712
  0.9962072069560802  0.2002303577300951  0.0013897964776170
  0.9987561302123710  0.2011611808609336  0.1968615199028551
  0.9874397549170044  0.1993578144399662  0.6143927513518511
  0.9974932265645425  0.2027065048289317  0.8061353837386260
  0.0105814242960036  0.3947673243826625  0.9996286750776995
  0.9957225611095774  0.3999131799233681  0.2000220511251396
  0.9978065464966737  0.4003542810187549  0.6096019966899414
  0.0014963600737661  0.5985538464020344  0.2074842637790303
  0.9986974726251551  0.6003214559841809  0.4010396290463793
  0.0003796283893944  0.8043693081878578  0.9991608198930799
  0.9989691370400565  0.7951390040158106  0.1992358622854259
  0.9993093515279806  0.7995311548168081  0.4043543359196585
  0.9996419642313584  0.7994117329325852  0.7967683620879114
  0.2019639529561317  0.9974081712812924  0.0022954490752713
  0.1987379826081950  0.0046132059408956  0.2008029968864133
  0.2057687813363217  0.9976840273224996  0.3971305531144123
  0.2017903245662039  0.9974079023649876  0.5995810630851068
  0.2005310303726508  0.0030450997842801  0.8022097131181134
  0.1978228168956578  0.2005569764153126  0.4011794360636332
  0.2010413253262077  0.2015083455765719  0.8046291829455390
  0.2007183698092479  0.4092746426453533  0.0017469855021603
  0.1953339090908104  0.3943393813630928  0.1996109113505674
  0.2045487150806145  0.4005345346492036  0.3987170340005672
  0.1952999370430359  0.4021644540435643  0.6010565303299749
  0.1915260365621036  0.3998359450428397  0.8026741253575600
  0.2039268630695585  0.6014910787903242  0.0035003506053928
  0.2042823105486288  0.5951055613781022  0.2014858731353684
  0.1976938345386050  0.5984004296817874  0.3991741704648190
  0.2002742442591643  0.5990095775658690  0.5975950197189607
  0.1998884707868151  0.5983189030201777  0.8026637706859456
  0.2005045176393057  0.7990297848345912  0.0001975601269445
  0.1956375274397660  0.8018852612667199  0.1983378340321524
  0.2010919219912171  0.7958776119817362  0.3968598106606432
  0.1938697429441331  0.7984574977192109  0.6010265550905137
  0.2022816196590551  0.7976812527276526  0.8017667707257347
  0.4015550543450462  0.9978765570331092  0.0029310535443193
  0.3962984669418924  0.0022550392685465  0.2084155189649436
  0.3988364934498564  0.9943427894924604  0.7925106289258418
  0.4109722599537913  0.1942217274644293  0.9909490579136396
  0.4022960316883405  0.1975301437009381  0.7939848206070151
  0.3970256332510371  0.3917842403153899  0.9950426480641502
  0.3977929589892358  0.4012383030982621  0.4212842292293603
  0.3946378563355492  0.3966528702551445  0.6060552056549044
  0.3948308176747563  0.4004867132980863  0.7997118027688893
  0.4009709533102889  0.5948948902952116  0.0018143077746386
  0.3987312394858997  0.6008612065600635  0.5989237029170877
  0.4000921335826874  0.6018096635677951  0.7988235191550233
  0.4030724367953514  0.7979117877534267  0.9901992354501452
  0.4004783733484963  0.8009202047587827  0.4042317066907872
  0.4007285182529913  0.8006858932168648  0.6019037375268261
  0.6018135854955868  0.0005584576181841  0.9967110161949300
  0.5985310833221653  0.9967795140938275  0.3999356681481075
  0.6002110489064385  0.0007116330871324  0.5979593208067318
  0.6010088261382797  0.0028404888850040  0.7978672843916825
  0.6016330205828423  0.2002816126829317  0.1895476461549305
  0.5988596515842678  0.2010589976891995  0.6025685008168953
  0.5981644919296101  0.3906294275167780  0.9990526005343855
  0.6029156378215741  0.3975633874205752  0.1973408928370186
  0.5888742921453604  0.4007671555801290  0.3967047172907749
  0.5999851094638483  0.3986175852380184  0.6000114014100191
  0.5991673573150900  0.3967722171411683  0.7998314874541944
  0.5965556822550745  0.5955742966427058  0.2026518166575005
  0.6026154004391530  0.5979996037990964  0.3997616595861338
  0.5986362546384144  0.5975601262186629  0.5970884662532696
  0.5983920983630386  0.5960911650070917  0.7965173484080088
  0.6009126001235234  0.7997918571815481  0.0018347575315358
  0.6007874012192819  0.7965930173085848  0.3948390443497576
  0.6020686101044062  0.7984591071732231  0.5988910369377463
  0.5982317062114881  0.7982064609539368  0.8006570421757302
  0.8030489148585654  0.0019929298206751  0.0003685124253473
  0.8018913228577977  0.9980617927292421  0.3961169502719029
  0.7986349377681224  0.9969749198454804  0.5942150486120926
  0.8008177702689265  0.0013788205185289  0.7946859080653281
  0.7975079906947479  0.2031327475274737  0.9979642036952179
  0.8014698751519821  0.2006787060796814  0.1930845212409053
  0.8062702537546467  0.1954296668846107  0.3806920458031856
  0.7959392520164780  0.2008582557152744  0.8021456122786991
  0.7999120688867360  0.3990597313093326  0.2034512806674552
  0.7986912166480167  0.4062480444134544  0.5971818977866193
  0.8003688896795066  0.3983912159272464  0.7909576124284292
  0.8034668648850825  0.6166387384063937  0.9986442345662323
  0.7997812261969343  0.5967538153746882  0.1938774546428318
  0.7993451604266326  0.5989710085957813  0.3956839978859477
  0.7981229636110118  0.6009931421505423  0.5955735640162840
  0.7955470260569178  0.5987201512548697  0.8017986255013957
  0.8004360097305729  0.8072247778842020  0.9973804931230755
  0.7984000566617273  0.7998016354759753  0.1981001196282009
  0.7995811903165496  0.7986626555985818  0.3960230656190682
  0.8024164184297502  0.7991476575724745  0.5988005095716190
  0.7983018002916097  0.7991079826703837  0.7994312355923492
  0.9984953219377437  0.6006150950803679  0.5992245210798923
  0.3992610350653948  0.6024246120532554  0.4003998867093307
  0.8764646277438810  0.9995673538655644  0.1999840219986172
  0.9924359362977467  0.3977688475600185  0.8072956672259849
  0.9986511086895346  0.8002684974849890  0.6008941019163634
  0.1905000024840301  0.2004905328154278  0.2127261895821064
  0.4020640051059338  0.9946902831942595  0.4055964434791601
  0.3976805746316756  0.0020429530938924  0.5951976193812979
  0.4054077550446587  0.1947520502845374  0.6004551616069991
  0.4013826393890002  0.6177449181841040  0.1944486852877507
  0.4000502511643769  0.8000083659592381  0.7965958152308191
  0.6029538667601551  0.1970829556547709  0.9928876848095605
  0.6009449163945985  0.2004082664914469  0.7985920937988432
  0.6059755685090717  0.7903678525668040  0.1974898067282560
