Zr Ti V  Cr W 
 1.0000000000000000
    15.4411249493602298   -0.0057725826640909    0.0015034816595225
    -0.0057736157285930   15.4404920489432147    0.0129561230258158
     0.0015050534304008    0.0129519398306557   15.4493068869615229
 Zr  Ti  V   Cr  W  
   2   1 100  10  11
Direct
  0.4036098802108031  0.1953478388462884  0.9985840797129120
  0.7966203854852280  0.3982215911906363  0.2002171735951491
  0.7926328294687669  0.3953974290978027  0.6044620188238510
  0.9970799175983950  0.0002542029953232  0.9995236060468049
  0.9972751819846681  0.9989549632100434  0.2002338284437205
  0.0008997661841801  0.9989125732668988  0.4003972885367984
  0.9988981035311554  0.9979011286512981  0.6006414063146450
  0.9997348042535508  0.0005069816305034  0.8007399114717820
  0.0005612960853467  0.2005897864686473  0.9993894498048276
  0.0011840602202966  0.2019110649896826  0.2007139230836373
  0.9944185742413575  0.2009650874295866  0.4018327341117146
  0.9999544046469152  0.2010731159420948  0.6009402559938548
  0.0002070740064222  0.2018028210698901  0.7982996230903712
  0.0033775617737233  0.4015195823980389  0.2002643947149555
  0.0013294096302225  0.4015103148404485  0.4010829216553630
  0.0034511850129961  0.4041660325166206  0.6001607649275440
  0.0014413867096826  0.3992622020606091  0.8001681130331796
  0.0010475248252313  0.6016540366609215  0.2003580790071189
  0.9992654552757805  0.5992944612643893  0.4040431571035908
  0.9965054610190738  0.5992141341576239  0.7961260344009998
  0.0027135168591439  0.8006498009966557  0.0020163783134897
  0.9979298134690917  0.7989546733496945  0.2007869873917195
  0.0014967887701161  0.8000251842427811  0.3982266633122404
  0.9997283801714401  0.7961518594697261  0.5986030327470256
  0.0000599604229823  0.7999447647884296  0.8004363327632716
  0.1990707660907614  0.0016510698114998  0.4001817697539292
  0.1987392775946512  0.0001066965050160  0.6016662041293784
  0.1984260129153109  0.9984955272917410  0.7991917307601800
  0.1959485596258542  0.1995526096749251  0.0025035539740687
  0.1986985549182572  0.1978033533192396  0.2016472469917116
  0.1978778845464551  0.1984476335159340  0.4015520749369799
  0.1990006797472545  0.1989981353056754  0.6000352622468061
  0.2011853915654865  0.3996652912321398  0.9995398558628665
  0.2003340859562693  0.3993776857034110  0.1987657437994348
  0.2041677407839208  0.3970188509829594  0.3991936786744305
  0.2006363040526531  0.3979722649349162  0.6012217654098104
  0.2000930494806570  0.3993561979153373  0.8017667802382136
  0.2009276032308691  0.6015027178245342  0.9997687654449882
  0.1989993932886792  0.5977498159521611  0.1977253416752070
  0.1988808897148214  0.6011716012090572  0.3965066146802614
  0.1982083498450641  0.5994718773700749  0.6017649812571582
  0.1994147158038174  0.5985654717030108  0.8017355255902475
  0.2015263834394460  0.7994779701277736  0.9986317147463137
  0.2013309011368715  0.9653135381615314  0.0334884466307813
  0.2036288666399912  0.8014947680352688  0.4003891830959901
  0.1993383959950213  0.8004815669786954  0.6000981703350063
  0.2000691184791514  0.7998833829521036  0.8008481179182962
  0.3997487544245186  0.9993025132014717  0.2000240089447980
  0.3996649373562384  0.9987684793048986  0.3999385569150298
  0.3996060894648433  0.9980461544639538  0.5987267171724737
  0.3998456556692789  0.1989579705280246  0.2061864687751990
  0.4009021900480414  0.2021118368530340  0.4040603922860362
  0.3982551676585587  0.4000848661076734  0.2040168109067134
  0.3987577066901634  0.4042864575519213  0.5964767094283441
  0.4006522447987269  0.6007063345912221  0.9978510701656359
  0.3999940729909210  0.5994991583642002  0.4027443018281997
  0.3999979420845311  0.5985573743234820  0.7949292459379160
  0.4019664567621590  0.8010861740215923  0.0011511215650259
  0.4027156772471436  0.7993012903050914  0.2035288402411009
  0.3993293503709472  0.7958751925316664  0.5958966126870013
  0.3999698254907000  0.7983472671411385  0.7970623767681991
  0.6007922387090355  0.9948623581807005  0.9989454988965230
  0.6052466705395121  0.0010712874236775  0.2012005011473460
  0.5983885280209172  0.0012004550483744  0.4002975912491379
  0.6003764409789409  0.9991375701393779  0.6010724161989246
  0.6027383327058804  0.9992888853998098  0.7989496127422672
  0.6075150721576722  0.2018627484547503  0.0010449367877570
  0.5993560640239278  0.2003668920363050  0.2007153842944761
  0.6045610239438118  0.2002382895537412  0.4025496048120624
  0.6004140162442330  0.1990582694333393  0.6013101170219498
  0.5975942727233073  0.2010771638203620  0.7994846598966918
  0.5992843107771959  0.4025078174797590  0.0007872376332473
  0.5938366814896849  0.4011315606790942  0.1989195358967770
  0.5942183418086608  0.4011454319810037  0.3994431998109692
  0.5972125296294128  0.3997938938347075  0.6015610346444538
  0.6002120935744958  0.4002123356655566  0.8013693307701261
  0.5999531299745215  0.6040340546730396  0.9995376825297370
  0.6024173271119657  0.6006150710924500  0.1985201478547520
  0.6019484016165253  0.6000515126487893  0.3991145564301076
  0.5968465780941499  0.6007306227506156  0.6004318620412804
  0.6039910603931773  0.5980085193938552  0.8000232806791849
  0.5994712436277011  0.7990972883081475  0.1966421712771637
  0.5957137486358635  0.7998499720321791  0.3983349586566790
  0.5997191456445472  0.8011117689278141  0.6001880148788290
  0.5988476444139690  0.7992563625023332  0.8023985102433118
  0.8005085124320120  0.9981947287575894  0.6029117914484764
  0.8004289253027451  0.0014570289022158  0.8043265390580614
  0.8020653067433653  0.1972894099368839  0.9978617474803236
  0.8013297141353301  0.1921693061733259  0.2063294888764190
  0.8001395619105507  0.1956792256685420  0.5966572963564348
  0.7998138121522634  0.2011248744590784  0.7974665823917365
  0.8002160681262130  0.3996681288659683  0.9976979748791985
  0.7975882669031027  0.3963133460385172  0.4052284635456911
  0.7997679669719066  0.4021914685064747  0.8031648797104007
  0.8016236865822656  0.6024714634320980  0.9955943296756999
  0.8027443952483233  0.6041895096301585  0.1994117250568918
  0.7994886273691648  0.5996665841861382  0.4017207438291701
  0.8036539224879350  0.6026449737681078  0.6041851442862745
  0.7945963885141678  0.8038067855536302  0.9993107670630066
  0.7997996606173376  0.8041169533443184  0.2015177857096443
  0.7966880439365591  0.8003234369126242  0.4002600077554719
  0.7985091588730383  0.8022144969868581  0.5986230992700293
  0.7995963719177539  0.7969283449877885  0.8004951174502959
  0.0007913092694591  0.4014263168278115  0.9994505117640434
  0.0004293377915960  0.6007245821037844  0.9989583985297438
  0.1980434294365069  0.9974308224802312  0.2009933044016690
  0.2012476914232038  0.1991586877154162  0.8000346581221340
  0.3998436833233000  0.9978725452681944  0.7984872858327250
  0.3994207443519154  0.1995677642624603  0.6024372009790339
  0.4000770414299674  0.4037292200383961  0.0013826337935925
  0.3998902474164895  0.3992887273675385  0.7995323324208540
  0.3999265253793398  0.6003293597976188  0.1994166499707727
  0.7998201769453118  0.9999701341530374  0.3995604636911100
  0.0006581444485651  0.5999005353665757  0.5993191294622948
  0.4021038412926412  0.9962873321686377  0.0031418627882960
  0.4032635172270606  0.1985718366730847  0.7992679011440810
  0.3995990766080159  0.4001817739831783  0.4004566011288722
  0.3983518813867790  0.6008708119440059  0.5988024229799264
  0.3983583111679567  0.8013666676990630  0.3977044175241508
  0.5976249943080166  0.7995621476964229  0.9994923587166745
  0.7996885552447455  0.0000418526607917  0.0023988052038355
  0.7997681946873432  0.9999816756176112  0.1926033157366677
  0.7994536175814897  0.2020346977506305  0.3999328292314224
  0.8005865347258484  0.5998574283701366  0.7990022759594266
