Zr Ti V  Cr W 
 1.0000000000000000
    12.5621370302832354   -0.0144609796444934   -4.3694671498154918
    -6.3106504411076889   10.8455967951286638   -4.4172525574444723
     0.0645936488402372    0.0530360159305710   13.2904639751343350
 Zr  Ti  V   Cr  W  
  10  14  88  10   2
Direct
  0.1954840470569892  0.5922166577142925  0.1955832215480614
  0.2057710398701355  0.8026036375909448  0.5944148763947031
  0.3906598369476751  0.5887921398249856  0.3987347238713340
  0.3853485956500328  0.8274777939058159  0.4273151439700122
  0.6407253416841791  0.6463352798560450  0.9940370681459669
  0.5931080335255469  0.8003665538983301  0.3975026237792461
  0.7941139277810016  0.1928243254745992  0.1967692070399366
  0.7872835098580490  0.3888051451785899  0.3913386062998551
  0.8039197615151628  0.4018746742269515  0.8003056746317265
  0.8902864116605667  0.7986570355169685  0.9994619054005734
  0.0012400828859360  0.9958056448467316  0.7888216573262580
  0.0011576469722077  0.1095537357639212  0.0101616884306764
  0.0109525061004624  0.4063131341874853  0.4152996346785285
  0.1968832754882721  0.1992864196322792  0.9950057504675029
  0.2007857049239648  0.2002877475296446  0.5994424264260917
  0.1570785818863781  0.3495010223203554  0.1609822422612488
  0.4032793168816660  0.4021989814138333  0.1972078305984014
  0.3935337732580549  0.8022339957872154  0.1914341482371799
  0.5953206319820706  0.0054858355613367  0.2037433257877788
  0.6216739555531866  0.0158321168333332  0.6262668366697465
  0.5859576140017877  0.1917536346779364  0.5870929007807064
  0.5932547463075073  0.4047471362183798  0.9971440953481026
  0.8157600975999376  0.0179621437247950  0.8222145420201438
  0.7981445359410486  0.7942855852704253  0.7968421560709847
  0.0006791045522309  0.0024947637334788  0.2081936852114158
  0.9996341215405582  0.0009690614703275  0.4064164023025182
  0.0054517505748027  0.1915681971292249  0.2082196355110366
  0.0047952542368803  0.1962968906288282  0.4062428321557570
  0.0017006573254995  0.2012530365293720  0.6020912702553930
  0.0121420218099811  0.2134739501162518  0.8064348216752389
  0.9984733746250163  0.3934991565261622  0.9901822892487802
  0.9925227451922480  0.4015205902486770  0.2012924830378833
  0.0087702832772901  0.6085009612091505  0.0074368006990424
  0.9906169875702577  0.5997408118529198  0.2054568611365160
  0.0028523155379878  0.6005509116009596  0.6020096217937650
  0.0023144295617141  0.6008341982748524  0.7956658318963048
  0.0089665086167145  0.9064361978249883  0.0012871187500862
  0.0012433681658532  0.8020274759613019  0.2077651832884514
  0.9990052052947493  0.8031719639730669  0.4057340008981229
  0.9981843658080899  0.8015889157009016  0.6012510040060033
  0.0029791922223505  0.7902168399538705  0.7899050322713558
  0.1981801694062080  0.9952145374684263  0.9940557722456785
  0.1942424726524463  0.0069706412711315  0.1974482285021892
  0.1985801164660570  0.0096446422556288  0.4059326460588467
  0.1981060602142981  0.1995480586606282  0.3961766313858451
  0.1956129106197688  0.1999848863260271  0.7947472708829759
  0.1992457951085659  0.3944052425289247  0.4048814864140061
  0.1952967137112084  0.4023642801065815  0.6022927677023360
  0.1980979614340468  0.4001752722484893  0.7977187423283992
  0.1905815347974429  0.5896668727525523  0.9807681991552879
  0.1756068034836321  0.5888422669600393  0.4032604291456113
  0.2031775477597740  0.5965052228915433  0.6095581792160432
  0.1947163666470870  0.5974785747509732  0.7935662176329510
  0.1989508568531390  0.8004043942027491  0.9949966791180581
  0.1905090403376160  0.8090581114294475  0.1945413489280189
  0.1715626600768315  0.8070416077679236  0.3811936401556431
  0.1973895130201368  0.7998514042120990  0.8024058772973055
  0.3976865757492691  0.0061441921174345  0.0023748905655739
  0.3883339106629372  0.0053462802956934  0.1928481269527601
  0.3847023125982514  0.0110466331065931  0.3833241387654736
  0.3980104073876431  0.0201082912747193  0.6101383526494771
  0.4062506994594249  0.0136263350365522  0.8073278036768823
  0.4006526743164191  0.2076873913314243  0.9994501938636750
  0.3932554655865242  0.1964391667032248  0.1928878399985418
  0.3990884816435539  0.2019566682374359  0.3981263108934158
  0.3994371809341650  0.2056329332211982  0.6021324317265041
  0.3934066631807093  0.2030182666660643  0.7938891151386455
  0.3835646345595923  0.3938718584442970  0.9874209143254891
  0.3947106592127913  0.3839285531611685  0.3979625000945351
  0.3982500417103490  0.3989522481179739  0.6020559899522293
  0.4010501930404681  0.4024311237292257  0.8000394499663593
  0.3954212362032865  0.6015454804386554  0.9887547404228632
  0.3971407719800392  0.5890956752300726  0.1624574977762574
  0.3960002080157994  0.5948525258236450  0.6099547049431355
  0.3971834361592823  0.5989772132747871  0.7988081531502311
  0.3894946616571002  0.8002521175216736  0.9905309389634527
  0.4263100318185954  0.8057335135461330  0.6308388560088038
  0.3979324837999895  0.8006349968641484  0.8049240008853037
  0.5887967934287588  0.9988775869453057  0.9903736481593646
  0.6061008274298282  0.0219661995065906  0.4110826165510231
  0.6022744300053339  0.0091625124370727  0.8140998728635576
  0.5905762468952621  0.1999531924122573  0.9981216973353302
  0.5936220853839660  0.1977804851139772  0.3883841562657183
  0.5942841417455199  0.2033019976346271  0.8057547808665753
  0.5880361552458044  0.3988440660703595  0.3910289591115221
  0.6009929629623161  0.4018547600651894  0.5940857794274447
  0.5887405844327538  0.3997643907814726  0.7895297103395627
  0.6010456659804229  0.5950019206821933  0.1973662104302834
  0.6124518832829348  0.5970210645995135  0.4023093698872440
  0.5956182557705778  0.5901476240231267  0.5984761811700470
  0.5885819765550535  0.8243480978497393  0.0102653375629475
  0.6037033792647972  0.7995355617169547  0.1954410915477884
  0.6094479922227537  0.7980814310020447  0.6199674425230717
  0.5951211691451169  0.7951176017521586  0.8047374472792763
  0.7978851372519341  0.9931146869333414  0.0088633333683156
  0.8057856922208112  0.9954446676971556  0.2124358601759984
  0.8025895397259281  0.0030800756472096  0.4058200935552021
  0.8220958506154377  0.0099346637177249  0.6089064283675713
  0.7965194414354915  0.2051188399299117  0.9969440948918349
  0.8149883350685923  0.1988744286404365  0.4251404272088423
  0.8102167270820887  0.2031564224125077  0.6071280439129072
  0.8135961350039177  0.2096676288615082  0.8135965144721478
  0.8013946697445333  0.4012086546314520  0.0109110648078846
  0.7876404100453100  0.4078954846716475  0.1926393527298668
  0.8114108215313949  0.4050227338347988  0.6002242650594549
  0.8126681995998102  0.5861512234909898  0.0023823172525658
  0.8005417230382013  0.6041550281344074  0.2034320787792732
  0.8002254689070969  0.6015562559464412  0.3957934047991667
  0.8028330450679152  0.5980462225355916  0.5979074754758728
  0.7937481960365431  0.5922823830727063  0.7835270735493461
  0.8143516834295299  0.8134866822639178  0.2266730856350831
  0.8077774656518500  0.8044976463815082  0.4043025488601095
  0.0084854496836427  0.0063195478829770  0.6002865216834592
  0.0043122741624838  0.4016133341499755  0.6100171899705130
  0.0097417253862507  0.4019775852723262  0.7933459996820024
  0.9894239511028723  0.5982332817209407  0.3951473595756334
  0.1994303813751754  0.0081969771164272  0.6025260409840548
  0.2011982392239457  0.1966484069312171  0.2068723281996530
  0.1991911087404076  0.4007644313631539  0.9865204147869246
  0.5713382010659729  0.1971960097557037  0.1818178915004586
  0.5957950560693969  0.3987850656116343  0.1959131790165045
  0.5862777623206306  0.5813118622492183  0.7689259723177766
  0.2048055881364663  0.0034451311242487  0.7992598877450370
  0.8005441992182412  0.7968801527861065  0.5953354020198769
