Zr Ti V  Cr W 
 1.0000000000000000
    15.4529206753737594   -0.0089219929548298    0.0139355642811389
    -0.0089343212131673   15.4627799901828133    0.0191221628419376
     0.0139437596884260    0.0191164033920139   15.4587375740632638
 Zr  Ti  V   Cr  W  
   8   6 108   1   1
Direct
  0.9922008350060374  0.3919768385624607  0.3666327024983996
  0.9979439467844482  0.3837242892429293  0.8111518913157614
  0.0327809671991139  0.5965172767115202  0.0023601116510494
  0.2446592371232423  0.5993603541273201  0.0010096458203105
  0.1984590616159554  0.7978115380826037  0.6029643601006572
  0.3982690908805749  0.2018808388388839  0.4021705831073366
  0.8137050786756144  0.0170532396432803  0.0244219045072810
  0.8089684278091839  0.4002635390092831  0.5967088911810420
  0.9848076163834624  0.1976598703786771  0.9829815254413189
  0.0007216725963971  0.2126203082997366  0.1964718098999711
  0.9954914092736711  0.1798588207881091  0.7864996679041301
  0.1947124959270465  0.1970564765140237  0.0018749763716766
  0.5916310971961102  0.3987397553355534  0.6000014173976694
  0.6128006464974939  0.5991389621891625  0.0009600034286230
  0.0111097347778242  0.9995453463863597  0.9999776103738417
  0.0020242517471207  0.9999413064228442  0.1992191206364923
  0.9984957232475934  0.9981067490935143  0.3983658315957845
  0.0003036334012756  0.9990532219408141  0.6000784922393338
  0.9995534289540172  0.9904803155136015  0.8004366292186391
  0.9967822269199175  0.1929920266514240  0.3990430599906961
  0.9990264054058801  0.2003546731996524  0.5935860534746258
  0.9987391819006129  0.3937821766089080  0.0063555398968040
  0.9989001894221340  0.4115078184286306  0.1726446627184590
  0.0099361394791080  0.3980704190524046  0.6007215785620833
  0.9988936694920703  0.6031312057505103  0.2073531301175310
  0.9983703509490875  0.6006819680748041  0.4026480180934691
  0.9991791295328775  0.5961898187786993  0.5993569331591216
  0.9966066499596445  0.5979929698966284  0.7976040703531839
  0.9983452887907320  0.8028631389756855  0.0017399401227742
  0.9978030111816938  0.8008231218737040  0.2002259852357549
  0.9980211321979491  0.7993556459706099  0.4000916644574218
  0.9943746791988156  0.7995302952258535  0.6004772831580087
  0.9968231209164808  0.7960394824077262  0.8013624523918540
  0.2029526028684968  0.9989535665945124  0.0012621102381327
  0.1993044803850305  0.0009260121622057  0.2010041181839896
  0.1987941746577477  0.9999396583228770  0.4005100650854673
  0.1993489573538430  0.0036837881806642  0.6005831528327239
  0.1984575058544291  0.9995373849333684  0.8023086288136554
  0.1993475977763376  0.1994134874893772  0.2018787717598007
  0.1934681016345089  0.1994878623871327  0.4017975733760434
  0.1986112729176258  0.2002054721705411  0.6002850548372212
  0.1979031749142372  0.1981992504903677  0.7971922185049396
  0.2001439605695569  0.3978352187947636  0.0007881714030109
  0.1958635142489525  0.3995281121545482  0.2032805062753008
  0.2002749514773132  0.3989525591321001  0.4011689021045293
  0.2015183253642124  0.3976345413073943  0.6019464112400879
  0.2020607760123715  0.3969956963882774  0.8023054107706959
  0.1975661432043316  0.6007320684628288  0.2035015407840115
  0.1988532361951514  0.5982224818194182  0.4031193973614730
  0.2006290099525400  0.5935516994697708  0.6013215873099871
  0.1935232011536908  0.5967650880350789  0.8004242597319694
  0.1965160681745042  0.7993027089867998  0.0026944992746292
  0.1988803748318669  0.7998700507520636  0.2008506410660488
  0.1991159210186322  0.7999056316878954  0.3969712545675693
  0.1986687176780560  0.7986591665615598  0.8066489785544627
  0.3995876546458002  0.0001214664696174  0.0010741629610629
  0.3980033279292171  0.9999675456973207  0.1991266528911041
  0.3994643717372170  0.9964922312513667  0.3996694440197010
  0.3990181650941926  0.9996595595261523  0.6026254734112974
  0.3977163111554413  0.9987720467048107  0.8022962568216510
  0.3986869927477404  0.2046963980118952  0.9995089471724855
  0.3988446874447089  0.2003793309553016  0.1965919503986686
  0.3987984658195096  0.2006893177072766  0.6058779862115929
  0.3988015042532619  0.1990439799782144  0.8019908843898802
  0.3955294281114158  0.4013779186831595  0.1950067798596041
  0.3973590112826117  0.4053840164537827  0.3967578232251744
  0.3968413103614561  0.4006161534567792  0.6045107956892986
  0.3971324944523743  0.4001886018715357  0.8068163418065093
  0.4309428565252507  0.5944741803412258  0.0005605229128343
  0.3991038594372998  0.6005552056404828  0.2014297027601581
  0.3993600312695083  0.6007730877090873  0.4021312115410178
  0.3996057689702326  0.5983818566210299  0.6024970118076298
  0.3994715243409013  0.5997214752444731  0.8016047085722778
  0.3999069219203246  0.7964272462312619  0.0016344243208575
  0.3993850344730210  0.8004106261056073  0.1995822508191051
  0.3997981737126599  0.7982612863219428  0.4001264344650202
  0.4034167467186710  0.7988154626499157  0.6021120035031642
  0.3987097968061971  0.7986274812982321  0.8027931897073385
  0.5993377500824331  0.0022302897086082  0.9982479892358390
  0.7032169868763305  0.0025820170507938  0.2017044662428767
  0.6010901351419631  0.0000063557279280  0.3999149185918439
  0.5992796914624595  0.9998863111982597  0.6001984010483348
  0.5992748368924928  0.0005238799248379  0.8005234093879380
  0.5966675309979034  0.1993233822398837  0.9991563054248374
  0.5990031027297468  0.2018558255259182  0.2009443772876097
  0.6030264124330151  0.1995062686849613  0.3992335981475603
  0.6001463922405068  0.1981145063280599  0.6001966217191962
  0.5980681964718760  0.1992347816505834  0.7977208927455669
  0.5940621037919324  0.3963295689825198  0.0014243504121079
  0.5966768468671413  0.4013506694084137  0.1984711558782334
  0.5958601109060677  0.4005152735988846  0.3964174837521497
  0.5961591206126426  0.3998717641362791  0.8034221020713815
  0.6003881262351769  0.6012982279715896  0.2047965001689165
  0.5995807519920142  0.6010904641886898  0.4020027947721966
  0.6001372649802100  0.6019764350782043  0.5997671759129319
  0.5999699985811525  0.6005634059986391  0.7962629851089644
  0.6006416691280392  0.8057662905865290  0.0013463615850713
  0.5994008651785492  0.8006793890275770  0.2006062837461791
  0.5993703925603633  0.8018024580204871  0.3994786781142762
  0.6000715098340680  0.8011746330003251  0.6003242783916052
  0.5986943340202032  0.7999892300289200  0.8011519578632718
  0.7997847538747378  0.0011547642123461  0.4011525594399709
  0.8005109898464801  0.9999227811613405  0.6004503803105327
  0.7995603365539066  0.9996144192075540  0.8044974563447338
  0.7905616737660814  0.2117512126486024  0.9980510453908034
  0.7954139200397981  0.2039642450428319  0.1970914259656587
  0.7998993270133494  0.2003933994297455  0.3978001983741196
  0.8000562907125847  0.1971207761399764  0.5991010516394526
  0.7944988004867928  0.2008544989415052  0.7987047446378102
  0.7963393635812368  0.4056395936368725  0.0001468447335242
  0.7986652570250661  0.4035798216292606  0.1975783660547815
  0.7897457371277030  0.4010033255361734  0.3936159673289731
  0.7913552906863606  0.4020867232516341  0.8034209843503078
  0.8084942813651570  0.6026778286486562  0.9999969622723920
  0.7995362885083647  0.6032724921749744  0.2010120641913016
  0.7988777530624555  0.5998008497440387  0.4017802829200904
  0.8000162751819526  0.6044640104520613  0.5998971506177777
  0.7993054914632497  0.6001377187644290  0.7993432466335425
  0.8006170452013325  0.8031564783662253  0.9996508931169257
  0.7979561528247636  0.8017606930586473  0.1988472514113628
  0.7986804930772887  0.8010204300900543  0.6009732234000119
  0.7972298681606309  0.8008079476539438  0.8019935901052819
  0.7983855591283480  0.8013273449783255  0.3996812868181026
  0.3956845834777086  0.4019753500377833  0.0016133658891913
