Zr Ti V  Cr W 
 1.0000000000000000
    15.3161674756862691   -0.0038639056753981   -0.0081742366427040
    -0.0038625530149281   15.3180417040563182   -0.0084288121243241
    -0.0081714294601317   -0.0084252347079361   15.3251398317997438
 Zr  Ti  V   Cr  W  
   1   2 101   1  19
Direct
  0.0025982144859507  0.4047050606838087  0.6033072178136067
  0.4072382927948934  0.9894681603041123  0.3976427346442040
  0.3972973023462137  0.7986120798589160  0.6161677430656273
  0.9999163418776719  0.0014803639685544  0.9990132086008493
  0.0000390807302921  0.0005636282595807  0.2009690471237809
  0.9971068858790599  0.0055720245581558  0.3993646516406487
  0.0022413149353343  0.9982489651399374  0.5991190158028146
  0.9995481828841080  0.0017137901442432  0.7994532739090322
  0.9985621872468574  0.2034595600398282  0.9993732215001948
  0.0037114209983866  0.2017492097888668  0.2036072666602112
  0.9974882990923162  0.1973497015705859  0.5947327326471059
  0.9992028876853538  0.2031116415055154  0.7978672436421949
  0.9969614217944398  0.4025275343648648  0.1949437034584866
  0.9979374892978973  0.3972550251172201  0.3947572456481510
  0.9954773813294248  0.4049249610456835  0.8073348441451912
  0.0008703884835377  0.5991848628095947  0.9967677094336310
  0.0055060486713245  0.6005851683817428  0.2019066262352580
  0.0009554235393201  0.5994741012104032  0.4018127617914197
  0.0047487635592078  0.6094072749545465  0.6014987278963104
  0.9965300946603191  0.8009129749712272  0.9988431493612211
  0.9999698520448770  0.8003912018924699  0.2000134352369523
  0.9970916614111330  0.8014141124967106  0.4041492356509918
  0.9953288479424853  0.7953778308953198  0.7975507857458437
  0.1982356485035940  0.0010176659836329  0.0003070504722709
  0.2009197890011956  0.0052098196655310  0.2026223705221976
  0.2004659497188483  0.9998370935684660  0.4031067995641169
  0.1990388970796321  0.0026080414209685  0.7969553637667305
  0.1999935459244184  0.2007671061213371  0.0026634596128794
  0.1979726176551231  0.1999430595553588  0.3958161392731597
  0.2022392536946266  0.1972539859730373  0.6009550442410068
  0.2013837695168482  0.1999811121785370  0.8000224256014744
  0.1954784521934363  0.4002520867954132  0.0022490959161392
  0.2033717113873335  0.4005751729085212  0.1979986453652974
  0.1987419332474904  0.3997457234751768  0.3986136865325660
  0.2059562130441645  0.3976692790546502  0.5968947951464011
  0.3315702051096189  0.4018762234911599  0.9316556776406459
  0.2017329568042143  0.6001952876328502  0.0049671415854711
  0.2044538089092769  0.6003762686078890  0.3970741503874841
  0.2068187568089515  0.6024186700886391  0.5986442738645273
  0.1974271060994622  0.6024114685264631  0.7998542495128446
  0.2003737564680868  0.8036448363490799  0.0009781187960611
  0.1994566085761445  0.7976777693247091  0.1990419823892576
  0.1985301215220587  0.8024066377069596  0.3992249964021500
  0.1937525962410055  0.8062757047678835  0.6008250690599349
  0.2027256923770630  0.8007570569433795  0.8019785969820302
  0.3993511585602839  0.9963519633180350  0.9996270300581557
  0.3997499913800142  0.9983904161253231  0.1973289985433956
  0.3944702798977586  0.0000479348816484  0.6023512201039224
  0.4002627265189412  0.9945570542986041  0.7995937727559667
  0.3992942599103176  0.1964198136679562  0.9989157428242497
  0.3971127086885365  0.2020946094540861  0.1988928029350847
  0.3985473501067152  0.2032850099919670  0.4010541840652938
  0.4019800145431880  0.2002602340106902  0.5997345668308193
  0.4025516551525603  0.2019980187244458  0.8020647006422312
  0.4046472777318948  0.4014455960652688  0.1994677016109168
  0.4003404647275121  0.4035068761806042  0.4003844062196194
  0.4001007633167334  0.4021897600244539  0.6026039714334916
  0.4006616083484046  0.4021015766200629  0.8021143690088308
  0.4000029617637120  0.6048917282015119  0.9994922972125626
  0.4004830979689340  0.6002023702689532  0.2047515982243643
  0.3991576158695115  0.6015806482155724  0.7987723365749620
  0.4000677146469681  0.7997001354410501  0.1938878485959979
  0.3993407894930707  0.7946059009844705  0.3986993902306365
  0.5989033703884915  0.0016546540103290  0.0025301659303692
  0.5976079498641099  0.0035671896854399  0.2058869850698049
  0.5959707482779825  0.0048398652385520  0.5936044715227575
  0.5986387174421428  0.0037835761247763  0.7973855692185737
  0.5984885043680797  0.1998088550649176  0.9974292179616056
  0.5987659910368391  0.2038815165660210  0.2019011396018204
  0.5983979248396095  0.1969955277851690  0.4039042784804278
  0.6024598171910482  0.3992575785440464  0.0035305719698202
  0.6024744674683635  0.3958836466660870  0.3960282715248279
  0.5991850907516550  0.3980521356675586  0.5976675024031948
  0.5998797452189863  0.3968707858027905  0.8044117645240438
  0.5979558303855280  0.5978869112125678  0.0052081232610159
  0.5953391315756730  0.5992451838920134  0.4005933521643116
  0.6013324697262521  0.5960680266818430  0.7936899008479074
  0.6004312761923830  0.8009031653140974  0.0004345865453279
  0.5997064385959472  0.7944992114089520  0.1989246661258632
  0.6006236230801979  0.8027261458596980  0.4005968930141243
  0.6029322317265242  0.7955066331220396  0.6011323559511768
  0.6009068527104221  0.8006598832628310  0.7993104260136028
  0.7988173946862543  0.9967514606991462  0.0011910153185373
  0.7991552166899805  0.9997609675885415  0.1990564093083995
  0.7976486359013405  0.9980353285582936  0.3985978752705489
  0.7991549669939844  0.9992656761823097  0.5990573922485033
  0.7986443707051786  0.9964301395686226  0.7989908964345975
  0.8001077206394008  0.1969036588456344  0.9989804841819675
  0.7987665442904099  0.1993359838301637  0.1978854468583875
  0.7962147939619350  0.1994989747838585  0.6007113102420024
  0.7958982228612802  0.1984821337757817  0.7999358021303739
  0.8028990452561366  0.4011361151183133  0.0005192727450829
  0.7974887502068828  0.4013655123058478  0.1981318770693583
  0.8013414240819227  0.4014531727559477  0.3981772203500726
  0.7954504383105913  0.4022053139009152  0.5998043000938474
  0.7988193482563425  0.4015032677850365  0.8020926433696299
  0.7984134621937129  0.6058134949107470  0.0014000170729829
  0.7947373159305938  0.6023304391988694  0.2017271589429665
  0.7998881238185782  0.6020666539755246  0.4004860638334227
  0.7922212241023752  0.6018722249656780  0.5986115754551400
  0.8018015192295169  0.6040411703005278  0.7996375452723745
  0.7993003391936370  0.8000521355226324  0.1952864181594278
  0.8012306930533825  0.8005703714244182  0.3984060865474902
  0.8014040503615191  0.8020729759154774  0.6050466677571968
  0.8003704514795810  0.1997541847685036  0.3993604543621722
  0.0018565683974230  0.2021289896158527  0.4000159803534283
  0.9985260906412008  0.4014840423712528  0.0000131414432390
  0.0019980191298763  0.5990095041113179  0.7974310335461039
  0.9981308412993222  0.8032201273371213  0.6014230362510954
  0.1988825899652651  0.0018357252410430  0.5987685127044936
  0.2011829256861175  0.2022170088449461  0.2001775270265934
  0.2030322321920443  0.5993980909527774  0.2029829251047502
  0.3992375815570972  0.6008240436066626  0.4044927016731776
  0.4043987951689291  0.5972851757980806  0.5989941695986655
  0.4010470463470819  0.8002512539068245  0.9955721288887950
  0.4017754866302320  0.7982279935136549  0.8083987166096345
  0.6033551399968655  0.9997749825613358  0.4004055094046698
  0.5980311279182984  0.2020434651176837  0.6028908409257129
  0.5996648491422578  0.1998332144120908  0.7969586867966486
  0.6012324174842754  0.4007198843378220  0.2003201221436791
  0.5972797264293627  0.5957193975283577  0.2049289266499402
  0.5949236056471319  0.5970813215555438  0.5964880150857521
  0.7986348497859214  0.8018787611778924  0.9970787711096283
  0.7989458453367004  0.8005834202838403  0.8040326753777338
