Zr Ti V  Cr W 
 1.0000000000000000
    14.9054837012151964   -0.0402404997204112    0.0718540583541015
    -0.0397279105116604   14.7165658554643031    0.0446938898642095
     0.0716206134506689    0.0445019228387803   14.8114908105099339
 Zr  Ti  V   Cr  W  
   3   8 101   5   7
Selective dynamics
Cartesian
  0.9456261394091654 -0.2288109070824076  1.3361230591170716   T   T   T
 -0.4872909417679708  0.9222047812452396  8.7312522783083892   T   T   T
 -0.0320647445750348  6.2344418970231521 -0.1935449267150794   T   T   T
 -0.2284636553311233  9.0881510066754956  5.7591820159483689   T   T   T
  3.0130061787063722  2.3018591425982775  2.9142762743050210   T   T   T
  3.0483084760000012  4.9772520839726306  5.0796097399087277   T   T   T
  3.5296615779484828  8.7497134931147293 11.0408481896984689   T   T   T
  5.8555162129795804  5.3749106451568611  3.2574475461657486   T   T   T
  6.2536144252195083  9.7838737452269360  8.6142200640908424   T   T   T
 11.2380374258601279  5.3829023492296306  8.7234061313704316   T   T   T
 12.0434413849686983 11.7372527782484930 12.0351829922736400   T   T   T
 -0.4116287903554231 -0.8269252120211696  3.8709096718922313   T   T   T
  0.5776499803836581 -0.3543707820473256  6.2307120936426177   T   T   T
 -0.3238848349762403  0.1018526362543277 12.6100882223187511   T   T   T
 -0.5573545076500144  2.5404132377822068 -0.6078950493899564   T   T   T
  0.0801684620209309  3.0411726642314552  1.6254692293737196   T   T   T
 -1.3443972177165731  3.5135593717826641  6.9901013182480227   T   T   T
  0.4856957091380677  3.0744073463792274 11.5488079757220650   T   T   T
 -0.3244159591562699  6.5505003373070974  3.5960154924708703   T   T   T
 -0.2021014343490854  5.7617903591814130  6.6382719729592994   T   T   T
  0.7728133363247489  6.6111913230296295  8.5963331386657575   T   T   T
  1.0177320534549579  5.6064540655321462 10.9863971536697420   T   T   T
 -0.4573047534539947  8.9170478316398363  2.4927265320685819   T   T   T
  0.9843936397386014  9.0126171201254976  8.9968814724756445   T   T   T
  0.4517689307489329  9.1509021386230902 12.1770060938087195   T   T   T
 -0.5763234883177808 11.7155695036685064  0.0258304554144578   T   T   T
  0.1672634059742642 11.6588892436742295  3.3537808820988051   T   T   T
 -0.8979422186046581 12.1937719423980191  6.8953932052331384   T   T   T
 -0.3814744343816353 11.5009974872137342  9.1217930486162029   T   T   T
  0.0003972560648139 12.8829780283303297 11.1351645876734224   T   T   T
  4.5932945409999215 -0.5325544999338253  1.5680940819023352   T   T   T
  4.1169914697354173  0.1497853671372969  8.6650918631551228   T   T   T
  2.6752391215654061  1.9978393673312467 -1.0587730125285593   T   T   T
  1.5730101978307198  1.6397487472952403  5.1162184807600539   T   T   T
  2.1958043658516977  3.0752965460223303  8.6471953115005409   T   T   T
  4.3341263660754450  3.5253738962081740 11.6411155680962040   T   T   T
  3.6295531245389769  5.6754699999896561  0.2490531588569816   T   T   T
  2.5718551376248140  6.4627318697359151  2.3526289899862216   T   T   T
  4.2471426945853494  5.9179397744265207  9.1262460762181945   T   T   T
  3.1487179988750280  5.3739608567333468 12.8397527353282985   T   T   T
  2.5868909283955266  8.7752419345607997 -0.2623562548842032   T   T   T
  2.9005201192398511  8.9422700652055536  3.6309678694969074   T   T   T
  3.3922652766607944 10.1175309825434550  5.9523676127749372   T   T   T
  3.2476438145613531  8.2791706343809484  7.6690068497372641   T   T   T
  3.6335747025755123 13.0131662043115739 -0.7110829085194422   T   T   T
  2.9370357447062854 11.8177099201345701  1.5980193642113394   T   T   T
  2.3880047300077405 12.2849827246194465  6.3395569298275820   T   T   T
  3.8457403773586138 12.0343475583994035  9.4193183303927093   T   T   T
  2.8754215775280700 12.0164896802111478 12.1013042479279527   T   T   T
  5.7598557857557360 -0.2984465980086119 -0.9076414951180206   T   T   T
  5.1655235580888617 -0.2756365071547267  4.3713165332365662   T   T   T
  5.5436146473337784  0.5108456054381619  6.8382253805020836   T   T   T
  6.9646213653679592  1.0834658458321003  9.1042379088374279   T   T   T
  6.3087844229738934  2.1581626124394799  0.4153744614250052   T   T   T
  7.2323709428143834  1.3338173022270252  2.9924374400503826   T   T   T
  5.1676298675792811  3.4138566301325390  6.4342942208135980   T   T   T
  5.0791248239594973  2.4195561018194911  9.7305761783499793   T   T   T
  6.8667507510041679  2.2709519484358580 12.2153407400620146   T   T   T
  6.0260662549699164  4.8132474068743711 -0.8293264928199253   T   T   T
  6.5308696664104922  6.5625883056411443  6.7019598972914070   T   T   T
  7.1443985647580712  4.2109771650622472  9.1210255417781987   T   T   T
  5.8849735957023368  8.6768575519276290 -0.6614884084903652   T   T   T
  6.7501765874787027  8.4190342791613180  2.9793458072615913   T   T   T
  5.3147198139854295  8.3485541894506188  5.2855756012385786   T   T   T
  7.0552634717714637  8.0219102736510166 11.9331759720204342   T   T   T
  5.6085902004504966 11.9051708254350981  0.7141517538850841   T   T   T
  4.4957688058701644 11.7537311705047802  3.8038858797150419   T   T   T
  6.3118809178910462 11.9958423096739182  6.4241377540550957   T   T   T
  6.3936708118451184 11.5607277331822402 11.4485869690350519   T   T   T
  9.5291749301446398 -0.5859957857425050  3.1065190384701258   T   T   T
  7.5077561495217244  0.0850663627347635  5.3274950868762803   T   T   T
  8.7486077369925397 -0.4861697398273017  7.9356323342372637   T   T   T
  9.7046727500387515 -0.1825757197058183 11.6600737058433754   T   T   T
  8.9498196375956898  1.1646148689321134  0.2560458700748003   T   T   T
  9.1243272278820307  3.1864310129021978  2.8175355594450853   T   T   T
  8.8539688137608277  2.3743066094339280  5.4605796356735716   T   T   T
  9.5242478568919378  2.6610797776501363  9.5040620143489729   T   T   T
 10.3519716919693501  2.6855136555479655 13.2379516327494233   T   T   T
  8.2138460228417145  4.4871474803646043  0.7594257967591884   T   T   T
  9.6549740521148539  7.0838439223488665  3.2135418915617784   T   T   T
  8.3191071553776190  4.7828982784945149  6.1490178773079593   T   T   T
  8.5405815250309427  6.3778711872855443  8.4271966142806018   T   T   T
  9.0121171363312875  5.4980577410400624 11.6129228452118607   T   T   T
  8.7291207990362292  7.6385535539138534  0.1001742125670587   T   T   T
  9.6871399468858836 10.1031683113206334  2.3782451716093753   T   T   T
  8.4500874129462602  9.4325561216301494  5.8554171753682054   T   T   T
  9.7321520366280545  8.6919184316971325  9.2757679767243193   T   T   T
  9.2934761483612860  9.7798416633701581 11.5536866013843937   T   T   T
  8.7152534211549941 11.0217077093520768 -0.5342904937994550   T   T   T
  8.0137911196106426 12.0143677648574148  3.3934334703313400   T   T   T
  8.6874774622438444 11.6419503175874990  8.6656384307613568   T   T   T
  8.9885716881519855 13.0375182767722659 12.3962935941490073   T   T   T
 11.5942267202938201  0.1504833244234644 -1.3518400042713610   T   T   T
 12.1382837638449104  0.4610491603418247  2.5985465138064083   T   T   T
 11.8645704935989666  0.8468723295848779  6.2894536140676749   T   T   T
 11.7268150448396646 -0.5693504886819014  9.4003417960331088   T   T   T
 11.2756560339807752  2.6997645278244993  1.0094268814430598   T   T   T
 11.6556812022408245  3.9449807286156560  3.6283808889843701   T   T   T
 11.7872012541464457  2.7269526427521891  8.8466800336387905   T   T   T
 12.2693783045839666  3.4342983636392459 11.3623734873675506   T   T   T
 11.5328632397365158  5.1208292277365590  0.5767949158674645   T   T   T
 12.5459740060048759  5.9508133372130816  5.4514323058061427   T   T   T
 12.7856929600923692  6.2107019937652304 12.1290863035614507   T   T   T
 12.1438699901018605  9.0485017432796244 -0.5158289189869705   T   T   T
 12.0058091821785329  9.2701831753817601  3.6781221736265999   T   T   T
 11.7480129294229947  8.9859003516517753  7.6407019422357205   T   T   T
 13.4958864742797005  7.6877746340341639  9.2692147374825691   T   T   T
 11.5576231481995233  8.3386605803504104 11.1305100665595891   T   T   T
 10.6926242088778825 12.4266283913408255  0.4303231164320665   T   T   T
 11.1523470482273694 12.2177732742556149  3.7927802719252544   T   T   T
 11.5908096872939517 11.2405774135396257  5.9996081958064096   T   T   T
 10.8262192763226999 12.0319771464871454  7.9648523378383347   T   T   T
  0.4054634649208262  9.7279381371618214  0.3684117484509124   T   T   T
  3.1562110133430243  0.1284500294844782  6.1177959350967939   T   T   T
  2.8695398142928328  0.6917433566196569 10.5020441449788819   T   T   T
  6.1353694061406943  6.1003673264727887 10.6216383709592908   T   T   T
 12.1880962536993955  6.6188015298484908  2.9143926567606666   T   T   T
 -0.7939083444766438  4.3457124737288284  9.4944842423985616   T   T   T
  2.4822764417868854 -0.8336763764598956  3.8187952551798774   T   T   T
  5.2221334879543644 -0.3220000805326788 11.1224253181637120   T   T   T
  6.4941992320416997 13.1048254732177814  8.9099050732342668   T   T   T
  8.1267900977609422 -1.4650664671778280  0.4174920330375146   T   T   T
  9.0974897501282666 12.6873533490411479  5.7826125602674043   T   T   T
 10.8100630916382467  3.8356506443244833  6.3289192385493704   T   T   T
