Zr Ti V  Cr W 
 1.0000000000000000
    15.3592500655101816    0.2090722085946678   -0.1628517118153539
     0.2097408612977794   15.1038667732587850   -0.0298563028195080
    -0.1620794800652903   -0.0288167819928446   15.1474155724206820
 Zr  Ti  V   Cr  W  
   8  15  93   5   3
Selective dynamics
Cartesian
  3.0001860299451066  2.2885450004611427 15.5768794589288255   F   F   F
  2.9937915113855404  2.9746847488983876  5.7995253117900978   F   F   F
  3.2150760596126302  2.9844192923653385 11.6477430200870256   F   F   F
  5.4717221620473833 12.0574354901406853  2.8132805309083584   F   F   F
  8.5404419347238392  0.6396401699820857  8.9776417475368397   F   F   F
  9.1081447727025076  5.7733619056631653  2.4260830625529546   F   F   F
  9.9533160935501694  6.2199515338502458  8.9283781186932245   F   F   F
 12.1051891356651069  6.3668968500794820 11.6737066868871224   F   F   F
  2.9488970223986883  6.6835139804852055 14.9247231731622616   F   F   F
  3.0131601322780677  8.8709291409511994  2.8973542057545867   F   F   F
  2.9632011889196894  9.3488880186907224 12.4904762877858442   F   F   F
  2.0705601696071905 12.4516874657430758  3.6278232622174356   F   F   F
  3.2855177534592186 11.8782705779529945  9.8798760349717920   F   F   F
  5.5657381543799467 14.6954629784990178 15.5189840213992003   F   F   F
  6.7139610417397630  4.0840865553233270  5.4797145913994623   F   F   F
  5.5581996752052278  6.3630704904623361  2.9417302474847435   F   F   F
  5.3805572754460211  9.4180064242950969 15.3138652167672706   F   F   F
  5.6562130251479772 11.9562723580100645 12.7724674371263447   F   F   F
 10.1751137797076492 14.2793433927801789  5.5417961487661733   F   F   F
  9.3387433208221857 15.3366809000636319 12.5760478649619927   F   F   F
  9.1229465700568166  8.9288997959522067 15.3391782156871308   F   F   F
 12.4528096410361488  0.1218284466431088 -0.4474803142425771   F   F   F
 13.2878077201785274  5.4087168103117520  2.6816891703021914   F   F   F
  0.6899503165906105 -0.5367200126482043 14.6612851483325812   F   F   F
 16.0754240302524281 15.4346310282617800  5.7083613077895512   F   F   F
 -0.6999850669122729 15.5188321374459370  9.5971970211211346   F   F   F
  0.2968608111533861  0.4939868881820732 11.8429293934911204   F   F   F
 14.9377482546051663  2.6194435744075166  1.0886688802832492   F   F   F
  0.2992532945425949  2.5324173856783636  3.1497089883736247   F   F   F
 -0.4748363041805835  3.4742193319117076 11.7385803634525328   F   F   F
 -0.5671538382562661  5.7541844716536366 -0.4449265885376146   F   F   F
 15.5939953763808585  6.5336859760041088  2.0429694185942351   F   F   F
  0.3947877887099513  5.4634914434301960  5.7471751424788380   F   F   F
 14.6764849043601107  6.2717887123574956  9.1293271522415438   F   F   F
  0.6442349376199932  5.6864837942668753 12.1262254966981295   F   F   F
  0.5000058828689455  9.5499174322605374  0.0665483080403426   F   F   F
 15.6060389625691673  9.2109605724637120  3.4563517972865343   F   F   F
 15.3196672544814554  9.1220730281324709  6.9515662182219700   F   F   F
  0.1552196417747276 10.1708318740151000  9.2028753357975077   F   F   F
 -0.6850685842233392  8.4248792501195489 12.0007878252643430   F   F   F
 -0.5839582538923593 12.1976502517855696  0.9891456543733976   F   F   F
 -0.7717663851045145 11.9097756683766374  3.9356187190099754   F   F   F
  0.1090363910520948 11.5498595896196488  6.5992418675215152   F   F   F
 15.2423331238930704 13.4431521240016885  8.7041867101663293   F   F   F
 15.7150236338489844 11.9735487060505594 12.1967171981143334   F   F   F
  2.2433647156451721 14.7584102837108464  1.4961516918600759   F   F   F
  3.1669345605344037  0.1175157338436926  3.3839648248926135   F   F   F
  2.9964431568060230 15.4723363899081114  8.8037822302732245   F   F   F
  4.1166084347849408  3.5217870755673548  2.9026427476016643   F   F   F
  2.0678253167569549  2.7097070088969208  9.2768160455304205   F   F   F
  2.3620122575230496  5.2003634338053670  2.6960173285771036   F   F   F
  3.8471648981219770  6.5551401680110430  5.7373328783951560   F   F   F
  2.7900874268648832  5.5452455127176661  8.6215278538074251   F   F   F
  3.3358654418871772  6.7016339289534130 12.1570574217199336   F   F   F
  2.5873890913291304 10.3555848460095294 16.1109905901896653   F   F   F
  2.5780792389440044 10.0842873726607198  6.5051562235259590   F   F   F
  2.4878370831773085  8.3040663084678243  8.6488122538243655   F   F   F
  3.0343726915625751 12.2516104222552755 -0.0968332319819139   F   F   F
  3.5217386920533675 12.7958525158514362  6.1904000494018252   F   F   F
  1.9837771223660199 13.0510191212801967 12.0407317765792037   F   F   F
  6.8405405281569687  0.0398090319370582  3.8939207147665509   F   F   F
  5.8123960773298400 15.6723529622620656  6.5693021758400825   F   F   F
  5.8758762134764799 15.1943488846314416 11.1241517365755715   F   F   F
  6.2673720357868170  2.6486698951025396 13.5983762853607608   F   F   F
  6.4427191566598854  3.1635054871570714  1.8405004949313133   F   F   F
  5.3926888574990572  2.8254339105988615  8.7764663162769327   F   F   F
  6.9127296174553994  3.3975590374711553 10.5653920384512610   F   F   F
  6.6401338194451220  6.1249031303870787 14.8479461769102983   F   F   F
  6.3737473937520335  6.5146651362784391  8.3785498443818032   F   F   F
  5.5239101567094391  5.6039022465577801 11.5919874288680571   F   F   F
  6.8785327871838193  8.6651156520712966  3.1153256616361702   F   F   F
  6.0503758157460190  9.4608602550240697  5.1802237306050936   F   F   F
  5.8686743637883261  9.0245041492942200 10.3115148708296136   F   F   F
  5.7729668835821926  8.2538917033229851 12.6728323935008067   F   F   F
  7.0139166883392514 12.0605052017184331  0.2881101783039838   F   F   F
  7.1670577719006117 12.0800856933184626  5.9460999370059140   F   F   F
  6.6934755807770259 12.5365310915391994  8.5651632313410122   F   F   F
  9.1469828934454842 16.0397409645561098  0.7777336442737806   F   F   F
 10.4577888661608629 -0.2702683883647212  2.8219249598040581   F   F   F
  9.7225649849786233  2.9538430737617261 15.2344506274735760   F   F   F
  9.7282159259562508  2.5192143011512416  3.9134315648245654   F   F   F
 10.2455355639062038  2.8421300497534157  6.6132920401126958   F   F   F
  8.9151557378728690  3.6270183100043263  8.4247196592493694   F   F   F
  9.2579726269018892  3.6154729618760983 11.4406633913277016   F   F   F
  9.5567010258512433  5.5078601217677514 13.9033102778474973   F   F   F
  9.4335752461700295  5.4400358654223364  6.0818757216610289   F   F   F
  8.2008085838678060  6.5740237492682718 11.5962778778126410   F   F   F
  9.4375339597299632  9.1412344845454161  4.0779496088415232   F   F   F
  8.6744601079204529  9.3156608815036126  7.7995735383110283   F   F   F
  9.2844059943444215  8.9241152715420977 11.5229768057122453   F   F   F
  9.7648138980104537 12.6839780013179553  0.0026707746389853   F   F   F
  9.2980039106611763 11.3569083072131267  3.1634670438742418   F   F   F
  9.4008846157385921 12.2073858512275333  8.7072778390947203   F   F   F
  9.0109066415781154 12.8752289056029294 11.3476074018024828   F   F   F
 13.0048370466562879 15.6846194539318180  3.3527483913570135   F   F   F
 12.9136736728221138 -0.4233122497712815  6.0634442812953253   F   F   F
 12.1628652792619789  0.7089893744644281  8.1117777221693661   F   F   F
 13.1835949580480811 15.3977660397645906 12.0905019622459253   F   F   F
 12.7893747794750965  3.9257075842413736 -0.6343000075154949   F   F   F
 12.0332011911363370  2.9080641078388005  2.0896123108436355   F   F   F
 13.0063551297169422  3.1921857242004044  5.5225615391709137   F   F   F
 12.0737605390645477  3.5408928899841663  9.1305567664051246   F   F   F
 11.9459965160164128  2.7413627575457880 12.0071412976847949   F   F   F
 11.5899001866445470  6.0581746319759482 15.2862166332497811   F   F   F
 12.2285071047465603  6.8435234648205654  6.0629555920389109   F   F   F
 12.9402735575429695  6.1752945871436076  7.9494926929120160   F   F   F
 11.8597847270473409  8.9895439837032036 -0.8540768170814443   F   F   F
 11.7336549279755360  8.5916197463956649  2.9189724407213120   F   F   F
 12.0606740917437563  9.9017250666401200  5.1608415858616796   F   F   F
 12.1192867360820973  8.9031503660167459  9.0857898165658462   F   F   F
 12.8697199913931986 10.1982599942877954 11.8591521603299750   F   F   F
 11.9476547892877907 11.5790894528913597  0.5319612513669927   F   F   F
 12.5740414711387647 13.0991803585552340  2.6980950428550243   F   F   F
 12.8109859679211091 12.1146923731898077  7.2218219998828816   F   F   F
 11.6023107421982026 11.2085761248869265  9.2930099649402873   F   F   F
 11.8659464274828697 12.5982887938801724 11.9196568246934298   F   F   F
 15.2246135930470672  3.4571789149019820  5.7926708155739979   F   F   F
  0.1496393638701416  2.8181904372239845  8.2722811315352711   F   F   F
  3.0155112585458101 15.3326895276669362  5.7925100345845761   F   F   F
  5.3246480119933279 -0.3840498929860726  8.8939406030371178   F   F   F
  9.9643429896890279  8.1347342018416811  6.0980482539448726   F   F   F
 15.2578091066904946 14.6914692080045466  2.4069949090624267   F   F   F
  7.4759118193224028  7.0386460117811795  5.1928723325514925   F   F   F
 10.1585539369576079 10.9914994369735144  6.4987695707435833   F   F   F
