Zr Ti V  Cr
 1.0000000000000000
    15.3990340272275770   -0.0170018773457157   -0.0022529018582575
    -0.0170107766548915   15.3787801482628375    0.0165544931564424
    -0.0022517709109467    0.0165430754876648   15.4057927644380346
 Zr  Ti  V   Cr 
   3  13 107   1
Direct
  0.1927278083277963  0.2029388704278169  0.3723057386621231
  0.2004582282196209  0.6164731287275048  0.3855119538627245
  0.3802298609832453  0.7961549165833183  0.3904649945531720
  0.0014977707687629  0.0068610784219275  0.9960888198275221
  0.0003887425534572  0.1941406307856259  0.8067104150891908
  0.2032740236735053  0.1996556885287748  0.1749068826845152
  0.2048885486538927  0.5910976685497675  0.1842236595995955
  0.2055374640317307  0.8021153508991986  0.2156642075636120
  0.3892954731515992  0.2029082143350906  0.6038133867852946
  0.6091635269725618  0.0152353551254758  0.5941473631641041
  0.6032240135370692  0.1936742455452009  0.4137347011497174
  0.5895504129425722  0.2040855126839495  0.8130015909287859
  0.7963735959441206  0.1968476601088389  0.1977156933446900
  0.7856688041039392  0.1941720359365233  0.5938527933501515
  0.7970981484262318  0.1988732753803949  0.8033223668721206
  0.8087785696528653  0.8026035943238781  0.2041119666866163
  0.0024320971318308  0.9971682592467045  0.2030792982775455
  0.0016301933980263  0.9999795552535422  0.5973147972467064
  0.0015210048125806  0.9977576025689130  0.7972259841247574
  0.0009292752075265  0.2027938673912951  0.0055268348140851
  0.0031914745211022  0.1988834538858156  0.2017167019539829
  0.9914487371486796  0.2005081488234572  0.4014900259714252
  0.9975420074114578  0.1996787700402701  0.5992224419389363
  0.0006619054555932  0.3997312392664659  0.0018516706071414
  0.0005116474924792  0.3978813233894465  0.2016962271895899
  0.0005954776837263  0.3978885629666212  0.4012610215817426
  0.9992258044618858  0.3981209087457839  0.6017332837869960
  0.0010522996760662  0.4005229419433498  0.8005563689212087
  0.0014055598346263  0.5993049014394461  0.0005473170532445
  0.0008546547241859  0.5998949593069863  0.2001698259553536
  0.9955380842663912  0.5931693381563288  0.3982496576073082
  0.0010994370206003  0.6011143279032000  0.5962651340653180
  0.0005420289607349  0.5994302417350724  0.8007053228093313
  0.0030091359183262  0.7988478393198324  0.0021485573488258
  0.0058692127494608  0.7995869119120137  0.1998610369076980
  0.0029665026260909  0.0069301958686148  0.3995986159869271
  0.0011762382238300  0.8005888269525657  0.6015760367953666
  0.0009041012171960  0.7992018437029776  0.7997161079919385
  0.2030012153797026  0.0002916291250144  0.9996510734531102
  0.2036227503850452  0.0047225950910530  0.2007948295122953
  0.2007244072949964  0.0035258772494111  0.4013109195169265
  0.2035629265285433  0.0042753153121249  0.6002755443002049
  0.2017266193872627  0.0008097517993108  0.7985004803927932
  0.1994747080276738  0.2000509552287241  0.9871668474938960
  0.1945012058144840  0.2012332652785115  0.5959086958363042
  0.2016069063608190  0.1996399770966821  0.7954764281034183
  0.2003241831439146  0.3981989504640275  0.9994213669358251
  0.2015925461816068  0.3957151621619428  0.2006917352420736
  0.2002336497640119  0.4039814289851613  0.4019287497723580
  0.1999611887249446  0.4012162499536050  0.5993609347160282
  0.2003976575180543  0.3993302148721996  0.8003214267693918
  0.2009257497921340  0.5993530224891611  0.9939716539830906
  0.2014349338792984  0.6008174241466904  0.6004003779449800
  0.2011911385639727  0.5994504178952317  0.7982880155763891
  0.2012212245185171  0.8003787587511132  0.9996535176341937
  0.1747279658781746  0.8157468960803189  0.4092296199802515
  0.1994641618258586  0.8016646144746182  0.6036287808045498
  0.2009604523380531  0.8025083505261250  0.8018378672569446
  0.4014788156039706  0.0000517941225799  0.0016399055218989
  0.4028058472153216  0.9987323585265893  0.2008040506761801
  0.4004017492108603  0.0044679611894266  0.4007779159410074
  0.4028544615911711  0.0006160165503339  0.7985395824894078
  0.3993480812376077  0.1986359311340935  0.0020507490854844
  0.4004898525191295  0.1991883835567624  0.2020758698203267
  0.3999263857225072  0.1989820508531810  0.4006815309654451
  0.3958811444528518  0.1993339355217710  0.8053307463149434
  0.4007496210446579  0.3987252179156525  0.0022282694127098
  0.4020152473148929  0.3982429128313056  0.2022148546249838
  0.4007061684481056  0.3951620429248216  0.4019153468378397
  0.3998458650735180  0.4010266044550114  0.6013662498039386
  0.4008674137433593  0.3991567474977522  0.8005812668656483
  0.4011632016552542  0.5990158332423952  0.0005182322516326
  0.4048176858061294  0.5972246717260844  0.1995511890061975
  0.4083177575462743  0.5910639736022075  0.3999099764024384
  0.4011807104995331  0.5989317353650053  0.5993399638265896
  0.4016304463156080  0.6000208956337435  0.8010937058140201
  0.4000021538510488  0.8000403849554553  0.9980239544980409
  0.4045644734876016  0.7998731326680291  0.1919500031959265
  0.3999575295121017  0.8008985486455690  0.6016136880710119
  0.4011381779779007  0.8002523461380554  0.7998068922585915
  0.6017071276660693  0.0004615531776129  0.0002831007312003
  0.6016531930852402  0.0003223300351087  0.2012648304798426
  0.5987261652722831  0.9954467173798304  0.3986456970970206
  0.6009686430410608  0.0011225382083733  0.8016069413379263
  0.6000026086494225  0.1999067044337960  0.0079117050900156
  0.5975903772829302  0.1985176075187559  0.2024615407577212
  0.5918832137170206  0.2067319825757665  0.6098729282037847
  0.6016611716058218  0.3994362349903344  0.0017522592240719
  0.6008528301797287  0.3974706257499922  0.2029657027303575
  0.6014053975659581  0.3993608089009126  0.4024180003993463
  0.5996817646038992  0.4021002653081110  0.6026888756988350
  0.6007158606391922  0.4025182877143208  0.8025752076654100
  0.6017433044786109  0.5999128732939176  0.0012536728961176
  0.6033001409199996  0.5997368018742582  0.2000368838662906
  0.6024650213221812  0.5985397687330963  0.4003089259705480
  0.6009757618421460  0.6021835558958433  0.6010774048531936
  0.6010610778779002  0.6006421140278989  0.8013501593916429
  0.6021867683174076  0.8003411404871354  0.0015838605269540
  0.6000160788728173  0.7996427353261570  0.2008998253993738
  0.5977419212404111  0.7993986755412580  0.4005815471262960
  0.5990633480227443  0.8017468429437949  0.5999463218896197
  0.6008424639303582  0.8022053413275643  0.8003948163171195
  0.7998478043215512  0.0002368016763148  0.0000391737503812
  0.8016543994227358  0.0000996769715824  0.1992952457042917
  0.8069416258329110  0.9938087631284951  0.3964075096271218
  0.8052807628334384  0.9956718652296517  0.5989175015173851
  0.8006536044493616  0.9980840522075638  0.7983233129243342
  0.8009297679427876  0.1994880497887106  0.9991015795684646
  0.7993983017504885  0.1973149513792123  0.3967035697997651
  0.8014255187420661  0.3981384473330121  0.0006025096135474
  0.8013419086257701  0.3989628276976874  0.2007222247036335
  0.7995419023238354  0.3967467956180480  0.4005115501858323
  0.7995978161192947  0.4005627418091023  0.6001560732924591
  0.8007344261053538  0.3996388330016264  0.7992005888093356
  0.8018465664632922  0.5988066283962716  0.0000515802396911
  0.8009889899341586  0.5965394176915039  0.1989743238666041
  0.8009831163984950  0.6007137734217155  0.3994414023953383
  0.7999743021985593  0.5989410012348954  0.6004947214785926
  0.8011468346099242  0.6001461919189124  0.8002866154129058
  0.8025620371690334  0.8002948295196961  0.9982394119610866
  0.7974272457769501  0.7984745766766925  0.4028982567425580
  0.8025319183700673  0.7988843244166254  0.6000270261554409
  0.8006144645081259  0.8003174721844291  0.8006126954038191
  0.3998213078226751  0.9984214553116226  0.5989235363397581
