Ti V  Cr W 
 1.0000000000000000
    15.4603446293932016   -0.0041322082870834   -0.0012082850725322
    -0.0041323107289872   15.4623066666688764   -0.0009055477358807
    -0.0012084946887904   -0.0009048943237887   15.4540012347107183
 Ti  V   Cr  W  
   3  99  15   7
Direct
  0.9815636459928098  0.8089446460017723  0.9943655400119278
  0.5913224725988777  0.3979747744223819  0.9994313874459647
  0.8029955038058604  0.3951664535705015  0.9984261828058596
  0.0023771069435068  0.0018659740287679  0.9987588447358449
  0.9980735582353938  0.0009918521909289  0.1979685490379265
  0.0032762267402840  0.0003778230773879  0.4049040891946751
  0.0012672116305274  0.0017418386801076  0.7951197759066468
  0.9987924594372616  0.2015445988973062  0.1998962498944075
  0.9990708437544742  0.2015976479177116  0.3994839298149561
  0.0000384103997303  0.1980944147525977  0.6009996392081047
  0.0008503092628556  0.2015581580218715  0.8009995803200858
  0.9989752332792403  0.3987063628037968  0.9991068768772011
  0.0030793955804802  0.4024045753703877  0.2012189273371714
  0.0001255276114702  0.3993600084270763  0.4032685890161816
  0.0008152449448764  0.3998438456877131  0.5998316330328435
  0.0008743088924934  0.4005071170694497  0.7989268179383342
  0.0021120112062345  0.6006350091532090  0.0037915091735523
  0.0008238242874843  0.6014162489746014  0.3969400729935439
  0.0000064444235247  0.5999922198416618  0.8003980700518659
  0.0004234621563398  0.7999492254745414  0.4003980650248210
  0.0001542948345244  0.8002587491640116  0.7971297488297275
  0.2011530770902385  0.9995056262656803  0.0024134500794299
  0.1998717585087224  0.0012074458775095  0.2025292630672147
  0.2012323566692182  0.0005377249126781  0.8013711134352890
  0.2010061948061143  0.1983963936155739  0.0006931674102192
  0.2002017776631744  0.2045841074349051  0.1987162439093529
  0.2010765006630440  0.1943632659845683  0.4005649853087894
  0.2010095798434164  0.2015840469172806  0.6002769900217096
  0.2007802546823365  0.2010154472831356  0.8019685564233060
  0.2012515862856246  0.3992240680309067  0.3984012461253085
  0.1998172619456275  0.4014261859582139  0.5991767837069139
  0.2000140153279758  0.4002340466529435  0.7987876144886915
  0.1969393281285213  0.5961029267092790  0.1966334238036611
  0.2015286278681404  0.6029987827775087  0.4012179442980601
  0.1995650548031229  0.5998410164816623  0.8044216986212077
  0.2031825873924112  0.7993017290912425  0.0007203336583210
  0.2009491932580576  0.8009216373266556  0.2006076388216075
  0.2017326187520911  0.8036399633403463  0.4007289008275778
  0.2018174937432815  0.7980724996785431  0.6005771820486625
  0.2004428679277090  0.8011426284794924  0.7991984663546472
  0.4028953696069681  0.0006944566721916  0.0004769171266226
  0.4002207285034844  0.0002999620569372  0.2010986302745396
  0.4016897813404209  0.0002725477935678  0.6006659023733993
  0.3995148383768339  0.0009173059520530  0.7992376164887713
  0.3994191771839005  0.1999994117294651  0.0006780229083060
  0.4009951826796984  0.1993418562422407  0.4010867419929058
  0.4006259406386438  0.1999412188405614  0.6009430741405366
  0.4000093542085487  0.2009787991690714  0.8001428049538872
  0.3986806506538904  0.3999647908044189  0.0005110457624204
  0.3961610832070881  0.3997866844958142  0.2012984913136391
  0.4004165881837748  0.3990310723384251  0.4011392132031744
  0.3991243880653668  0.3994058368894491  0.5999492093074794
  0.3992749449286863  0.4004332365880212  0.8005630044233942
  0.3956714065399992  0.6004054712704288  0.9997157584166013
  0.4013417335246364  0.5995756785228686  0.2002207829515273
  0.4000393795235460  0.5999907110756988  0.3993744961575438
  0.4010437642302344  0.8009980192356521  0.0003704809847485
  0.4008844738140355  0.7982464284552959  0.2010583276603559
  0.4007540816891373  0.8001566266935505  0.4000732362985634
  0.4002722357002499  0.8011475622172141  0.6000411765101883
  0.4006368094483939  0.8006066870246940  0.7989099540936346
  0.6008880777640172  0.0001103756074230  0.1985924538757778
  0.6001672546567288  0.0000786235337770  0.4006936944409258
  0.6014688242895933  0.9990005269174483  0.6005083121984420
  0.6014766831055953  0.0000085991746162  0.8027003902885790
  0.5997911770209918  0.1940955722066910  0.0008309714033889
  0.6003366520709641  0.2004898446649626  0.2007734506979107
  0.5999066443796758  0.2004790304148139  0.6004030749955829
  0.6005014841895353  0.2004058619307496  0.8000797011879167
  0.6003028637609997  0.4003574488923716  0.2007348918976361
  0.5988355813540605  0.3990090122116112  0.3991617970013853
  0.5996029201226674  0.4052876226494846  0.5997098637278621
  0.5995284407205139  0.4004083398420015  0.7993477008852644
  0.6014644102065583  0.5997606065260926  0.1992168542886947
  0.6006146290729341  0.5999832763179809  0.4028767475109329
  0.5998267461058276  0.6008622086075842  0.7971637157560799
  0.5988441658162157  0.8025552965245297  0.0000916818695611
  0.6009272250324098  0.7992230544357420  0.2004604660278663
  0.6001061812551868  0.8010390395356159  0.3987965265975043
  0.6004414693590586  0.7961911115647802  0.5995848839510177
  0.6007635068955954  0.7999754889629558  0.8009627905048926
  0.7974545494710380  0.8658864066187462  0.0008935579419358
  0.8010594624647294  0.0014124983386559  0.2027341638464950
  0.8003737768725097  0.0002518836871941  0.3993209165715919
  0.8029047256942542  0.9998731352276895  0.5995630513200286
  0.8006139527428197  0.0004273846162585  0.7992602541280950
  0.7999279170122378  0.2013297418235385  0.0008351319322973
  0.8007197834174744  0.2007028808139359  0.1998876047722506
  0.7989729991441283  0.2003628750526285  0.3997803710579220
  0.7978285024454520  0.2026871889698721  0.6002373817189042
  0.7998115739111854  0.1999750286274882  0.8013725890061133
  0.8000105738548414  0.3995153939236107  0.4004048381666295
  0.8013859247058438  0.4001899971671067  0.5992998662406078
  0.8003947701265137  0.4008179375550901  0.7983491845924562
  0.7976724661586588  0.6001723271610391  0.0002776374568814
  0.8031006162265895  0.5989621152851949  0.1988363167800009
  0.8012869222452665  0.6000862852719174  0.3986437341326244
  0.7998895605711992  0.6007854557081609  0.5997675338289169
  0.8014322246762643  0.6005286242345442  0.8013945409014858
  0.8002770769017504  0.8008538189854949  0.3987701870435929
  0.8011765294199047  0.7998389596245968  0.5993154615442257
  0.8001137763801591  0.8007682966656945  0.7997565471613415
  0.0011980489779668  0.1996664783274970  0.0001354716389894
  0.0005226646230463  0.6006411958191342  0.5996060547595279
  0.9992678416676378  0.8007051247838732  0.2011354618823251
  0.0014101413276091  0.8006729488502895  0.5993779101493708
  0.2004869854561941  0.9998270604739973  0.5997184813239387
  0.1992238823828956  0.4003249907926630  0.0003733820333576
  0.1998738401469038  0.6001796237645785  0.6012224932502158
  0.4001448561232862  0.0001484672992938  0.4009781628418249
  0.4004925293870850  0.2001408518527759  0.2008468876911449
  0.4005920680116106  0.6002288196418303  0.6008351482261316
  0.3999727550939702  0.6000523492695681  0.7999975812762056
  0.5998098955383437  0.1996096722573014  0.4002857107561349
  0.5974433908874432  0.6036336939255865  0.9989095622662958
  0.8005376706152331  0.3993124177415273  0.2029404864530489
  0.8000138765040122  0.8000600507701581  0.1998946596338172
  0.9972702034539168  0.0040637175818976  0.5997428514501576
  0.0010755682467240  0.5983745557081301  0.1998786225106588
  0.1968469403108827  0.9993823276748149  0.3958340185989245
  0.1994467159614634  0.3993651719012859  0.2041166877512277
  0.1969889773342295  0.6061483784807545  0.0021050625941961
  0.5966552952822740  0.9987694855991434  0.0015793700541359
  0.6047276262078686  0.6003662908342451  0.5991447549935944
