Zr Ti V  Cr
 1.0000000000000000
    15.3990340272275770   -0.0170018773457157   -0.0022529018582575
    -0.0170107766548915   15.3787801482628375    0.0165544931564424
    -0.0022517709109467    0.0165430754876648   15.4057927644380346
 Zr  Ti  V   Cr 
   3  13 107   1
Direct
  0.1906639982582825  0.2010077045810345  0.3738325502848450
  0.2039562025821445  0.6190895856809967  0.3827865022955353
  0.3834266112394127  0.7945581868399119  0.3899868278045044
  0.0018577346895292  0.0060581443786051  0.9967071757230738
  0.0005445257262560  0.1950679685792340  0.8094293117703831
  0.2033620171004030  0.1994716677029710  0.1761195063585863
  0.2023874220208616  0.5909508614127403  0.1831856127490900
  0.2095849205449554  0.8009691175553626  0.2125127556912277
  0.3927759742562932  0.2043797718447682  0.6030630261544813
  0.6101490910123550  0.0139036642687411  0.5914670099664264
  0.6054779591689681  0.1908586478074253  0.4118965066825474
  0.5901647655712071  0.2022234703949899  0.8121079545582016
  0.7958381782833829  0.1964361521727297  0.1963513285133142
  0.7847058025534619  0.1953997391631207  0.5928961955259147
  0.7976897246623527  0.1988750037962368  0.8022736335180474
  0.7993466887698920  0.8031888083649807  0.1983062184027852
  0.0036330913740257  0.9993330962856818  0.2062038361736431
  0.0017418076861968  0.0013031970129535  0.6016479182479866
  0.0019709976800856  0.9974165640532338  0.7982535134906784
  0.0007600168404251  0.2031642465252862  0.0073457827267580
  0.0018000830055169  0.1983537555679651  0.2027246675623485
  0.9913362618902428  0.2037405711209717  0.4015717141672348
  0.9986239817103932  0.1989252640578722  0.5972576460855251
  0.0004717967384298  0.4000280553460605  0.0021703218644433
  0.0001214468167641  0.3988466990695003  0.2019581342142455
  0.0007532748052619  0.4005003081194514  0.4014289295857405
  0.9990065710793909  0.3990258215607731  0.6019703916874625
  0.0009036606671129  0.4003814567736171  0.8012695846245065
  0.0011709141117322  0.5999881301865237  0.0015867967976315
  0.0002909347085978  0.5990246285663559  0.1996384029130834
  0.9956992767984812  0.5991375052853796  0.3994904664208727
  0.0012579007014320  0.5998199262289435  0.5991280678536098
  0.0000729318836278  0.5995487416948352  0.8015650648947248
  0.0023382038561493  0.7991434976605060  0.0028986608569714
  0.0019016052531827  0.8011179590977108  0.2016112874369232
  0.9924170073444927  0.7962833783141355  0.4002781970591618
  0.9996008155325633  0.8013072435987746  0.6000300936840318
  0.0002730418973937  0.7987167390562077  0.8009877413605719
  0.2031619567612167  0.0000946599404958  0.9999906796834516
  0.2015089857160681  0.0033721540682983  0.2014093671727568
  0.2010831423641860  0.0015575832522969  0.4020626567845594
  0.2009982672824313  0.0034976878313257  0.6002674415295453
  0.2025591613696181  0.0006174384960948  0.7990482012246606
  0.1992468601053602  0.1997935452710435  0.9884800503649646
  0.1960153686985570  0.2010229160732037  0.5964957353498599
  0.2014621652251792  0.1996083167784485  0.7961473225030691
  0.2000550099644981  0.3983236880820210  0.9994281116696503
  0.2012307659786539  0.3959354238430062  0.2009377978794350
  0.2000174811245738  0.4063443712022035  0.4016534203137886
  0.1997467575320391  0.4012615996987252  0.5991702571151740
  0.2001724826696932  0.3995707120505105  0.8000826612594526
  0.2006607622796770  0.5996059233698212  0.9933104842058894
  0.2002852007735397  0.6015895905941350  0.5996329279210140
  0.2010907567053032  0.5997987001455733  0.7981608700260792
  0.2009185254274465  0.8001980164443754  0.9996144462905748
  0.1818600641889110  0.8191265826160511  0.4090238997178444
  0.1996121096184633  0.8016644941716851  0.6029640269200002
  0.2003648867074914  0.8022363331550496  0.8014177540860775
  0.4015634653860368  0.9997323657178823  0.0022404227619410
  0.4015109477294142  0.9975936347504161  0.2013334538421054
  0.3988202527194058  0.0042025998171174  0.4008857752479782
  0.4023637146649470  0.0002331185688760  0.7987023975917129
  0.3993172728486238  0.1986238540859740  0.0021810370503788
  0.4013923542880931  0.1983053552716773  0.2016233846958389
  0.3990495472149204  0.1993883793600387  0.4004209625539298
  0.3961151144614670  0.1994414335915988  0.8057099103122711
  0.4005152712212975  0.3986957773592221  0.0021564673303898
  0.4014234259153177  0.3975358945290102  0.2020014567878510
  0.4001377634695419  0.3950505590336226  0.4017496885607490
  0.3996734285425687  0.4015470565641203  0.6015130777163656
  0.4006496100829922  0.3993847953236547  0.8007989649674131
  0.4004929094799909  0.5990200598942524  0.0009019083062027
  0.4036563568580731  0.5969413848187500  0.1998880147730250
  0.4089075541069191  0.5901918643860733  0.4002426115804079
  0.4006719021110829  0.5988009592611911  0.5995947115568966
  0.4012115599440018  0.5999137003375634  0.8013737472356427
  0.3997346444962152  0.7997536909640668  0.9974516392631507
  0.4054920791724921  0.7995533931103981  0.1909106182814966
  0.4002385311031838  0.8005644598112285  0.6018965732434116
  0.4007030547407658  0.8000074303308085  0.7996628537345174
  0.6016522341334225  0.0004009869002857  0.0005032278542687
  0.6029106801391044  0.9996470533044353  0.2032054283969780
  0.5938591893613470  0.9944879606844109  0.3981506353858569
  0.6009893162981762  0.0004492779970565  0.8011840400046445
  0.5999828737829747  0.1997793170558429  0.0072311918803193
  0.5977288072396481  0.1982059997375629  0.2016641888428775
  0.5920538451956391  0.2058597842140468  0.6086426871406065
  0.6014921620345235  0.3994588893698277  0.0015030701640604
  0.6005889778863438  0.3974535297066436  0.2029209086890733
  0.6012410050528845  0.3987891192725295  0.4023093187468160
  0.5998509670411521  0.4020380015909326  0.6025030240930496
  0.6006199937378464  0.4021361864195507  0.8022609053921436
  0.6012450081654618  0.5996627028289270  0.0013521021743428
  0.6023873020618220  0.5994257733642909  0.2002516398738498
  0.6022424216644168  0.5985816666777788  0.4001596864695756
  0.6004169625437873  0.6023233694335275  0.6007078124337731
  0.6007571300012550  0.6005348216092125  0.8009691786370638
  0.6012721027877740  0.8003521962006267  0.0006236913588660
  0.5989598551957863  0.7987164227927072  0.1996483132474280
  0.5991684090790174  0.8002072285967988  0.3996132000117912
  0.5988302280190694  0.8014024715819419  0.5995485949555188
  0.6001192555184025  0.8020321458949842  0.8004428859928152
  0.8002361970120672  0.0001009187203445  0.0008518172315364
  0.8026814125627182  0.9999358356995072  0.2003825126818236
  0.8612694342822292  0.9987643989099878  0.3984472089319439
  0.8064292895620353  0.9968678874473359  0.5987807966558809
  0.8009516542235299  0.9980426231326038  0.7986092761320943
  0.8009616722728524  0.1995719825272365  0.9982923394171420
  0.8011375863122450  0.1977610000656968  0.3961590424352341
  0.8011789132053411  0.3985252940702900  0.0006603973391075
  0.8011551552226410  0.3990670192073656  0.2006099306038948
  0.7997953076082661  0.3984003753194943  0.4002896428410754
  0.7997990455250509  0.4006980254005789  0.6001491142075678
  0.8005599029881469  0.3999471725378781  0.7992095417005987
  0.8015315319573116  0.5989566035992576  0.9999106239101517
  0.8005978025294339  0.5970178065427523  0.1992814813233786
  0.7990037355582088  0.6001064052619294  0.3993032867042211
  0.8001142483613208  0.5991771880573508  0.6002409837884076
  0.8005545896185482  0.6001810195900883  0.8005699544264123
  0.8015833119551028  0.8001213912617121  0.9972343445283816
  0.7969377372873333  0.8008942516108942  0.4023191535814450
  0.7987507203140467  0.7995808609877431  0.6011396785462847
  0.8006067943797099  0.8001033177495057  0.8001378712385014
  0.3987723078626021  0.9980122693512310  0.5990968655356876
