Zr V  Cr W 
 1.0000000000000000
    15.4863295998759050    0.0024137293282322    0.0105674120120943
     0.0024156779473548   15.5040449564505511   -0.0174543962439357
     0.0105707746262879   -0.0174578174046017   15.4782021514271442
 Zr  V   Cr  W  
  10 107   6   1
Direct
  0.0005515914319141  0.9657459549107357  0.7557177553081179
  0.9999242362873867  0.1939248761127862  0.6073357802344286
  0.0008715848785201  0.4366914865361949  0.0408018974548142
  0.0069302625008850  0.5781646157542123  0.2269032319010341
  0.9615975724066304  0.7918624464443674  0.1932559311222596
  0.0017165921204452  0.7835030903326256  0.6054042394958787
  0.1715386977949076  0.5986579768944218  0.6036606298455113
  0.3588903035157981  0.8049941612078952  0.1991535206872189
  0.8322365189316123  0.4314439640614719  0.3964938712015055
  0.7509028188148898  0.7923846232309091  0.1981200977207833
  0.0010355392291439  0.0078651358419455  0.9982130031913363
  0.0032743510178235  0.9974998513252680  0.3938946970361388
  0.0011444738923623  0.9925999903564481  0.5694483775705446
  0.0008125471789409  0.1999559148390447  0.2019136187024590
  0.0009735707239390  0.1996497281468749  0.3997252783680624
  0.0009434762071923  0.2040510802057477  0.8087416569080443
  0.9999983190799364  0.3872230036850209  0.2313575353960989
  0.0192767558077434  0.3981957422396864  0.4075873545933863
  0.0002277844868559  0.4034051658402137  0.5997600052384882
  0.0015960976432212  0.3982057982611554  0.7999260709905563
  0.0016390167588474  0.6246270509044175  0.0178711367097193
  0.0020252553630686  0.6036815647278616  0.4340628656544800
  0.1693124037479435  0.4297951570609619  0.6029600197800732
  0.0006801141538970  0.5910623639873176  0.8214293187593980
  0.0017228176891289  0.8139084989701860  0.9923215078581230
  0.0010099185636869  0.7997409643170289  0.3964761772090039
  0.9998121282276321  0.7798679808706646  0.8067142978863994
  0.1997129571446408  0.0032572343202513  0.9967545100814812
  0.1998893658019829  0.0027194125623038  0.1979949703658984
  0.2018072838299445  0.9996734676570639  0.3964847684051583
  0.2009559776173773  0.9992566165656169  0.5972763113579904
  0.2033247450200883  0.0001260520420293  0.7991773258715206
  0.2018542664094006  0.2019564486691415  0.0003411029024742
  0.2012190972351058  0.2011013921445372  0.1989457657799116
  0.2027487515317760  0.1984017115838042  0.3990292982180160
  0.2017445848097820  0.1991015942606234  0.8011442272424985
  0.2038933117107890  0.4005934899829504  0.9994687001669736
  0.1988937166166840  0.3994651577802757  0.1985887097918968
  0.2075397961306434  0.4017514510874369  0.4004381688143708
  0.2014870189402276  0.3999925301564213  0.8010665969832277
  0.2022869244669581  0.6025179465000954  0.0027383006398615
  0.2091972825115676  0.6009760849417819  0.1988289742986021
  0.2003438506869926  0.5994397346004318  0.3935905058275692
  0.2003369737052898  0.5991976193671660  0.8079085164333094
  0.1997396204255760  0.8032781904085708  0.9998386813484379
  0.1718987697306691  0.7975309642265793  0.1971049435513725
  0.1997429568744881  0.8001622548650995  0.3964212636636698
  0.2072296896805406  0.8016646482406604  0.5985165707910509
  0.1992286306715119  0.7998119338759568  0.7989706250641994
  0.4014553792010986  0.0011845377404311  0.9980316207671898
  0.4018552100563022  0.0050427255281174  0.1979111500519380
  0.4002567853944356  0.9990934200711226  0.3985678686662603
  0.4022815164421388  0.0001994767182587  0.5980196442304179
  0.4005657534449704  0.9992800077988593  0.7964763856651933
  0.4014972600929826  0.2007347245308186  0.9983775418685352
  0.4009340027196923  0.2013914707514497  0.1994906174302422
  0.4009915100095739  0.1987972817371376  0.3992890511108942
  0.4031932667335383  0.1990481154751443  0.5988601361410429
  0.4011841261563790  0.4008345876353928  0.9990841405917277
  0.4001726051080367  0.3985639088233238  0.1993343274176310
  0.4017684953961383  0.3988491912667374  0.4002245656889910
  0.4014646249546225  0.4004575260364675  0.6003047704566608
  0.4016561858770192  0.4001860941540298  0.7986152581290965
  0.4031098532175715  0.6016458769947793  0.9994886772425077
  0.4049744479640960  0.5947874211679555  0.1999393504677799
  0.3998065653054904  0.6010033230784133  0.4011652693561029
  0.4007347572141187  0.5995327447908453  0.5991835828331429
  0.3999110648394580  0.6002415651932642  0.7995378914479716
  0.3998516166833112  0.8016971849245246  0.9944428246442292
  0.4003618776592318  0.7997715498881449  0.4026593448858297
  0.4000660337886257  0.7991432251501800  0.6000062768089164
  0.4005332434836102  0.7986669053329263  0.7986202150672025
  0.6007170966692736  0.0000779720717023  0.9982992965626951
  0.6007191361447888  0.9972834708218823  0.1982930553930342
  0.6003537968243806  0.9981047150216237  0.3973908845935679
  0.6006453067421303  0.9992068997899978  0.5967073656313391
  0.6010035428402267  0.9979870946741766  0.7973478804176881
  0.5996668924221199  0.1992695746496471  0.9994451908529117
  0.6014765129738279  0.2011947494143291  0.1983929052669893
  0.6011137158514680  0.1992366207654455  0.5988368171327215
  0.6009065496591852  0.1999336071275941  0.7994538800907811
  0.6012624602942694  0.3996568989912576  0.9983504055176764
  0.6023621258523988  0.4010573093256531  0.1991724499167689
  0.5993303126839139  0.3984910603490872  0.3980037468505148
  0.6025632063833118  0.3995646775628400  0.5974042533795725
  0.6007274453922519  0.4005433673028598  0.7988981318555983
  0.6028066549890375  0.6005769380375344  0.0027880492817967
  0.6043874563490717  0.5994593609490804  0.3951434405596587
  0.6012478263228521  0.5995337988100866  0.5970862523165794
  0.6036771584416373  0.6001745049608651  0.8015638590266694
  0.6014769586372269  0.8013569759888844  0.9977286029907697
  0.5648433299112782  0.7911100459633840  0.1985497359116272
  0.5987968548546411  0.7999011758500992  0.3983872340013075
  0.6007955442950073  0.7992287778561064  0.5985233362080874
  0.6003511288304780  0.7980600382256534  0.7984438628690622
  0.8017388332323110  0.0020341486985629  0.9962433356866602
  0.8010632466276433  0.9987588497305943  0.1975016262760979
  0.7993447281125469  0.0012232319207893  0.3973082694187695
  0.8025459147242261  0.9992141797211420  0.5983159226694843
  0.7983003347034847  0.0001723964627580  0.7980168713397505
  0.7997114870743530  0.2012271485881823  0.9988456117214228
  0.7993445040233441  0.2003288352943285  0.1983639263245470
  0.7995970152282227  0.1968205620332289  0.3984843023167911
  0.7960093601623576  0.2019071443156633  0.5985674565425524
  0.8006224341636611  0.1993571922196110  0.8005541018653960
  0.8040273928405577  0.3984903576667003  0.1933839297796198
  0.8017098802698183  0.4020714579717476  0.6004129474029799
  0.8010714297999261  0.4007231688882517  0.7990221418381306
  0.8038684399881704  0.6018675602387886  0.9994578324255738
  0.7943215100745677  0.5948555552322966  0.2078796814087711
  0.8027528743957274  0.6186398413299361  0.4026803841645475
  0.8003318762973790  0.6007678167188638  0.5983705129894116
  0.8040937823977048  0.5994577741956199  0.7994153935599571
  0.8023035038128061  0.8031561610150101  0.9965704193616252
  0.8051784565110802  0.8069410386845217  0.4010565046386656
  0.7949068071627066  0.7998827176374802  0.6003021229311769
  0.8021561947431211  0.7993406651370506  0.7976645149403008
  0.9998239948695287  0.0037103038693800  0.1967504301975645
  0.0008764401535820  0.2024854005037989  0.0033817803205895
  0.2060417354438244  0.2001606000191108  0.5999734738965197
  0.4019582220517489  0.1999747738333472  0.7989136906794033
  0.6000804916678500  0.1986936017037664  0.3979182349672840
  0.7985182986413497  0.4005382828082878  0.9971868272802331
  0.6018795210108094  0.5983991647427267  0.1982581642314519
