Zr Ti V  W 
 1.0000000000000000
    14.6853827578748088    0.0297835820478323    0.1122213727717476
     0.0298206486797816   14.5407478417437535    0.0151358330274621
     0.1127576065006712    0.0156506682204352   14.6102625195228804
 Zr  Ti  V   W  
   2   2 106  14
Selective dynamics
Cartesian
 -0.0620514303281685  0.4965188232225737  5.7653240802858177   T   T   T
 11.9873684081818279  3.1381036717478330  0.1718449478825045   T   T   T
  6.4929231501354270 11.7161437490979541 10.7178459897496658   T   T   T
  9.0448174165698969  9.8575520657200961 11.1822321549062131   T   T   T
 -0.8316073713469135  0.2649264953789476 -0.3948316082948142   T   T   T
 -0.7875764189965291  0.6028382365715819  9.9884669221210221   T   T   T
  1.3526935525686288 -0.4270714517345400 11.5804581965127831   T   T   T
  0.6486193004558932  2.9142131453591418  1.0608652540244310   T   T   T
 -0.8458466069729350  2.7185457819139249  3.1283948969024356   T   T   T
  0.4054384683667200  3.6458067799516369  5.8886045995183069   T   T   T
  1.1288038180204383  2.4122994790152030  8.5275242363058528   T   T   T
 -0.1738923949549335  1.9317539866869449 12.1481187625317073   T   T   T
 -0.2444270043163959  5.6963888613033991  0.2661699817461742   T   T   T
  0.8814045385180083  6.2022853384746854  2.6143400446238969   T   T   T
 -0.7220230713742776  5.3649412341545526  4.7407660857794767   T   T   T
  0.6037259766664470  6.0730581183968217  9.2652851443957296   T   T   T
  0.5881382303130753  4.7555226087379703 12.0398017230508749   T   T   T
  0.4362692353718425  8.3040233296478494  0.3007546042740518   T   T   T
 -1.1651138265091312  7.8012784652819862  3.7207229176062810   T   T   T
 -0.0630282332538819  8.8057950911168827  5.9955007352509213   T   T   T
 -0.0532110223702371  9.9179644550254196  8.6049005813351140   T   T   T
  0.7670098696480303  8.4801714607855327 10.7980458531599908   T   T   T
  0.3389720165070981 11.6906803083538957  0.8052862301392909   T   T   T
  0.3986575642890368 11.9665561267063314  3.7219147034037885   T   T   T
  0.7025275136978265 11.5261891747416296  6.7529871822998508   T   T   T
  0.0963791144641369 12.1654564099108615 11.8215972954923316   T   T   T
  1.6359549882862534  0.8298725277350946  0.2543327278389526   T   T   T
  1.9976324560777412 -0.5353912996585024  2.7258654789091117   T   T   T
  3.6140358956505101  0.2309284640193200  5.6571893817664254   T   T   T
  2.4657321012254547 -1.3490994857016516  7.9939683034140909   T   T   T
  3.9050529188259788 -0.3626236947821257 11.4768310272955034   T   T   T
  3.0666073853787887  3.7061567902916677  1.2395813524030346   T   T   T
  2.5925976376595279  3.4066759902343753  3.6391275656623545   T   T   T
  3.2635149194064210  2.5536847361642039  6.6820277860895585   T   T   T
  2.8336250790705502  2.3645937155143768 11.9733945391231114   T   T   T
  3.4488924820243745  5.9527333007071990 -0.6145341319483935   T   T   T
  2.6734518049055795  5.4765366725122941  4.7547874127343164   T   T   T
  3.0242021977406788  4.7663085315274278 10.6271052597329501   T   T   T
  2.9053402464706992  9.7858587610073418  0.0752805859153670   T   T   T
  1.8442449916007513  9.0334860594007544  2.5468772764166703   T   T   T
  2.4104512119887054  9.1065198302142356  6.3491220993145925   T   T   T
  3.4480133514771159  7.4329606969264157  7.9690828461715117   T   T   T
  4.0359978369430989  8.6249972071963317 12.3848791820854487   T   T   T
  2.9908610295077356 12.6149863407521696  4.7836062957498227   T   T   T
  2.3612460415925400 10.6720960714549253  9.7205644747164275   T   T   T
  3.1555714932145751 11.2237104786423245 12.1514037315788208   T   T   T
  4.7322017200422417  0.0789644940343139 -0.1451364787794521   T   T   T
  5.8091950165218273  1.3564850561215565  2.8279763350113840   T   T   T
  5.4627649448856985 -1.6592680701295794  5.3151069216169002   T   T   T
  6.6331673451009161 -0.1847444056493910  8.1669142870750591   T   T   T
  6.3284894383142625  0.6616606026898320 11.9427748642175899   T   T   T
  5.5257425529826536  2.8179488995857653  0.5000076867328612   T   T   T
  6.7109331793653348  2.9080207631787056  5.3816535952337929   T   T   T
  7.4714038514477146  3.1282141118539868  9.2356806381348679   T   T   T
  5.2805097228135693  3.1689909442146367 10.8625340351854067   T   T   T
  5.9654499883226189  6.6177945106858926  3.0763909430770942   T   T   T
  4.9181575060178027  5.2597361338489499  6.2296245281089329   T   T   T
  5.0649341154341281  5.1495426468931615  8.7354594666669261   T   T   T
  5.8093434906003463  6.2537108650785980 12.3182911893059188   T   T   T
  7.0432110990862320  8.2775733196639791  0.2072590912284286   T   T   T
  4.6093008785719318  9.0172357053654810  2.5604951445508730   T   T   T
  5.6069628081678369  8.2702264837822206  6.0087692973490370   T   T   T
  7.2069640442790242  9.1779103958883077  8.3646007052076072   T   T   T
  6.1879351643420462  8.5020102581934793 10.8584248956393079   T   T   T
  5.5574054009140141 12.4608516705333603  0.4264908836031606   T   T   T
  5.8055326777766840 11.3769541630389508  2.9710190588452310   T   T   T
  6.6317233615491986 10.7086759060564152  5.7532127119535872   T   T   T
  4.5663251185032072 11.0214160053319468  8.5280185941605566   T   T   T
  9.0786090997730113  0.9758887199832695  0.2450905389570029   T   T   T
  9.2862167175112234  0.1572725732703292  3.8588886102643749   T   T   T
  8.0346873169044848 -1.4464500463376795  5.5355645500329809   T   T   T
  8.9694241328203415 -0.7942775136631592  8.6458008842148413   T   T   T
  8.9338645021760605  0.5151197270678926 11.3893681580178576   T   T   T
  8.7318886473183337  3.2806844353498414  0.6992360969342425   T   T   T
  8.0468587294502605  4.3304612041595121  2.8456623831238366   T   T   T
  9.6439864435768499  3.4482782254902578  4.9913034784406749   T   T   T
  9.0844290195766728  1.9836011812734977  8.4255621175438034   T   T   T
  9.0970661910096826  3.0193017792578658 12.6869045167110421   T   T   T
  8.6846442645214168  5.7092892918861518 -0.2490524933703576   T   T   T
  9.3492118620088149  6.3128929830492524  4.0146826436680110   T   T   T
  8.3184315494026446  5.2985953643970367  6.3866025420043577   T   T   T
  9.5286580590915335  6.5803874042061477  9.7160374840954251   T   T   T
  8.8155746222882190  6.4841822141351004 11.9852785799863639   T   T   T
  9.2582517963668902  9.5765330335688468  0.5411548158401841   T   T   T
  8.0880988450438789  8.1443727016440448  2.9645157897141878   T   T   T
  9.5438843487884721  8.6600117706266122  5.4363079259120468   T   T   T
  7.8722007639775642 12.1803325536786087 -1.2414120987395956   T   T   T
  7.8864821053986001 12.0141168051106053  1.3329938086942366   T   T   T
 10.0509837781722418 11.2834624316217660  6.3186638047771417   T   T   T
  8.7751382360389396 11.1236034545080553  8.6928960340885748   T   T   T
 11.7783920047595423 -0.5422255826920811  1.2019387203216989   T   T   T
 12.0367895537382328  0.4547339807962150  3.9839802055942859   T   T   T
 11.3741701890576294  0.4666419087775998  6.9375749187609355   T   T   T
 11.1482885267280913  0.0993274382768253 12.4989311128113165   T   T   T
 12.1571999825947241  2.3857995263809562  8.2859001118862459   T   T   T
 12.2224846918248264  2.2455872747720678 11.0296451330931387   T   T   T
 11.6238636158310911  6.1651107812626567 -0.7581902476773141   T   T   T
 11.6080333184467808  5.7704750654631658  2.0163568700323182   T   T   T
 11.3819799532162200  5.9682412607545379  6.1272982754981884   T   T   T
 12.7940060974573182  5.0381263235376812  8.8284659999973467   T   T   T
 12.3462935958551849  5.0318221351096373 11.5708633742423910   T   T   T
 11.4434508005228963  8.5644326631047729  0.1699907200144673   T   T   T
 12.0219501215008755  9.2002392005352185  5.8673721213960608   T   T   T
 12.3968704127020075  8.1137428075151767  9.4913706450632844   T   T   T
 12.6833817326700800  9.0195098263225226 11.6855063405585415   T   T   T
 12.2327977281273643 10.5956216913426378  1.6577121344181642   T   T   T
 11.1596383007621025 11.2862384133846927  3.9675472958260833   T   T   T
 12.0439039614682901 12.7327193808515506  6.4882785149464288   T   T   T
 11.8987098627500050 11.2718189219800280  9.6520109629390021   T   T   T
 11.9610949286917876 11.9990930136437459 12.2727108002627521   T   T   T
 -0.5164993685998733  0.1429024893258123  2.2977058335913267   T   T   T
 -0.0328032190031017 12.8902130187110568  9.2498823053246095   T   T   T
  3.4541237581453910  6.4772490158616645  2.1502469683628123   T   T   T
  2.3706850885397515  4.9351588103951896  7.6168691493770622   T   T   T
  2.5919157159998978 12.9629828307632344 -0.3191963064193000   T   T   T
  3.1844997565921123 11.5817879484895396  2.0979694546621843   T   T   T
  5.0181851363673156  4.1958995594299608  3.3765893211335549   T   T   T
  6.0139721902483503  5.5733426891368172  0.9163701019935224   T   T   T
 10.1724486563369787  9.0379480947248556  8.1067251849171651   T   T   T
  9.4791534199309364 12.5497876326299433 11.1358229423774695   T   T   T
 11.3787540782114540 -0.1656516372499933  9.7125947976446891   T   T   T
 10.8021276242306339  2.3425380143079830  2.6417069965268811   T   T   T
 12.3021980545673362  3.0149396453544672  5.3519993889257167   T   T   T
 10.9996822002949699  8.4642790027216979  3.0104303194800917   T   T   T
