Zr Ti V  Cr W 
 1.0000000000000000
    15.4119853477336850    0.0092002105036784    0.0075686985216924
     0.0091978282521091   15.4168317070722267    0.0033033723005877
     0.0075647771218920    0.0033039266611125   15.4231482065347798
 Zr  Ti  V   Cr  W  
   1   3 110   3   7
Direct
  0.3985411806775130  0.1992087740754220  0.5988321751400212
  0.0002481230316998  0.1996282974358837  0.0019608674145149
  0.1969434221180469  0.3965701594437119  0.1927818599764419
  0.3985677653986974  0.9998462259844475  0.0084964057614631
  0.9994773723853415  0.9986378677622516  0.0006986521222763
  0.9992535604974727  0.9990279734670628  0.1993959380302595
  0.0003026000480617  0.9987617389733384  0.3993869564632356
  0.9984505203413117  0.9996807154978171  0.5994660485773183
  0.9997892503935579  0.9999124228285847  0.8004287869556900
  0.0004751370591014  0.1993559400726898  0.2015035648496021
  0.0046361561526210  0.1988166612692562  0.3987149525109329
  0.9969914157403997  0.1998838359585051  0.5999029505125655
  0.0005704475157782  0.1988445738786824  0.7999308217941721
  0.0006877998251520  0.4012496372604969  0.9994407325255956
  0.9982670478284649  0.3999030910988613  0.1989026689166811
  0.0008026896783595  0.4003772115486555  0.3986538451455499
  0.0031499066813547  0.3998656972378093  0.6014847319106992
  0.0003196845152404  0.3993899478757504  0.8012705090414668
  0.9995617418294995  0.5991713879412046  0.0009116453481013
  0.0004856343051016  0.6002990430560139  0.2004491276752963
  0.0024976117231864  0.6003963522554059  0.3975263167494008
  0.9962786199456718  0.5994452225677425  0.5982965358377680
  0.9995583861232678  0.5998150929548297  0.8017903207114038
  0.0005964962787306  0.7991039443239156  0.0006695559040741
  0.0011149667934327  0.7999744842322883  0.1995606388604941
  0.0027724795749133  0.8001020262713592  0.3990591390205221
  0.0004320505767251  0.8000407739509001  0.5986147681278607
  0.0043642482412229  0.7999011147371312  0.8004619395136556
  0.1981211831799064  0.0014113855035600  0.9996318709409522
  0.1990701252727645  0.9997874495333776  0.1984322279456197
  0.2005321232529149  0.0046317418709305  0.4003760177288933
  0.1978164956672445  0.0014672160461653  0.6002881680892134
  0.2000708118167356  0.9976991166429215  0.7993366713601551
  0.2046322505971379  0.2000449402331045  0.0006262494764895
  0.2007206224895663  0.1976367090536049  0.2032587376533504
  0.1939879312273880  0.2035569259962952  0.5964145429298504
  0.1998662661457135  0.1978413700945836  0.8012353180340643
  0.2004786856729229  0.3990231850877746  0.9941585149568496
  0.2006927521232831  0.3948529177616809  0.4060384773659931
  0.2002815019027724  0.3991162559919214  0.7956780828964864
  0.2010405098419025  0.5985922181292347  0.0000062833195358
  0.1991349946405510  0.6008154205379113  0.1988583974794746
  0.2032794699523175  0.5989899439281468  0.3990188515841954
  0.1979004867535746  0.5948538027053706  0.5997567335651360
  0.1995960141398433  0.6035854579412039  0.7999790652401310
  0.2010035140837778  0.8002449312964567  0.9952611184715253
  0.1996162956977728  0.8009151526403180  0.1978893014706333
  0.2036201343133555  0.8026167322888740  0.4008504957448709
  0.1986945541929293  0.7995377511341675  0.6035097414498085
  0.4000600387703364  0.9987567073126333  0.2022512579622375
  0.4006798648977793  0.9949448390465490  0.3992403930087601
  0.4002512291740334  0.9949611707510627  0.5991946425031967
  0.3999261129200991  0.9988800680065213  0.7986095758607145
  0.4039188740638707  0.2031711569380831  0.0022607086244570
  0.4003824667562512  0.2004079005002597  0.1990143765913042
  0.3969955097985653  0.2003160307626671  0.3931440970353631
  0.3999316944474313  0.1992214516370563  0.8050409275656910
  0.3995466398315593  0.4023997633460457  0.0001698688635451
  0.4011301733112784  0.4016355244809208  0.1999932292880130
  0.4003775499040850  0.4051735558969584  0.3988169335072088
  0.3970853845964705  0.4073573383442583  0.6011601039408448
  0.3990487283405973  0.4022461856929591  0.8003655021424638
  0.4005216508383482  0.5997245122831536  0.0031149074156901
  0.3996967297997010  0.6001581456332088  0.2039764690312636
  0.3974581012879396  0.6010306226116646  0.5953298790076536
  0.4020406480514901  0.6011979063663737  0.7976145361092598
  0.4001466111137334  0.7973837103601868  0.0018742472753333
  0.3995661270047284  0.8003922484303656  0.2030483129426021
  0.4008747181049920  0.7975237010486484  0.5962690854602393
  0.3959698148963320  0.7996252023093818  0.7997975463937275
  0.6024782615177859  0.0047121825151699  0.9998947997149666
  0.6017598457360825  0.0012115464958992  0.1996258238774455
  0.5996210036383953  0.0015267215332550  0.3995748518390435
  0.6024782631797099  0.0003475014150225  0.6005406514181766
  0.5995884582557777  0.0005224464695236  0.8006608748332578
  0.6007766492649991  0.1999208012470637  0.1969247117172810
  0.5989265245866620  0.1995640144726239  0.3979267356895711
  0.6009706750068352  0.1997230679476573  0.8046450909553774
  0.6003992633264996  0.3960833700857874  0.9993689115394085
  0.6012325409663548  0.3988988897324474  0.1991738523627668
  0.5996257581020101  0.3997611493788021  0.4015904279434079
  0.6001278874664704  0.3979496534816063  0.6012210223158618
  0.5991083433765448  0.4012003898122840  0.7981552988971033
  0.6001868160923699  0.5986656720786645  0.0006711866479152
  0.6016127409180082  0.5999438464894113  0.1986288262988580
  0.5966331835626180  0.5991458815958706  0.3958117939991369
  0.5998508758399870  0.6003282351878769  0.8033335338673837
  0.5988766854452950  0.8023219083887188  0.9993758633165334
  0.6004568364272865  0.8019051146462733  0.1981911681202681
  0.5964673745431007  0.8006701142023307  0.4010916063112118
  0.6002564450531374  0.8040609005297924  0.6015349394242854
  0.5980274342217654  0.7998240504649357  0.7994121618487305
  0.8012188966358087  0.9997816932825214  0.9997714168631714
  0.8015134532062537  0.9994025275886972  0.2006981895612404
  0.8008674473215176  0.9998678672358654  0.6002010366247506
  0.8010595704056535  0.9988679243175530  0.7993727829556739
  0.7956278915253369  0.2004296077273899  0.0007742107550353
  0.8015884499101996  0.1997510224881639  0.2010865571845285
  0.8010005597489247  0.2002979352861601  0.4000735139769780
  0.8013139696062846  0.2007078095445377  0.5996300620316022
  0.8013745055618613  0.1997946701122616  0.8001340861189711
  0.8007759939010818  0.4000568274386715  0.9992014276207150
  0.8011732657738929  0.4003578833193348  0.2009857007600970
  0.8004562198053747  0.3993190465614722  0.4006927825253766
  0.8005662621739117  0.4026136501946934  0.6000905479631754
  0.7998186470972941  0.5993238612011622  0.0003346604579639
  0.8006082147513874  0.5998292493560985  0.2007865813616853
  0.7973441082934350  0.6001403904144477  0.4019650910969987
  0.7995641753887082  0.6004953083146559  0.7971665300742963
  0.7999402630219949  0.7996261051869568  0.9991800250717564
  0.7999478394812732  0.7998173471822585  0.2005641884662314
  0.7990551481938820  0.7997920695336717  0.3997423200423215
  0.7990673640359589  0.7971395040464098  0.5996673399673109
  0.8010106006681780  0.8005036524789574  0.8001775543880150
  0.6037687169790226  0.1999474640163487  0.6011065614506527
  0.7998138303524792  0.9996884679217047  0.4004069648807160
  0.8002883208388525  0.3999157892714222  0.7995298301131296
  0.2020098791319023  0.1996352083527439  0.4005830485813021
  0.1986664728746175  0.3984640546999831  0.6015509453223715
  0.2004680969114526  0.8001022783938736  0.7987221458873940
  0.4009682693341056  0.6035675803802008  0.3993408074242610
  0.3989285966520561  0.7974826124846564  0.3997723153542150
  0.6005819998648929  0.2011879234951570  0.0004250072037801
  0.8045021142707078  0.6003200503541241  0.5983593115699515
