Zr Ti V  Cr W 
 1.0000000000000000
    15.5633147981762434   -0.0105082892338306    0.0011052113616143
    -0.0105224976463168   15.5390273600018674    0.0056805954645976
     0.0011054290159095    0.0056800010957864   15.5617863503600393
 Zr  Ti  V   Cr  W  
  10   1 106   6   1
Direct
  0.0089416037966911  0.1878846604416965  0.7956626113609996
  0.9991493804416252  0.5976131258426262  0.7990318479786854
  0.1930596819119073  0.0051204291720583  0.8018928550394390
  0.1966947662558128  0.8007958515916271  0.3978142777383922
  0.3972005011293022  0.9987647327257584  0.9973590208096036
  0.3975011370438422  0.7740091880104086  0.0014027005230477
  0.5984934935676341  0.2020630247455896  0.2032091955326062
  0.6103228566513259  0.4098031906376118  0.3989171343849380
  0.6007559501994778  0.8013074489466330  0.6018411076432278
  0.7936847767471350  0.5917135313381422  0.4007305697110563
  0.9987992358046727  0.9944534758457753  0.2020748027231351
  0.9957305620018657  0.9985127540970524  0.0014640431374459
  0.9986332840380919  0.9992876407749447  0.4012015957440319
  0.9989506867738650  0.9979527371460137  0.5980932370859476
  0.9887395506197596  0.9884324148417356  0.7997808629798370
  0.0014793088451925  0.1996943088033694  0.0032622687030301
  0.0017831098032566  0.2016176430428033  0.2008505749491744
  0.0028138680015508  0.1980252175928315  0.3990213136425296
  0.0028911405053518  0.1988295009983393  0.5939924879131742
  0.0016871046951277  0.3985800344360816  0.9999584607730510
  0.0010454843455671  0.4005198622442773  0.2002386935957670
  0.0040417294207184  0.3986631358962618  0.3990847750103090
  0.0023231826441839  0.3989250300899173  0.5993428085303403
  0.0001771867911727  0.3953827120658604  0.7996112540596633
  0.9992268107279002  0.5998651176700885  0.0036239784375328
  0.0007239661113212  0.5995537412549610  0.2006421028490213
  0.0018857003446258  0.5989881352731056  0.3989555694186087
  0.0008371619665055  0.5991815524417298  0.5949312203911697
  0.0000711383107168  0.7979995075626283  0.0001950567470188
  0.9971345700939749  0.7972555595477647  0.1987638890006923
  0.9946059184951309  0.7982702992359143  0.4005246496446446
  0.0005845440455274  0.7986890722428746  0.5996662557620114
  0.9977032176955327  0.7993668733344105  0.8006225599542678
  0.1914311678078590  0.0032120516127643  0.0060853686917974
  0.2012927415004643  0.0020734941674982  0.1991551095603671
  0.1989502054208573  0.0045472841204597  0.3982180902272821
  0.1987016841335243  0.0006283629755051  0.5964019148158527
  0.2009586761634262  0.2019446980910252  0.2007502312737969
  0.2006397906447688  0.2011007748633043  0.3986376154382650
  0.2072165805302628  0.2020812769219384  0.5975128257882193
  0.2097469753866716  0.2086290571456081  0.8009942376528205
  0.1998334636596069  0.4009194566830127  0.9999127926765320
  0.2010714039742632  0.4018792865459061  0.1982945205684717
  0.2005176542683718  0.3998672059162017  0.3988506279051861
  0.1998055461978641  0.4003201352132502  0.5999784047850323
  0.2021834531240349  0.4024051408726504  0.8014675321798252
  0.2006234819150736  0.5992063575240959  0.0004181577016070
  0.2006596479692062  0.5997673782156949  0.1991831717187167
  0.2007371928728153  0.5970891132001331  0.3995453080396691
  0.2021316086653197  0.5988773351862484  0.6002665134802999
  0.1937485884943311  0.8012243203794112  0.9989041388044250
  0.2003078973147858  0.8001217035235340  0.1952224506075223
  0.1979393401388941  0.8011049170681153  0.6037020677679200
  0.2007876334846249  0.7981305104849575  0.8010447564413756
  0.3997995857083562  0.0011148418747347  0.2049209436764966
  0.4002364315568444  0.0010405260657775  0.4010854531398421
  0.3981049473950439  0.0049617389636604  0.5971602983488007
  0.4023910750934341  0.0007329059808019  0.7926781919190863
  0.3998642147513607  0.2047602309139226  0.9991746221796888
  0.3958666111498793  0.2017528444006925  0.2011978878877845
  0.4003715238839836  0.2017889794363663  0.4045993923670179
  0.4027445132421986  0.2014117299625248  0.7953752992143264
  0.4000804870025386  0.4008374400003821  0.9982889061600716
  0.4006317833407010  0.4015835240137386  0.2004952448626877
  0.4002360768784035  0.4010077665928409  0.3994990635954944
  0.4008698364279819  0.3972283301045111  0.6000358774237418
  0.4020332444000789  0.4013438842167838  0.7991052211426408
  0.3995089018005534  0.6009933111127472  0.2008027711398262
  0.3975750163448716  0.6003292358961589  0.4009736250256745
  0.3986868390205185  0.5987368893461353  0.5993710979311185
  0.4017239571720989  0.5996328112704092  0.7986273726867318
  0.3998907197249845  0.8012206559302358  0.2058214041221774
  0.4011741201063582  0.8017425395543045  0.4020351537585913
  0.3995202052718013  0.8008988467900071  0.7957244933993879
  0.6054369912764721  0.9992979658652299  0.0003996243288407
  0.5997446542870030  0.9970594410737738  0.1994147287567122
  0.6003991145836907  0.0006905858462195  0.3995835208721038
  0.6003456886787401  0.0043198013041712  0.6000183249945774
  0.5995795160984030  0.9991273796012494  0.8005479561013071
  0.5993953380718667  0.1995272532268610  0.9966266499765501
  0.6017755074248924  0.1991789210729102  0.4054924012420497
  0.5967069090549217  0.2019453324832178  0.6011723061548633
  0.6010083020022343  0.1998667036151664  0.8003314748296256
  0.6015811102906325  0.3988922794367746  0.9985175576854647
  0.6021685878686416  0.4003647659550523  0.6037316034847383
  0.6007831696969678  0.4013193124418029  0.8013699390782444
  0.6011913548711038  0.6002873483573120  0.9994637617218479
  0.5985096936665789  0.6024767723834468  0.1980785201747199
  0.5902087144278203  0.6111696687547710  0.3994657161346125
  0.5971550255504369  0.5972208669297753  0.6020196562855114
  0.5987389142849440  0.6000768424513472  0.8010593564003629
  0.6034677360069536  0.8004531671464220  0.0015011723252134
  0.6009006829064912  0.8005769424888785  0.1983491742782863
  0.5996385184986311  0.8041272009759060  0.3969655447893619
  0.6005822020655656  0.7999181890899655  0.8066755070951389
  0.8009449664047785  0.0037020033147857  0.0005811811857398
  0.7987396137455736  0.9992891676090870  0.1995742831172814
  0.7996247332554636  0.0003377041913595  0.4006948158689368
  0.7998824190653943  0.0016696316386575  0.5994196898502603
  0.7958501631283108  0.9981138925481691  0.8007755140835418
  0.8015632043334211  0.2003409554567776  0.9996017944445041
  0.8018770991352475  0.1966357161754394  0.4003357760947499
  0.8011763300620492  0.1994150337169857  0.6002724224040540
  0.7988561909629741  0.1989337685802012  0.7981849781003123
  0.8017286931218006  0.3980687797239087  0.9989601448414722
  0.8029565668663318  0.3994769413103144  0.1975867309546851
  0.8121425051438368  0.3890806088488700  0.4002270936835176
  0.8025343596369493  0.3967740396291889  0.6019234495902428
  0.8001158316544521  0.3970662844868433  0.7998344713277283
  0.7995775190997545  0.5947713156480708  0.9993112920858700
  0.7991674177584590  0.6021188506878273  0.1942783667709083
  0.8000309007808566  0.5968674474353060  0.6035251714095408
  0.7953912453428633  0.5997518607864750  0.8015157735340346
  0.7995212826915383  0.7998052338522473  0.2038282324545244
  0.7995148818982020  0.8009663744034156  0.4001205762604424
  0.8037846403384024  0.7987705053797531  0.5995489656648718
  0.7984005855690623  0.7986115286167658  0.7961040281254721
  0.2010070631740953  0.2031431406692416  0.0019607900653604
  0.2047073678520028  0.6003584867617777  0.7998381605413882
  0.4010653162889556  0.5908490593161856  0.0005937318225373
  0.3949616155423969  0.8004342597913037  0.5992297547356026
  0.6008697019396355  0.4057141517435413  0.1936950352654026
  0.8040428878440393  0.1997143042995103  0.2002069716414146
  0.4011790125240268  0.2014895042862234  0.5992285854439485
