Zr Ti V  W 
 1.0000000000000000
    15.3704372863088707    0.0041087699184726    0.0045828320708022
     0.0041071823098185   15.3593176205705255    0.0049868964281650
     0.0045832368054306    0.0049883200619353   15.3853693029952101
 Zr  Ti  V   W  
   1   2 107  14
Direct
  0.7918330195777608  0.4014566072567249  0.8104137336263048
  0.4070180047393590  0.8021759785651307  0.8080282395771384
  0.6139364167921525  0.4019190593891805  0.9891384076329943
  0.9982608260281096  0.9973604180835435  0.9997029954899044
  0.9966569895943295  0.0012921934302164  0.2003176873575614
  0.9998265966912389  0.9967850174997811  0.3998310699423508
  0.9950017810847364  0.9999512981766171  0.6009643661814885
  0.0022140642337065  0.9984061403471919  0.8003437008227258
  0.9994695160576533  0.1992064629884819  0.0003686622341845
  0.0017869394292797  0.2022826195941677  0.2018517781197210
  0.0008128302304384  0.1996993437128054  0.4004236601552628
  0.0028605626215883  0.2008659219499103  0.5988929829836457
  0.9988302730934179  0.2013909512829090  0.8008761596756935
  0.0038948636355038  0.3989928685061435  0.0060294047266279
  0.9985083332520314  0.4009844833203626  0.3968866627511403
  0.9976264679044210  0.4000487216927746  0.5996923493121574
  0.9994199764868097  0.4010395833570126  0.8023637272448845
  0.9981648994079679  0.6043634476678909  0.9998276748337803
  0.0042918001519867  0.5961954269374711  0.2005969725258281
  0.9997125180912095  0.6025689659749882  0.4021350637470894
  0.9996824066415082  0.5995349377984244  0.6011155341250113
  0.0026534866007031  0.6004506172738523  0.7999571055458176
  0.0054920601377916  0.7991400262607115  0.2007932628021031
  0.9991433937408705  0.7994318415792017  0.5941558735748501
  0.9990679584757631  0.7987538091660978  0.8057160922613511
  0.1959096071000441  0.0011800709308487  0.9943109969345263
  0.1980355553715297  0.9987520468394061  0.4017584113597165
  0.1980464926739481  0.0029013216403868  0.6050319866015379
  0.2010730140447010  0.2016559678174563  0.9988584864745078
  0.2012520771300085  0.1984441201590648  0.2004203031073090
  0.2026025589881844  0.1990411096742683  0.4029748291832415
  0.2000388974249458  0.1963325393213675  0.7952899977350602
  0.1966623739664348  0.4037770199257447  0.1953418289158544
  0.1992789450950671  0.4014370268611055  0.3990494452318766
  0.1977432859101255  0.3968502117818440  0.6004757217352705
  0.1977280915211389  0.4040838575584090  0.8047434146267642
  0.1997143111419216  0.5952273287302203  0.9972494332716181
  0.2008258104334558  0.5994149145364294  0.3983932556773300
  0.1996243215875642  0.5990381397677894  0.6049185982111932
  0.1965015232015048  0.8011978215459086  0.0035365129738241
  0.1957744565061836  0.8006984305389209  0.3965680953296866
  0.1993090617240329  0.8002840115058012  0.5985739307758078
  0.1975086875072244  0.7991078756786982  0.7996738702159247
  0.2018180891747249  0.9976661720517076  0.1947039216526411
  0.4020483214440780  0.9963711400303942  0.2018098832662657
  0.4014592436877677  0.0027705930873850  0.3994850342938661
  0.4005623397426424  0.9990795865683229  0.5989531605358768
  0.3959988112690528  0.0003193971870722  0.7968931125952049
  0.4008900603711322  0.2010550736016673  0.0019521570778713
  0.3996143959685023  0.1964385397242448  0.2029313098777402
  0.3959379582088992  0.2005434362487717  0.5944334509857432
  0.3991933622723269  0.1990485108837382  0.8003111234270690
  0.3958219634595925  0.3971422924794265  0.0004628836816915
  0.4022789221514510  0.4008069655737916  0.1985250275399815
  0.4001021011860842  0.3970629174933735  0.3978167167293390
  0.3990797691921024  0.3998868438177390  0.5982688223894179
  0.3965764966855356  0.3992445424002333  0.7993110055430904
  0.4012810606011568  0.5986725578962221  0.9997594239409663
  0.3973269478738460  0.6026358335353279  0.2007068305202184
  0.4001839195411578  0.5990163985875784  0.4006336733463696
  0.3985348381699709  0.6004777759551436  0.5990752113078760
  0.3956247568112386  0.5995927023088556  0.8001006185962434
  0.4007339277259039  0.7973282891317806  0.0070818730058246
  0.4013355432410347  0.8013529194812360  0.3961901518598877
  0.4000014455287055  0.8011441125462605  0.5933990485084968
  0.6035806796937804  0.9998067434255017  0.9984162856533740
  0.6025176563044650  0.9997897640608293  0.1973171023356405
  0.6001900592920385  0.0002533957683208  0.4019822403963712
  0.6025856405679507  0.0008508129397132  0.6025902891306301
  0.5955653711424421  0.9989902332473057  0.8024357004450742
  0.5980673314020021  0.1971240766417301  0.9990983230643584
  0.5989890402304063  0.2021065907009323  0.1990027057399173
  0.5952862220279121  0.2013283379497692  0.4008206690106579
  0.5977896282868133  0.2009053435101267  0.6011156200286646
  0.5962151604173492  0.2013478786297118  0.7998722672496933
  0.6026676756253223  0.4008332142338876  0.1993240522310823
  0.6012317826520777  0.4012068690096480  0.3986268044412188
  0.5998981092751224  0.4007774250018117  0.5989721621207069
  0.5898924421096572  0.4006363042330052  0.7942973967940964
  0.6004264898371202  0.6012236693502366  0.9986400618452550
  0.5986259355593957  0.5985512085096899  0.1981289295130079
  0.5993996373887681  0.5992706014100425  0.4018095133212404
  0.5984201975986130  0.6001855970964299  0.6019791937014397
  0.5961731282898118  0.6001188657427396  0.8000832076070591
  0.5996980332026485  0.8003422240152130  0.9999983044305862
  0.5961646308632454  0.7987785382780911  0.2000763221542820
  0.6038314145368121  0.7985460770226128  0.3988329638831075
  0.5999388751240782  0.7996064301418143  0.5997604929957212
  0.6026427756798921  0.7990397987363540  0.8006310012213239
  0.7991517306203716  0.0001538184215446  0.0046160243318492
  0.7989512546214973  0.9972407738292085  0.4005607965929668
  0.7991859450802395  0.9994599026581753  0.7960676874101857
  0.7996277303341963  0.2002900965399960  0.0009667987445650
  0.7989808825568329  0.1963877518570291  0.2027058445220165
  0.7983153574938866  0.1989449941970479  0.4014769656451468
  0.7994743398966203  0.1966546002862906  0.5998061980777102
  0.7990935012996191  0.1953660746762288  0.8003558046105924
  0.8083981123249171  0.3999418304059079  0.0111865732181862
  0.8049034829044498  0.4000345614492564  0.2048243610418084
  0.7998674937471140  0.4001705204984443  0.4016925428269329
  0.7993966080870599  0.3989298804824131  0.5993048633813317
  0.7997976866624643  0.6013154310449579  0.0013965038976336
  0.7986564592343562  0.6007168900722359  0.2012341185042933
  0.7985876993894080  0.6048280812682253  0.4015159943280444
  0.7988228641373406  0.6002905677287537  0.6027607442987699
  0.7994554116524440  0.6063677927070078  0.7993937541859528
  0.8038440286274666  0.8008546944383391  0.0032450233655667
  0.7985924621902842  0.8038600994885450  0.2046806688149103
  0.8003204989367120  0.8049258691716547  0.5957616050110439
  0.8003384946084414  0.8017490952640258  0.8001727971086323
  0.0013761181391121  0.4007760512093779  0.2019898544343440
  0.9979987048350585  0.7991260709323366  0.0039148169363122
  0.9980511942466350  0.7985959132860909  0.3977952947416216
  0.1998689967891845  0.9984262839009104  0.7998706396538701
  0.1992926055231274  0.2005062225056112  0.6003959051458796
  0.1994044283691780  0.3997084087021288  0.9997836834892792
  0.2021966696976972  0.6019388292951545  0.1972248805207067
  0.2004256281887677  0.6012852043703288  0.8004431148309996
  0.2021490118371533  0.7952958748700977  0.1994710386238632
  0.3990965756363461  0.1999766326656837  0.3986969425702237
  0.3970462757300433  0.8003369796476063  0.2023292524363042
  0.7995866698190239  0.0014153069001629  0.2021590444669848
  0.7990280698944487  0.0009094910288642  0.5999759716842920
  0.8037277856808669  0.8008219509715292  0.3993905913343479
