Zr Ti V  Cr W 
 1.0000000000000000
    12.5911167094248988    0.0340321349657384   -4.4651127512690021
    -6.2606958638130132   10.9008704492667636   -4.4499898086669072
     0.0017762997224301    0.0219469782085256   13.4007816977248968
 Zr  Ti  V   Cr  W  
   9  17  87   2   9
Direct
  0.9867323657456304  0.1975513578537668  0.0032519626867344
  0.1989822775399218  0.5677122476212053  0.9852682573217312
  0.4044839138454064  0.5897854982359331  0.1978589930062485
  0.5830167694834839  0.4190610998653355  0.9899983774024705
  0.6090983556099752  0.3973458635670304  0.4057222792325117
  0.5927609024029594  0.5863577386506896  0.8183096224388003
  0.7945579743416884  0.9921101651096866  0.1988841887057891
  0.7959271243288287  0.1997628920535336  0.3989983514065879
  0.8029618547485511  0.1955069603432982  0.8013808852551043
  0.9967018164224858  0.9946743881552256  0.6033983687654735
  0.9846162318641296  0.0084051269317562  0.8024310135853020
  0.9935815781662098  0.3996242111636568  0.1967468199596450
  0.0049003035095481  0.4000710975696955  0.6048986035939503
  0.9966645626436504  0.6010189041166146  0.6014726348794407
  0.2034224249967332  0.9927906356406356  0.5954015630665831
  0.1948644981814451  0.9906295414869200  0.8005082395512355
  0.2088645164176221  0.2095917371910092  0.0078784626215295
  0.1980683380218542  0.1963232875030882  0.3887986947867960
  0.2082455568191938  0.4042276087508492  0.1811186451329439
  0.4024234562184249  0.2009121733322362  0.9953675653869770
  0.4441478086313329  0.5909923393107344  0.9894901402815214
  0.3874447858221347  0.7868084275547566  0.9912089573151219
  0.5740059220816814  0.0080282511841307  0.1854516578549561
  0.6014616595153612  0.3992790526589398  0.6078420083993546
  0.6057781558118046  0.8138307118181052  0.2168527482116299
  0.8141668408149642  0.6039985563125677  0.2081395611131018
  0.0025981543741232  0.9917402201519091  0.1906761357048896
  0.0242281919736171  0.0179881655930065  0.4164643576500393
  0.9946043811434662  0.1927146153879697  0.2081339493834701
  0.0145834738983304  0.2199694214054213  0.4057159893505272
  0.9957841804446171  0.1972298348286183  0.6002018293420214
  0.0556508276580903  0.2641779434150123  0.8345354067661045
  0.9993458914968173  0.4179031267356924  0.9987452195815152
  0.0006805928844271  0.4033919874157821  0.3974279778342318
  0.9967378128899216  0.5999432319169622  0.9997082573785742
  0.0053007521534685  0.6044598772118961  0.1994364173678523
  0.0019860922945109  0.5969934349654862  0.3957800478303195
  0.9974422502564946  0.5952769200936187  0.8016054805783291
  0.0023257706550728  0.7942525220433065  0.9985277970453436
  0.0123676028252038  0.7992156556158404  0.2010475011974009
  0.0081675281999370  0.7970168660569860  0.4060348883483762
  0.9983373745014299  0.7947304561852506  0.6004644043186013
  0.9995518368128822  0.7957569673279800  0.8001341108158561
  0.1988587309458122  0.9935793985419725  0.0018718490870760
  0.2021904433352056  0.9943259899486488  0.1952827675403122
  0.1969966645087277  0.1920457643306202  0.1919866275040833
  0.1989836942670665  0.1990025409592195  0.5947278316008529
  0.2071788465994902  0.1940360577327392  0.7926215285809797
  0.1938084226113960  0.3991358279846339  0.3929107305759723
  0.1994646512294488  0.3975225826732397  0.5881443863710725
  0.1909733022439087  0.3877645409237067  0.7760293944744310
  0.2010878804866760  0.6005483625378835  0.4016513822463804
  0.1984161058647363  0.5995185776341122  0.5933884951602684
  0.1864373077914315  0.6005624586321489  0.7831346069242123
  0.1925888419356674  0.7977495982177121  0.9948366779315762
  0.2029985858231311  0.7983721072688093  0.2001304373483636
  0.2040221308609800  0.8000237878289130  0.4027199948194592
  0.1974908523889938  0.7969100622408769  0.8038433555732469
  0.3939238547653697  0.9951749588556933  0.9961694178735909
  0.3880163900849930  0.9926912836370982  0.1958752467071114
  0.4020957084838293  0.9968412418608855  0.4027878033213285
  0.4047569513751643  0.9956020903943746  0.5974980108220560
  0.3998263578661916  0.9967353539431236  0.7959896777494370
  0.3920772151473018  0.1890253084562670  0.1927538275979971
  0.3977037540368945  0.1922831823215681  0.5932067340947739
  0.3967071812223288  0.1880914768726604  0.7853320929081579
  0.3442372752953161  0.3802496376532329  0.9680551147133053
  0.4189441088312530  0.3927760777500668  0.2183797598851240
  0.3926347919263845  0.3964161515067464  0.3992464867523743
  0.3922018388813753  0.3951968342707890  0.5857880956261968
  0.3743328474973736  0.3741696928515430  0.7700654272881766
  0.4028618059354345  0.6006103054306114  0.4116317736193817
  0.3962201432412056  0.5950962002235918  0.5923733593783717
  0.3768158731195443  0.5890510602999330  0.7738866710392439
  0.4018643233591747  0.8005167841214650  0.4039778053667183
  0.3957247152479892  0.7954339581289138  0.5947449310793482
  0.5898290261537905  0.9931114151323399  0.9893837430148684
  0.5992417347864003  0.9995114061880911  0.4087676187885285
  0.5893071322374298  0.9879664629932225  0.5942208310175463
  0.5900084749803536  0.9949547271525613  0.7954080601305384
  0.5954668743859100  0.1922732737038701  0.9953357569987414
  0.5885912034865326  0.1860310035987801  0.4010464407113394
  0.5983469751453051  0.1924754489337195  0.6004621042837769
  0.5882733928150793  0.1902265840519579  0.7931357097788935
  0.6110955039604253  0.3920984308559113  0.2005186427931474
  0.5974685724803988  0.3702177405812767  0.7847600976033123
  0.6753218438468769  0.6884622779196725  0.0859383580076222
  0.6085703868013195  0.5956763298499387  0.2117862551255248
  0.6037360498718940  0.6054167290201230  0.4087178812205014
  0.5972520043943643  0.6009836637878065  0.5960422917427106
  0.5881332208275192  0.7924710609296735  0.9833096180099644
  0.6078404787033385  0.8070828168874299  0.4169016803388994
  0.5930800430122147  0.7927851550000724  0.5975227672538129
  0.7910307091305250  0.9878671222136265  0.9940962158657334
  0.8112897697196436  0.0030251167497199  0.4332650761430911
  0.7950903469477352  0.9973965521227879  0.6096247289040245
  0.7736753506655948  0.9713594831828750  0.7947592979040911
  0.7733203533522761  0.1919879475963590  0.9998189800214260
  0.7897536723162774  0.2043453094190154  0.1869661200027120
  0.8037413335592171  0.2053410971869385  0.6061511966468810
  0.7995737515069266  0.4047877181337288  0.9987002991926529
  0.7964224614750490  0.3944563718365485  0.1965976682288771
  0.8068801732410814  0.4019627238936005  0.3876174475081176
  0.7999356086701314  0.3984731614943366  0.6047224183963574
  0.8006620078518812  0.4028390128740404  0.7985424579997003
  0.8114653401185719  0.6010409082371621  0.0020816719519239
  0.8034730382627253  0.6120222782409215  0.6177330963749557
  0.8102951494626288  0.6014617296100903  0.8064850495544686
  0.8097731143971765  0.8010118760034167  0.0069144310225419
  0.8575849949642737  0.8333309508659363  0.2548589587484422
  0.7961419197155271  0.7949734212567301  0.4094536652941481
  0.7962141415568308  0.7971139287977328  0.6020972381558599
  0.7993246160559367  0.7921583509856908  0.7998779420257884
  0.9836172633960694  0.3910561989641025  0.7879847981057194
  0.5935669016191317  0.2005922561792855  0.1887702475107672
  0.9971725264615696  0.9892240958617653  0.9984866386056952
  0.2055493900358085  0.9940838839768891  0.3960577062226701
  0.1974562144994497  0.6052987167374270  0.2085285494028059
  0.1961280920424804  0.7937697364627665  0.5962326315366584
  0.4002510544938988  0.1944079545613820  0.3960015112204650
  0.4008151851491609  0.8060278145096456  0.2068717125905014
  0.3929622847273403  0.7965060488679737  0.7925519721516474
  0.5940580730428229  0.7929847896632902  0.7941488090446432
  0.8066557157152103  0.6031137443716026  0.4095774029356729
