Zr Ti V  Cr W 
 1.0000000000000000
    12.2882735461728885    0.0000000000000000   -4.3445607757035454
    -6.1441367710433559   10.6419570608175889   -4.3445607757035454
     0.0000000000000000    0.0000000000000000   13.0336823299999995
 Zr  Ti  V   Cr  W  
   9  17  87   2   9
Direct
  0.9946258491207823  0.6019425528502942  0.4092138072041643
  0.9700635211906161  0.8076342169983439  0.1934500606815235
  0.1927881247431138  0.9937119769202502  0.5862142354253672
  0.2050843857712913  0.0034234730851773  0.8119173341302536
  0.1994560068303282  0.3955898894402597  0.1996545916094103
  0.2023139220902548  0.5990831146231644  0.9958547739076383
  0.3996317368467666  0.6029068040214366  0.2043740888094315
  0.4057281121250225  0.6041008651470003  0.8060316705634692
  0.5922612937385666  0.1989307733367502  0.0103466531174914
  0.9989173660074241  0.1923612739412638  0.1953188627187524
  0.9976706399264447  0.2042521373326259  0.4013705406958054
  0.0026227337397520  0.4036560716950378  0.5973966209585078
  0.1969705880301690  0.8024955158026440  0.9969655679179288
  0.1970672387060365  0.8051500963555371  0.3968817360338503
  0.4096849834925022  0.0040100211808581  0.5899608071488348
  0.4008049674844922  0.9947423370112393  0.7954760449885370
  0.3995087694034977  0.1883890217551433  0.1909859438704631
  0.3948353265516883  0.1945826609490972  0.3934467297972786
  0.4064075010387265  0.3941513058841354  0.2047372842514149
  0.5980647981889061  0.2038015847573989  0.7944738010119818
  0.5977633398903727  0.4069199634005977  0.9983327875093186
  0.6126719329758059  0.4078714112014752  0.2143558956548139
  0.5984350291717832  0.3988001245481560  0.5961894196472651
  0.6390643539278862  0.8066834788761442  0.0070583479282121
  0.7990362874599969  0.9965143908460926  0.7984444828290584
  0.8015698350444211  0.3986440075575512  0.4071558729602689
  0.0011112798732517  0.0038906004375271  0.9970339340676175
  0.9861841224515007  0.9898712031992482  0.1783151688175102
  0.9983373937768996  0.0034110966255421  0.4009223205300037
  0.9903599457971670  0.9963131394263720  0.6025807793066326
  0.9928634064039500  0.9937299866662814  0.7988805145505128
  0.9952540358714238  0.1948176714469637  0.9902534461404304
  0.9970572624715750  0.1962956493948391  0.7980163489312876
  0.9973362828007004  0.3970536434544156  0.9919032793758219
  0.9908004711596258  0.3930375217002776  0.7934750488201043
  0.9916335090107813  0.6001319471896228  0.9902290746129349
  0.0037172635259364  0.6121751791457458  0.6207474968491578
  0.9950925911953302  0.5961056659340184  0.7963059380301876
  0.9887362410885515  0.7979025328510888  0.9825978518904255
  0.9839528390112438  0.8020016649956144  0.4005376463879665
  0.9909177689423979  0.7986858997341245  0.6064151350637954
  0.1882362464756380  0.9932517093618378  0.0001205448071216
  0.1923659766092888  0.9918967807501802  0.1898940598146209
  0.2053402363409333  0.0150084548289052  0.3903993045368763
  0.1941721720031756  0.1941507995432875  0.9952689703028131
  0.2018346013264622  0.1874429852423040  0.2006609713351578
  0.1944541228583743  0.1978659610815042  0.3952703493262711
  0.2002048023871739  0.2060322218160608  0.5953886800834486
  0.1989192388723591  0.2040990246847799  0.7984874884527867
  0.1889592777427922  0.3803930957797259  0.9791835090623783
  0.2017482964356453  0.3996710173425986  0.4098808768535676
  0.2036547983836553  0.3969618025777313  0.5942692072186332
  0.1987484600589140  0.3973187427389280  0.7958790576113944
  0.1947498667471924  0.6132505749965470  0.2068793531506291
  0.2000476124501442  0.5978115587309564  0.6021333457391090
  0.1968240014966836  0.6029421069728852  0.7959839805201873
  0.2011338689268504  0.8038395867616356  0.1991481004004465
  0.2013877316925233  0.7925811790637696  0.6085106849124401
  0.2016017098686291  0.7938159148025319  0.8004304707476458
  0.3992201763217442  0.9917872900113114  0.0049863372285535
  0.4018577094962655  0.9945697345425007  0.2020593721733514
  0.3991386954838128  0.9967567716366549  0.3916137732713277
  0.3947100712243767  0.2156192965417008  0.0056578090267398
  0.4015722181024223  0.2070675213677500  0.5975819859874922
  0.3945184176179902  0.2110195777690930  0.7972049712108407
  0.3947227390512927  0.3976028346010107  0.9962283639825509
  0.4008389906803506  0.4012737540572097  0.4049876203568837
  0.3969479994957044  0.3976406841811543  0.5939641566368139
  0.3988495713452101  0.3932976497075543  0.7954649642780803
  0.4148098767913868  0.5957581812059463  0.0042422772819513
  0.4116192498810642  0.6093745759348281  0.4180617795066147
  0.4050459342447932  0.5999081033106918  0.5977245750314663
  0.4062289609007210  0.7991653200647736  0.0019781289060372
  0.4084313088733786  0.8117931699169308  0.2089998785046421
  0.4062092553632377  0.8091176541652638  0.4048520387051683
  0.4029004743994244  0.8010877751240192  0.6037329289822698
  0.4006223827432002  0.8018487673335760  0.8020640488651005
  0.6022568744921564  0.9917078982437700  0.0004039018077519
  0.6033758172951621  0.0001524949366445  0.4032512080519596
  0.6056473940472159  0.0012479593193545  0.5970600549163670
  0.6035528895983209  0.1954137930301948  0.2122251550484577
  0.6029496443410159  0.2002922243925942  0.3995361635384143
  0.5983420329149062  0.1941671487836118  0.5891924411436197
  0.5973383791230427  0.4035847183752490  0.4046815766332069
  0.5961205795451009  0.3996722221926398  0.7938682584834504
  0.6097591453748383  0.6020540654904971  0.0057994502884290
  0.6071004941805215  0.6005716671042901  0.2064118894399493
  0.6063756453035614  0.6050151649315270  0.4083377713560305
  0.6039885142996023  0.6038509996905265  0.5988187689528761
  0.6104807376350601  0.8070609121532004  0.4115715810999986
  0.5989931555646583  0.7978962429864468  0.5975153406321111
  0.5995929095938440  0.7999608168816889  0.7927778955104622
  0.7997744343404444  0.9981396159940376  0.0000896089103972
  0.8088283836557454  0.0062493819686975  0.2079175033495586
  0.8044641076160638  0.0023507872406438  0.4060336699213599
  0.7987869836330012  0.9998579173401401  0.5991674099387936
  0.8030321466802128  0.1962503079099663  0.9977963186787954
  0.8020965778582740  0.2002444106472085  0.2052929377650126
  0.7947423412889428  0.1946086351777706  0.4023300809456823
  0.7986968500475174  0.2002377416464065  0.5992202572237716
  0.8025078671878015  0.2019650912831884  0.7938867204846257
  0.8037543458354074  0.3977253138732586  0.2010111469537219
  0.8002041107768726  0.3981623306659000  0.6034519091399712
  0.7970847338674097  0.3965412225826395  0.7943031419698651
  0.7929646263062681  0.5954401535048774  0.9873403704169638
  0.7978904790679325  0.6051272161837002  0.2046493727351921
  0.7971357632320283  0.6131774774003759  0.4147560440303734
  0.8007001294226815  0.6028156664021781  0.6050240827596178
  0.8035336621540334  0.5960293969853587  0.7946772021970415
  0.7990662155822411  0.8017754766877405  0.1316843743317486
  0.8038028509160895  0.8056870359844900  0.4071581056553717
  0.7982693388040754  0.8010040855733535  0.6052396225211077
  0.8038957335039286  0.8004077288402429  0.8105390018608698
  0.0014868429413092  0.3954413499366594  0.3982686955262368
  0.9942617170056711  0.7980180174080185  0.8026840832109881
  0.9993280174837171  0.1975128848781010  0.6021763279478801
  0.9952979401703828  0.3989304961351291  0.2027757297411966
  0.9943237336500871  0.6016098440436631  0.1928354845296330
  0.2082682141882564  0.6053708304926703  0.4065585090654641
  0.6042524785017606  0.9969065066727563  0.2006857044984355
  0.6021537055421693  0.9998737097877192  0.7996601168305228
  0.6126527706849468  0.6027121299660340  0.7989924614200681
  0.6107193432853176  0.7990605633288247  0.2064085785323093
  0.8011192318906255  0.3993236946785411  0.9962513937808481
