Zr Ti V  Cr W 
 1.0000000000000000
    15.5633147981762434   -0.0105082892338306    0.0011052113616143
    -0.0105224976463168   15.5390273600018674    0.0056805954645976
     0.0011054290159095    0.0056800010957864   15.5617863503600393
 Zr  Ti  V   Cr  W  
  10   1 106   6   1
Direct
  0.0081083237541196  0.1878994391354329  0.7963742650261663
  0.9992888763264888  0.5986446026899428  0.7993695735220213
  0.1926098434411350  0.0045583611450190  0.8019296433281883
  0.1973517498979928  0.8005694729663063  0.3971913259933614
  0.3974035704213147  0.9978975862840841  0.9965548033649918
  0.3986116970164897  0.7732370902402514  0.0008187842838845
  0.5987327818294095  0.1982430477545933  0.2135009555769851
  0.6032756649132734  0.2881554333028878  0.4111781180393319
  0.6013239930398563  0.8006081234055601  0.6022276645435913
  0.7979551331837348  0.5955931211707269  0.3994765684249335
  0.9995714100116023  0.9945338325143561  0.2019421815886093
  0.9972894696528199  0.0002572843047925  0.9992284266538296
  0.9989373294937270  0.9994478827586820  0.4006525513985845
  0.9990327547360555  0.9982380529302588  0.5971141344660775
  0.9890842873137572  0.9892490332643380  0.7978001995262081
  0.0008380153911557  0.1994924968424709  0.0027791358213818
  0.0014456405336305  0.2017056768081136  0.1996027830297364
  0.0025247420477885  0.1986438769846736  0.3987355545397373
  0.0030179091454379  0.1989000692124741  0.5946685795213020
  0.0008735224526693  0.3991541920258785  0.9995661882214648
  0.0006114776238692  0.4000376287462349  0.2000494456263662
  0.0015298693696850  0.3989298719460549  0.3988564150279722
  0.0014187986256791  0.3983825559918936  0.5989399121559584
  0.9997372171412440  0.3956760599393309  0.7991313582955567
  0.0004290747706881  0.5991610072125362  0.0033830203300837
  0.0016106346750853  0.5996500558340433  0.1996856792283374
  0.0037564336611360  0.5989647564259618  0.3988161239665596
  0.0017111756131742  0.5992231588573096  0.5953181575783549
  0.9989642626035891  0.7984842393061237  0.9998776501159344
  0.9987028948541838  0.7970203055370285  0.1994213056731726
  0.9947155574842353  0.7992212313942620  0.3996404431589289
  0.0004522955699775  0.7986434268681171  0.5991916847536198
  0.9993093539288960  0.8002632485512143  0.7992921752562094
  0.1916327111028134  0.0021763720014643  0.0056833524956188
  0.2016569653027039  0.0016882756553653  0.1987210397365586
  0.1985053231054981  0.0039919971768227  0.3975814446707451
  0.1988906693393143  0.0000783835694278  0.5961466390111104
  0.2000093448237203  0.2014391679686671  0.1998783005305993
  0.1994946545158840  0.2008506026654342  0.3981969601643189
  0.2075609573944348  0.2017490765562162  0.5977820520426818
  0.2092857193584033  0.2081280087807261  0.8006221818743046
  0.1992431133615527  0.4009300625393061  0.9995022953443261
  0.2002029322801613  0.4013632495097483  0.1977778928807633
  0.1991978565912550  0.4000485851403205  0.3984908041322297
  0.1994442014067601  0.3999499133350641  0.5998528274294664
  0.2015143283188503  0.4022860316098154  0.8013256989035402
  0.2008138989790549  0.5995049127393083  0.0000061466660890
  0.2011521351556965  0.5997953471278222  0.1987517805716209
  0.2016390506453455  0.5969669672699822  0.3990023711332437
  0.2024267544948442  0.5989680523100540  0.6000308054936381
  0.1941115027315508  0.8010752762422597  0.9983241398426875
  0.2000308394652913  0.7997777658145537  0.1941638398026219
  0.1982861840513083  0.8007950109778827  0.6031971772290247
  0.2005949203657262  0.7977972164059386  0.8008987269437708
  0.4000454515562065  0.0001770595977609  0.2039636808436164
  0.4011744353692927  0.0016770395087218  0.4005718247937679
  0.3985362996757092  0.0046267852535624  0.5964766152912661
  0.4020354584758530  0.0002083181271328  0.7923181218274830
  0.4000677575423411  0.2042393278727956  0.9991517258027757
  0.3949876812149143  0.2000971931251530  0.1990664895180134
  0.3964395464903702  0.2014694034394728  0.4043554871524407
  0.4020258604228295  0.2011395531247973  0.7952798750957504
  0.3996972731042228  0.4001411999174045  0.9980698300074967
  0.4000294265887830  0.4012906189792847  0.1999646163361774
  0.3979331725633831  0.4007288785963979  0.3990659050408381
  0.4003067817469355  0.3974720266373539  0.6002731275227677
  0.4014576572282053  0.4009544711410132  0.7994958488298953
  0.3998529556427236  0.6001131227240646  0.2004864126849994
  0.4005983617531083  0.5981073456537005  0.4007818518454308
  0.3992470865362820  0.5984868414674187  0.5991147067982973
  0.4017084072243207  0.5996295033986936  0.7984081342401987
  0.3999421154360428  0.8004408184540981  0.2052303851304749
  0.4018619096196924  0.8006602230262234  0.4015250816628665
  0.3991806690391683  0.8006588498365743  0.7955281280325518
  0.6043492200138255  0.0006049514534878  0.0009545940637687
  0.5999305740800239  0.9952954851520710  0.1998920066668166
  0.6008886924240739  0.0057599876622222  0.3982883350974739
  0.6007784711103179  0.0055989888573988  0.5975044396387827
  0.5994271510882094  0.9989935799140780  0.8011461669809178
  0.6000281475400282  0.2002608386116315  0.0006908982916101
  0.5954383878669541  0.2005967651293794  0.6103614469910467
  0.6010696597225827  0.1998845798823738  0.8040030915598647
  0.6020440325966857  0.4001148652184833  0.0001961979654752
  0.6023971789763736  0.3999525009814617  0.6055162601735607
  0.6005955491737182  0.4015177031062319  0.8024798398309528
  0.6002392733352141  0.5992489687576519  0.0002335315108056
  0.5993438361099567  0.5992582613365334  0.1995721300799956
  0.5948485721422340  0.6018649322109201  0.3991355024735498
  0.5982620643857903  0.5945504966725411  0.5997253181251415
  0.5991349731120469  0.6000424180965545  0.8012142605235295
  0.6045833796977869  0.8000100254025603  0.0017553869297582
  0.5999812768044082  0.7990350262682222  0.1991785592165360
  0.5998723146447571  0.8020268907906742  0.3969479604340798
  0.5991376963270435  0.7998458655260415  0.8055846241693272
  0.8009272887496907  0.0009727938027551  0.9998484284557115
  0.7985165748998442  0.9994854745089073  0.1993064174432526
  0.7991321231339550  0.0013432545987271  0.3996416267466957
  0.7999928722343786  0.0008425550370359  0.5990471697107889
  0.7956644193550031  0.9990932504409759  0.7994451680788044
  0.8015033185934585  0.2002988829204788  0.0003441673536113
  0.8046555187348369  0.1975302646928701  0.3991105497028205
  0.8008014631973899  0.1985695115312641  0.5996695628893971
  0.7990955248940462  0.1989140334431622  0.7993050891358060
  0.8017342688421657  0.3986973271309935  0.9990143731829331
  0.8013451980526107  0.4006643293013712  0.1980722631929829
  0.8045060514588500  0.3930257896616412  0.3995807645996879
  0.8009338418715141  0.3980340935711838  0.6009097626908680
  0.8000355886083470  0.3974482062021145  0.8002393978629947
  0.7997127892180544  0.5985449645776237  0.9997453543479311
  0.7996513189613323  0.6005457602513093  0.1955224705837383
  0.8007517094409277  0.5977393426203003  0.6031072698727783
  0.7954245242156407  0.5998351745256971  0.8006195553780310
  0.8016816375686828  0.7997697242633475  0.9996230465628155
  0.7998732933648027  0.7999743679000501  0.1989359319830998
  0.7995293548886331  0.8027070681045024  0.3989286620742246
  0.8039028437460575  0.7997891875298700  0.6008426183040108
  0.7990563663292232  0.7998012898028271  0.8008494977442894
  0.2006012002008288  0.2026826184844940  0.0013479088581734
  0.2048716874089886  0.6001401477691323  0.7994438468908367
  0.4013900106355450  0.5903110617076269  0.0003190776375552
  0.3957803158328844  0.8001411337213443  0.5989089248062612
  0.6004043455554346  0.4029883127668316  0.1956529316654554
  0.8037947414650278  0.1995311627488900  0.1994844537560554
  0.4023534963557698  0.2009998677183261  0.5977613321841950
