Zr Ti V  Cr W 
 1.0000000000000000
    12.4460440271870478   -0.0309947616971239   -4.3989253883522315
    -6.2384413668072662   10.7678790108888940   -4.3662527767173627
    -0.0053679371909291    0.0306881249957397   13.1816589784411669
 Zr  Ti  V   Cr  W  
   2  15  75  16  16
Direct
  0.1610277679320536  0.7924249946671799  0.3996256869302742
  0.4103877316743929  0.2115987873285763  0.0075173887340586
  0.9961928160883481  0.0058865314022185  0.2044766709408167
  0.0056919502417124  0.6110395727487317  0.6098157443624684
  0.1950538726893388  0.3954124688555303  0.5924677118956455
  0.2010462114939636  0.5979464251360038  0.0012627769044014
  0.4065049440233464  0.2066640578638758  0.2144878568608748
  0.4017344408510977  0.6021604754747081  0.8018443801683937
  0.5933964074508628  0.9950157200820279  0.5917674720781085
  0.5996010604355683  0.9985835990996916  0.8004657940780583
  0.5968608351986614  0.2030970032194040  0.4028021581140676
  0.5991169355289584  0.3980397896597258  0.7935910736571620
  0.6124419493594927  0.8096093711234047  0.0087710041004488
  0.8097407522156057  0.9942576907493290  0.3966646323674852
  0.7991349632374617  0.1952070162671949  0.3937852002317792
  0.7989880731222676  0.4055071480080495  0.3987648966381652
  0.8098485610638849  0.3977806028676786  0.8068253335777896
  0.0006222348545817  0.9493656339795435  0.3987346554092049
  0.9968643629709460  0.0056152742449352  0.6022749561046519
  0.9962279349210563  0.9987044201992576  0.7984817631410520
  0.9968526174425111  0.2001640957570116  0.0003251577581773
  0.9958059630488042  0.1903330818154015  0.3893451440483027
  0.9989630731880972  0.2028207707900343  0.8021260653527006
  0.0002184203076754  0.3992009177018592  0.9998179674744940
  0.0023256342073662  0.3970401949664931  0.3973884673050948
  0.0005260714321671  0.3952410954340057  0.6045705704707821
  0.0038991199146953  0.6078500377240547  0.9974117041139838
  0.9910257137589912  0.5792203007562249  0.1842032524781486
  0.9894983320487659  0.5861032466344787  0.3932090593584659
  0.9964232327007020  0.8019914839471635  0.5898341799366258
  0.9985809832392355  0.7965342377483674  0.7993607481868410
  0.1969846127673865  0.9986456821790533  0.9983411637365288
  0.1978374111110575  0.9963314627471132  0.1968830975853777
  0.2025274141334384  0.0091721292219265  0.3979271700351290
  0.1948177566505979  0.2042142618971952  0.0036662305684490
  0.2044652487499208  0.2103592472509789  0.4067904809767871
  0.1917656630062909  0.1975743301210277  0.5962757931901829
  0.1980896795420097  0.3973020931390049  0.0052270733730242
  0.1962913309735656  0.4027224751279211  0.1993844722535861
  0.1962695425543869  0.3995737815295774  0.3936026433210362
  0.1945390247128212  0.4009687766244466  0.8029282119371068
  0.1979195375774737  0.5973677502814355  0.2016138752830859
  0.1904299025239751  0.5866480993312425  0.3927475493828380
  0.2022363333304909  0.6011707486914023  0.5976419019203941
  0.1919195755667258  0.7998879664764879  0.9935517710048851
  0.1961161167837532  0.7962284941064859  0.1944333361832292
  0.2012954777539756  0.7979587203880001  0.6117627707272720
  0.3964631197547199  0.9910856248321734  0.9961280514868961
  0.3968986205683041  0.9967130668218331  0.4004866033198062
  0.3999709830957894  0.0024279489627388  0.6118729999486585
  0.3952528053965014  0.1998740057762139  0.4082597964327362
  0.3975389686134820  0.1998697572864053  0.5964129202477747
  0.4045298201194596  0.2042373924605398  0.7969048431653257
  0.3994972356537446  0.4146027137601597  0.0052978585604843
  0.3995317932277592  0.4101787887931972  0.2042138149329202
  0.4031060780764421  0.4052220148971394  0.4038378369581805
  0.3976880246456086  0.6008034059629265  0.1979646260856713
  0.3965616099756475  0.5997143768356464  0.3977056897052722
  0.3983096433089938  0.5963124459816739  0.5937678334268969
  0.4012305186736373  0.7973403278052481  0.0029116089360207
  0.4028198002371986  0.8009347396143403  0.2034087779783880
  0.3930534008278344  0.7918906865413987  0.3934507054440408
  0.3950770871704320  0.7941884920718417  0.5931578818776501
  0.6029650460385430  0.0051238892414045  0.0048363286401283
  0.5988607408419606  0.9957008508417470  0.3923588690320706
  0.5941073089895327  0.1993411581115578  0.6020991533244645
  0.6075481501224773  0.2055676361018220  0.8090350760137024
  0.6085305846627034  0.4012109961724367  0.0057035099626253
  0.6110620981854366  0.4137751183478496  0.2157879113653987
  0.5973228933561980  0.4022931865343606  0.5932461147948437
  0.6030398425591432  0.6025363824816092  0.2022152898275352
  0.5989316993842106  0.5989420859492726  0.4003038162518599
  0.5988185263463970  0.6040178725855585  0.5993785130287743
  0.6013111124746728  0.6018303327417844  0.7932275716109505
  0.5973621661228234  0.7956934298515728  0.5977097087739869
  0.6012564162380322  0.7953580750989377  0.7957396688437121
  0.8015308902876687  0.0018278607236179  0.0020236867715281
  0.8033875464611295  0.9962985347234582  0.6018761543216758
  0.8007736086387212  0.9972050391972798  0.7966432995168450
  0.8028580400360659  0.2062911251649972  0.0043813544644888
  0.8062359945117658  0.1967452584926198  0.1956552849492880
  0.8030971263563065  0.1944545071253864  0.8051354021769503
  0.8012963538447255  0.3976289627606456  0.1909067693195457
  0.8111162836496134  0.6084212227892793  0.2091873372395716
  0.7984794994725580  0.6029806526980481  0.4008978233134940
  0.7942361381207538  0.6006823119879751  0.5971957691399674
  0.8047821152982817  0.6060900041098747  0.7999592689970823
  0.8045545439531051  0.7972878319070433  0.9923786159725615
  0.7965082162205429  0.8025780818233673  0.1955197970960800
  0.8070938191740749  0.7934493350893160  0.3982495762085285
  0.8004577335196696  0.7996010590256586  0.5997432455633982
  0.7973837575743689  0.7988149851979850  0.7946767105876655
  0.9984190622251558  0.2055158247573825  0.1973902516211862
  0.0019103666292721  0.2033495242124356  0.6016833201620313
  0.9996322716149253  0.3946397317553911  0.1977575817065857
  0.0031763296873808  0.3964743475185670  0.8023161130550801
  0.0004624947566219  0.6009272403422812  0.8048280871043244
  0.9989957960931118  0.8008085040310895  0.9960365336206660
  0.2023566977792776  0.8034782587808530  0.8031597755617620
  0.4025997758720169  0.0035131517677283  0.8021059545487331
  0.4025632986521089  0.4037778203826746  0.6005367112310436
  0.4064644605805159  0.6052977859931746  0.0087948608505877
  0.6006959343520664  0.9919559534226410  0.1968232371975627
  0.6087018930182078  0.2001133930093876  0.9995920202528135
  0.5993193796815878  0.4115404885062222  0.4073578108845800
  0.5980754965993397  0.7958038034038944  0.1989662023645899
  0.8006748425145204  0.0057137756902305  0.1998256795823696
  0.8024410633662734  0.4010080162821400  0.0038789835388209
  0.9970995964910607  0.9962183884416620  0.9952379242811559
  0.9976416739990066  0.7995577735787021  0.1960675329474354
  0.1985190719360618  0.0039828633643891  0.6009447780349363
  0.1959311148396166  0.9953179819444852  0.7987237767265374
  0.1967180765827981  0.2034036422038554  0.2018411660671171
  0.1976035481312233  0.2034453401655199  0.8025578591756626
  0.1950343069940434  0.6008480029842340  0.7976359610759962
  0.3976855379290242  0.9921444536543291  0.1969384280561895
  0.3960393562582986  0.3987562319221870  0.7957044253000741
  0.4032623452697297  0.8061801538310559  0.8016270521264875
  0.6047043637722586  0.1948522346790896  0.1939643926087147
  0.6012364557652883  0.5988440090649892  0.0006580994721523
  0.6013417928347943  0.7988370310534995  0.3967675342139824
  0.8016881868081653  0.1967685865772631  0.6024103091640752
  0.8069496210518872  0.4070195571547079  0.6070492627587529
  0.8023827904192132  0.5970511735780156  0.9983677585494600
