Ti V  Cr W 
 1.0000000000000000
    15.4464656596279237    0.0026393324307650   -0.0051499977500449
     0.0026392792308168   15.4360610524716844    0.0041620633854494
    -0.0051482900175055    0.0041619794273236   15.4439029048304732
 Ti  V   Cr  W  
   3  99  15   7
Direct
  0.0006436298083141  0.0000764507822791  0.2024841987816421
  0.0042139051269146  0.3973555789713149  0.4038792889814432
  0.2042535549004552  0.2085036177990798  0.0031081714468914
  0.9997085392732049  0.0000821016571251  0.4059204742060651
  0.9976395902944346  0.1975056101791426  0.0013380244940733
  0.9987467239867432  0.1975508473507011  0.3978791800190085
  0.9978831563617391  0.1962717157072603  0.5986532007127425
  0.0001077641772193  0.1949451966768655  0.8010513453729552
  0.9994488609667068  0.3991768980823685  0.2000543985844007
  0.0023127317512771  0.3977949947641173  0.6029146687105799
  0.9994802123480757  0.3978392217028512  0.7989549463897260
  0.9994354731678827  0.6008978127775643  0.2009259348312391
  0.9997568807003617  0.6016926812350031  0.4010823125605320
  0.9985350983584982  0.6005854028966910  0.5999149238496195
  0.0004727851238440  0.6012414152507251  0.7996185632434385
  0.9990884942661561  0.7999540226653791  0.9999457309959966
  0.9992824980359353  0.8002635460413685  0.1994157157377557
  0.9998753088031737  0.8003701210083437  0.3994530107929940
  0.9989070210317811  0.8038426736725138  0.5988737076185351
  0.9996013591715287  0.8038788995524337  0.8009806939437079
  0.1997405577428276  0.9992758095551310  0.9996715002323467
  0.2006511990216759  0.0012171259330753  0.2001200163288944
  0.2005715717861380  0.0003152751624703  0.3999240575609797
  0.1985109919571549  0.0002434753097702  0.5991292845904373
  0.1978569562193996  0.0005926928557558  0.8006651674430184
  0.1996294227035628  0.1996197181100772  0.2023991087842691
  0.1992587978942987  0.2003248168935874  0.3988565086833809
  0.2002909360312949  0.2006623322958478  0.5992561863444716
  0.2004081154272015  0.2005712998711690  0.7986605454571537
  0.1988464318779056  0.4006991368526525  0.1961422410294716
  0.2061695873525054  0.4006986136480103  0.3991235008009696
  0.1992912414012470  0.4002391911312196  0.6021745113213173
  0.1998106137326645  0.3992963100015922  0.8052238489354068
  0.1995423202318479  0.5975655592306857  0.0004686994889939
  0.1989957368894032  0.6007016904713767  0.2002627836490424
  0.1992344503696135  0.6008388094373185  0.3994770070333988
  0.1989933933541611  0.6002855940635602  0.6003967275771123
  0.1995370959646125  0.6001336073785228  0.8000315826131177
  0.2014118776137291  0.7989373079131696  0.0007965706975299
  0.1999711541701423  0.7999717749742924  0.1988111015734016
  0.2013612502987717  0.7999988418601079  0.3983072263047763
  0.2011046138563677  0.7993470632572646  0.5989321106382508
  0.2008230657545441  0.7992379161723802  0.8023584616080380
  0.3986452706572044  0.9999496673721368  0.9986532799733634
  0.3986495144256602  0.9998673017979901  0.1996049671479484
  0.3980719763059785  0.0006401098445392  0.6003031927158990
  0.4032865789094296  0.1993758344235383  0.9995246521023804
  0.4019992737610308  0.1985883436935502  0.1997448603449743
  0.3993106031627197  0.2025144278961061  0.4008558470663384
  0.4002103857044481  0.1990414111981106  0.6003930022956956
  0.4005367972505105  0.1995872838294366  0.7999078595787631
  0.3986358486680665  0.4011028045602233  0.9998031051114628
  0.3994009958300628  0.4008029619867204  0.2047458469610467
  0.3983626677420625  0.4004324885454350  0.5972769431212058
  0.3999584946857356  0.6005497800001147  0.1994154893913044
  0.3998494827180326  0.6005156285043087  0.6002287776447343
  0.3994381725586160  0.5996393362809906  0.7989917486806087
  0.4037830914312177  0.7997819793254657  0.0005056930118451
  0.3999232371981045  0.8007546702043102  0.2002562121287952
  0.4005281641542072  0.8010620230977573  0.3988199799234292
  0.4000277693470574  0.8010362216642209  0.5993279645150519
  0.3990456449255432  0.8006561153980856  0.7987436287480796
  0.6008036551158570  0.9964179493330808  0.9993297991936613
  0.6001418741545351  0.0036799612340000  0.1998281948212671
  0.5999112399234862  0.9989806230121655  0.4003802691267216
  0.6005421037968006  0.0014534535796251  0.7989436596226451
  0.5998539110426352  0.1971757689399963  0.0046514186135911
  0.6004514927365073  0.1979795163292970  0.3957362425929394
  0.6005460533513541  0.1998398157089613  0.5995982669809227
  0.5999462136583638  0.1990509759442577  0.8007781337471696
  0.6001109290393070  0.4019048471559469  0.0001590974237216
  0.5982279983762474  0.3955412522483902  0.1987282153166020
  0.5965592459632869  0.4014188033127176  0.3994120655388560
  0.6663290027874097  0.4003235827017867  0.6007633366353256
  0.5989630527867583  0.3992969597024613  0.8012195583437385
  0.5984099030885944  0.6049048940657339  0.0004652806854435
  0.6000845796040293  0.5998604331499061  0.2002276080234624
  0.6005359378377195  0.6014961478795158  0.3992766506368390
  0.6013784053082135  0.6004564538356765  0.5995342755908658
  0.5992026983004775  0.5986528112313310  0.7981986107562360
  0.5992419763228044  0.8012155573377161  0.3996394257834572
  0.5996881449991502  0.8014830877995801  0.6001269738363713
  0.5998946312394887  0.8013070250556096  0.8017640857420385
  0.8017729187458841  0.0007717087919961  0.0000799547476476
  0.7999191856682141  0.9999972531005259  0.2004249507430829
  0.7998862450096179  0.0004881025791572  0.3994354788816987
  0.8034696702155053  0.0004535071046819  0.7995743122247948
  0.8004895837817479  0.2035559248341769  0.0004321513659438
  0.7988206057553852  0.2026220991559031  0.4004384376777706
  0.7986993518714943  0.2028870011927646  0.5986628622775061
  0.7991019024377936  0.2004319002702151  0.7993971009965718
  0.8002843086140022  0.4010690280506858  0.1966745487406664
  0.7977826274438954  0.4006802352405773  0.3970090655776666
  0.8005784426271798  0.3994644185462381  0.8058637138927446
  0.8009936956065827  0.5966873599483560  0.0010045260368152
  0.7998464649019646  0.6007444400989859  0.2006555917263272
  0.8001050047861075  0.6011781123703528  0.5991074396674544
  0.8013444725463069  0.5990935316872801  0.7982267390954928
  0.7955850026821416  0.7979460437199062  0.0007085736666049
  0.8005855276875002  0.8004458366144657  0.1992334165433436
  0.7988062898874034  0.7994716575586563  0.5994907066005554
  0.7998358469603301  0.7996127072959113  0.8004761972750756
  0.0001722850510009  0.9998293155883741  0.9973077700661116
  0.9991219699954490  0.2011111414035579  0.1998430435099695
  0.9997579228514347  0.4004913053658841  0.9999428469501009
  0.9995622092039019  0.6004009677359028  0.9994121503153750
  0.3997365028183740  0.0010765520377529  0.4002831555220330
  0.3989176731582291  0.0001673397602667  0.7995276738135650
  0.4003211217476209  0.3998421289980950  0.7988128041057011
  0.4001138349696511  0.6005233202290289  0.9995442027746738
  0.4002705773595761  0.6008865384130810  0.4001889589361748
  0.5994040593826298  0.0003937303848523  0.5998080434242256
  0.6001688232625899  0.8016321265927435  0.2000552100365444
  0.7994834134947670  0.0005745706969826  0.5991886870823832
  0.7994372279579136  0.2001539352501033  0.2002912461150342
  0.7996835385682868  0.6008146270513508  0.3992980722606913
  0.7990748791445265  0.8001689990324659  0.3995059756223793
  0.0035458420080026  0.9992155552058010  0.6021041067676700
  0.0007282781080498  0.9996332143885955  0.7937659610605068
  0.2021307885705600  0.4014485550476179  0.0018649255111741
  0.3997957799150208  0.3984309440355325  0.4009191245668051
  0.5968059713513920  0.1986308090984478  0.2002994141709958
  0.6002393121526539  0.8018481936349151  0.9963946149214232
  0.7959544379521165  0.4005050851169136  0.9999166650528215
