Zr Ti V  Cr W 
 1.0000000000000000
    15.5025012111675391   -0.0012340279220979    0.0009674179831964
    -0.0012333392680093   15.5032162688686519   -0.0125459656457846
     0.0009693510165960   -0.0125545265931211   15.4792246816365271
 Zr  Ti  V   Cr  W  
   7   3 108   1   5
Direct
  0.2026817892556012  0.9950625008870344  0.1993590240769980
  0.1998839211261678  0.4012558655252781  0.8007257858257606
  0.1813457505507131  0.8097137785787276  0.4168311461021874
  0.4235162000282183  0.4019213148563363  0.8002843603383279
  0.6030605881742050  0.1837165298444413  0.9988848818849271
  0.5851469645985072  0.8025329121694778  0.3981528970057144
  0.7958223724457879  0.2021536931703768  0.5988250065039127
  0.0110976785196436  0.8061273507802618  0.5969128858808476
  0.1911321153072553  0.9789330866361121  0.5981532809505455
  0.4140672633594842  0.7883788333164888  0.2169564300134391
  0.9991224033709060  0.9979261991983326  0.9976331500525670
  0.9963523576240223  0.0009946574182417  0.1982333469052495
  0.9967739476342355  0.0036276639627641  0.3957587499182962
  0.9967038245868919  0.0025635965097686  0.5978967178816977
  0.0018895449328701  0.1989993858108543  0.9984636209966299
  0.0003477602821081  0.2016220339927208  0.1986064763151277
  0.0000942853529578  0.2006587633745441  0.3988154447017000
  0.0016538461360742  0.1997526479597830  0.7983668958951267
  0.0000233516821266  0.4000025400689358  0.0005116994041159
  0.9995559434370319  0.4011189851996023  0.1996894005223572
  0.9985232280288504  0.3998775205526033  0.3986524207111540
  0.9990818806750207  0.4021234543591704  0.5975955265632222
  0.9961388455370130  0.3988980070192153  0.7989968673589902
  0.0012706630886947  0.6018474993408930  0.9989667793450974
  0.9995934470994001  0.5990962073614733  0.2000340305699866
  0.9981968814344312  0.6010779659509006  0.4000357791319957
  0.9996856176867303  0.6008119517502565  0.6002560045475095
  0.0000034708768566  0.5995886670619623  0.7984683904105871
  0.9998772994283515  0.8006688893844878  0.0002030273367439
  0.9995727251818639  0.7990919776074343  0.1988834186678391
  0.9852710787570303  0.8020241340496740  0.3956783795158186
  0.0008609784754865  0.9681187036451508  0.7974775210767854
  0.2016973824559505  0.9987269170796564  0.9963385592741129
  0.2077813449068917  0.0116487854770323  0.4019909336290542
  0.1996391846455458  0.9966826514316716  0.8015274870908010
  0.1998302296335821  0.1982819284692572  0.9991956396217408
  0.1981715035879806  0.2032541699573615  0.1985594819276330
  0.1977202981475646  0.2042816509049127  0.4008357077805794
  0.1994598995866538  0.2026612467381389  0.6007678303378902
  0.2001038262543270  0.1941074407960776  0.7987288034388108
  0.1998336944822015  0.4006559475198119  0.0051763988609170
  0.2037154371758984  0.4005912169820962  0.2013587256440396
  0.1984562112576063  0.4023464564003397  0.3988769302893288
  0.1999262680671212  0.4002844671638243  0.5950658635372884
  0.2006087051592669  0.6010664318538815  0.0014461660650564
  0.1993881948649623  0.5995562555203784  0.2015407255108647
  0.1984806350390323  0.6010519606681752  0.4010404718754845
  0.2019021291236799  0.5969646413028494  0.6008141140375057
  0.1974953099830110  0.6070274930600031  0.8023847261574851
  0.2036793067017728  0.7995028721761444  0.0039035228127357
  0.1986470451820377  0.7933911285492636  0.2032851294187080
  0.2102865051767811  0.7881266085606426  0.6165186985538609
  0.2051160398300829  0.8016522154334278  0.8071048737334638
  0.4025841788024059  0.9985242706005958  0.0043648074039340
  0.4058948497769843  0.0030698765691930  0.2089237306966678
  0.4025088277898159  0.0008285914384585  0.5961940827083816
  0.3997615535361367  0.0017873220037713  0.7968769092968639
  0.3969946530141125  0.1995315089116245  0.9999786702336196
  0.4004441394107030  0.2055720465917743  0.2002914264360583
  0.3988455079401770  0.1966207584926324  0.4006880011340849
  0.3971626026772013  0.2005051618422446  0.6001904247404005
  0.3990787868975884  0.1966340036693739  0.7995977782692625
  0.4015467186884155  0.3992962240420816  0.0082215207001399
  0.3997899457054678  0.3979670067599427  0.3961465887592304
  0.4004140623328145  0.4013923425641168  0.5925636792005451
  0.3988447023926824  0.6011284280102843  0.0008215669392175
  0.4001338933850204  0.5929537509523802  0.2010809049705254
  0.3967086286376232  0.6040334713151938  0.3998885747548721
  0.3995446123630438  0.5991917671954562  0.5992453726504676
  0.3986938780177866  0.6042177033031215  0.7997610637292739
  0.4047361927372849  0.7995669420004018  0.0016526556863077
  0.3897335058231593  0.8098294245319178  0.4091241553783904
  0.4071662812502638  0.7983428922888560  0.6043205146581173
  0.4016706262284127  0.8031612386595933  0.8025814711042712
  0.6019615388440160  0.0022354021204112  0.1943539789171481
  0.5965973166128690  0.0072026294306552  0.3989700380801186
  0.5999060396344212  0.9953857991421303  0.6008294658435763
  0.6008745416745300  0.0016776174211601  0.8022063502490147
  0.6016339037946669  0.2026569651576356  0.2019360317015784
  0.5993074629316799  0.2022238195766280  0.4003109061469090
  0.5949203381229948  0.1996344903747848  0.5995172080284520
  0.6001577361872623  0.2008710701017812  0.7953691049791706
  0.5995811939913263  0.4002062115301742  0.9969815530161840
  0.5969000316479210  0.4009138555880304  0.1982457829279084
  0.5986122549238203  0.4005542708169716  0.3999023859811119
  0.5971829286631503  0.4028743695917102  0.6006635847627663
  0.6134565031841555  0.4009555086126912  0.7993286826287952
  0.6002408051010973  0.6050899616231762  0.9982474540396730
  0.6002377377920445  0.5999529146798960  0.1976327217980939
  0.5999839977445003  0.5957162737353454  0.4001719356971998
  0.5987237886527821  0.6049387688775008  0.5990610234999589
  0.5997039049846157  0.5992706676285388  0.7993900789713044
  0.6066431460147738  0.7980629580059522  0.1898630621453294
  0.6012539106382742  0.8006758085057054  0.7989206314439822
  0.7981139257103732  0.9995655808831070  0.9986709972066369
  0.7997143130099875  0.0006021562148842  0.1987998561100401
  0.7960096036228724  0.0011619826229826  0.3970835112025751
  0.7993065859103629  0.9961229707973209  0.5975585826845101
  0.8033038380829004  0.9999384812213585  0.7977916172788979
  0.8059880615672427  0.2011685284454445  0.9993751027927088
  0.8007155304749026  0.2018696383735857  0.1986147938492795
  0.7998734175307077  0.2004909218051277  0.3948092570386635
  0.8018947544268346  0.1997124359962098  0.8023844680719204
  0.7993485491241851  0.4010664393289876  0.0004724651803001
  0.7975875286012784  0.4011913916365917  0.1987671991707176
  0.7982261374497743  0.4008488403664157  0.3980036100943088
  0.7978954586614084  0.4065156572612673  0.5974567923715045
  0.8021028847567441  0.4010898749592505  0.7993367413523235
  0.8004434315003962  0.6000994658682409  0.9987102976686651
  0.8000935152816242  0.5991740671290600  0.1993335517545495
  0.7986163413625389  0.6009615243587759  0.3982304928403789
  0.8000563894950403  0.6023370304820648  0.5984184877589613
  0.8032974520914682  0.6020573603332704  0.7985153865302622
  0.8000532777394788  0.7994378661005754  0.9965426836149658
  0.8007057370446899  0.7995314302933412  0.1978232570270606
  0.7944875489670804  0.8008716215660737  0.3975477071045527
  0.7956203829780935  0.8003928394125049  0.5977698121986065
  0.8002703892039161  0.8003141596874536  0.7974414864830601
  0.0022380609766506  0.2011926679959590  0.5983209446819752
  0.4013973900219175  0.0043236274897200  0.4018584280782008
  0.4009754010630033  0.4005240615896992  0.2029643455482729
  0.6003214556677287  0.9859380760697172  0.9978561741004925
  0.6011081780023080  0.8011298932698172  0.9948175068259109
  0.6007203083620707  0.7992576325315643  0.6048896770709424
