Zr Ti V  Cr W 
 1.0000000000000000
    15.4486336428758069    0.0121581116209415   -0.0069918741920984
     0.0121590392488944   15.4505015656762907   -0.0015177914306970
    -0.0069892847668974   -0.0015156966616515   15.4491826341844032
 Zr  Ti  V   Cr  W  
   4   8 107   4   1
Direct
  0.0003115437614656  0.9644562023612575  0.9967566338497528
  0.0018832573711203  0.1814289566893689  0.9635739915336481
  0.0110507846751808  0.3832392058607224  0.6048763636367930
  0.6022717209063460  0.3907397735379639  0.4090329800775799
  0.1918373910780188  0.2085988644269962  0.5923674736332311
  0.1929818943102365  0.2021740392930014  0.8063965957832940
  0.4075368145021559  0.6018740980863871  0.5995779078173182
  0.5991426321037377  0.0025454162037400  0.3997070830874540
  0.7317372774890147  0.7302684798296671  0.2038834487066203
  0.5977403057348839  0.6089531059358856  0.3723837497522208
  0.6037821091087241  0.8047240698181203  0.8028560745680235
  0.8090156770299647  0.1987185969664783  0.8052216728415503
  0.0003852758752450  0.0016446167448090  0.2005387604210835
  0.0007266328308624  0.9985044706444774  0.4005210417541378
  0.9987008015281537  0.9940791781919864  0.5983455606151802
  0.9999079506975854  0.0052200334725411  0.7934270119438873
  0.0004552817684877  0.2005008174556062  0.2005103560787712
  0.0001076581151267  0.1989669590619230  0.3985010351317892
  0.9905127214947042  0.1859754074901238  0.5922174711712127
  0.0004508401454287  0.2060910343142234  0.7666538084887531
  0.0012584508926106  0.3974023173974791  0.0012932413711635
  0.0026426030716459  0.3975687511042209  0.1989025487723274
  0.0027365961029901  0.4003857643788520  0.3977725949686768
  0.0018163555426187  0.4015135615655601  0.8060164488291381
  0.0013671573886217  0.5938386552718583  0.9983252378614320
  0.0016062663699192  0.5999648084991213  0.2005301986294599
  0.0020229337015474  0.5992297230674298  0.4009274712767886
  0.0009307873258029  0.5988889396791760  0.6008041971772236
  0.0015620937607509  0.5997753211326974  0.7978689053381643
  0.0005227407130033  0.7780802432346760  0.0008069869553489
  0.0024722089611213  0.8002541224943408  0.1991563686605075
  0.0011271114637636  0.7997175252407874  0.3995679561522760
  0.9995751564903231  0.7987334042705078  0.6006405263374168
  0.0016604544467070  0.8007521014256149  0.8018740873219424
  0.2028806213569890  0.0041169830341361  0.9998316007763283
  0.2002653807623203  0.0022229702316748  0.1999621118278069
  0.1998529349997722  0.0018210829713548  0.4012351145967863
  0.1987566845069664  0.9992111426007079  0.6000926562760029
  0.2007871035627011  0.9999074693994338  0.7977082388288061
  0.2067588583083286  0.2026941250080812  0.0031747989027777
  0.2001038329450827  0.2020189712457112  0.1999676580018397
  0.2007409360337908  0.2013177434465916  0.3979261821384287
  0.2024124238187434  0.4010916714582195  0.0019966343583573
  0.2012860689163089  0.4018291956867353  0.2018257095704003
  0.2008511537201625  0.4014851063279611  0.4020301023670521
  0.2112105586075182  0.4069624745119216  0.6004770820559646
  0.2015056684585354  0.4050270756095740  0.7996107558768014
  0.2009728785012981  0.6015044287190680  0.0008835093650181
  0.2003796597962806  0.6010125867206638  0.1997706979585261
  0.2041209325726602  0.6026540987810078  0.8004172747179179
  0.1989779462250332  0.8020953619645802  0.0010939935386398
  0.2014087864057669  0.8023944140051606  0.2013884546749691
  0.2002539086503786  0.8010139278040408  0.4001432044470546
  0.1992781000998196  0.8015732681108056  0.8005386973009709
  0.4010982172202878  0.0002940111210183  0.9983218559574006
  0.3994029108763690  0.0025529708141969  0.2001346899677018
  0.3971740926854456  0.0016290011096132  0.4014306240181467
  0.3985477904077177  0.0017230633194740  0.6016978834423976
  0.3985856886822541  0.0010755051225413  0.7999255600664378
  0.4026037840484580  0.2013127620146396  0.0003574613695194
  0.4010047135898283  0.2015103074898466  0.2010166308690150
  0.4003659053169024  0.2016771303254066  0.4006596951909007
  0.4010349707596512  0.2010221936812625  0.6012236322212483
  0.4002785280328989  0.2022823470283728  0.7993414431359200
  0.4019783738722046  0.4004026757082234  0.0011197144324024
  0.4013011484398836  0.4020115459068251  0.2005389132545266
  0.3973563483934937  0.4019601057722452  0.4016366549448560
  0.4047023813696501  0.3990906463967369  0.6013544123053685
  0.3998526545083690  0.4052180287127523  0.8014740646308725
  0.4019154652838476  0.6017158546419806  0.0000104089079261
  0.3978998920231422  0.6014600304927542  0.1993724153901903
  0.3965941078914104  0.6023386814596163  0.3977052196748390
  0.4005329803969463  0.8020825135784742  0.0013244632971974
  0.4008435466349606  0.8010969160630774  0.1997194976608750
  0.3995312342182649  0.8018336437818933  0.4017153538701090
  0.4011626600231335  0.8031450073794612  0.6010950199343570
  0.3984123894281400  0.7976025820426215  0.8009855480735240
  0.5999359667415691  0.9999206832778443  0.9984826999317269
  0.6007865982986096  0.0027485067271097  0.1968869070851334
  0.5999114812524819  0.0030585210748919  0.8001134181688484
  0.5996054875710790  0.1995926295111311  0.0003450755299312
  0.5999633013656340  0.2011916706876410  0.2008916184953916
  0.6004457992139913  0.1930307807227366  0.4006974255174520
  0.5999799026781623  0.1969978766873145  0.6039024643721164
  0.5976727815953221  0.2003746116044245  0.8022271553156763
  0.6014859882946191  0.4012570483294924  0.0020937225947525
  0.6017239852859674  0.3974103975573495  0.1993140471452184
  0.6029111121098042  0.3975778095577275  0.6095990956917644
  0.6020732098678651  0.3979729234021791  0.8035362231182877
  0.6016003458761414  0.6011537936274084  0.0015623323696453
  0.6041576080207102  0.5981322940166300  0.6018644866635803
  0.5965864685633422  0.5992947718107166  0.8008811245738658
  0.6020759379715491  0.8001075585793883  0.0058907938628354
  0.5990387806550340  0.8063326979956483  0.2013741202324387
  0.6001350004176974  0.8047522175783994  0.4000566403763143
  0.6018186239616683  0.8011973739546501  0.5981819337613709
  0.7978013993554479  0.0026819482208044  0.9989762634882824
  0.8008841405587193  0.0034365075144600  0.1997237722506018
  0.8023827783630756  0.9999554353879573  0.3995009519926018
  0.7973861200376556  0.9988085973081386  0.6002813377708603
  0.7991548569780031  0.9977309263174747  0.7988420375092673
  0.7954942665760651  0.2014570526487613  0.0039087770232414
  0.8018690635817709  0.2012053012056076  0.2006136652817965
  0.7988912201424329  0.2014898957598563  0.3998716823801382
  0.7957939571861137  0.1978536349043694  0.5966218795527909
  0.8006975555562296  0.3995024435097503  0.0010731583061323
  0.8020423956665211  0.4004218626330266  0.2002401462602329
  0.8075687513320974  0.4009077887955252  0.4021183722799043
  0.7985364114009381  0.3981365205046628  0.6007108172457745
  0.8015870351940564  0.4032025075574969  0.8015059095651215
  0.7981952562282357  0.6002636641929656  0.0012850614130034
  0.8054313329363135  0.5981604114985358  0.1996016570377989
  0.8032930951205062  0.6013455329841358  0.3991234987255915
  0.8007383947424046  0.5984828591528855  0.5992812874333213
  0.8007668222409177  0.6001619842431176  0.8002275547867389
  0.8025489333813031  0.8002958469716268  0.9992207619738666
  0.8006157220507373  0.8000593975291607  0.4026021295812431
  0.7999342548834073  0.7991386844347883  0.6007937797734857
  0.8028121656953704  0.7997821271120775  0.8003422587542526
  0.1996793217683863  0.6018292489693481  0.4004222166831568
  0.2000329309075012  0.6026580853783783  0.5998439185979063
  0.2000992124458593  0.8002922348214428  0.6002145891120141
  0.5986478950933940  0.9999221183227970  0.6032863835353437
  0.4004858937166821  0.6011342587748337  0.8045726046730272
