Zr Ti V  Cr W 
 1.0000000000000000
    15.3161674756862691   -0.0038639056753981   -0.0081742366427040
    -0.0038625530149281   15.3180417040563182   -0.0084288121243241
    -0.0081714294601317   -0.0084252347079361   15.3251398317997438
 Zr  Ti  V   Cr  W  
   1   2 101   1  19
Direct
  0.0020774039900500  0.4062554683968603  0.6016100619354411
  0.4071002984670644  0.9891022848436098  0.3977933299744495
  0.3970978790514949  0.7980657103408288  0.6166382818660702
  0.0000629731417685  0.0010949934122275  0.9988426153657708
  0.9997894973207703  0.0007540170738018  0.1999600014562544
  0.9967196601404700  0.0055302729964447  0.3990271661688515
  0.0022960719868009  0.9980727422438607  0.5993291312351696
  0.9995999941040838  0.0014894599777839  0.7994146907979743
  0.9984011221475110  0.2039326173526856  0.9989212091142079
  0.0036389419674832  0.2018203259784931  0.2029538835569302
  0.9976714365206608  0.1976513603835592  0.5951492931076631
  0.9978027463374336  0.2019316631389774  0.7972979277010391
  0.9982635950531070  0.4027119559481870  0.1956532642226191
  0.9957468446886018  0.3959010250358285  0.3950976452566763
  0.9992099742807494  0.4051628380341544  0.8078929798380715
  0.0005884229643967  0.5984364135479120  0.9963457317875467
  0.0043005004390697  0.5999394960869664  0.2000453871544971
  0.0028552930117297  0.6096672558040995  0.6031426533821751
  0.9964100869477259  0.8009383947676565  0.9982113350296250
  0.9997675107432864  0.7993675308796462  0.2002667657032567
  0.9971460316361130  0.8034951346519689  0.4038885733453536
  0.9951880269489974  0.7958023941528063  0.7980555758609580
  0.1984541227267799  0.0010911016140966  0.0000819335061062
  0.2008339131468697  0.0049828960412337  0.2027611889114800
  0.2009930643631037  0.9996783330413629  0.4033673787022081
  0.1989259233403823  0.0021003360480611  0.7970104620669558
  0.1996923353898818  0.1992515045152754  0.0037035219613286
  0.1987660249607879  0.1984286231963540  0.3969685999753510
  0.2022236705786028  0.1971239039097152  0.5989002770431744
  0.2012433166441108  0.2004772403503518  0.7999274187467088
  0.1967326858107065  0.3995395421005917  0.0011830130278381
  0.2022817844853781  0.4003507063386407  0.1979972477015916
  0.1001842888808539  0.4997931879866678  0.4003281709405287
  0.2060901474618480  0.3974897670428271  0.6018149741935721
  0.2008953615843621  0.3995843252440048  0.8018173175312494
  0.2013652198160521  0.6013476330710988  0.0068674724779387
  0.2051406702520738  0.6021357052125488  0.3981094379974884
  0.2061516294255130  0.6023970658979558  0.5966934486972665
  0.1973385337969458  0.6007391412250316  0.8001467088614852
  0.2004822193665429  0.8030741696192596  0.0009744815789505
  0.1996117158644538  0.7980130429488304  0.1991223807568296
  0.1977642288770520  0.8018477741714978  0.3992070347451908
  0.1940293163629482  0.8062111097638514  0.6013157668934700
  0.2027859541534539  0.8008568107125524  0.8021595737851033
  0.3993684078930661  0.9963188740086371  0.9995585052579511
  0.3999101725586924  0.9991128808117993  0.1969453887486146
  0.3945069525785265  0.0001375296602926  0.6025377521607945
  0.4000591060803435  0.9951495072895504  0.7998655664530407
  0.3994861367547317  0.1983110688784858  0.9985554383596759
  0.3971686192196285  0.2016180647991756  0.1993613496057117
  0.3978289184883669  0.2051752660349593  0.4011884775622683
  0.4019524028257036  0.2007906094658122  0.6001172647942695
  0.4031898865625804  0.2000016575220726  0.8012222976622462
  0.3989268397853010  0.4027914699037204  0.9981572361182200
  0.4035669484014860  0.4017052946111501  0.1989068868568369
  0.4016182908489077  0.4036192993327921  0.4003397456534580
  0.4002490289594438  0.4023579354256801  0.6013414750188080
  0.3997729177330546  0.4020691345971805  0.8030384532675438
  0.4001575508175849  0.6038282747020725  0.9994537900491747
  0.4010976698909795  0.6009592540682293  0.2056133898266226
  0.3999517922034080  0.6025601122404735  0.7979317828673322
  0.4003409461270551  0.8002126760732734  0.1935621013187788
  0.3997229913423359  0.7947317483059698  0.3982474955524865
  0.5986943874027074  0.0015742674037433  0.0024851575932212
  0.5975524050496206  0.0036623728119078  0.2058338518397121
  0.5955772869765380  0.0051877118582166  0.5937013369755775
  0.5984558969934495  0.0037589586330117  0.7973155540440533
  0.5994290107001894  0.1993980157547986  0.9970794520310077
  0.5982178971084905  0.2040870888399458  0.2014274642158599
  0.5980520261592243  0.1971046631761026  0.4039272592433982
  0.6009151659876811  0.3994233530694414  0.0032496361350378
  0.6019705274742836  0.3954129310402008  0.3957772412111926
  0.5993008511837969  0.3983575213677413  0.5984658944543461
  0.6008447718971887  0.3966369542395384  0.8035197631884090
  0.5991343614443655  0.5987028815661500  0.0054225995286321
  0.5959950504521225  0.5990023682898603  0.4006834703742281
  0.6012120276146696  0.5955803919070147  0.7938700902841230
  0.6002743687307530  0.8005640197360708  0.0002188520178474
  0.5998173788929996  0.7945340781769736  0.1986856655837625
  0.6004688235477760  0.8028439325385750  0.4005104946553024
  0.6029977381036805  0.7952611309126069  0.6011882354811717
  0.6007001560997540  0.8012102931686659  0.7993193184086080
  0.7989421648672501  0.9968653507143109  0.0009439825679469
  0.7988621924179753  0.9998568277843680  0.1989040526103269
  0.7972858014657626  0.9978825330767097  0.3986643928542954
  0.7987516324760802  0.9995357567093218  0.5991517958446909
  0.7982919818322411  0.9965304685646694  0.7990979483587171
  0.7998215266429275  0.1972077578898873  0.9987277126636273
  0.7987744030780435  0.1996218464969959  0.1976977465790366
  0.7958245459148009  0.1995489922058042  0.6002301296749816
  0.7961855326675342  0.1987097200965473  0.7996304030261603
  0.8031941024651591  0.4010216563243864  0.0001880876286090
  0.7969693621279469  0.4008917128521950  0.1978031530436793
  0.8013243275502940  0.4017989170444395  0.3980259897568851
  0.7953285082197820  0.4016629044201158  0.5996904543644898
  0.7997986422923423  0.4015301657653480  0.8018440214398899
  0.7983582650087316  0.6053601071069409  0.0003012977911662
  0.7963769729188241  0.6018135106224101  0.2021844781036498
  0.7975102152293522  0.6022814152466220  0.4006068794979913
  0.7939581194563355  0.6017241622837685  0.5980134274452498
  0.8018181762460102  0.6041235268407827  0.7994250880305949
  0.7989799404872027  0.8001074188541037  0.1948805155632217
  0.8019989480601722  0.7999116744220048  0.3984544104140287
  0.8013252641508093  0.8023097828151327  0.6055673713628329
  0.7999353840810590  0.1993902841904892  0.3992137101283925
  0.0031552867415643  0.2024951524858112  0.3996604435377810
  0.9982696682090068  0.4013224680408847  0.9999158681724483
  0.0010321388156009  0.5994222931434005  0.7966673745397620
  0.9983547318602033  0.8029853132785271  0.6013407637878877
  0.1990465624774036  0.0018910949561723  0.5991287456856207
  0.2013108364432772  0.2028656182652515  0.2010646817026908
  0.2020850737138879  0.5982073732018875  0.2045802486413989
  0.3990307849566472  0.6010074861697667  0.4049654963518899
  0.4047811357947113  0.5973159876403472  0.5993435204799106
  0.4010423256359296  0.8004260506042514  0.9956097914688098
  0.4017131586618986  0.7982183901934274  0.8087537947266346
  0.6030574505558854  0.0000143899111159  0.4003950613924529
  0.5978416984424550  0.2022396325097621  0.6026831428881537
  0.5996241986811731  0.1999304768299198  0.7969555433555938
  0.6012184660799699  0.4010307626930595  0.2000559448566374
  0.5976048419381460  0.5956287866571819  0.2044935522761180
  0.5959557379810047  0.5969661484051997  0.5966588848262105
  0.7986141976236900  0.8015727687628985  0.9970392767636913
  0.7983534144132223  0.8007215339251592  0.8042665725959955
