Zr Ti V  Cr W 
 1.0000000000000000
    15.3161674756862691   -0.0038639056753981   -0.0081742366427040
    -0.0038625530149281   15.3180417040563182   -0.0084288121243241
    -0.0081714294601317   -0.0084252347079361   15.3251398317997438
 Zr  Ti  V   Cr  W  
   1   2 101   1  19
Direct
  0.0005326003008599  0.4063618532083712  0.6027972088647429
  0.4071664146495264  0.9897733916002360  0.3981754908444887
  0.3972341943770547  0.7980561310230317  0.6167177969186725
  0.0000970051508380  0.0013700400412474  0.9988228186147488
  0.9999759340840372  0.0009730778448669  0.2001934441103940
  0.9968444138357019  0.0056368505407079  0.3992114551214763
  0.0023669262601816  0.9981116550477179  0.5991972397061953
  0.9996102764902389  0.0015237092730702  0.7993408470944969
  0.9986424403283513  0.2042002223740234  0.9988771322009532
  0.0036660154973973  0.2017841330281954  0.2030310949642340
  0.9979251778089946  0.1976498238290856  0.5948646596668203
  0.9977074627193429  0.2020026626768343  0.7974012494271157
  0.9976405589510988  0.4019996133901199  0.1958346509717479
  0.9983116295729998  0.3958497216627044  0.3949648355925377
  0.9991333557261073  0.4049113302472069  0.8080585888461791
  0.0008041088925947  0.5986589287277987  0.9951127623953274
  0.0030902754203586  0.5995616203127457  0.2679212901505662
  0.0035426660076062  0.6095910624983902  0.6034934951772488
  0.9967004217222449  0.8005364849115416  0.9989471521493053
  0.9999108737716752  0.8001660715423816  0.2008306625881142
  0.9976716758646491  0.8030918848289200  0.4032702645608388
  0.9951013783302348  0.7961449651811948  0.7980104613790072
  0.1984282306801185  0.0009660979056216  0.9996683147386785
  0.2010837347463473  0.0050320392614953  0.2027108279833595
  0.2010382954379865  0.9997423767114483  0.4034082160314145
  0.1989872742295933  0.0022591473012255  0.7968261658871946
  0.1998529468733400  0.1992545651136589  0.0033794940773291
  0.1982590925527394  0.1998619853600124  0.3963102225616181
  0.2023979215886489  0.1967578950014241  0.5991343931281221
  0.2012245478247197  0.2007176189008734  0.7994521794557170
  0.1968017860707344  0.3994145696449911  0.0009536616125191
  0.2019175999748325  0.4001009534750820  0.1991964532136339
  0.1983004566652060  0.4007842644119454  0.3993424751088316
  0.2058134859386683  0.3975516299661561  0.5997655717606638
  0.2009098868755717  0.3996075872688486  0.8012875901350296
  0.2010797680364416  0.6012765153179090  0.0061686078560670
  0.2055501468328596  0.6003205608839487  0.3981685417846943
  0.2066987136927224  0.6034356397388436  0.5971916055817369
  0.1974882021741970  0.6004795738800015  0.7996174614974476
  0.2005731443132043  0.8030835272076511  0.0008757227087197
  0.1992108724629805  0.7979744836641993  0.1992525086549002
  0.1977152774435720  0.8014791013282825  0.3992226304302302
  0.1939765231115326  0.8061337837201789  0.6010682941970993
  0.2029014281079281  0.8010392436209892  0.8020700121251615
  0.3993892710115691  0.9963262236657217  0.9995235330176991
  0.3998400729644229  0.9989986223672283  0.1968752906187196
  0.3945817555291772  0.0000724654092787  0.6026698952760573
  0.4000523057814331  0.9952610070900080  0.7998348420198164
  0.3993463908569052  0.1981786000085864  0.9985906307905681
  0.3970452445106583  0.2013320547161303  0.1995625349982995
  0.3985557414942274  0.2036087331792278  0.4011009395190098
  0.4019439398180271  0.2009037788831806  0.5999143362328365
  0.4032297690322656  0.2000461709969969  0.8012765030373755
  0.3987665808674177  0.4027447588942624  0.9983411935267936
  0.4041889853445217  0.4013678904406016  0.1984648086050820
  0.4000797925628186  0.4032430215921034  0.4007532036669659
  0.4005302099559632  0.4023490527620195  0.6020198165699228
  0.3996213535308288  0.4019790761713841  0.8028648908416557
  0.3999103787950565  0.6038585347861858  0.9990822785387973
  0.4006463158096263  0.6008472709566257  0.2058370388370701
  0.4000010031274470  0.6026072616048981  0.7979919995964603
  0.4001585831157737  0.8002180861484460  0.1936031371491845
  0.3995440517056282  0.7951342739958630  0.3983896655624868
  0.5986890360662348  0.0016327782926264  0.0023380645908817
  0.5974681462405769  0.0036299519183103  0.2057839302920104
  0.5955237456613038  0.0052557927714603  0.5938276583819865
  0.5984452346678739  0.0038361277702309  0.7973079945716222
  0.5992157288550124  0.1993994317054902  0.9971397731632562
  0.5982754272041477  0.2040790645038676  0.2014293263478473
  0.5983890178605574  0.1973406405131112  0.4039193051659746
  0.6009783534089612  0.3993831618398278  0.0032136159605658
  0.6024620843395152  0.3954148346173992  0.3960727201189431
  0.5992997900360127  0.3981411742825355  0.5983901718404657
  0.6008545179740804  0.3965291933749473  0.8034635437558313
  0.5987113047631729  0.5987039946992380  0.0052268929075308
  0.5956928608598019  0.5988788996821651  0.4007411556015139
  0.6011067993180027  0.5954695374182382  0.7940908800891575
  0.6003124151117999  0.8006376924588986  0.0002166855356697
  0.5997013809158467  0.7948772460262798  0.1987427294845512
  0.6005982947409777  0.8031932393093926  0.4006593818706038
  0.6030475312941697  0.7953352521669365  0.6012451832662148
  0.6006401738602729  0.8014095445249008  0.7992897623636042
  0.7990260842635215  0.9967299199031189  0.0009011512706014
  0.7987173546832704  0.9999256516415853  0.1988687557490856
  0.7973142812178959  0.9978569201364427  0.3986374055616903
  0.7985356463917656  0.9996201064940564  0.5992104181247454
  0.7982047481267059  0.9965275680885997  0.7990662677120777
  0.7998360038942388  0.1973164795251867  0.9987792750975238
  0.7984042297463411  0.1994971125994722  0.1976341521566009
  0.7958398025205207  0.1995599762972617  0.6001689747366507
  0.7962109454165973  0.1986989352519815  0.7995815316531749
  0.8031614234384872  0.4009545859648835  0.0002132094402213
  0.7972432310710730  0.4011581229720002  0.1980748948634168
  0.8022676510222989  0.4022430898270146  0.3981340177573272
  0.7951433093539442  0.4016200834073239  0.5996017835638821
  0.7996594932078990  0.4015600719396371  0.8017996605718059
  0.7984266240740735  0.6052770572747210  0.0005445348774963
  0.7950370009158648  0.6015296316686130  0.2023159944749235
  0.7974389929260922  0.6021568643612621  0.4003369701255819
  0.7934219561441374  0.6016722858585071  0.5980494172581420
  0.8014123473742942  0.6041644823303646  0.7992821974471623
  0.7992677448796425  0.7997268741315038  0.1950977920335519
  0.8024684496062555  0.7996208182140498  0.3986662083592632
  0.8014010107581531  0.8022483993872278  0.6053854629265262
  0.8002189287638493  0.1997481209267702  0.3991470850273721
  0.0015189277449363  0.2018754446803898  0.3995635917246605
  0.9985874012113433  0.4019150835491846  0.0005212341337734
  0.0007797803328404  0.5995986664666632  0.7967973990463119
  0.9982589944937043  0.8032650617784611  0.6012880980241015
  0.1992454810817786  0.0018878934138468  0.5990280049309303
  0.2012896505088788  0.2021379422037881  0.2002372372516583
  0.2034238795220721  0.5989015396572449  0.2039993840863760
  0.3993638551158382  0.6008437742841473  0.4049217514629037
  0.4051208339623849  0.5975158901476014  0.5993715340908465
  0.4009437060451378  0.8004002049166021  0.9956656762568934
  0.4016992097691641  0.7983159187132104  0.8088790248641073
  0.6029910852397690  0.0002874364410747  0.4004479291362286
  0.5980666178137461  0.2022622207170045  0.6027588463437235
  0.5995963587579343  0.1999837480229300  0.7969641829895352
  0.6010136677809874  0.4007197061837077  0.2003125402072825
  0.5971771549352237  0.5956485730320973  0.2045152539204043
  0.5956907235708019  0.5969294210983275  0.5967622804614822
  0.7987300832531757  0.8013288288018947  0.9972279802498916
  0.7982786615432901  0.8007323877977276  0.8043350406412372
