Ti V  Cr W 
 1.0000000000000000
    15.4539762940606913   -0.0009302546193068   -0.0040609226562242
    -0.0009305541856652   15.4553324993326164   -0.0016432811203864
    -0.0040599645847516   -0.0016432389492442   15.4631351219687598
 Ti  V   Cr  W  
   3 114   3   4
Direct
  0.0111356092070287  0.4014276154110665  0.8137932482961718
  0.1915574900580600  0.3660553893285178  0.9878681100903558
  0.6047605480591587  0.7995448715921946  0.4051949664777960
  0.0011917572125800  0.0020217121303272  0.0023217379547835
  0.0004050961055779  0.0009022551416813  0.2004094494475312
  0.0002842777368348  0.0007037969808439  0.3991776222585673
  0.0012318836459675  0.0010520742202349  0.5996689008732879
  0.0010683468726711  0.0008626859664920  0.8013820144242798
  0.9942323215802175  0.1988126128643684  0.0010764689282781
  0.0002284616027157  0.2026327361412577  0.2002614190438929
  0.9996607932052876  0.1998113566699583  0.4013354228599871
  0.0006839652086293  0.2016008373288632  0.6010982413025462
  0.0017186167031116  0.1977950787611849  0.8012425225793414
  0.9951465025303629  0.3988358995166887  0.0098227560372395
  0.9994361238901359  0.3999866778102507  0.3973217324545029
  0.0013670347928620  0.3996013089223621  0.5987542839037509
  0.0005698038673711  0.5996299394705727  0.0010966186576069
  0.9994705159573213  0.5970356005405800  0.2007552019984966
  0.0002677769003892  0.6009529019454500  0.4003515111827117
  0.0005898935107000  0.5987073144366656  0.6003328400960152
  0.0017504099347897  0.6015293025507593  0.8014469374954426
  0.9992229910578049  0.8011450588752590  0.0013453479202613
  0.9995791147256258  0.7991528921233927  0.1999372543432991
  0.9998361216266485  0.7999632877719599  0.4004139722704054
  0.0010999645738439  0.8002636173342261  0.5996434336410188
  0.9964680501135866  0.8002944473701857  0.8010199222528750
  0.1992438441108888  0.9999370991318284  0.9994900282231327
  0.2032501061370142  0.0015185678361990  0.1993264371651726
  0.1991170104309854  0.9988610402506022  0.3998369062754958
  0.2008819660648591  0.9989524168391651  0.5990001626444343
  0.2005845897978090  0.9998501926774720  0.8013632723586970
  0.1994948430619141  0.2007321513775223  0.1697704084569216
  0.1994167065759098  0.1996365761964164  0.4019343085449502
  0.2044307996033358  0.2002012070217738  0.5995793441955565
  0.2012444477575793  0.1979575682520580  0.7943022651898514
  0.1953495099554610  0.3993754269835256  0.1999169041339209
  0.2003419858137273  0.4014843980907500  0.3994540468748413
  0.2004612210678861  0.4011028341007152  0.5979244307845497
  0.2051393819555777  0.3999133021007491  0.7953889247149858
  0.2002893878612109  0.6054756703057821  0.9992934611080373
  0.2008055832487226  0.5999143010830397  0.1982261231693355
  0.2005897936219908  0.6009347083321540  0.4009604064085375
  0.2010397669938410  0.5998105804370104  0.6002642254201913
  0.2015013417713330  0.6007025853616701  0.7997579255905861
  0.1989846276573566  0.8008316455390753  0.9987753244649782
  0.1988455302054110  0.7999473846531289  0.2004674686021616
  0.1994644975109498  0.7992003187443096  0.4006387042606292
  0.2003113172784282  0.7996076540498963  0.6009632214222815
  0.1997465199895946  0.8010731964152988  0.7988050739133086
  0.3988143541482626  0.0025441448279505  0.0029569321454879
  0.4003779183773446  0.9996180986452473  0.3951030344324428
  0.4006263058756618  0.0034117283877853  0.5987955682097976
  0.4014303941995527  0.9991544543279217  0.8007505340555470
  0.4001165748764741  0.2022935908323190  0.9969751960886926
  0.3980618235455458  0.1977792886148071  0.1986148868221410
  0.4007678194876574  0.2007897096356781  0.4036701441736202
  0.4007142686802520  0.1992906363726459  0.7962742001116950
  0.4000628260534286  0.3992802281540409  0.9986618395984286
  0.3974073393162556  0.4001370022272767  0.1984275829458063
  0.4003239242657949  0.4004123664400152  0.3979640332426604
  0.4012803819717164  0.3965883639186432  0.5982427293733319
  0.4025211427585614  0.4023753203174585  0.7985760409942348
  0.3983379917380032  0.5994322508248064  0.0002157374774505
  0.3993339752656013  0.6003271386070124  0.1994867493996137
  0.4003824580094311  0.6006529072036224  0.3989416934869587
  0.4011046018934964  0.6008449509458218  0.7990820442069448
  0.4010501209247666  0.8004389552633636  0.9986570592906027
  0.4002542637032420  0.8033916115532983  0.1998932247580024
  0.3991157147063610  0.7997694406744255  0.4009354083515070
  0.4006729585698704  0.8011576749476219  0.5998859725026296
  0.4015007608085448  0.8004664872250418  0.7995903583478117
  0.6000746051768968  0.0001714380020062  0.0001769356444563
  0.5956682643243496  0.9995448320045461  0.1997762842583221
  0.6013288424061238  0.0016025378193316  0.3992365753865084
  0.5996193455930208  0.0002481293016194  0.5988596169088101
  0.6007736025281265  0.9998483739158088  0.8010852573249631
  0.5997420594520623  0.2004871114554262  0.9986794892220932
  0.5991705978627558  0.2013090037109874  0.2003158557512554
  0.6012441129764905  0.2008808580390321  0.3997391581743422
  0.5971714115892960  0.2007139885379725  0.6001319228890677
  0.6014598077692080  0.1999316223968692  0.7996127152281084
  0.5997182252086627  0.3999910063004278  0.0005217033678915
  0.5998583876942934  0.3996087609153550  0.1995435746766093
  0.6011134132076884  0.4008407680203530  0.3986124975638465
  0.6012739764266893  0.4008034197049934  0.5993282999303665
  0.6023884565926571  0.4010241269395766  0.7995763433096784
  0.5995468586011805  0.5992915306028226  0.9999911168019470
  0.5996099882537569  0.5982981550957109  0.3993416564960715
  0.5993292782063601  0.5989454547892614  0.5996158442767714
  0.5995633121813418  0.5999888778865955  0.8000343782790259
  0.5997899812416070  0.7991140105554275  0.9999873321064122
  0.6010641777925496  0.7987087480311726  0.1983064872411056
  0.5993801523484661  0.7998081645443700  0.6017132278876719
  0.6051463241314780  0.7994298395681366  0.8001286958900240
  0.7991038961626716  0.0001352495565387  0.0010997360983178
  0.7990295074545704  0.9996323886630026  0.2001585533468032
  0.8002396793056463  0.9998934901590530  0.3997210369092750
  0.8000736649430840  0.0012374800146783  0.5993856002048084
  0.8005489566339724  0.9955658033967864  0.8003350417021674
  0.7984670278108238  0.1993721750438549  0.9987767118207959
  0.7978625133723748  0.1991540909011625  0.2007450607878101
  0.7997246842292501  0.1997860927918580  0.4020103551414004
  0.7995336100792572  0.1998790151093834  0.6010904318254744
  0.8011198726740494  0.1999521151230903  0.7988687803714807
  0.7977135332948158  0.4007231019200589  0.9999863726263388
  0.8023656249415286  0.4001409794575713  0.2008341288122583
  0.7998495329000839  0.4007060196573686  0.4005473784057796
  0.8018047629053284  0.4005478082074846  0.6013663050511057
  0.8014222329852771  0.4009556022067176  0.8010684016716308
  0.7993495860964140  0.5999942187982210  0.9999799198499212
  0.7985539730552769  0.6014722229767170  0.1999066802116641
  0.7994143167862243  0.6012066191704997  0.4008698692925974
  0.8002814165884233  0.5994625177699957  0.5998164941270639
  0.8010245088727389  0.6040239287753074  0.7998204159426153
  0.7994521433499636  0.8000656935372579  0.2007471481799185
  0.8029232720465007  0.8003898037797769  0.4017360098673555
  0.8008075070783480  0.8002370549190448  0.6026951854026062
  0.4002702201629433  0.5993881348870130  0.5995014730645143
  0.5989073038773464  0.5994722107341718  0.1991775359895283
  0.7999708288040547  0.7997891887656221  0.0000838090733450
  0.9988390281918746  0.4007625753389589  0.2024800956927325
  0.3990750360079496  0.0015232551534487  0.1991538783244819
  0.4010955610020350  0.2000609408089781  0.5991639487958592
  0.8008543334441928  0.8002449737289324  0.7969377140017794
