Zr Ti V  Cr W 
 1.0000000000000000
    12.4571276848306791   -0.0076925238638799   -4.4065500779846634
    -6.2343775058545825   10.7542072599132386   -4.4042393430509792
    -0.0104331067832253   -0.0152247289677524   13.1901590298834623
 Zr  Ti  V   Cr  W  
   5  10 103   3   3
Direct
  0.9923529300288088  0.2023126926428113  0.6028742155775620
  0.0004835601010532  0.4029500863399144  0.8021502739404262
  0.3982547037277436  0.1853961533096504  0.5962447091949349
  0.5977290446172999  0.5942371310573030  0.5923194295616240
  0.7935872638600810  0.1983248885371152  0.0408514859708491
  0.9978116256224336  0.1973959227899664  0.2053265977009264
  0.2046437244711021  0.8118335221065873  0.4035127175244234
  0.3958185045877565  0.9955463797151283  0.7970232021180810
  0.4067165128366461  0.1944654102571804  0.1877003137843209
  0.4004375154763743  0.2016021586343401  0.3897508793252121
  0.3978412338272448  0.4086242407880015  0.2058961706923619
  0.6062884440650841  0.3987259340026620  0.2039302255969934
  0.6078661127037993  0.4048138089077382  0.8102101167483151
  0.5967090722240154  0.7957696576597829  0.1952240286959535
  0.8017005862348272  0.3976775903288556  0.5954674032566047
  0.0019551510794344  0.0018357086956903  0.0025120413309461
  0.9979905293049955  0.9967854237200958  0.1982933123999139
  0.9970933571796029  0.0003846706502826  0.3989188820240816
  0.9970451095597999  0.9942922599117381  0.6009578119703871
  0.9969809293469937  0.9961000588518908  0.8022452790406089
  0.0033145388497114  0.1994411491640947  0.0034931976844659
  0.9928190424738812  0.1916879547061896  0.8187061921256882
  0.0009633057019805  0.4023099433096190  0.0105879648060795
  0.0163475482142523  0.4210314345344434  0.2147862237598847
  0.0059434336517218  0.4089365681170600  0.5797617702967665
  0.0017654151119638  0.6019754661016442  0.0040773993508158
  0.9979760946785616  0.6034371063748312  0.1979610873203671
  0.0012800720689544  0.6038927202518239  0.6005427764016860
  0.0022109237709288  0.6161919859000260  0.8069339641268211
  0.0010188666208953  0.8000761102999439  0.9981811252170781
  0.0023854207185021  0.8019008943293781  0.2018784958073404
  0.9975581696533045  0.8092724098122939  0.4020528065748428
  0.9989735124894016  0.8060628159700698  0.6031399200196478
  0.1909640084170396  0.9930904648728639  0.9936743044903159
  0.1946278524451219  0.9947806941430134  0.1905730126162502
  0.1854772383098792  0.9966687186809418  0.3835873594826480
  0.1959761870027751  0.0003660687342502  0.6018175900670425
  0.1933317330537145  0.0005690819542408  0.7976362049892206
  0.1958836806532324  0.1962575312182077  0.9974739963013255
  0.1995768226318493  0.1983175210050775  0.1974801975334504
  0.1938516457252747  0.1996205593610192  0.3969716910476295
  0.1967915373030897  0.1969580342645800  0.6023843645461598
  0.1965089261793292  0.1998039376562677  0.8036301242355337
  0.2017968525862741  0.4012078319732569  0.0073033067299273
  0.1952430497102002  0.4012835359932786  0.2016804659965560
  0.1994297493371157  0.4038896249014202  0.4048534660804443
  0.2057936263750432  0.4013357934003822  0.6027012879492324
  0.2203137436305466  0.4120670783522686  0.8137296903441851
  0.2071639368991347  0.6079999053466076  0.0082519040330211
  0.1999045910929866  0.6023222510750522  0.2015392437853458
  0.2040795375813574  0.6054566267310509  0.4032421692708698
  0.1980614386146455  0.5999109200928699  0.5969128957076250
  0.2029697650317755  0.6022401451834305  0.8005248186194260
  0.2002982623856637  0.7999652063920486  0.0014352320716552
  0.1978546455680781  0.8004170076847021  0.1958414430914317
  0.1944150660951215  0.8012442871781914  0.5985751379309787
  0.3985646429876015  0.9971266482145802  0.0003834177766803
  0.3970576918491573  0.9935105462590879  0.1944821269684969
  0.4007612806039684  0.9925444074859145  0.3932613485324861
  0.4186829646104097  0.9966269852376578  0.6075836355184451
  0.3897893354620088  0.1938759598018015  0.9846959230332748
  0.3999966309114375  0.2043503385392599  0.8112468266474790
  0.3981308642206381  0.4003679196023224  0.9986301373210684
  0.3812937843107559  0.3924858838678491  0.3947484307892701
  0.3962161156352168  0.4012070149819550  0.5982638083082377
  0.3966389392455368  0.4008884207173651  0.8021235713686927
  0.3948098587677819  0.5964843375435397  0.9970118756401277
  0.3992135893367298  0.6071358656085281  0.2028672608383442
  0.3967913914842126  0.6008993678181083  0.3974386412582687
  0.3917108012077650  0.5996987440788053  0.5974026302594958
  0.3999405977474903  0.5987574394351198  0.7986663154424209
  0.3977759983994678  0.7961809812282367  0.9952015959622191
  0.3937751438970377  0.7999320399350859  0.1995777942288539
  0.4031805678302587  0.8001994141352532  0.3999065009436228
  0.3996046310184805  0.8006385142107498  0.5985253328290892
  0.3970762150310808  0.7929692750509021  0.7967709503295061
  0.5876419423110095  0.9837322672711232  0.9919662474132394
  0.5903893249960156  0.9903202954548895  0.1886159321373908
  0.5969309548370164  0.9950913090649852  0.3914904295041986
  0.6031869127804192  0.9976089619907952  0.6013892674181368
  0.6008728207027589  0.9987775736944368  0.8007823444440272
  0.5886843098786589  0.2038824779040955  0.9936213373863435
  0.6296229251278705  0.1909893106757669  0.1934686802676015
  0.6050403616437705  0.1943523001603167  0.3855561547544192
  0.6118832868634629  0.1970954955389079  0.6024058217035823
  0.6007928090778067  0.4086101136502726  0.0067809733230817
  0.6133505465577355  0.4000463786956354  0.4095283051570908
  0.6037475963838665  0.3936745532653452  0.6016456350655831
  0.5977787679265817  0.5994261701065305  0.0024018082328018
  0.6003023018284900  0.5995517267409122  0.2035427435999177
  0.6101367064492833  0.6093909080042360  0.3965342722715784
  0.5976687672244144  0.6004018745689732  0.8036241705835865
  0.5958891258894009  0.7941228816945347  0.9923922861760792
  0.6009006626866890  0.8006394263053926  0.4030942052641799
  0.6017901921386938  0.8070833865740252  0.5994545540355481
  0.5953557945450535  0.7966991539348752  0.7949735100745372
  0.7920690049122642  0.9799279402624885  0.9882549821536523
  0.7944384883895943  0.0034671918871902  0.1940557740056190
  0.7948647280466593  0.9983963065186171  0.3877623894720346
  0.7952916861044771  0.9966873668127992  0.6015715514168608
  0.7986622351994084  0.9970926364242796  0.8022647894268250
  0.0071893536425569  0.2019961062033767  0.4041516309999691
  0.8001085672161607  0.1953760077905444  0.3778513654257752
  0.7745206521953479  0.1811386383191239  0.5848102407153222
  0.7937403842328820  0.1977898710119513  0.8074190349666761
  0.7983985710803271  0.4039500476139303  0.0053294098638344
  0.8095774902509741  0.4110317890535123  0.2077535779892806
  0.8073183729859228  0.4061916856247770  0.3997238425845891
  0.8021450451519914  0.4019092733388955  0.8130544200880897
  0.8060184805703358  0.6060482388619962  0.0085932716041606
  0.7998693103293281  0.6053451880152593  0.2031104474782715
  0.8051414533021994  0.6089082608378620  0.4043047549897820
  0.8161606530008859  0.6106746379641684  0.6076119276315173
  0.8010626957989659  0.5955580531843955  0.8008962781854635
  0.8027249967279076  0.8016703615430391  0.2017614700802088
  0.7992263788351295  0.8047900641364093  0.3997663080996712
  0.8004494905597281  0.8038201491886054  0.5994586959630327
  0.8092030521038288  0.8031273033714175  0.8039430715596276
  0.0058096591430662  0.4048365034316166  0.4038545162005306
  0.9990730698896821  0.8007348062395655  0.8015671488997141
  0.6087038520415570  0.1966263453523747  0.8100864876948346
  0.0037895862702912  0.6092681650500130  0.4028037322248001
  0.1979392033550227  0.8006686751447428  0.7999240337020421
  0.7991871474953722  0.7965111080144615  0.9992431065163495
