Zr Ti V  W 
 1.0000000000000000
    15.3687751858679373   -0.0034047973547748   -0.0004629384474201
    -0.0034058626285429   15.3762737440467472   -0.0028872120149207
    -0.0004620936853672   -0.0028876454386987   15.3933118945991367
 Zr  Ti  V   W  
   2   2 106  14
Direct
  0.8035336692386198  0.9931777925683598  0.7738312365991180
  0.8163602909213018  0.3873960956639771  0.0157193211492479
  0.1961373843043124  0.4048010401187003  0.3926846643449245
  0.1994409130010934  0.7943123524929840  0.4064526441448216
  0.9999585827801827  0.0028677032388131  0.0019428543097875
  0.0000760096029794  0.9997678353261293  0.2016332234602121
  0.9975280287028950  0.9998041841206877  0.4002476447191914
  0.8981331648102956  0.0009213594145450  0.5965027929537511
  0.0043123515378134  0.0014723205829359  0.8028245699957414
  0.9963544034441503  0.2026312917086165  0.0004167528569572
  0.0007856754320650  0.1995845954239515  0.2006293748995696
  0.9987137084017559  0.1983228920294076  0.4007321324969140
  0.0002480712663320  0.2004240631646743  0.5994821057669820
  0.9986960125245169  0.1989963341010840  0.7999082734076098
  0.0125088392012416  0.3999970124262576  0.9980015285047977
  0.9958493850435102  0.4003759483493380  0.1988559537436230
  0.9968231295551152  0.3987002003011119  0.4007419839716168
  0.0038945491584239  0.3990655869090769  0.6008915787097907
  0.9967279243096167  0.4016987696159656  0.8017076521915858
  0.9995161124388189  0.5992634858458646  0.0005418567547202
  0.0042353801037653  0.6018661611147003  0.2007622306196288
  0.0018118918307139  0.6009157127999465  0.3996772972619057
  0.9989549440179436  0.5989895476679153  0.5982261661999413
  0.9991547696352894  0.6009521689015025  0.7982911485802875
  0.9997123495829928  0.8013719634253423  0.0008963593905424
  0.9984358379270138  0.8002535041052858  0.1987047933046253
  0.9962667749668770  0.8022009983722282  0.4011270654400979
  0.9997005943271147  0.7987743521887449  0.5990783795011251
  0.9996122560901826  0.8015521004671639  0.8006284980999206
  0.1996081993407939  0.0032694706674379  0.0005854938007538
  0.1996639973585587  0.9970881933721072  0.2007992923861580
  0.1978549487966089  0.0005313998268113  0.4013795562707809
  0.1997227749355397  0.0012472931788075  0.5992706061270281
  0.1999023883867974  0.9960526623527909  0.7994165213275718
  0.2007193675999958  0.2036541435146494  0.9997526034859678
  0.1998363480898956  0.2013756905225942  0.2001424185579202
  0.1991405534268758  0.1996651750358937  0.3989057358159521
  0.2020224743833566  0.2054997007024917  0.6005027701673210
  0.1989860894592141  0.1994309488220419  0.8015495766684212
  0.1996081483656678  0.4055079824215387  0.1923007121775778
  0.1998735537556713  0.4035123505258643  0.8023673280196161
  0.1998911737686538  0.5958258392847148  0.0033458712081226
  0.2011175441391329  0.5952057644633892  0.5947659585837552
  0.1991919670995327  0.6049390476219368  0.7995350704232188
  0.1991240084514251  0.7994169281504486  0.9957770201249597
  0.2037848626305936  0.7948187958224199  0.1948217313799908
  0.1989969123523174  0.7992300846432246  0.6063339356094164
  0.3990031984195060  0.0021234029604111  0.0005497264134415
  0.3975516167629641  0.9955234421576760  0.2011522847135514
  0.4034922664556232  0.0002297619269824  0.3995634085094238
  0.3981054013077690  0.0037185926950076  0.5982927609586005
  0.3998755518443020  0.9985429064094484  0.7991682454739572
  0.4030317733052359  0.1980720460317897  0.0010064282793471
  0.3981972713048574  0.1999195166177190  0.2019518286749002
  0.3993461872465361  0.1997426388576853  0.4026212298561757
  0.3986279497426962  0.1976651723759905  0.7956512333132104
  0.3981853143599445  0.3984623224282383  0.9998927631208330
  0.4020372834443372  0.4009609945632874  0.2010001437158730
  0.4023144548619978  0.3993028825837184  0.3987729799633797
  0.3948318059996125  0.3959739153798085  0.5998175704345802
  0.4032396053047335  0.4018896299063277  0.8005097113557454
  0.4004221329886770  0.5995062116086807  0.9991974374149087
  0.3961680660293926  0.6036471638345200  0.2005670901701998
  0.3958250666491150  0.6010977351655885  0.3997206197177568
  0.4017733123860520  0.6006043497434626  0.5967170484066450
  0.3993214811062720  0.6024534633318227  0.7991118559008894
  0.4010008504736650  0.8016284545774698  0.0018572849107883
  0.4009513740767997  0.8019165898133036  0.3955469567470044
  0.3986785455191518  0.8014162875175149  0.5991821994642271
  0.3966301331223581  0.8009249548961732  0.8013479673761584
  0.5998531667650252  0.0052940962983630  0.9995170821275693
  0.6002748133681804  0.9966198607239227  0.2043453247396650
  0.5978463333827837  0.9996794935053231  0.5966190782217646
  0.5969780755404941  0.9982635712800787  0.7989228453944048
  0.5973814710473931  0.1992493218657979  0.1957530516338571
  0.6000451208805684  0.1969898820067055  0.3985143106101260
  0.5946242583788356  0.2019189253038620  0.6002390099336763
  0.5989044762595896  0.2055979858946852  0.8048045262616571
  0.5985401626472885  0.3962131438536154  0.9957035023716845
  0.6024839883728768  0.4032689505085287  0.1987766835629829
  0.5993730758124246  0.3992645532708208  0.3996713226345717
  0.5988666656518031  0.4027127914857568  0.6041397328763238
  0.5995253230959299  0.5972042130067142  0.9995757680549040
  0.5977206676846522  0.6033569257905033  0.2012296559967871
  0.5991589414732343  0.5995519045344878  0.4033329729862860
  0.5988737007990922  0.5974715937623674  0.7951161811477215
  0.5995808016237492  0.8005051738774686  0.0031734396486494
  0.6008368442580874  0.8032438285976499  0.3963876105273717
  0.5974569732653934  0.7952921748708405  0.5993465152594951
  0.6021423857226308  0.7991062133516526  0.8026662001088799
  0.8006491397732481  0.9976500568980384  0.9987167003156255
  0.8008884508456042  0.9981551576963461  0.1991346955768445
  0.7974944890509428  0.0004428233181599  0.3975857961216023
  0.7943484124644391  0.1892388131337777  0.9988137325906112
  0.7993820754862675  0.2041936166348867  0.1988493046224078
  0.7987238280576033  0.1986157290414631  0.4013757186194903
  0.7997202298681558  0.1989123990445229  0.6011486631037782
  0.7989336021630818  0.2010232843758074  0.8003695068472385
  0.7995371008288180  0.3987959789716861  0.4023131823774255
  0.8008161685351722  0.3987165906830195  0.6004126531826525
  0.7972772240475757  0.4013709871834829  0.8012996905583615
  0.8008400300977323  0.5985304789234519  0.9998639020475137
  0.8002444498900095  0.5971729014951626  0.2000629020366458
  0.8013150488546809  0.6007022245061194  0.3997174240237193
  0.7961804053916186  0.5985725629746148  0.5970074924094819
  0.8004023563290366  0.6010664115126769  0.7996220240889890
  0.7995107922755476  0.7992821475502493  0.9961853319414831
  0.7955560710198907  0.7968360271276939  0.1980071354245161
  0.8002404106465455  0.8000149032543061  0.4005096340168107
  0.8001819274268973  0.7989156867585105  0.6035268765304680
  0.2043236036132992  0.3998235108252673  0.9979664731032152
  0.2003516308938810  0.4014873998300730  0.6080254889359312
  0.2003233916500869  0.6002083034162407  0.2020534775942376
  0.1988279199120746  0.5998498606289843  0.3965370040954764
  0.1989139111266168  0.7990165802498510  0.8008351089890048
  0.3985417197248503  0.1997826028823095  0.5997099217138443
  0.4021370976881899  0.7995964606542981  0.1980151078442791
  0.6017477601355604  0.0002153913289853  0.4007102552014939
  0.5996368277159334  0.2017911677124284  0.0003679605456002
  0.6005394162975081  0.4023002805994971  0.8010885165893095
  0.5971077673805026  0.5983261854769170  0.5978689327595317
  0.5972842928552787  0.7987752908418884  0.1986983238638791
  0.7986642676093836  0.4020407491031833  0.2118948475497026
  0.8002359276286017  0.7938680850202822  0.8015692007411651
