Ti V  Cr W 
 1.0000000000000000
    15.3720038313806135    0.0023998420144863    0.0001449001601191
     0.0024007571799185   15.3633006247875361   -0.0006442210894229
     0.0001450310074229   -0.0006449824026597   15.3697544548857330
 Ti  V   Cr  W  
  15 105   1   3
Direct
  0.0060701648791281  0.3931228795472049  0.6013478279211673
  0.9906048826504278  0.8000672905037909  0.2041831897497162
  0.0087853493068041  0.7978951259067624  0.6020495681799856
  0.2011484191755328  0.2050832222426000  0.3926339660573989
  0.1964487349738139  0.2061098427628559  0.6032646805907129
  0.1979667223201338  0.3954280841990990  0.2034900914391779
  0.2015057047499872  0.7997435263826178  0.1986220548002225
  0.4025616820740900  0.9965554783065111  0.8071986516067403
  0.4021474472087854  0.5982818767261896  0.8011514118410136
  0.5928824091356250  0.9964491757011518  0.9958800678726017
  0.7922947671794116  0.1979686889564593  0.7956292418936420
  0.7995868093069800  0.4042301602294920  0.1931685778191730
  0.8020372091647340  0.5932332335129741  0.0028571567921620
  0.8066434946187996  0.7979152144670848  0.3917882400554547
  0.7982162564947590  0.7966644601466559  0.6042432765522427
  0.9988528740785350  0.0007313871915784  0.0011981751848338
  0.9990939984337163  0.0014456092554529  0.2011170985501147
  0.9980394198360653  0.0004934351711421  0.4012779731702477
  0.0001373406145880  0.0005974087414413  0.5991594435975734
  0.0007978533164856  0.9997110856870016  0.8000795199816346
  0.9996920841695521  0.1985633884916932  0.9997963446566528
  0.9985263177962255  0.1994202393141549  0.2009643995145301
  0.9975925390042147  0.1965224523454236  0.5981780842073859
  0.0010474000529011  0.1990920503112928  0.7997751603019626
  0.9964296554269346  0.3991673202169534  0.0004835503637322
  0.9998820692869487  0.3988583455506768  0.2007292951492509
  0.0002768141471055  0.3983712945512651  0.3977369523529528
  0.9999373045291576  0.3984181837799189  0.8017698479934479
  0.0021502946150445  0.5999102331710103  0.0018433903006316
  0.9996067257469187  0.5974068091968745  0.2014756301543679
  0.0000012222467067  0.5988305117776537  0.4006190802436567
  0.0008145494526714  0.5982885678407913  0.5987028116930481
  0.9994912384439359  0.6003215857194688  0.7993177094511256
  0.0006834023894862  0.8001423439890726  0.9997549453121305
  0.0030767473253765  0.7997302518190120  0.4015522567623507
  0.9993706042010291  0.8002541594021162  0.8028085859408113
  0.1987178512838114  0.1345808460511266  0.9997010184037295
  0.1974075744635896  0.9997660779186966  0.2030357915794168
  0.1993068222951631  0.9996551901874758  0.4008615956194821
  0.2003511556301958  0.9997397512151942  0.5998894850780701
  0.1995886680850623  0.0006900462791852  0.7991959635814767
  0.1990913725041852  0.1954737587808310  0.1971150971195843
  0.2009815684463052  0.1985547398234764  0.8021580189671151
  0.1985478960538293  0.4007780366178649  0.9990514041294197
  0.1993094033530571  0.4031925676330036  0.4054292801544219
  0.2039807842256784  0.4044771632222747  0.6025647435540561
  0.2001377220008726  0.4008239486492534  0.8014202354636072
  0.1990263822401331  0.5993388550324538  0.0007327201038128
  0.1988600607854938  0.5998719296260384  0.2020004158735692
  0.1986807934547478  0.6012597363306283  0.4005603633996332
  0.2005050195403822  0.6021770492656059  0.6009865099080608
  0.1974002446344146  0.6000577216668517  0.7997762124024700
  0.1992944240821123  0.7980958630389787  0.9989362839946729
  0.2004465906493509  0.8007204715874310  0.4037893060721502
  0.2052626953850289  0.8003262386008653  0.6023461017789048
  0.2008119902632906  0.8007505199909942  0.8014268255363417
  0.3977389555002772  0.0007724809952760  0.0040222185147420
  0.3969755111866502  0.0001965813087708  0.2006966242613613
  0.4027090506267207  0.0000903114079995  0.4003697985352369
  0.3996613375862669  0.0002018019439254  0.5982528883132139
  0.3994752692079863  0.1999851327719458  0.9998907477734278
  0.3989351729011691  0.2005028277727501  0.1975268445196189
  0.4018754948866900  0.2010529589265602  0.3994948323441493
  0.4002924239656793  0.2002833344136087  0.5999347852589106
  0.4023621193342188  0.2020492857655966  0.8004680228422519
  0.3986678308782034  0.4009675810497311  0.0011288974632883
  0.4018031173250390  0.3995690427568759  0.2006313656571781
  0.4002654467313932  0.4003163944251561  0.4002752061427935
  0.4013886956971274  0.4011870122762782  0.6000647250232857
  0.4007670459068809  0.3990657157999540  0.8008200636517953
  0.3993748265995751  0.5989728403826446  0.0037024698491439
  0.3994804205519074  0.5997432298243177  0.2013066936213652
  0.3996002610515170  0.6001744232653524  0.3994314827555669
  0.4012461368866671  0.6000899282207597  0.5967773080695015
  0.3980992285387597  0.7999890770596291  0.0004237065462078
  0.4010723183790590  0.7996043868670213  0.1994534437181607
  0.3997984157892978  0.7995932315941912  0.3990177905408203
  0.4009532544253809  0.7993722528948802  0.6014330859726137
  0.4017406133959300  0.7990174615057822  0.8009287274910720
  0.5989842758388527  0.9994433111477369  0.2046673029193419
  0.6007077782259233  0.0000119662958923  0.5943926380924105
  0.6045476398518642  0.0044439312112778  0.7936309959699053
  0.5990367929042916  0.2023153591361934  0.9944277433196149
  0.5990366893640684  0.1995117077143737  0.1976564069404112
  0.6003291555064910  0.1972719318257555  0.4005117197726070
  0.6007696484726697  0.2005967176798185  0.6029967975709782
  0.6039369211041660  0.4012282948909438  0.9996159357252176
  0.5975372407971771  0.4007336603808844  0.2000999315454619
  0.6010391631609288  0.3987265855863502  0.4002575105408379
  0.6009090965107847  0.4008437637630822  0.5997388567861999
  0.6009133304282280  0.3973014150144520  0.7992209893212652
  0.5970256529170072  0.6001257190070859  0.9996066763721037
  0.6001669635686940  0.6012729380459697  0.2017959306772417
  0.6018813888896382  0.6018201079946981  0.4000421382099595
  0.6011999789274017  0.6006173419524513  0.5988684401793650
  0.6036329497260704  0.6004822681666638  0.7988389357958585
  0.5995170620793767  0.7971309091584637  0.9982345258033479
  0.5986882975539565  0.8003430725794670  0.1978468961303868
  0.5991033144082628  0.8043905720290748  0.4000979011837605
  0.5992446051182612  0.8005073144355648  0.6002719365350695
  0.6009226087528603  0.8023221013506153  0.7996649895173819
  0.8014566667153238  0.9995495854399559  0.9992676757897236
  0.7984771025760552  0.0002484465329444  0.1984057011672742
  0.7965902161779169  0.0016118149641997  0.3989205592245305
  0.8022269731292891  0.0000713746075899  0.5980714163057588
  0.8012534750823760  0.9971717875528165  0.7987498070136528
  0.7991492653308088  0.2023852779800575  0.0012523496764044
  0.7982453551576432  0.1989045605110980  0.1982739002263419
  0.7994673814611567  0.2018678051468091  0.3973879427547065
  0.8007137252917853  0.2016030944276458  0.5961733348958184
  0.8006037874872788  0.4001871013259466  0.4006209631956547
  0.8005375540696558  0.3995894169965641  0.6003326608852544
  0.8008059335666591  0.4035979100871012  0.8014579563663482
  0.7991381605172101  0.6039069906207327  0.2032143032905898
  0.8016702884248986  0.5971235765333677  0.4001758811981353
  0.8021097456532341  0.5972289885331482  0.5992876408566721
  0.8011717137126704  0.6009642040107867  0.7974344889698025
  0.7989191356893184  0.7999488279207928  0.9988970266225919
  0.7949771366531632  0.8001420113925165  0.1937308314636002
  0.8002445061001987  0.7990462318815973  0.8028040479123940
  0.9963299339759901  0.1999336377305252  0.3990079790000339
  0.6003587817076393  0.0010581879186096  0.3994077948493278
  0.5976487905794918  0.2006859074584888  0.7973992983959571
  0.8000496251449434  0.3984069310219287  0.9957354401150823
