Zr Ti V  Cr W 
 1.0000000000000000
    15.4149939690695010   -0.0041197707411214    0.0051244012526811
    -0.0041210926464625   15.4234402589122102   -0.0060663359120509
     0.0051270839828618   -0.0060686626181498   15.4040961855710652
 Zr  Ti  V   Cr  W  
   3  13 106   1   1
Direct
  0.9928216428605402  0.7800859316654629  0.8012686899451521
  0.2053878351435963  0.4385119746549865  0.7989068104988296
  0.8126715622390082  0.6045890623232110  0.7931379507370160
  0.9987549278725615  0.3993047902094259  0.4076659634311453
  0.9948867817091209  0.6007058751231783  0.4044468407026769
  0.9888617601179395  0.6096267855499206  0.6233222800830294
  0.9959635450294435  0.8032984568378589  0.4012937882274338
  0.1953405727338940  0.9871761082700525  0.8006626646061262
  0.1956809528176465  0.2028038352837562  0.7987603518043224
  0.2067381054320871  0.6019650631680700  0.4096764319197662
  0.3908831049510199  0.7992226001552705  0.1998462680518912
  0.4012430318286329  0.8041533495571562  0.8062252528876174
  0.5966306665599306  0.8012435328644504  0.9901796324539509
  0.6027660417577485  0.7980927738217780  0.2008732237714307
  0.5984199789982256  0.7925319499119609  0.5992016059018807
  0.8313858047118283  0.9982474036015557  0.9985192320107216
  0.0000928183917011  0.8289566333499685  0.0017471382624366
  0.9987473342058950  0.9996585690840495  0.2009881876936538
  0.9990757736680866  0.0028978445527976  0.3979057456400349
  0.0005012003262819  0.0001891292480731  0.5988092222952330
  0.9970504188048195  0.9959251960179143  0.7953895939695703
  0.0004269201390532  0.1996799047864510  0.9993089801044105
  0.9999932841154257  0.1994612681663110  0.1990454244743100
  0.9993125934635516  0.1984275622624666  0.4002837686789977
  0.9996898145050480  0.1999407718940449  0.6003235185713008
  0.9983365366952696  0.1944916363819580  0.8007109589731246
  0.0012694937902851  0.3962626435184699  0.0022771057430724
  0.9999850405496732  0.3998955733565158  0.2004178004278585
  0.0019022902098278  0.3984239846864448  0.6047722272888970
  0.0015110950583515  0.3910096382578371  0.8025463618412719
  0.0026277494037770  0.5967272837369159  0.0066756418068306
  0.0011464945598294  0.5993677301963501  0.2028940634865935
  0.0192140239750254  0.5802098587720838  0.8163317883709935
  0.9989279092894416  0.8002731505647226  0.1927667772261164
  0.0010862356229575  0.8043253375647741  0.5922558067352219
  0.2002678370968332  0.9999355383916331  0.0011402339283244
  0.1972991354735983  0.9995457563660615  0.1994374730533778
  0.2004652033074425  0.9994449759011916  0.3994092606185408
  0.1999885447481712  0.9993392017954734  0.5965773107570759
  0.1992059588216668  0.1991458096187483  0.0015146737486971
  0.1986838894001537  0.2007809466449416  0.2011959592796649
  0.1997939656832331  0.2004409478025526  0.3992592866284660
  0.1994960986735757  0.1993936832456033  0.5979398026924337
  0.2022534117262419  0.4019997989808289  0.0047153682751351
  0.1991546018047152  0.4023143345881011  0.2027179690657875
  0.2016779093062927  0.4008391909897238  0.4008064186313047
  0.1997814903406197  0.4026906569337593  0.5951471389273044
  0.2034485810280247  0.6012983655011205  0.0009922502915529
  0.2006796960474372  0.6023299020534296  0.2014759051923683
  0.2028606144574858  0.6017955169022310  0.6055324962557824
  0.2083381190970935  0.6265422366100428  0.8019600101154790
  0.1944607475469276  0.8022441297390721  0.9999861187252879
  0.1935806076357769  0.7997349295036614  0.2023569252792028
  0.1994654607445971  0.8012277198099430  0.4021625300111866
  0.2000996369230769  0.8004015304083391  0.7976680064304238
  0.3978228504786686  0.0008775844841019  0.9995816909755241
  0.3983179557459481  0.0016210299879697  0.2004986063521918
  0.4006868697277595  0.0001980349300890  0.3994364400846642
  0.3994153241165198  0.0000974704124277  0.6008908984923469
  0.4014238174022456  0.0035913121339761  0.7997037028790488
  0.3990494954215335  0.2011250021252969  0.9999767927065639
  0.3991096543552790  0.2006343886530481  0.1997748341330901
  0.3999728864190978  0.1998081963880800  0.4006720625656971
  0.3984277335483900  0.2013531585811778  0.6002347710718862
  0.4008358225841013  0.2003527125672003  0.8002587720908794
  0.4006541447474992  0.3989561696650730  0.0006035911580842
  0.3997912996626868  0.4006466124924499  0.2010413025207189
  0.4003535744525782  0.3996324042713043  0.4001763933115615
  0.3984360849217429  0.3994910428040163  0.6016180578300895
  0.4061365762183829  0.3994546304606664  0.8010209794849908
  0.4021737059621928  0.6008739650867964  0.0009542493256678
  0.4002971708303366  0.5982456148500223  0.2006619808420600
  0.4028728804051867  0.6008758282478521  0.4013577682760227
  0.4037338845098609  0.6022651207868862  0.6020900710736066
  0.4022646038801679  0.5980930387604949  0.8019034560312972
  0.3939775346670434  0.7996228637744136  0.0033724562300603
  0.3989735988398173  0.8017290935869494  0.4017745690163408
  0.3956111726598237  0.8003602805472008  0.5992965108319770
  0.5950888804797451  0.0004226986320312  0.9983838062020604
  0.5998816790893031  0.0007399932274151  0.1968702378451636
  0.5986052050490541  0.0001061874924810  0.3997404984928580
  0.5994838780091540  0.0000507675024059  0.5989007065537052
  0.6004531029094197  0.0014570810915727  0.7989350155221118
  0.6008737322155612  0.1990646271123843  0.9988399065444106
  0.5999284563648292  0.2004571646409450  0.1993536998738887
  0.5992143487247427  0.2003771119046031  0.3996341953313788
  0.5998502550263261  0.2014725645720554  0.5997240748304203
  0.6002371660853476  0.2009930784660995  0.7987873598694850
  0.6009802481023594  0.4011757837235190  0.9992176259273600
  0.6002588555501938  0.4005501670323274  0.1995249509664030
  0.5995847942360518  0.3998406045444777  0.3994470449939869
  0.6001792682285524  0.4027591149071695  0.5998519558031841
  0.6041145951641627  0.4006447424682573  0.7997948227752175
  0.6009793689310658  0.5991644724734358  0.9971734425291411
  0.5997793119810421  0.5988034148084617  0.2001042883514688
  0.5978205263383658  0.6010523724751998  0.4037708368206355
  0.5998911022681452  0.6004881208422729  0.7946065114908232
  0.5984094206645619  0.8005409685989544  0.3980675838363654
  0.5996261018124515  0.7996204866200363  0.7968888999622920
  0.8002330786015386  0.9993513989672835  0.2007259348187372
  0.7980243431956864  0.9995285273431500  0.3992320308271568
  0.7991510697350096  0.9995149136476784  0.5970645007836339
  0.7995566008764480  0.0012061040421492  0.7957609292286180
  0.8009521750028354  0.2019272356212854  0.9996441286111493
  0.7987467149310915  0.2006499375881905  0.1999509849306534
  0.7992054825196490  0.2003892641032610  0.3995135882284872
  0.8005298630608593  0.2009100497386753  0.5981700835159658
  0.7976471118462650  0.1989449696973391  0.7984493037725680
  0.8009920134591578  0.4014451970521273  0.9989780105212507
  0.8010266357368092  0.4014256708477313  0.2006900944701954
  0.7978731501259024  0.4007422605405235  0.3993862141613149
  0.8024393093236769  0.4024580160666426  0.5982110208241733
  0.8025981763157851  0.3969516445346011  0.7991765054946693
  0.8012703813349028  0.5997740650203509  0.0024559867134454
  0.7994368147910180  0.6008140092962723  0.2000390429059121
  0.7959110702003342  0.6016160793256644  0.3971893831181548
  0.7909701655545093  0.6016681380384332  0.5907777123056206
  0.8040698046320068  0.7977069583743984  0.9962926428201746
  0.8008960028106480  0.7995357374943092  0.1979799923830846
  0.7967702333035466  0.8013406796872921  0.3975826989286424
  0.8032886735691792  0.7995859535752464  0.5963861402175440
  0.7898876056606944  0.8103009134650232  0.7974708441096801
  0.1986404319356448  0.8013248624863649  0.5995356002117664
  0.5996965833593911  0.5952651040333552  0.6005360567787836
