Zr Ti V  Cr W 
 1.0000000000000000
    12.2882735461728885    0.0000000000000000   -4.3445607757035454
    -6.1441367710433559   10.6419570608175889   -4.3445607757035454
     0.0000000000000000    0.0000000000000000   13.0336823299999995
 Zr  Ti  V   Cr  W  
   3  15  74  16  16
Direct
  0.9970627791806707  0.1953608530144638  0.5950771936071300
  0.9955908279740661  0.5772252788935379  0.3838006067327795
  0.6120050724658539  0.7960297447091766  0.6029548383398891
  0.8698815755709159  0.2743769095525527  0.0727429462847957
  0.9943342911267788  0.5869207895159225  0.1827511136695094
  0.0027174274633565  0.7974787966681677  0.9955893903062106
  0.2088058682552656  0.0027703577236401  0.3990448318919733
  0.2062629275611194  0.0120317580528573  0.6083661563350860
  0.2004174297109643  0.3929297525259655  0.0036318831689724
  0.2048012673935881  0.4089081187850245  0.8023957327139386
  0.2055603200505821  0.8068888186007557  0.6110667882085811
  0.3996084662896441  0.3872826420449451  0.7970874411159113
  0.4026531014877780  0.6044593172961890  0.2011307222263109
  0.3853193424478110  0.5818068907982812  0.3892746772386462
  0.4014674860959087  0.6020103316563808  0.8008625893987122
  0.6063139778733657  0.0136699829950312  0.6065197638428500
  0.7889475877550706  0.2003822252679047  0.6008652132564589
  0.7928299633031979  0.5996687480017745  0.6000764044338385
  0.9986925131764472  0.9974432195137443  0.3998801575264046
  0.0010086958569720  0.9912788647806583  0.6012954600453865
  0.0059779465794122  0.9987470198899919  0.8007498424050042
  0.0045841959277044  0.1982851753198193  0.9970611978855911
  0.9989059444053991  0.1956218755516777  0.8012612346672768
  0.9939192689586749  0.4019940444149443  0.5964578556309877
  0.9949227041022964  0.4030574887100278  0.7972302608727508
  0.9953659178061274  0.5981232718127470  0.9926921350274031
  0.9972764358871300  0.6049349477140243  0.8007160161134612
  0.9984923910096868  0.7984974185986603  0.1976173111977651
  0.9991068852514281  0.8004757851118612  0.3952452721607873
  0.9968690145562811  0.7975770797067417  0.6028124983598638
  0.2023989336386507  0.9971534634558509  0.0001748570724302
  0.2102150299389030  0.0037955714504247  0.1995474857177039
  0.2083162991226088  0.0035398181465823  0.8090044845871730
  0.2089742072497015  0.1942821880846952  0.9994895827705511
  0.2031222616969748  0.2050446159695160  0.2005321876443152
  0.2033016436584326  0.1993303029015319  0.5930381852925214
  0.2077074245961630  0.1970912671279156  0.8038450731614105
  0.1610298818475802  0.3907771162576534  0.1999078961636999
  0.1969960438504827  0.3983803444513717  0.4018032194346801
  0.1966193544859695  0.3943499547310351  0.5912728843759958
  0.2007998040999157  0.6018670292592878  0.1962429341740817
  0.2081634246326563  0.6027604281785316  0.4033826306793192
  0.1985453926921787  0.6066865182128807  0.8017157823321451
  0.2013349266053605  0.8057273355946806  0.1973121607128520
  0.1994829851410730  0.8038808795409833  0.8102239303079214
  0.3995940838181822  0.0068820108946845  0.0019222296535617
  0.4071987926380005  0.0096225528971593  0.6082930860400328
  0.3987408632015259  0.1947917053706656  0.1980720305687011
  0.4056190329293771  0.1986863375910239  0.3989706722818286
  0.4101460809268345  0.2025456735096388  0.6059106667648969
  0.3992671708611383  0.3927576534679473  0.0019820332059608
  0.4006191824244352  0.3924527435330631  0.2023569792290441
  0.4036284549600048  0.3948945613140320  0.4018812342645662
  0.4031077057681434  0.3982230364815362  0.5988491570846903
  0.4028448209165806  0.6062041729165658  0.0039847023669350
  0.4081409848793077  0.5981237815493247  0.6030256259720086
  0.3983869892790004  0.8050007881986923  0.9999594198043452
  0.4002905677340303  0.8099345119564584  0.1996925244980356
  0.4032057162589736  0.8103306631195928  0.8064577943987256
  0.5937525416948493  0.0054362730691444  0.3969626250549501
  0.6036593587266743  0.0149521891397670  0.8099460141747552
  0.5970657500255766  0.2014818024635744  0.9982455006504325
  0.5978705404198833  0.2056477163829573  0.2041472265289236
  0.5903947588865065  0.3900674777264828  0.9912432316283251
  0.5951675381420241  0.3905554627672432  0.3942904492239592
  0.5993564927877182  0.3972933912321343  0.5981785160356218
  0.6017121206416198  0.3939434561185060  0.7966553109357417
  0.6003112942949688  0.5922650676884350  0.3999115534688987
  0.6032368198401714  0.5984560977849481  0.7958631511383416
  0.6033414244694039  0.8056954374147436  0.0033223142289448
  0.5993431794408701  0.8034349107597687  0.2001846142319808
  0.6072841370057827  0.8094948745864248  0.3990672895217044
  0.6048063576658129  0.8037431766377860  0.8108526782124390
  0.8036759266772030  0.0041161203599041  0.2059899455322127
  0.7903217232460235  0.9912481936290501  0.3922876688533671
  0.8074994725903286  0.9996698667005399  0.6021751257482764
  0.8114739017775572  0.0103900475572846  0.8067694262064870
  0.8028419618971891  0.2071083253099124  0.2094965399651998
  0.7950702983466692  0.2024529568402048  0.3983020912123183
  0.8000694034580665  0.2029511962666745  0.8109220189821138
  0.7747458622020601  0.3881436815320091  0.1856990100033693
  0.7931796757978300  0.3960835782843984  0.3983284374802880
  0.7916517124346089  0.3963138411439524  0.5948325399077771
  0.7926479908615844  0.3942217630917056  0.7922992140283925
  0.7981357734986066  0.5955855747070331  0.9949495273367029
  0.7894531582925002  0.5906994938170780  0.3932322184516527
  0.7949201415501025  0.5936356340431668  0.7996029049170230
  0.7969893946428332  0.7974429301508723  0.9980672872134811
  0.8018652461489405  0.8018350916596356  0.2010768223085403
  0.8011317531117669  0.7986255469905834  0.3994786382461354
  0.8137107219934350  0.8025423063896331  0.5980372165166691
  0.8065508297387419  0.7972401653254583  0.8026061835258390
  0.9980712261917936  0.1992088917229119  0.2082973356725117
  0.9963653283138053  0.2011158197318510  0.3926266017215669
  0.9932854341669584  0.3805630750014702  0.3990068666888814
  0.0029190632075535  0.8031026418599037  0.7996688950122085
  0.2059784206254522  0.8071332543734798  0.0020315742035740
  0.3990447649565381  0.0044094329174237  0.2010756159363593
  0.4081227681446470  0.0092588826924922  0.4010159875934431
  0.4058693534270708  0.0121303792401631  0.8081860516200925
  0.4022779757769965  0.2017263089260799  0.0045434480945518
  0.4071318967412753  0.1979502012459051  0.8070815195412134
  0.5976441621414537  0.2018211872560285  0.4002611453191445
  0.5936644794934662  0.2016700072076087  0.5964765501442459
  0.6029016990694556  0.2051255575595821  0.8043534412842239
  0.5922898414830789  0.3907907733260713  0.1961678904459500
  0.5941101195741878  0.5870791085075927  0.5988287564467115
  0.7827387191166808  0.3928149160092732  0.9838497940358333
  0.0051785153098176  0.0026603755430736  0.0003267252660640
  0.0016803511392149  0.9988302053897733  0.2005059433942027
  0.9939933891956939  0.4000646755053686  0.9941345739788934
  0.9981136455117894  0.5983444941521368  0.6018332181643565
  0.2040080712959889  0.2036542920857355  0.3995435940230199
  0.2003661404281713  0.6061937684867559  0.9985422378223213
  0.2036078947611240  0.5975564491113367  0.6025676117005533
  0.1997169954845595  0.8002888515826849  0.3990951206948187
  0.4019218375058647  0.8062368557500591  0.3970358257953434
  0.4071536793777950  0.8066533485826145  0.6067891144401847
  0.6016477456140333  0.0079717094629251  0.0042327897386166
  0.5969042928622337  0.0046181152839181  0.2023213833422023
  0.5993015360354070  0.6007234307125321  0.9970098937081103
  0.5978609785968159  0.5953540504898290  0.1999942854534560
  0.8053724367292241  0.0110616709500348  0.0060921394007538
  0.7966869567049263  0.5964257550382470  0.1950384592879880
