Ti V  Cr W 
 1.0000000000000000
    15.3947628529237015   -0.0004726939770559    0.0021267196503963
    -0.0004726263884090   15.4017912768726095   -0.0008921615345846
     0.0021270963932924   -0.0008941263393480   15.4191178141427301
 Ti  V   Cr  W  
  13 101   9   1
Direct
  0.9949535526592178  0.1911219848699544  0.3998890340311627
  0.9997491879618570  0.4037775269083128  0.4003572422000646
  0.2048613613654699  0.0065819842538271  0.3959620129908409
  0.1976884504989931  0.1984983425813784  0.0068173650324388
  0.1962013780054530  0.1979315084290670  0.7957236000845477
  0.3977381590654381  0.0050418234012450  0.2018972943530892
  0.3939830451949730  0.1957250970192639  0.3967058444880303
  0.4006030305793110  0.8018458397870780  0.3955861247212402
  0.6046700821633213  0.1960511418890285  0.3988490951087330
  0.7998824098430400  0.0099226454106436  0.9971474489532732
  0.8037585788516883  0.0037226073657433  0.4003781397781264
  0.8003844817395538  0.1913798912226614  0.8042314573340636
  0.7991679911695668  0.4015464141910766  0.8017425265467921
  0.0020592559664780  0.0012812385342529  0.9988308178088143
  0.0002277792324299  0.9995458592397954  0.2001500912553575
  0.0030124093663155  0.9994338171012278  0.4004250129032043
  0.0012732537377374  0.9993981520191245  0.5994061107970753
  0.0005313332923160  0.9998152942672403  0.8006304952385367
  0.9984069825725046  0.2008188232872740  0.0005151702786118
  0.0012091149423306  0.1998484425957281  0.1980231280064723
  0.0011036483307722  0.1993307954988527  0.6026599807267917
  0.9998877340145359  0.1990574731624561  0.8004615268227815
  0.0013384891528415  0.3997051778328439  0.9995467287321167
  0.0008131535271143  0.3984814341197337  0.1975061108664140
  0.0005535937287742  0.3978489920898898  0.6034931183940501
  0.0025436217048647  0.3987088467255412  0.8015401332506482
  0.0005360463623820  0.5989469650864655  0.9998633314717787
  0.0004452960096089  0.6016803814419601  0.2007890012674501
  0.0004239717241938  0.5978733621905864  0.4005770817773066
  0.0008287143531100  0.6003641340285322  0.6000525777655357
  0.0002385155528004  0.5995208355331269  0.8010774894781876
  0.9998777151706880  0.8004917952208671  0.9999284278992044
  0.9996644658833488  0.8020294782630623  0.2312372383448120
  0.0000524540027873  0.8010259969668577  0.6023972463497619
  0.0002497974031375  0.8006739335318346  0.8003067522968996
  0.2016211657513415  0.9992555033654937  0.0004442734789480
  0.1975814667694128  0.0019183553984257  0.1979409190759604
  0.2004952005931458  0.9982829159315102  0.7992574616026350
  0.1963722047487817  0.2039896747854779  0.4005795188008739
  0.2044712684445384  0.4003649105952064  0.0013259308172107
  0.2002047191201927  0.3989615584734450  0.2024099148632564
  0.2031022347167924  0.3996661076134014  0.4002955804022194
  0.2013890577276888  0.3986140723497640  0.5992316987889493
  0.2005444191838136  0.4004557800329979  0.7999929440211905
  0.2000338028892796  0.6003574971235142  0.0020129950213516
  0.1994797294270607  0.6004378246289207  0.2022821322566747
  0.2001814454098488  0.6013938699636626  0.4008652131220011
  0.2006238495607082  0.5992241202586238  0.5992389206031163
  0.2000955593419911  0.6005370624886247  0.7985768533469952
  0.2012202305295024  0.8001181373901375  0.0010047966350235
  0.1986408926246749  0.8012668735072228  0.2016374588869404
  0.2015225536354257  0.8012045482033409  0.4000064418573278
  0.1999639302266059  0.8006058467048869  0.5977284879994820
  0.2008609603749988  0.8001919574552498  0.8010208813044112
  0.4001947788041474  0.0015586964243004  0.9976494565375562
  0.4027518097792263  0.0005136377196828  0.4039793958346918
  0.4012650846775359  0.2030162065022603  0.9986707487157975
  0.3992815134854724  0.2022795045528270  0.1972849473336851
  0.3982371717910208  0.1994859411691217  0.6024734782519057
  0.4001585733851775  0.1986230129613010  0.7999837675478644
  0.4005176989572521  0.3994406317906258  0.1976977840169958
  0.4014829393816802  0.3993869255364467  0.4005316474465432
  0.4003122183465966  0.3977428898537788  0.6018813579002702
  0.3999855264037914  0.3990374503410924  0.8044966782702782
  0.4005413177175710  0.5956898617321718  0.0001525560089708
  0.3997273725536417  0.5999680838615542  0.2018384261861056
  0.4002311037632383  0.5987277196977518  0.6007720590895442
  0.4003114667004027  0.5993970777757066  0.8004401381626760
  0.4004103603603678  0.7993435173087019  0.0003317695746206
  0.4001168063897573  0.7994813181954995  0.1969590730368763
  0.4007187096882938  0.7988676300337350  0.8010830211647334
  0.5974901191032613  0.0007291844599082  0.9997023100765826
  0.6015824807169425  0.0004766741240134  0.2001758546278198
  0.5980723471323794  0.9974913747589303  0.4011389066693437
  0.5995677506629267  0.0004291214269108  0.6004435332206450
  0.6000252959301446  0.9984244326475172  0.7997304736582551
  0.6008156435062473  0.1998967301433840  0.0010810038499869
  0.6013118880995639  0.1989098424771956  0.1995937488296780
  0.6001211872852863  0.1991635810810877  0.6016745710621910
  0.5993342010410252  0.1979659783810699  0.8001155675613340
  0.5966625768766740  0.3991971233033436  0.0013457240362214
  0.5999686345259297  0.3992856001728491  0.2021224825708935
  0.5988826760285227  0.3984465378879332  0.6002385272121021
  0.5994573210023513  0.3984001917493614  0.8005346316469638
  0.6004683716040169  0.5993978006257672  0.0010884151753965
  0.6011256021546296  0.6010385172303672  0.2015839409424955
  0.5996434306897398  0.6000185145095644  0.4011848060810072
  0.6002497370481436  0.5996586097861244  0.5999289986459269
  0.6007661936578566  0.6004906802536721  0.7995947127743983
  0.6003539524480564  0.8004362604665117  0.0006374682476809
  0.6005544193871281  0.8014188181907735  0.1993681531754860
  0.6014687896052543  0.7998653819156979  0.3999224678644868
  0.6003249583820575  0.8005720493036274  0.6005246158998683
  0.6007517413742929  0.8004190818967888  0.8010526302474384
  0.8006143923800875  0.0023505415615596  0.1988821802168378
  0.8000172797073590  0.0014740047710544  0.6012966541988333
  0.8003321997825495  0.9962704713480963  0.7975456572739108
  0.7995736465647479  0.2057922633964612  0.0038579766897189
  0.8019534536541744  0.2018719332955353  0.2024583695423656
  0.8001336248986606  0.2053927818910130  0.4004296804745419
  0.8011412850561959  0.2003471436291890  0.5986673933474848
  0.7988161312695488  0.4011303468762246  0.0032271346026342
  0.8003782835931210  0.4003650402818824  0.2017038345569336
  0.7964412615010236  0.4026375011327834  0.4006415599319478
  0.8003399025035453  0.3986528951788310  0.5989801610594574
  0.8001014920594547  0.5997685735720237  0.0014309074127868
  0.8005545011428919  0.6006339699493963  0.2013374418587731
  0.8019952384960317  0.6029642340608168  0.4004243239136812
  0.8003185516699040  0.5997725260801088  0.5995068912424434
  0.8007725135238609  0.6012438619143824  0.7996989429904230
  0.8015046194147787  0.8025566547475829  0.2002826728387103
  0.7984604925154576  0.8009156509421999  0.3992264194101166
  0.8018908607102208  0.8014360759128710  0.5978910381966602
  0.8001297506935333  0.7993350677104128  0.8009875439213490
  0.2009765257905542  0.0003527295567471  0.6008839605087639
  0.1988811830113900  0.2003029038741542  0.2039447226447345
  0.1991180581722096  0.1991910886004587  0.5963456630792354
  0.3995776624061938  0.9993403956558340  0.6013445128619453
  0.4000143229899152  0.9991013961429382  0.7990298240845581
  0.4003794470228028  0.5982854502272120  0.4008280741140640
  0.4003116890205071  0.8002100413062880  0.6023244114904074
  0.5993108266884853  0.4014668787215775  0.4006395961341459
  0.7999069440739882  0.7990539739483219  0.0003568929499114
  0.4007432132701404  0.3997165525446946  0.0013446109961504
