Zr Ti V  Cr W 
 1.0000000000000000
    15.2239702406450448    0.1652153756250921   -0.0278959479550685
     0.1634472176293712   14.9865455184337577    0.0295868219053756
    -0.0279038786286017    0.0296360146707598   15.3274191703729272
 Zr  Ti  V   Cr  W  
  11  14  86  11   2
Selective dynamics
Cartesian
 15.1266855313562374  0.7730716539600426 12.2469625324461120   F   F   F
  2.9088773731052702 14.8721161899797654  6.8781188395426698   F   F   F
  6.4642213597823028 -0.2273705042128513  5.8069257979012221   F   F   F
  6.0246762631603685  5.7298683612352397  9.0748699669982607   F   F   F
  6.2914872522157044  9.0020875045662585 15.0172497349023377   F   F   F
  9.1826751208554871  0.1455057827714267 11.7034333095244616   F   F   F
  9.1032634089912534  6.4391901161067517 -0.2199898799144187   F   F   F
  8.9042875445330569  8.9516501233531205 12.4007829167887849   F   F   F
  9.0132892608158759 12.0209398536140259  9.5761370898989959   F   F   F
 13.3105283241530969  9.0173166536851515  6.3320480883350285   F   F   F
 13.2744995703135817 11.9856196798141905  4.2174511470710305   F   F   F
  0.4097865168130995  3.0964320280154078  3.1750382392689707   F   F   F
  2.6732143940419566  0.2111778276236587 14.8676023150767627   F   F   F
  2.7199082510039427 15.6584326102189983 10.1890698235590200   F   F   F
  3.7154930389973959  3.1934032848507687  0.9869939745903180   F   F   F
  5.2956198627643900 -0.3250135551698410  2.2671555287942970   F   F   F
  5.3946516638623905  5.9625204297570917  5.3121694945758673   F   F   F
  5.6239819278407408  8.8167772810651535 11.4159543736036184   F   F   F
  6.2274377245280137 11.2275766099996854  2.5122941148323394   F   F   F
  6.8186518380212027 12.3355323101036980 12.3371121822945078   F   F   F
  8.8143035780001107  3.1880992428469588  9.5642901091956141   F   F   F
 10.0130611843127859  8.6446253812426725  5.2915478374559459   F   F   F
 10.4867056972757347 11.9232575810711001 12.9017270440281209   F   F   F
 12.1134500702594927 15.3600781235495401  5.2606830892027778   F   F   F
 11.7755589978492701  9.7650076355355466 10.1996664501565171   F   F   F
 15.5721021734182461 14.6547648781285762  4.2657321006199433   F   F   F
 14.5542733779583511 14.7767795894120209  6.4670724847583774   F   F   F
 15.4380522332854344  3.0335991697514264 -0.3721436954985212   F   F   F
 -0.3920900441455388  2.2136767095816263  6.6520945524170090   F   F   F
  2.0527380451700088  3.5985279731539905 -2.1047583735413395   F   F   F
 14.2621608676936411  6.4527042727500818  3.5953633000636751   F   F   F
 15.3160953062467549  6.4443488868613263 12.7117980389233551   F   F   F
 15.7007604377686256  8.3601559110878192  0.4906240319100532   F   F   F
  0.7921718440883929  9.4274406412796878  4.0333258953026547   F   F   F
  1.5421294871119251  8.2228312405333668  7.4591088717884970   F   F   F
 15.4068649321782747  9.2812369740428746  9.2785493814955604   F   F   F
 14.5532134516551839  9.3149536981125109 12.9808646435799293   F   F   F
  0.8346309045867676 11.9766006931099884 15.0544898918388270   F   F   F
  0.3536659395152492 11.2383570684449463  2.3997455334801909   F   F   F
 15.7600423212059297 11.9366102701453958  6.7186541648453932   F   F   F
 15.5652732735205603 13.0360715283452588  9.5845983408344324   F   F   F
  0.5723969576172859 11.6852907932167707 12.2174327832349512   F   F   F
  2.2090245457844171  0.7747570662711130  3.3241497522991317   F   F   F
  3.5012596948782453  1.6610864599295205 12.7354354626509760   F   F   F
  2.9831050450518379  3.4315891009231452  5.5699850715686638   F   F   F
  3.3399609720184964  3.1996611358837215  9.1055344272145220   F   F   F
  3.4402545896671564  6.3473904204726290 -0.6436066357657674   F   F   F
  2.6300889072094087  6.0953363708076260  2.9953669208732592   F   F   F
  2.7776354131886225  6.1142046335299973  6.8747937837750657   F   F   F
  2.1552115570338803  5.9399560816007027  9.5731997257548720   F   F   F
  3.4928119417554866  5.9432999950335255 11.5806444380618565   F   F   F
  2.5218096912382362  8.5117502103712628 15.4944931552421803   F   F   F
  3.7657784843113187  8.8143024963316119  2.1900690186230567   F   F   F
  3.1294143757140325  8.4459376182269601  5.5826422203708983   F   F   F
  3.8479524342597666  8.6482080131706986  9.2248131084683713   F   F   F
  2.0168387479396253  9.3014318753151102 12.6388718960974327   F   F   F
  3.2394566235640148 12.2261594749297586  4.2861528202618624   F   F   F
  2.9086052831542695 11.1313742068526889  6.5551756085026023   F   F   F
  2.5142061937920208 11.9950071414336641  9.1259679937954967   F   F   F
  3.0078447595110651 12.7462158956993772 12.1951974117864008   F   F   F
  6.4611926737300855  0.5643532599058577 14.2594601291591996   F   F   F
  6.5569976649066923 15.0472490809042831  9.5862154594882156   F   F   F
  5.5377362405203803 15.0172712521556662 12.0838861845888399   F   F   F
  6.1862186893391939  2.8286519687691447  3.8713803651174001   F   F   F
  6.8569628473510509  3.5711663553064192  6.2576875732351409   F   F   F
  5.3971218932229839  2.1532896390704006  8.2121687353108754   F   F   F
  5.8780473078441595  3.1506472058437760 11.7506489305347177   F   F   F
  5.4880127393136471  5.0993471378844450 14.8310853377330929   F   F   F
  6.0805774522562261  5.9573877230238477  1.7039876458699512   F   F   F
  6.4388563582123153  6.1125644685043010 12.6876189420016150   F   F   F
  5.6447041910430844  8.2617441732398369  3.5317902098052971   F   F   F
  5.1974385614494958  9.6348448823991415  5.8178204280306529   F   F   F
  5.9849837106525392  9.8065384193024645  8.6770097886205519   F   F   F
  7.2526812515134189 11.0578826945979944  6.3039554931793136   F   F   F
  5.4233694623329711 12.9052283203971303  8.8934702759385420   F   F   F
  9.8885837533776115 14.8551115904187085 15.3845472370653376   F   F   F
  9.0734587440414742 15.5060315911734925  2.9437774765966562   F   F   F
  9.4251648112309123 14.9916436179153578  5.4607984339949063   F   F   F
  9.7067404555179557 15.0492374941086471  7.9731400314235019   F   F   F
  8.6418761973172753  2.6305434443596134 -0.6989726221933418   F   F   F
  9.2133429421957729  3.9281631519907139  2.1399812889308958   F   F   F
  9.3015916599415931  2.8851562911016599  5.7979495374716548   F   F   F
  8.8951886523453769  5.7604088074819284  3.6499497971820865   F   F   F
  8.6427851418542048  5.6266082350102415  6.6369009114634485   F   F   F
  9.6773154577449798  6.7746145901296293  9.2742811972741794   F   F   F
  8.9590153793090845  5.4174113229252105 11.4487022231073414   F   F   F
  9.7526383740086615  9.8529664462693347  0.4807997997861707   F   F   F
  8.3131897734431917  8.7059074386955242  2.8705847293578950   F   F   F
  8.3390934585435641  8.6633062667487497  8.7844958534781998   F   F   F
  8.0781376862529353 12.3537498556880454  0.5764448929602687   F   F   F
  9.6989428617082289 11.3879084649984765  2.9110791953634818   F   F   F
  9.6110421547195184 12.3987071244546421  5.5563127147017832   F   F   F
 13.4156686057731065  0.6509352592615715 -0.8195869228282904   F   F   F
 13.1075876505726043  0.8610996886554757  1.6637928224778407   F   F   F
 12.5768939649798490 15.0672075257305860  9.8069167579832754   F   F   F
 12.3279592246542986 14.9138434951739960 12.2963448256281467   F   F   F
 12.0259169534679256  4.2062634276292190 15.2029477871158019   F   F   F
 12.0147306239265994  3.4189112622837001  3.3171515797416324   F   F   F
 12.4231217403029621  2.6790079518723311  8.1052204867868554   F   F   F
 11.8770221735839385  2.9450168102350203 11.8475387677562267   F   F   F
 12.8579455944429561  6.0849897016036110  0.0757220489700195   F   F   F
 11.4407878876102949  6.8935565370811114  2.5257909133222416   F   F   F
 11.6840728951699973  5.7189751731690581  6.0238717894668383   F   F   F
 13.1887026382046404  6.4388013258261543  9.3044773872508060   F   F   F
 11.6257881315364013  6.5923014958626949 12.5334688863262045   F   F   F
 12.2153100196559059  8.8448347762536201 -0.7605272383581749   F   F   F
 12.6697617153217568  9.0230806945011075  2.4964990426224172   F   F   F
 12.5325288232381613 12.3140983797933838 15.9715468725377132   F   F   F
 11.9492334700779459 12.2233541835026838  7.3835654165535010   F   F   F
 12.9814160020304659 12.0578432953723222  9.3150180441492001   F   F   F
 13.2413023786525574 12.6109266813974372 12.3696879337271710   F   F   F
  0.1678929869217294 14.3495846618472971 15.6410132401562265   F   F   F
 -0.1648852015425721  3.3152902041913568  9.9333739784616348   F   F   F
  0.2510718108093057  6.0180937143588045  5.8224052882009074   F   F   F
 -0.0505568178857202  5.6034359346820439 10.4943022620244975   F   F   F
  2.9030200454074238  3.8124703833649063  3.2390793921368952   F   F   F
  3.4716919929352241 11.5748746508704450 -0.1231312203708631   F   F   F
  6.1664464153991814  2.7162688430991118 15.3554536621181636   F   F   F
  5.7978416264367763 11.7026766681189454 15.1224656630425649   F   F   F
  9.5692776110695448  3.5020826859479661 12.5192881473401467   F   F   F
 12.1848549709696297  3.2445830987124387  5.7356373736971529   F   F   F
 12.6247160278620356  8.7891169449391189 12.2269240544018576   F   F   F
 -0.0653230481227114  0.7187288245689110  8.8778487871331340   F   F   F
 14.0194896883271891  4.3296123163603957 12.8561201018071394   F   F   F
