Zr Ti V  Cr W 
 1.0000000000000000
    15.4243531601052801    0.0069213360103042   -0.0227130969377285
     0.0069117328085832   15.4243730448160701   -0.0099851585265742
    -0.0226677546087976   -0.0099574154515165   15.4321734753061364
 Zr  Ti  V   Cr  W  
   7   3 108   1   5
Direct
  0.2040529841169000  0.0013397429446545  0.2134665819691381
  0.1729824496530322  0.7693944665819769  0.5914565428432934
  0.4012361748569142  0.2006543008877251  0.9984296536152656
  0.3649421843753894  0.6337227711587484  0.6001266266887975
  0.6397054712714049  0.5997203081081989  0.0425929733183239
  0.8072469873312726  0.5981021807278266  0.2101157409496557
  0.7604046221057388  0.7991496980717934  0.6013241976675223
  0.9936601220259700  0.6014727770871539  0.3849428136845721
  0.2030454033018199  0.6000431336094043  0.0039569853274999
  0.5601543086262586  0.7859920180664873  0.5991289456122216
  0.0003419023837830  0.9942481371272444  0.9988541782888566
  0.9983108965782886  0.9986685301105928  0.2014257117626716
  0.0054916970736005  0.9971257397138008  0.4044418907629845
  0.0039130181172391  0.9989194828398744  0.7938229813225467
  0.9990637264042699  0.1993489553235547  0.9992284918966485
  0.0015077026784251  0.1987267542287857  0.1982397429869484
  0.0009191703779312  0.1999201849781683  0.3983139418516599
  0.9988752073906978  0.1948743933289213  0.5990790785379969
  0.0066283016826307  0.2005369162903557  0.8009159260885983
  0.9994627479301373  0.4022306700746743  0.9996946350603574
  0.0012317044131196  0.4007612859569073  0.1982072456963794
  0.0019426494325026  0.3983518238701915  0.3988699268066661
  0.9964459529553698  0.3965390868235644  0.5988591165519203
  0.0035915083120703  0.4023752296721952  0.7988144770369019
  0.0031808436532372  0.6049139630913084  0.9954366396187424
  0.0091275888053824  0.5995047530270257  0.1917150130885400
  0.9949289591012459  0.6005165614620533  0.6012819048484908
  0.0084000794705021  0.5990193757686842  0.7973393893262593
  0.9996932210066535  0.7980169800546715  0.1921893341024946
  0.0027601736869622  0.7980619479483386  0.3975790265318572
  0.9757456674001542  0.8047554428526058  0.5989664833319929
  0.0019650097234871  0.7989593273995509  0.8012195544729708
  0.2007722087757197  0.0001938618047170  0.0028909649487748
  0.1955133471898915  0.0046705866514472  0.6010326188293620
  0.2043308202505572  0.0041174860346278  0.7995395562592251
  0.1946332666473784  0.1994649472607070  0.9966280685756280
  0.2008846866985224  0.2050171955831369  0.1983501359338792
  0.2019587182884206  0.1953489289037507  0.3977682847132192
  0.1976908859394793  0.1999902355631138  0.6038990542081596
  0.1987226550701691  0.4001732646736532  0.0001464508456921
  0.2020493716568053  0.4010623712197824  0.2004526149637445
  0.2018311474678850  0.3967204192592629  0.3996778313161178
  0.1975001804027051  0.3955660067469641  0.5968837613086093
  0.2078241329084925  0.3954199013652013  0.7993276845903555
  0.2031212453217331  0.5975721133072626  0.2056610495530031
  0.2020367761524679  0.6007350582544302  0.4028741983846491
  0.1746904048074956  0.5811895101228023  0.5951127175546089
  0.2055704709592402  0.5999204912729238  0.7918846001698115
  0.1958693566723394  0.8025928717553144  0.9983053580068386
  0.2010564648232376  0.7936098089669995  0.1964287915491103
  0.2013897661949547  0.8042218321338654  0.3900890738091362
  0.2025748177639303  0.8019484068995590  0.8028759773726208
  0.4013902107339277  0.9954111098270956  0.0008112437949352
  0.4079427134927202  0.9973922380168642  0.2012724639241372
  0.3986695544471472  0.9992251048740053  0.4013381841824054
  0.4018108688521605  0.0052867806014578  0.6005547544520797
  0.4027711267752829  0.0010055100240651  0.7993339279191292
  0.4030799154347113  0.2023629815243650  0.2022189329440102
  0.4013823046325740  0.2002664791698580  0.4001445538785547
  0.4012173375607255  0.2031222983107884  0.5970233366903989
  0.3976551519715688  0.2051674862940814  0.7939291113506455
  0.4014603045957767  0.4078024775915306  0.9967221389707787
  0.4012021946687305  0.4018993963326248  0.1980557776316383
  0.3999963743110256  0.4016736335240158  0.4013717330693309
  0.4005870504511027  0.4054775930703756  0.6037760924112281
  0.4017394079975085  0.6044845719448699  0.0021971887505811
  0.4018392780608303  0.6007968228612631  0.2006024000043230
  0.3989562942144836  0.5993293659282650  0.3981537325423965
  0.4058465801571723  0.5967191089892045  0.8078361413142501
  0.4012610123001372  0.7994660836691532  0.9994852184817037
  0.4006934146793774  0.7984809297092474  0.1978886322446819
  0.4007855863920318  0.7990059436890882  0.3997772560000820
  0.3759550676790939  0.8217635332843766  0.6013699374813303
  0.3998803128322755  0.8002490434168097  0.7991926617243311
  0.6041546488187789  0.9970911369416043  0.0017529710373654
  0.6006062821044538  0.9974992509164879  0.4015840209966670
  0.6021184688611534  0.9977715078056159  0.6008450435749605
  0.5997637408411122  0.0000435908913028  0.8010853365815231
  0.6072169301783931  0.1986471451619558  0.0019419116964915
  0.6023837714125627  0.1990837714415957  0.2018132099680643
  0.6007735778591483  0.1984203073020232  0.4007928033614105
  0.6023173395441896  0.1980367693836960  0.6004842750713461
  0.6010586678512542  0.1988368118589613  0.7999306193151405
  0.6017455505883704  0.3979492304834623  0.0015415011088057
  0.5998933550738914  0.4012902704234237  0.2008690378825278
  0.5991690624148502  0.3985036009847212  0.4015303755378328
  0.5992436688543911  0.3993340863247319  0.6004212090297311
  0.5953852325097312  0.4000527466611730  0.8016672262047063
  0.5971845035153557  0.5987877782744245  0.2253603487283574
  0.5978425998256447  0.5990120617397794  0.4105483438062582
  0.6081972612233950  0.5965293500853865  0.6048932037943906
  0.6015779314717918  0.5992554888970195  0.8002814236275130
  0.5997759161352710  0.8005919516624217  0.0015420453757815
  0.6000821689932874  0.7968832459168149  0.2006307140863024
  0.6007352293238063  0.7995939876674644  0.4003757404944313
  0.5994269016165797  0.7983329333916839  0.8042465240061790
  0.8025775845457740  0.9992556033760136  0.0004762377634684
  0.8006929719300373  0.9994994395490414  0.2019753084473002
  0.8027046829984176  0.9986948773462264  0.4003673331149283
  0.8051448522295475  0.0028840022631358  0.5990865359311067
  0.8013510735116720  0.0017631032756450  0.8005219705703800
  0.8037777576758419  0.1994991554205365  0.9996429249122755
  0.8014407985204204  0.1998457410054500  0.1998793500933080
  0.8011350845750143  0.1986254103215496  0.3988095559441973
  0.8009827535705899  0.2014899320553902  0.6004177021774864
  0.8016763857466676  0.2004526802869831  0.8010117632558258
  0.8003823332240269  0.4046268546060078  0.9997502805609745
  0.8014076244931481  0.3951836912962560  0.2005085531356942
  0.7987635260399272  0.3993034555346313  0.4007809765631199
  0.8000419628638247  0.3984395655136685  0.6010524844265233
  0.7999523272350632  0.4631770066790735  0.7993494436687094
  0.8127990001618675  0.5985836740115162  0.9601457387356119
  0.7977270671975656  0.5999904555567496  0.4105980086441013
  0.8027932781400233  0.5947671461078017  0.6034720029589508
  0.8033638372665599  0.7942614885309212  0.9995008862168159
  0.8004703764660790  0.8024016938729498  0.1981187879943476
  0.8011451759444242  0.7977553236604800  0.3947376661105027
  0.7989863687651054  0.8028676452227568  0.8012312152458902
  0.6031833776408901  0.9988062741794277  0.2022176435291041
  0.0013414268977534  0.9960801507843368  0.5997424583292044
  0.9995331103289633  0.8001624315463221  0.9972685868194640
  0.2024588116904498  0.9974404711891773  0.4123574796622673
  0.2039391771698527  0.2007538335700341  0.8014163925699092
  0.4012886007169243  0.4026412646863223  0.7991395172300759
