Zr Ti V  Cr W 
 1.0000000000000000
    14.8317157318759865   -0.0428413447780317    0.0410094642238392
    -0.0427841237591571   14.7291544143164010    0.0102691450021625
     0.0408945315824445    0.0101011623578911   14.8232147115395776
 Zr  Ti  V   Cr  W  
   2   2 100  10  10
Selective dynamics
Cartesian
  9.0056198714944244  3.1351365826839781  3.5135240062817510   F   F   F
 11.5094108358779970  3.0115350591177590  0.6378472843957367   F   F   F
  5.5303859638116837  2.8505997800333533  2.7272476239738146   F   F   F
  9.1767328418871603  3.3088711664393373  8.9277733695345241   F   F   F
 14.2875330194225096  0.4168906105979500 15.3257353199940383   F   F   F
 13.9861766606259845 14.9110410894705669  6.0276384736613950   F   F   F
 14.9615228310733155 14.3581265589570144  9.4777881435636306   F   F   F
 15.2736757413489403  0.6316952457409423 13.0192340098340900   F   F   F
  0.6622119200567228  3.6272549981082030 14.9614491741296263   F   F   F
 -0.6191453208411014  3.2454713062985738  2.6795017739178637   F   F   F
 -0.5369240489102687  3.3680527926156594  8.7589405592025340   F   F   F
 -0.6389845042581306  3.4319406594645434 12.6149179563723859   F   F   F
 14.9230370823239724  6.9250825220083607  2.5648486565095694   F   F   F
 14.1284801152458304  5.6587894575188953  5.8556757312012007   F   F   F
 15.5695424017162694  5.9435144944263021  7.7317011618500198   F   F   F
  0.0153581586604178  5.5768276240259098 11.7528244721579789   F   F   F
 -0.2541885012354006  8.4406973675773855 -0.8019085126939838   F   F   F
 -0.5259924510805069  8.8706161084561401  3.1143697071582030   F   F   F
 -1.1441539281124609  8.2134438398887788  8.5047742855499457   F   F   F
  0.4126522957959299  8.5496201758590455 10.9910644260534553   F   F   F
 -0.3251926821524340 10.8932589721446540 -0.1776971482391332   F   F   F
  0.1589148841805081 12.5886975234875695  3.1874433126357746   F   F   F
 -0.0176579519388893 10.4660629039966580  5.4685156947320515   F   F   F
 -0.3652063397438032 11.8404966883653948  9.0591214318604898   F   F   F
  0.2779862463713031 11.3585854942907272 11.8507581160209998   F   F   F
  3.5970788038844437 15.2787643618201159  0.2496909732219650   F   F   F
  3.9931568525478074  0.6303882740870819  5.1633691586101600   F   F   F
  3.0017212544566876 -0.4588326908872253  8.5616844227660618   F   F   F
  3.8026343422155096 14.4503613843140677 11.2104626367510463   F   F   F
  3.3444031204564717  3.2350066622234741 -0.2455759834342453   F   F   F
  1.9047580750964312  1.8380443148339429  3.3329569144598286   F   F   F
  2.3656960195998509  2.9695766981429146  6.0421385974712551   F   F   F
  3.6391660403789841  2.4667836934015344  8.5821632245464752   F   F   F
  3.0329341527375031  3.3714110617578044 12.2001896238348184   F   F   F
  2.3410981973900622  5.9364925638537196 14.6871612603086596   F   F   F
  2.5058819607709646  5.1227482604530579  2.8745517205707953   F   F   F
  4.2219794802926245  5.2047763904786466  6.0244493503097090   F   F   F
  2.8544371899320895  6.1442983928684338  9.4513182319475693   F   F   F
  3.9202347008380096  5.3614395334011276 11.2977256490355433   F   F   F
  2.6017422890891244  8.9302409331888839 15.4071579243523047   F   F   F
  2.8532889760957145  8.3819281182423655  4.5526627970803704   F   F   F
  2.4385087204710501  9.4852605975019237  8.1195980059955577   F   F   F
  2.6207276530298609  8.4562672047777383 11.7186738521140761   F   F   F
  2.0528353434122932 12.6996707080023903 14.9654153027240966   F   F   F
  3.5498642593911387 11.7071205470355917  3.2230487821904368   F   F   F
  2.8416799761204503 11.9321182709723548  5.4539104271492267   F   F   F
  2.4722252855051683 11.7058298881629224  8.4853888599335079   F   F   F
  2.6695936544547472 12.3120984170279755 12.3263310641403230   F   F   F
  5.4873378150812977 13.7769502606720149  3.1757161132992922   F   F   F
  6.2465578270738114 14.1397799815569556  5.4522301461182519   F   F   F
  6.7834081749496171 15.1259776637922361  8.9489518904680629   F   F   F
  5.7995609765670437  1.8781609327485478 13.9273603174516456   F   F   F
  6.5547290068292554  3.0975532065172051  6.3400246235490716   F   F   F
  5.7356512818734764  3.8719392547404556  9.6131048432964175   F   F   F
  6.4398717819187308  2.3521776788786051 11.2506399941037643   F   F   F
  7.3346574603035251  5.8543145887200643 16.0392849678528506   F   F   F
  6.1537221773195272  5.5128857628969250  3.8509240093911812   F   F   F
  6.5469063483787284  5.8671205471785806  8.7510624616775701   F   F   F
  5.8364443352638391  5.6949716169785134 12.7342156644783842   F   F   F
  6.2661582829381040  9.2406753297140636 -0.7722550003291696   F   F   F
  6.1818198614925972  9.1400913690514312  2.9192943806761922   F   F   F
  5.7083205204208332  8.9384414519004558  6.6970547961285671   F   F   F
  5.1747286959458441  9.1633409254689457  9.2341717499454834   F   F   F
  5.6735193972887350 11.5946292096946451  0.0227148078245475   F   F   F
  5.5751559177917311 11.4816273823468489  7.9566800551487864   F   F   F
  6.3327122077353826 11.5561449897892530 12.2066240290890686   F   F   F
  8.5800765897310800  0.5570335238823875  0.9845725858217829   F   F   F
  9.3361932592366674 -0.4704193206937856  3.3360114557806257   F   F   F
  9.0130442177247723  0.2247242313036934  5.8000999244853872   F   F   F
  8.8882542752507145  0.5537135670060975 11.0984468342928491   F   F   F
  7.8565114536921588  3.1609682895498405 -0.1121332459211211   F   F   F
  8.6457153733252685  2.6938161721156413  6.3467727032487167   F   F   F
  9.2593971567777142  2.7658305877637517 12.6681164752991684   F   F   F
  9.2615319836206833  6.8024562729938713  3.1264510257713569   F   F   F
  9.1631329019087087  5.7597045330427097  6.0308702124813518   F   F   F
  8.6265856118295101  5.4074244511632035 11.7901256600065309   F   F   F
 11.7086936520171445  8.2703360971112740  2.4558154327042221   F   F   F
  7.8375704351520721  9.2312406786336716  5.6232998622394907   F   F   F
  8.9665397318595552  8.7277545648178751  8.3251611388883795   F   F   F
  7.9960973041812844  8.1577269752375674 11.1870581935757389   F   F   F
  9.2957337945804408 11.5008991472748932 15.4790640815459568   F   F   F
  8.7597887004023178 11.4397984124112710  5.7929641323139531   F   F   F
  9.2255963476161327 12.6355727808731242  7.8040805641582454   F   F   F
  9.0028710074350844 11.6921264022186815 12.4051197701782403   F   F   F
 12.1553234369794083 -0.8017956698664802 15.3071999103363936   F   F   F
 11.5683183957917350 15.3126792770588889  3.2075152230305779   F   F   F
 11.4646373362223457 13.9026649733853525  6.6048270741444686   F   F   F
 12.2594827074483845 14.9591337784093525  9.2347442277778686   F   F   F
 12.4763995133882446  0.7398994705591075 12.9030293253036419   F   F   F
 12.4802490514163189  3.9900608520333485  4.2620553283537443   F   F   F
 11.6764257621149987  3.0339749873228579  6.2620256777664984   F   F   F
 11.8748285663657818  2.9463012502929655  8.7027394656269035   F   F   F
 11.8350557327622781  3.2359038359473051 11.5621161063584896   F   F   F
 11.5659545569015290  6.8115646191066173  0.3102671308701808   F   F   F
 11.4707269039595285  5.8103518359603497  3.1493967339987403   F   F   F
 11.7824475635766408  6.0164501311192602  8.6698616346185453   F   F   F
 12.2044700366336905  5.6121796700546556 12.8697477820659607   F   F   F
 11.4875004104649854  8.6070943238964812  5.5253173193431611   F   F   F
 11.4188486473077759  8.6483620937818575  9.2502361411797160   F   F   F
 11.6391629839716089  8.3851312177126847 11.6972215029773370   F   F   F
 11.8229536026944952 11.7147541395449846  3.6069336252087649   F   F   F
 12.5241056442106373 11.4258293660689851  5.9265487287769965   F   F   F
 11.7125150182060374 11.3382189075503899  8.1948964038812537   F   F   F
 11.5576546846098935 12.8474145737942926 12.5699270347140537   F   F   F
  3.7856443504951462  8.9690538198744321  2.5269776751690838   F   F   F
  6.0551332390795567 -0.3100379691556501  0.4769287474706321   F   F   F
  6.4280641626229800 -0.7607631536072570 10.9456501731755420   F   F   F
  6.3819176902229779  6.6948030630741107  5.9104288175489934   F   F   F
  5.3998764033197233  9.2196801601564164 11.7051376271017435   F   F   F
  7.1830884155692845 11.4636961325966897  2.5978168314466301   F   F   F
  9.5517952865913003 12.0477564104808597  3.0404760776974924   F   F   F
 11.3626815015053566  6.4510738982406730  6.0786557230349869   F   F   F
 11.0586790464959677  9.5489264679158410 15.2840800420444136   F   F   F
 12.0523350974360230 11.5562720857104981 -0.2264488876092741   F   F   F
 -0.2824618137121818  0.3365291222731854  3.3646237987614014   F   F   F
 -0.2957039203437077  2.6933785229661189  5.2755576847932968   F   F   F
 -0.9010269737770027  5.6049737677295468 -0.0219739686019886   F   F   F
 15.0335614291010469  7.9188617318887289  5.9371908432680698   F   F   F
  2.5935351858755658 -0.6311737459882558  2.7702877545732960   F   F   F
  5.8134565087662837 11.4286970478683845  5.0792058557275270   F   F   F
  9.8390922364795497  0.7643735326020589  8.1979300087101148   F   F   F
  9.6229445079729370  4.9985061658078971  0.5548727216239049   F   F   F
  9.3911306689833278  6.5473160635649998  9.5851085205613380   F   F   F
  9.2397409867990739  9.5484911018405185  2.9832256060189550   F   F   F
