Zr Ti V  Cr W 
 1.0000000000000000
    15.4411249493602298   -0.0057725826640909    0.0015034816595225
    -0.0057736157285930   15.4404920489432147    0.0129561230258158
     0.0015050534304008    0.0129519398306557   15.4493068869615229
 Zr  Ti  V   Cr  W  
   2   1 100  10  11
Direct
  0.4021998326265825  0.1946363989851696  0.9981504229856173
  0.7963539221383635  0.3981491132457806  0.2006749488702965
  0.7916689427237199  0.3964007972330710  0.6033071481415347
  0.9972225443789432  0.0001942061699016  0.9987830415259215
  0.9973243363999369  0.9996950186660337  0.2004656175814007
  0.0005109307450570  0.9990206361551459  0.4008073839943854
  0.9999081253429150  0.9983958926592794  0.6012592964517545
  0.9990351513933203  0.0006577334565599  0.8007947299968705
  0.0005597792541099  0.2004298187269579  0.9993549166966834
  0.0012127513682645  0.2015915485435400  0.2007170357758066
  0.9943941599037577  0.2011505038460719  0.4018822843898038
  0.9999983694289827  0.2013033074830603  0.6013037304239384
  0.9998440514295553  0.2017532724486730  0.7987273459916469
  0.0032315766557940  0.4018523552296973  0.2005261362985002
  0.0008967148670169  0.4016344420121594  0.4011496862993848
  0.0031181938213659  0.4044016185321029  0.6000524630538493
  0.0008781176103947  0.3993839573367909  0.8001627687793061
  0.9992994683371949  0.6007114483098415  0.2005583309189183
  0.9992157149310184  0.5996236635529085  0.4039037613284188
  0.9961194531213919  0.5992069057650085  0.7959964771507828
  0.0019648944171602  0.8010984477532413  0.0008052205324671
  0.0008919428083938  0.7992799032371340  0.2008359627879073
  0.0002127347406389  0.8002228659198787  0.3995293273736684
  0.0005288419591352  0.7963668519794648  0.5984817380267135
  0.0013896420628923  0.8007175062375478  0.8005985717299414
  0.1993738470491648  0.0019824014818262  0.3993426670659194
  0.1990925515952404  0.0002351525583106  0.5991164003263126
  0.2009320941769633  0.9996303592507555  0.8987381292690944
  0.1952788100581402  0.2016817232631559  0.0030599559424383
  0.1987120575369817  0.1995694530137070  0.2017057405776726
  0.1977819846248298  0.1990973540134202  0.4011658825971817
  0.1988214613767587  0.1989166405498733  0.5999740016950518
  0.2007170809758193  0.4012244182751322  0.9999097928225680
  0.1999589528000722  0.4008273594899037  0.1988814110928903
  0.2039295184960664  0.3981292359274270  0.3986790548587760
  0.2001614001015612  0.3982635964097405  0.6011009841577742
  0.1994797736132791  0.3998125278065043  0.8017445418036491
  0.2006227828749659  0.6009464375761995  0.9990004805745809
  0.1983972146171897  0.6002789742517788  0.1982098032421991
  0.1985715592859756  0.6002497615226152  0.3979829884316047
  0.1979746584618076  0.6001880259637333  0.6009224389828701
  0.1993918684598252  0.5991675766246591  0.8014225671944581
  0.2022663029451323  0.8003705684230689  0.0000471030361973
  0.2001740867472268  0.8001227242245893  0.1985591375031725
  0.2043943927865758  0.8012600620816622  0.3978192998102550
  0.1999590463748859  0.8015152522501741  0.6004292739231613
  0.2004424320515490  0.7995119610594781  0.8015810513601072
  0.4003028891198783  0.0003192717526420  0.1997859567915989
  0.4007056180390046  0.9984646358335855  0.3998632722806117
  0.3995011044580039  0.9977951052481896  0.5987491184063307
  0.3993359037968007  0.1992435212871966  0.2060845177509943
  0.4007699202197468  0.2022761843403326  0.4041193673039313
  0.3978564907806822  0.4008868835251460  0.2041604014311272
  0.3980031710928454  0.4042628091155931  0.5964547201442647
  0.4006460385759111  0.6004184068487443  0.9981129126945256
  0.3999195689410652  0.5998553393316868  0.4028414207319591
  0.3999751843039837  0.5977559524262995  0.7945619631015550
  0.4035339451276888  0.8003165043552568  0.9994819532420544
  0.3990080074358786  0.7995765751401681  0.2040087449136849
  0.3997444653150604  0.7959573277546529  0.5965517403738811
  0.3999120455858636  0.7980917579539567  0.7976416443551826
  0.6017110444860974  0.9940448537241952  0.9987972602406310
  0.6047435615346343  0.9998144145145546  0.2012414825609048
  0.5985308085275581  0.0003984377180359  0.3999756078016912
  0.6008777874978215  0.9985333908654637  0.6006073397676653
  0.6034105321595798  0.9984960003890090  0.7986098296895666
  0.6071568157546284  0.2013605466950488  0.0011473010890926
  0.5989262604093931  0.1998908325539820  0.2007121406661382
  0.6044170430201383  0.1996656288177487  0.4022785065441806
  0.6001014858328649  0.1982426058089340  0.6010493739251421
  0.5974304358688869  0.2004247058220806  0.7993239808630788
  0.5989577982237976  0.4017649658309759  0.0008993392042212
  0.5932724654631640  0.4009730240660062  0.1991532438082252
  0.5938490478285829  0.4005760085891026  0.3995458227482698
  0.5965643457638100  0.3993430797432481  0.6015173718620173
  0.5997903390053553  0.3996346371319389  0.8014336144534154
  0.6000507001846282  0.6031366977516854  0.9998840309838336
  0.6014226286602444  0.6005746227383942  0.1988090021208854
  0.6018014237467844  0.5996050926585289  0.3993301928446503
  0.5965165861404836  0.6003412279487327  0.6005085767272322
  0.6034976883926866  0.5974002963816855  0.8001986234624455
  0.5990373235062050  0.7987351048744155  0.1969568107815641
  0.5963578379867597  0.7991573299431250  0.3981264980859142
  0.5998251815688090  0.8006017133616535  0.6001458623774055
  0.5993220971297518  0.7985312018344830  0.8025859398651282
  0.8008787531354474  0.9978224824543297  0.6025565943022094
  0.8007378171867324  0.0009595634013195  0.8043375859054699
  0.8018203449279434  0.1969996158146503  0.9984919370670565
  0.8011969204249167  0.1919143039100422  0.2063406252195014
  0.7999908482929470  0.1956196061919474  0.5964704760162967
  0.7991618833622058  0.2010546708908978  0.7976053291712883
  0.7997945372703192  0.3992730673184413  0.9981401893898336
  0.7972129593360524  0.3961116069304133  0.4053515775976292
  0.7992010507512277  0.4017629915532756  0.8032290647830287
  0.8011945247951069  0.6017993943221582  0.9959000299323129
  0.8021008657837748  0.6042591230941989  0.1999243435968992
  0.7989967916999139  0.5992736729851750  0.4018358392589208
  0.8034557332319561  0.6022999309973294  0.6041489648689850
  0.7957442791625312  0.8030329560170902  0.9999923884602532
  0.8003610384637890  0.8036775797391108  0.2017172282876270
  0.7972542885748678  0.7997968407278041  0.4000709738422403
  0.7987766995275292  0.8018321672324705  0.5987747225321128
  0.7995742267698496  0.7960110545749283  0.8005026562203171
  0.0002961903721670  0.4015163165872634  0.9995477875547637
  0.0000660724083816  0.6010517732401814  0.9990812102770031
  0.1982700158894644  0.0000367375799655  0.2003794172393231
  0.2014422804709042  0.1991660483828567  0.8004286201607135
  0.3999836897236419  0.9981889267019028  0.7986156626546332
  0.3991814585718785  0.1993469851151370  0.6023447098319447
  0.3996423917550064  0.4035285739170003  0.0014317385943077
  0.3993730985422153  0.3989609365053630  0.7996072285969379
  0.3994384600431000  0.6005204365687645  0.1993671640955340
  0.7995431275084331  0.9997003307076151  0.3995263635384042
  0.0004764275568281  0.6002505705787190  0.5995777944174604
  0.4050731419310023  0.9957105660503468  0.0024997234496820
  0.4036794881190665  0.1989257644368785  0.7986142726034301
  0.3994015663404249  0.4002687169240748  0.4005958183839456
  0.3981744736636939  0.6009925942985627  0.5988197756589361
  0.4001383924841633  0.8013068771264855  0.3994751043744498
  0.5982447468475629  0.7983420704165685  0.0003597397256614
  0.7994193056233707  0.9995763613465001  0.0028062507656905
  0.7999456045772211  0.9992704341461203  0.1932075102307094
  0.7993044410119903  0.2017551066193577  0.3998405092411956
  0.8002038579076821  0.5991645763848688  0.7992004621383886
