Zr Ti V  Cr W 
 1.0000000000000000
    14.8102698591842419    0.1395584358812075    0.1742580454927734
     0.1415556362017736   15.1517454719318110    0.0721218881303105
     0.1744420097334217    0.0729305377979663   15.0054523389010033
 Zr  Ti  V   Cr  W  
  13   4 102   4   1
Selective dynamics
Cartesian
 -0.1721146109445679  3.2846225112295757  0.3608795556216068   T   T   T
  0.6610370815529453  5.6838370204954138  5.9580341837646582   T   T   T
  0.4096771704585678 12.0646168371253903  2.4421885058805124   T   T   T
  2.8720486539277719  0.0673269134823984 12.3113943531560786   T   T   T
  3.3196895089828087  2.5963205273882601 -0.5743162513737725   T   T   T
  3.5659781056182158  3.2313914142217719  5.6079174796108573   T   T   T
  2.4045171450592111  3.4753440460270717 11.4388400933031651   T   T   T
  6.4178881743556806  0.6173753642026030  6.1137050801382484   T   T   T
  6.6306652141098024  6.5784827660449539  9.0852594595615024   T   T   T
  6.9030261583282329  9.2199396160824012  6.8588103474091087   T   T   T
  9.1767435536710948  0.3814505278326986  3.7274225681385578   T   T   T
  9.1503108109000539  3.2277705299590167 11.9976547165655223   T   T   T
 12.5575936247784021  9.2335923109786471  6.5143018845560716   T   T   T
  2.8965255242719801  9.1684936011548501  2.5147508996712160   T   T   T
  6.4766277061667514  3.3599107456096022 -0.3213823248447795   T   T   T
  6.8970871418261011  2.8504154417512755  3.7261906606127817   T   T   T
  5.3066869230043183  5.2261324143543861 12.2573809831105809   T   T   T
 -0.5326533667734973 -0.3778839560261594 -0.7420854108544254   T   T   T
 -0.1462443954272713  0.5870603321628348  2.0682658162448817   T   T   T
 -0.4577945025650276 -0.5291101262879170  5.6918579371966409   T   T   T
  0.4246599114309604 -0.6444818913274623  9.3618492644640678   T   T   T
  0.9126210414993385  2.7609401934735982  3.7390717048183770   T   T   T
 -0.0888838553665844  2.0304110638127342  6.1648304206862168   T   T   T
 -0.0209463766333231  2.9869218635807888  8.5734768469870239   T   T   T
 -0.3738163409243451  1.4547531913632543 10.8258129339243077   T   T   T
  0.2100748618779109  5.9866967967446563  0.4175994227283755   T   T   T
 -0.8094603134414906  5.8686736333488536  2.6717045076248680   T   T   T
 -0.6283484598928875  5.1356162759323389 10.2942410767442727   T   T   T
 -0.2360495930962018  5.7124482550429727 12.7069820113099912   T   T   T
  0.5727981141204188  8.8395794722459957  0.3561844758249527   T   T   T
  0.1194250072937300  8.4000338537472672  3.5904954026506650   T   T   T
  0.7944851430528470  9.8423515824020757  5.6880077339206325   T   T   T
  0.0850436877505798  7.8274047597438425  8.7817709501775791   T   T   T
 -0.8402073311993583  8.3580058868276552 11.8875480591426541   T   T   T
 -0.6556984128428225 10.8323291000360786 -0.6688409076020705   T   T   T
 -0.3434084568559421 11.9991861963846453  6.0445367201281694   T   T   T
 -0.7590348583484292 12.0131314476905011 11.9568372574902995   T   T   T
  3.1072202628873469 -0.8350896649379520  1.1112934604468372   T   T   T
  3.3648802844657482 -0.0628510656167921  3.9121887417065602   T   T   T
  2.3899705701024474 -0.2592247410039274  6.1764197211891059   T   T   T
  2.8440800716037988  0.8445682658860714  8.5621923641188058   T   T   T
  2.9869263851518220  2.9203502923119622  2.5186806940558437   T   T   T
  3.5157098964897227  7.4689390028153024 -0.3409240814859790   T   T   T
  3.6455797553723213  6.5832809143993334  3.8805842850795784   T   T   T
  3.7476851555477313  7.2393238558431232  6.4590173016022323   T   T   T
  3.0399310943102358  5.4881370767960114  8.5913056088451256   T   T   T
  2.0422609493535973  7.1986699242925596 12.1919498596643336   T   T   T
  4.4324662228248721  9.7504468629445000  0.2125057383281964   T   T   T
  3.4275151654534035  9.9037208376805168  7.0172052543289842   T   T   T
  4.2369579195855023  9.3533855292906409  9.4883215783031378   T   T   T
  1.9371428419208976  9.8866457524706579 11.7470440861986543   T   T   T
  3.0658359024076698 12.2802280966667379 -0.1418862893247239   T   T   T
  3.9473576480579551 11.4355280987981445  2.9114078552937279   T   T   T
  2.2565951389909791 12.0032189403097291  5.4566507385131082   T   T   T
  1.9446291638179884 12.2712027018493917  9.7143393344253663   T   T   T
  2.7203167395267744 11.9394390055603399 12.3046166481590529   T   T   T
  5.5254927525228359 -0.4634954118442106 -0.5976787576686839   T   T   T
  6.0075879625622726  0.2000340213536112  2.0999072674691321   T   T   T
  5.4339407516334992 -0.2934557135574841  9.4912005879317629   T   T   T
  6.6151413767411489  0.0883373591353806 11.9717691282775256   T   T   T
  6.8654875875565065  3.8316154136540055  6.9954253976475584   T   T   T
  5.1561835578304533  2.4883739662985240  8.6726293811361295   T   T   T
  6.2474826486937971  3.7717722930158128 11.0316944584060064   T   T   T
  6.8719653211180152  6.8627180176251548  0.8050580057473936   T   T   T
  6.6883616619394433  7.3095593471755329  3.6935931756555309   T   T   T
  5.7859423898439832  5.9046445060117225  5.6688057052485608   T   T   T
  6.8185203083388251 10.2961981562394076 -0.5007663350272920   T   T   T
  6.4778776452493290  9.4501586887728930  2.3612241406113355   T   T   T
  7.8836920562598545 10.2303206556881179  9.8963678875606860   T   T   T
  5.7863386231698559  8.6912701156416379 11.5769182585335422   T   T   T
  5.6965692818174398 12.4573515653720470  0.7799399760368965   T   T   T
  6.3607560359430986 13.2864927107460495  3.3978889842940845   T   T   T
  4.8314637831878278 12.2144442442065326  6.6060853009436382   T   T   T
  6.6340105598364225 12.8969817062793872  8.1239473289505337   T   T   T
  5.6120101607252773 12.6536642276680364 11.7610018858181036   T   T   T
  9.4247958351077781  0.5530112395457291 -0.1063042190797899   T   T   T
  9.7151398924096632  0.0966632038692513  7.3165338575192589   T   T   T
  8.7311872596956945  0.3053378209091241  9.8797554251952526   T   T   T
  9.3068745356029421  3.1954274063947143  0.9705303747026965   T   T   T
  9.5678026907666425  4.0224807198650705  3.5657484368050159   T   T   T
  9.3145604158994253  2.5224181392833880  5.8791718508246333   T   T   T
  9.0731890513713367  3.7718148461449266  8.4133051753673165   T   T   T
  8.7127454599231715  6.1799696929427554 -0.5987526024211960   T   T   T
  9.0427354660819770  6.2462872824735340  2.2203120821613904   T   T   T
  9.5897423656721230  6.9451769939812271  6.6968515623407034   T   T   T
 10.2697442996086163  5.9619231462620172  9.7271322115829548   T   T   T
  9.0687430914616769  6.9640269029822246 11.5697928363351128   T   T   T
  8.9045247822090730  9.7087798187330225  0.3104033563154988   T   T   T
  8.5824732283201168  9.4429777941213260  3.6274869431380039   T   T   T
 10.0172806849994700 10.4751027991079138  5.4520787513951419   T   T   T
  9.5741490737154766  8.8222023349168577  8.7372026210827247   T   T   T
  8.3433977725090429  9.3987692782429679 12.4350931832002676   T   T   T
  8.3901472126425496 13.3565060972035763  0.9098390991515957   T   T   T
  9.6795864227172927 11.3737490715750962  2.1217308115963442   T   T   T
  7.8358513929254672 12.3769252792231885  5.3761319184080012   T   T   T
 12.5528221013670560 11.7392275512902895  8.6652832661009622   T   T   T
  8.4608005720215900 12.8164783367105386 12.7302715835966449   T   T   T
 11.9549767393715367  0.4243908765362850  0.5483008687780468   T   T   T
 12.5411694553212243 -0.2445332338428137  3.2471347029298538   T   T   T
 12.1536116972281611 -0.4584617228304860  8.7558915788098375   T   T   T
 11.7544328083522682 -1.1576867980742420 11.5571003464681592   T   T   T
 11.3798085466271193  2.5299002489504412 -0.5181869077665084   T   T   T
 11.6788537817054650  2.6399024484089746  3.7869788908347903   T   T   T
 12.4611648593012241  3.5313859165423502  6.8868475224754304   T   T   T
 11.4379193699626818  2.2992804564020246  9.0760879893594399   T   T   T
 12.3913891173895507  4.2118980183122048 12.5695412827988591   T   T   T
 11.9963908172348468  6.0755458590857776  0.8308406381147028   T   T   T
 12.1270264615899688  5.7920341890805451  5.7620374876090690   T   T   T
 12.6051103758198622  5.7829374325540748  8.6371859817546834   T   T   T
 11.5120091648803680  6.5239736914368773 12.9463489727555316   T   T   T
 11.9184935837909318  9.2944170885603619  0.2325541168183468   T   T   T
 12.3760180304524532  8.5323964142079820  2.9384383473881344   T   T   T
 12.6287091141817225  8.6920554121414746  9.9720384965538837   T   T   T
 11.1796331717125295  9.2237408413701498 12.7046858116272929   T   T   T
 11.9407093988141675 11.7397915244970008  0.8628388300834600   T   T   T
 11.5480972717254513 12.6953898691490679  3.2532561791249832   T   T   T
 12.5043829407904958 13.3287141547107879  5.5587343552929207   T   T   T
 11.3904810569761406 11.9834097268376780  9.5390354096357388   T   T   T
 11.0917166911682799 11.3083950349885018 12.2088780353919155   T   T   T
 -0.6108445712917626 -1.0209686804097831 11.4858701271253434   T   T   T
  2.6698709595181378  3.0402673979930697  8.3223076606188222   T   T   T
  9.2953265462202701 -0.1271087426102366 12.1881283911367682   T   T   T
 11.3426503096143403  6.0892751456018877  3.2034482236357951   T   T   T
 11.8943253369686719  0.9802695377163083  6.1252463949441056   T   T   T
