Zr Ti V  Cr
 1.0000000000000000
    15.4866812533483102   -0.0138389071891856   -0.0042650055420354
    -0.0138393523722023   15.4879634038831639    0.0014184031787679
    -0.0042741725747290    0.0014267905633447   15.4705250654031623
 Zr  Ti  V   Cr 
   5   5 111   3
Direct
  0.9982837130989423  0.6001764161185330  0.9992582579820343
  0.4333940107983841  0.7960781472780054  0.4124926323972584
  0.6023676940537059  0.6008575485267750  0.5945261825839052
  0.7848643557180452  0.9653814243701617  0.5999439676848694
  0.7854052442769253  0.7505983967857375  0.5994604794223133
  0.2015709674969827  0.0005340153474225  0.5979182582418735
  0.5970216406543551  0.8016968962545671  0.2268831147851260
  0.5849638185812571  0.8333584628357840  0.6027969565828247
  0.8011346342973010  0.2059434171462135  0.2055788891662579
  0.7966422608363075  0.3985082461723671  0.3917654508396266
  0.9985175178295786  0.0018621925875608  0.9994000490579327
  0.9995448980858377  0.9998007767085111  0.1998823662513690
  0.9988055802593045  0.0011828620148731  0.3991899047538267
  0.9981757424204681  0.0000675819057986  0.7984828719076916
  0.9990299921493252  0.1990069078446437  0.0009651721930985
  0.0016884251006943  0.1998919164785628  0.2007614891702840
  0.9996098604750246  0.1991494224514069  0.4003823862758574
  0.0003846823542173  0.1983823264261613  0.6647912601202497
  0.0000621324846104  0.3948008173188193  0.9983947860917073
  0.0005979471118114  0.4001809420982779  0.1995585893239678
  0.0024488735927410  0.3993595992336923  0.3993091823241683
  0.0030924760937754  0.3974665473957479  0.5992344945842170
  0.9995401951473653  0.4014032013692257  0.7982056290668881
  0.0001656329244475  0.6003314208941959  0.2042537483266939
  0.0003082053758374  0.5992335729087083  0.3995676121101120
  0.0008908180932605  0.5994185181212739  0.5967500107319966
  0.9996740830396470  0.6014205784158368  0.7941128295988575
  0.9994972826782758  0.8052372471630557  0.9997875872140601
  0.9997681814945519  0.8006724518628632  0.1995761889205242
  0.0033658635515492  0.8005550501794629  0.3997167175538268
  0.9959011563060441  0.7983230690434826  0.5988951562256184
  0.9989946930777276  0.8008107308994562  0.7989018241393837
  0.1998764605375623  0.0010494582060125  0.0004551370606394
  0.1993349516458661  0.0005793143813255  0.1997722705388415
  0.1995971067133255  0.0000783716294750  0.3980256817191454
  0.1977387786206509  0.0017611030925093  0.8013702741426347
  0.1997716720593490  0.2006385391389028  0.9993133847105043
  0.2003142648116649  0.2009341795584544  0.1999232128332158
  0.1998591394530008  0.2015284956355301  0.3996881474081744
  0.2007824932561700  0.2033743846954713  0.6002610710665990
  0.2006110753584007  0.2013138001005578  0.7996696073072641
  0.2006567011613807  0.4003014451215560  0.9993593075200031
  0.2005899203612173  0.4012345727617144  0.1988908270155438
  0.2008980137313320  0.4009498208508239  0.3989227713777309
  0.2006336136196068  0.4021094360963566  0.5990968538531295
  0.1996219258504406  0.4009553110275266  0.7997862910677717
  0.2043105049234398  0.6012422719970456  0.9992015120684814
  0.2004997138477560  0.6010779016535395  0.2001770224054408
  0.2020034717728685  0.6009578120223608  0.3986890152889022
  0.1997051017728310  0.6010169875701912  0.5979635196364911
  0.2005553345841495  0.6011987267078398  0.7981547330616743
  0.2007431740575567  0.8015531297480855  0.9998930843794254
  0.2002889989745619  0.8002861321647987  0.2002770811165124
  0.2014374471444483  0.8004354804657300  0.4002295486581699
  0.1972879090832204  0.7993514113329819  0.5999604978675083
  0.1987363101116000  0.8006853532319008  0.8006703203276535
  0.4005511494784980  0.0014109281803966  0.0007613522901435
  0.3988485489407595  0.0009528535253278  0.1996870154157027
  0.3990024259667118  0.0047825029018613  0.3989222195429865
  0.3959854415634543  0.0040045165451470  0.5998618021088673
  0.3989424692310410  0.0016445920992453  0.8021403949198933
  0.3990645691870173  0.2016683477777233  0.1998882468015576
  0.4009441929856649  0.2009812729713699  0.4006008670193740
  0.3988427720547024  0.2042705131006787  0.6001961701196141
  0.4005362032214439  0.2015850805867034  0.7998294774765961
  0.4009995917284070  0.4009710406502867  0.9991748316175846
  0.3996573138546506  0.4006677899570957  0.1990103925967778
  0.4018705399753255  0.4001265302431968  0.3994289549766308
  0.3999819479617906  0.4029829156561356  0.6001293977327488
  0.4002707158357933  0.4030118064971718  0.7992556072814208
  0.4016099318331341  0.6017151337203224  0.9994309085212680
  0.4000303010140158  0.6003469512195861  0.1983892201722661
  0.4008197202077514  0.5951631056140391  0.3989569739333668
  0.3965303361900506  0.6030150499640106  0.5977407286724067
  0.4013481491880198  0.6026231770965699  0.7984078610082591
  0.4015014333204622  0.8014385326862865  0.0010825486917800
  0.3982177997311689  0.8007190241340744  0.2001980117112941
  0.3926866743537015  0.8035623748274373  0.6092105692368539
  0.3994728473319543  0.8011733871491489  0.8013961287298934
  0.5984921312763055  0.0007402866386235  0.0015885240179984
  0.5990597068454364  0.0039197411594121  0.2003178305317996
  0.6001802450076821  0.9995518599590544  0.3997455482403502
  0.5905411127436934  0.0175687014363866  0.5998551906905656
  0.5991818902281237  0.0031242083918190  0.7982373302073622
  0.5993956061605775  0.2009582357328892  0.0009564935326778
  0.6009996187884500  0.2002463099563685  0.3989742423087121
  0.5982738206539926  0.2045333311574591  0.5987177610204689
  0.5991765195813882  0.2018853352752936  0.8002297699736809
  0.5994994628418256  0.4004406041441484  0.9998917599834531
  0.5994751184276231  0.4001032024960872  0.1992453879235332
  0.5989635269307738  0.3999990681025650  0.3984628355351457
  0.5987519923644909  0.3986340469023911  0.5984866261840724
  0.6003978272491837  0.4016381963729918  0.8006693469742978
  0.5992361131472057  0.6026138072042521  0.0004944815422741
  0.6005960965310925  0.5989361612620822  0.1986874082720127
  0.6017243239550431  0.6008862012897487  0.3924313980846020
  0.5997465648193105  0.6022395954631642  0.8002934871895131
  0.5996155349159062  0.8024744471806515  0.9928216365014222
  0.6253678646371466  0.8015814722875705  0.4193781998379911
  0.5995976991595994  0.8024692388863637  0.7981542781062200
  0.7973586303360007  0.0009169791929400  0.0023170099331398
  0.7979024735359784  0.9975753499202769  0.1987299199374573
  0.8003709074470619  0.9986322826144358  0.3956521786096359
  0.7997460037530817  0.0006193694548466  0.8040636523477772
  0.7996770218728529  0.2005308740935873  0.9983759016625470
  0.7989799191885030  0.1946200702090342  0.4029535247405919
  0.7995485498352921  0.1976136719574859  0.6008831898191159
  0.7974126240665557  0.1991346344049079  0.7997112110820608
  0.7984058950462566  0.3999993837250699  0.9980248116052163
  0.8003383763027658  0.4029583881445223  0.1956662221223025
  0.8025018585381477  0.3934221903471691  0.6001097197701819
  0.8003793366888342  0.4004754353902975  0.7997818642129328
  0.7945617686869532  0.6007413755430117  0.9988730409376300
  0.7993789320487424  0.6003896623971035  0.1982977349551525
  0.8012866917310656  0.6006116081591271  0.3977677612086684
  0.8067285464461772  0.5678214122580969  0.5957304067025031
  0.7994415194191083  0.6006284884627826  0.7975802284314646
  0.7967330494234984  0.8001822201505447  0.0010908581924407
  0.8016123136756009  0.7986181516367697  0.1993165078587161
  0.8100924930021050  0.7998676515628558  0.3960977996241532
  0.8000089756763371  0.8022609242457366  0.8004607177457712
  0.9960671791275950  0.9979362334022692  0.5984584525761063
  0.3996446618345719  0.2010140399690810  0.9997905723390024
  0.5967875770304238  0.2007698022823196  0.2005031712003313
