Zr Ti V  Cr W 
 1.0000000000000000
    14.7071598367653440   -0.0722959076668471   -0.1407620477832918
    -0.0718583282393287   14.9361307179558249   -0.0723491441980377
    -0.1399372016868833   -0.0723427626617826   14.8364601065611943
 Zr  Ti  V   Cr  W  
  10   9  91   5   9
Selective dynamics
Cartesian
 -1.5206028398645768  1.7718891046435197  6.8226199427240202   T   T   T
 -3.2359347592893317  8.4967533174462329  8.4814737687471702   T   T   T
  2.4896483106938225  3.4930757273365414 -0.9550257511910379   T   T   T
  3.0116846267249531  7.9622616541764106  7.0157206423922567   T   T   T
  8.7600624305115158  9.5939080778354100  8.4369120849108796   T   T   T
  8.4794437294173211 -0.9435757138882759  7.8464976930489749   T   T   T
 11.4907954483725092  5.2093644342929872  7.5096108381254574   T   T   T
 11.0900074833537676 -1.6984693230202903  2.3918299072283919   T   T   T
 11.0275847858343745  8.6988926999005454  3.1106652965063706   T   T   T
 10.8432670330152625 10.1935965723582509  9.5463276180771839   T   T   T
 -0.3229810263544413  0.3685318879623172  1.7130790241012483   T   T   T
 -0.2512851247138324  9.7305162529599301 -0.2643550871124688   T   T   T
 -3.6230369201207826 10.8270569125040144  6.6408366076056682   T   T   T
  6.1883896301577748  2.0501943227971622  0.0633294815777303   T   T   T
  5.1874059304518534  3.8786351672863355  9.3988480690886966   T   T   T
  6.3547117758374991  6.3771037283508472 -0.0046438663711398   T   T   T
  5.3454754909343709 12.1494984119745926  0.5622445195796527   T   T   T
  5.9580535150616623 12.0458983221031257  6.0201491181993667   T   T   T
 11.2147880737206833  9.6745453053961086 -1.4327324248452171   T   T   T
 -1.4294263926134729 -1.2919811648810855  5.4099967125619877   T   T   T
 -1.4370670601692386 -1.2780214694281375  5.4040811617640507   T   T   T
  1.2548421617975807  1.0500877930730168  8.5653806992246757   T   T   T
  0.2135331355814132  0.6859526643087949 10.8180724436460398   T   T   T
  0.3834072315881284  3.3973849420579953  2.2093338407264218   T   T   T
 -0.0577765190969064  4.4318522231701234 10.5821492102224219   T   T   T
 -0.3463678295096227  5.8284302989545287 -0.2214065341526188   T   T   T
 -0.5988851302339525  5.7485761992818549  5.6700281121211171   T   T   T
  1.9881193599741098  6.2289903810200427  6.9094192358677367   T   T   T
  0.6278498414523744  5.6367591817128142  9.3115786466898598   T   T   T
  1.4332623001553688  7.9802788383965790  4.0949358054150462   T   T   T
 -0.9298220911297155 10.4028392381260382  7.1778828862209698   T   T   T
  1.6707028089077145  7.7250840902590099 13.3634129436494948   T   T   T
  0.6975607426330954 12.6976257316812404 -1.4894552154614866   T   T   T
 -0.3318221150506065  9.9612087647505394  5.8438573500589639   T   T   T
 -0.3318196329572229  9.9611711238776852  5.8438947736469009   T   T   T
 -0.5424348305258979 10.7715358364753797 11.9531804542854676   T   T   T
  3.3836863332078893 -0.8329657867977293  0.2568246028718357   T   T   T
  1.4595486426986526  1.1973126942897288  6.5772771314803053   T   T   T
  2.4530755305648739  1.4006990094461877  9.1006900354594329   T   T   T
  2.1748722025418239 -0.0942165261903431 13.4989428911832032   T   T   T
  3.1019807081455690  1.3681384812973909  2.9986823619372305   T   T   T
  2.7872395306837094  2.8894723588886619 11.5458503945693653   T   T   T
  1.9173806694190496  6.6868508805117370 -0.1245255335944958   T   T   T
  4.0259371098647785  5.8302145068647828  3.5679006016673376   T   T   T
  4.3068336880835405  4.6066213774374232  6.8398001029257749   T   T   T
  3.0994063487672650  8.1182683185912587  8.4657152453393678   T   T   T
  2.8269836642420105  5.5515394663397641 11.8215023038898579   T   T   T
  4.7012975046762415  8.7747122890440057  0.1980416147781676   T   T   T
  3.7529827498034876  8.7362728044968989  9.2682444996324449   T   T   T
  4.3120504314782284  9.2538997498644449 10.8016337573974077   T   T   T
  2.9905538749554879 10.4833037134562659 -1.4292820299654918   T   T   T
  2.7469600266729439 12.2329202633207164  3.8175248796177788   T   T   T
  4.0949343269196303 12.6033208401434980  4.4522243619895727   T   T   T
  3.1194561032976735 10.6369903844590166  9.3757338162350568   T   T   T
  3.2480277035838498 12.5109679634832069 12.1432467440290441   T   T   T
  5.2213142014277061 -0.1279809963160106 -1.9451566822054800   T   T   T
 -0.3325091140607766  3.3598265788528718  1.2109216434697465   T   T   T
 11.1745924580336826  2.3856444705887165  4.7666653667414316   T   T   T
  5.0000003276161777  0.7022251107894294 10.6294011013065468   T   T   T
  4.4255954071068908  3.7474529947010593  4.0531826168793623   T   T   T
  3.3099619070673465  5.6711990029680059  4.3539857931818933   T   T   T
  4.8675030039078333  2.3941569170152754 12.7105840010003757   T   T   T
  5.4190183921941486  6.9061492868978291  3.2184807240435269   T   T   T
  6.9951967867086369  6.5999781512309443  5.5023416144842860   T   T   T
  8.7334773162584369  5.5571234756682522  7.7534565224909331   T   T   T
  6.4026230503358370  6.7763221827356475 11.3210815774766616   T   T   T
  2.6626361579594522  7.2404505427837362  1.1101137839015371   T   T   T
  1.8962834623350797 14.4641143067304494  4.7258126035216632   T   T   T
  5.6115454490005545  9.6701367245765883 12.4642154095664175   T   T   T
  5.9208832344874267 14.3127384614647344  6.4100061361556069   T   T   T
  4.6163611845445027 11.9320012417263008  9.7317196286674399   T   T   T
  6.3389327712828889 10.8094110774067662 12.1914488238435226   T   T   T
  7.6296908980179188  0.4390236212018696 -2.0288551969715352   T   T   T
  8.2746230579649769 -2.8141184583102365  2.0740145186068171   T   T   T
  9.5063032671011740 -0.8338086373553323  5.2458187095347304   T   T   T
  9.5329209693611059  0.0980489695775516 12.4354669388430086   T   T   T
  9.4007046441319773  2.3697199529513697 -1.1992495014086537   T   T   T
 10.3529315756243836  2.9408149565366708  5.5978310050891205   T   T   T
  5.9784292820628995 -0.6326385415095805  6.4943164995364429   T   T   T
  9.2596628089336583  5.2620009722465957  8.5597873624625453   T   T   T
  7.3468373198813577  2.4682511057847996 12.4850207938807820   T   T   T
  9.2061690876905242  5.1619512384267123 -0.0999117433539409   T   T   T
 10.1865294033557241  9.2708973268822632 -0.8578604263038012   T   T   T
  8.6739329979392483  5.8759075558943801  9.6721615276404815   T   T   T
 10.0590801258593174  4.9403397896450647 11.0441845679064805   T   T   T
  6.9402040481874758  9.6658756765284277  0.7937677228872224   T   T   T
 10.6637686188889003  9.3171462469235564  3.4249573030891618   T   T   T
  5.8734345864338788 11.1913547564584412  5.0247145544036371   T   T   T
  6.3265031983452813  6.8297181643526192 11.5582574434629972   T   T   T
  8.4773166564037670 10.3829399619407976  0.2215388995826381   T   T   T
  8.5402090726981736 11.9690389607621057  4.6777639366478381   T   T   T
  6.9256573845865077 14.8380955929992133  7.4640213102217512   T   T   T
  8.7600953661572287  9.5937744449296236  8.4369402249005212   T   T   T
 12.1079909482163650  0.6664133989072705 -0.9745987067417147   T   T   T
  9.5057408730239725 -0.8320922555994913  5.2461187375866469   T   T   T
 15.0481861708842253 -1.2018161903780449 17.1046585717407638   T   T   T
 12.1337146772193361 -1.4842778838920423 12.6703611303822559   T   T   T
 11.8095785896507497  3.1540236356726226  0.7453078356428461   T   T   T
 10.1905581665212015  9.2760539618906535 -0.8505400951320202   T   T   T
 14.6535450621861028  5.9321758669340161 11.4305968232174244   T   T   T
  9.8274416547252343  3.0540198040202435 11.5994235980679061   T   T   T
 13.7516956708685658  5.0537689349011750  6.3346934167544191   T   T   T
 15.9177192991713561  1.6054719639307067  6.8310344634200746   T   T   T
 11.0274671792133336  8.6985723565300432  3.1110636015317512   T   T   T
 11.4712290141245248  8.4244559571529525  8.3407030073121611   T   T   T
 12.3216414314614049  9.9092956032723798 -4.6407409746324353   T   T   T
 11.2754488924792042 10.4807431643930826  4.1485215886769318   T   T   T
 11.2759349275366745 10.4819040555399017  4.1461528406137171   T   T   T
  9.4788999468727493 11.8227899373382250  8.6499127488650327   T   T   T
 10.9307279247503057 10.2258809547781997  9.5095148917640699   T   T   T
  2.0809842395513520  3.0117828051992932  4.5858208423907962   T   T   T
 11.8995394963160237  5.3648084104935014  0.2144378972133829   T   T   T
 13.4463661635973999  4.9671005132877992 10.7523252506652085   T   T   T
 12.4977257369238650  5.5788471512310966 10.7995064190029275   T   T   T
 14.5540397277530875  9.9194093720324457  1.4089062933357590   T   T   T
  0.4959159397451529  2.4069431244646644 -1.0635205003447203   T   T   T
  0.2600935190657679  6.3914292153040932 11.1216078673406589   T   T   T
  2.5846243030675433 -0.2121659451722167  4.0322304206992392   T   T   T
  2.0667543471681253  2.9560159287473149  7.8104962076920552   T   T   T
  2.3117903970832887  9.5877613894482092  3.0086049651517275   T   T   T
  7.9540856695722741 -2.7322076153729471  3.0574805798491158   T   T   T
  5.3166122834429430  8.3456336041040711  4.8790704413636350   T   T   T
 10.0796801700532939 10.6981515786449890 10.0366662427878328   T   T   T
  9.1938334612642461  2.6688217633279483  6.2357631596442298   T   T   T
