Zr V  Cr W 
 1.0000000000000000
    15.4863295998759050    0.0024137293282322    0.0105674120120943
     0.0024156779473548   15.5040449564505511   -0.0174543962439357
     0.0105707746262879   -0.0174578174046017   15.4782021514271442
 Zr  V   Cr  W  
  10 107   6   1
Direct
  0.9991293302564118  0.9683080207485385  0.7619818740143468
  0.0022843698939554  0.2073560818386873  0.6065226258141543
  0.9996272140160013  0.4303263150226845  0.0427097692081258
  0.0011936389347305  0.5766973761972037  0.2227440663808950
  0.9607374260639152  0.7907423839339404  0.1928928000665986
  0.0002147678105451  0.7997083211478800  0.5995088532605741
  0.1900876874851435  0.4339393839313001  0.5975912779729682
  0.3590809639586578  0.8028775292198640  0.1978183075291510
  0.8443320821583618  0.4321783079770382  0.3965653676728135
  0.7502204309718941  0.7915475242603510  0.1976973474095116
  0.0007623432837751  0.0055625746927070  0.9984184307742807
  0.0044906726775649  0.9974153765499438  0.3914828808907713
  0.0016008221619425  0.0075159490696829  0.5757916744418988
  0.0019185754660549  0.1979023327131209  0.2022051445885906
  0.0021488606365511  0.1904173886377612  0.3972319626740066
  0.9999567239349078  0.2036787782765738  0.8104885262913141
  0.9997186784214837  0.3863457700562006  0.2391253739712331
  0.0333578403854041  0.3716926806530764  0.4353414909598242
  0.9867161327700322  0.4089986142211158  0.6046949649545744
  0.9998202413284167  0.3967206528823766  0.8021831862988383
  0.9998530404296220  0.6211638617534845  0.0125634199848130
  0.0072964575365513  0.6172782655374021  0.4207220184526145
  0.9944273426095614  0.5986986560574377  0.6100057041050569
  0.9984115153882723  0.5938885873525895  0.8092362028036231
  0.0010397217891542  0.8112028104281946  0.9926538567883978
  0.0018606066523954  0.8045883309224395  0.3958633585717381
  0.0000207249047403  0.7810819824222084  0.8038394460845681
  0.1997611861366866  0.0017725015043664  0.9965757743256580
  0.2005276038516156  0.0012967314559122  0.1985088816706798
  0.2031858338363825  0.9985380750871847  0.3966378931510764
  0.2006546939929902  0.0031487260525842  0.5972309338079427
  0.2021798551794521  0.9999602196645722  0.7986988534113741
  0.2019165524697830  0.2003555709081573  0.0008700929994539
  0.2019558719630890  0.1997158719711106  0.1989791370299132
  0.2076589365010617  0.1962747083565033  0.3977265352897567
  0.2002283961066536  0.1994097936396586  0.8003045489570285
  0.2023046318852735  0.4001272897390938  0.0003594761645709
  0.1977735473978293  0.3987581178109187  0.1991036343574752
  0.2116457214540647  0.4012686876419386  0.3937637906389984
  0.1987137215789112  0.3979898344463226  0.8042545291952521
  0.2007100934948504  0.6016226994256214  0.9997296070876912
  0.2062155232959999  0.6001393725675958  0.1989425337988139
  0.2001137338353137  0.5990995163356970  0.3944305185370059
  0.1980822991478943  0.5967453903203689  0.8023304318475722
  0.1989666747177329  0.8021770800224475  0.9981611365993576
  0.1720154649853758  0.7965732222411992  0.1965573109685756
  0.1999526901996524  0.7990640170357957  0.3983635595088892
  0.2036511325928873  0.8038474085906637  0.5973103379510877
  0.2000765240577793  0.7965993529217408  0.7963120042731718
  0.4014905866907992  0.9999690456435479  0.9979231207122020
  0.4029545726242477  0.0031987119598009  0.1974253530524247
  0.4011408913475722  0.9985082141665760  0.3983580853344754
  0.4025343641220452  0.0000195684668574  0.5982628853005328
  0.3999930663937740  0.9983949698961494  0.7970580066997063
  0.4010586752457201  0.1992734689021266  0.9981464736607463
  0.4015317107607020  0.2000552921857357  0.1990305689718712
  0.4048634882067321  0.1978209548847751  0.3984289739238651
  0.4037523795203222  0.1990960398303134  0.5984469805048800
  0.4002689229914621  0.3994364744942724  0.9994475500941979
  0.4009852483391427  0.3968971856757414  0.1989283212367766
  0.4047848837832874  0.3969222667483123  0.3992174900714692
  0.4017038388149723  0.3979041225046803  0.5991924693629125
  0.3995556402391590  0.3982802300517865  0.7983372462086682
  0.4016118801532568  0.5997810503013568  0.9987867900721362
  0.4040368804266299  0.5927981856255606  0.1994436868123006
  0.4007604351772501  0.6003936171796155  0.4007164756063949
  0.4038102774723394  0.5977628598163992  0.5982989206621674
  0.3983260176364813  0.5992825889293182  0.7982627964235046
  0.3991412796972869  0.8004857242482437  0.9942444351071728
  0.4005560504113365  0.7988435712099984  0.4025493604597022
  0.3979817736273901  0.7981674100850527  0.6000781931773107
  0.3992727023254605  0.7974253550144128  0.7982153500788346
  0.6008522620757369  0.9989482271314758  0.9986611289391902
  0.6014162732679248  0.9962305015425170  0.1985848719733877
  0.6015145632955060  0.9975540882327596  0.3976754217947018
  0.6010598691225527  0.9991160694309308  0.5970216834672230
  0.6004906377608545  0.9976597077520777  0.7977941386600635
  0.5995519296043971  0.1982302391649366  0.9994307720604027
  0.6023446642291633  0.1998521442814510  0.1983584189244778
  0.6017565513345147  0.1983744853548579  0.5991217131715282
  0.6005322804749992  0.1991420556609635  0.7995164224877708
  0.6001750454749121  0.3981658498389206  0.9987999132071239
  0.6038668877810589  0.3997712159982513  0.1995111639735922
  0.6073758121496445  0.3995062461250737  0.3981242269123513
  0.6020435155290477  0.3993754194671016  0.5977795434743897
  0.5988465954266976  0.3995867441467320  0.7994359623825398
  0.6014458294120281  0.5994940073454851  0.0034243580389168
  0.6037706968753702  0.5995559980809658  0.3954897407488576
  0.6005820980693352  0.6000267680461044  0.5969774258598162
  0.6009778348005054  0.5988847469300833  0.8016563611474209
  0.6002460557149430  0.7999393116600213  0.9980577481738568
  0.5643020111933414  0.7897438243781172  0.1991819002973757
  0.5993615551044159  0.7998467346487597  0.3986111973964991
  0.5998948154625471  0.7997311351825384  0.5989746126482702
  0.5990096855166720  0.7978213584182250  0.7985976454617413
  0.8010986445486994  0.0011775588945218  0.9973318508958211
  0.8022438760092868  0.9970388853088001  0.1983612335404013
  0.8005938664639637  0.0010473570749333  0.3985653745017343
  0.8036471448921420  0.0011426301999058  0.5989362812225171
  0.7977049609478800  0.0002729221515135  0.7990247291944732
  0.7996800355598538  0.1996809696569181  0.9994893386760331
  0.8003175119054707  0.1989968748072697  0.1991180018551841
  0.8015720249837058  0.1959321050108829  0.3989106938329178
  0.7964632095863835  0.2010779502220337  0.5997011421244151
  0.8011314835021774  0.1990842552449074  0.8007318376598289
  0.8058246697816218  0.3970955740141063  0.1945133180944158
  0.7960949360101797  0.4001682019516721  0.6014066454964807
  0.7982590706254392  0.3998543706051732  0.8017003607212838
  0.8021449368666796  0.6004947609331038  0.0003931231177375
  0.7926809699557166  0.5946669725231666  0.2061253268373161
  0.8025119926254455  0.6180132169279008  0.4031339410873104
  0.7979143570397356  0.6006043274464283  0.6003805826674865
  0.7996364296335748  0.5988108715578233  0.8028857199798928
  0.8017896589692636  0.8021403024471246  0.9969132020816555
  0.8039673431356184  0.8075727080487504  0.4002776962814972
  0.7940856342159038  0.8009662029881550  0.6007992165905884
  0.7994086587837388  0.7989597929452809  0.7989543361234351
  0.0005355732993547  0.0015842866161893  0.1957575764066362
  0.0008054432345971  0.2000417183482194  0.0041268214550604
  0.2073145791454929  0.2004225878961408  0.5995588497733123
  0.4011179558550865  0.1989097245743461  0.7989002666277587
  0.6025386992261211  0.1985560736665110  0.3980682850341754
  0.7976595813593793  0.3991526236082811  0.9981788098738195
  0.6013481173790411  0.5967265608989853  0.1989918419508180
