Zr Ti V  Cr W 
 1.0000000000000000
    15.3185418189025757   -0.0058579337440910    0.0011531853961578
    -0.0058580518235424   15.3152820885503385    0.0003427542276612
     0.0011540796390519    0.0003423374486165   15.3446139054441577
 Zr  Ti  V   Cr  W  
   1   2 101   1  19
Direct
  0.6016979855959398  0.9994187334790253  0.8014190098534812
  0.2000387380315293  0.7903486168124232  0.2091850880108962
  0.3994384609731050  0.8000712958237017  0.6102246317725485
  0.0018671687362504  0.0021228528080512  0.3964369852314334
  0.9991265499996351  0.9998654798355848  0.5990073239991804
  0.0010183865514646  0.0014823468951953  0.8032516561699901
  0.0039322305951830  0.1976449024519096  0.9972685471222322
  0.9987699652005756  0.1982922990385082  0.2006598102178622
  0.9966392324919453  0.2035384266938617  0.3982891683923948
  0.0694387847557820  0.2012661013242987  0.5343721963161445
  0.9998261655190500  0.2061848011899856  0.8006420646426278
  0.9997762687578876  0.3985274732250842  0.9941885447344314
  0.0027029933053886  0.3987869893716176  0.2050030005235677
  0.0033299558037411  0.6033319876003321  0.0003786960505830
  0.9960106512733174  0.6010008926651386  0.1984935563403498
  0.0001477289134944  0.5970556699281290  0.3994273358601764
  0.9992635956018587  0.5980362736592787  0.5990113182943571
  0.0005966042837123  0.5981124707003379  0.8003406545432108
  0.0000312811849508  0.8049911427563184  0.9980423639953426
  0.9993142752861642  0.8025014263286495  0.2011725193961152
  0.0023427324983643  0.7994409483687080  0.4011511385964957
  0.9997157598225480  0.8002062639321175  0.6005623576642733
  0.0011608629669989  0.7988267900744128  0.7991160876941023
  0.1953081633565255  0.0021790604198373  0.0022623191149744
  0.1958272447466493  0.0026247280931662  0.2028076276552349
  0.2002127079461390  0.9976436456966677  0.3997910583442488
  0.1953750031815767  0.0034695975715291  0.5988158966570643
  0.1971926096078820  0.9998445087946154  0.8011670337852845
  0.2005503578695839  0.2039537427849913  0.1920522001473209
  0.2047976967120839  0.2045604742404984  0.8010762230430275
  0.2037785338934707  0.3992198131504310  0.0006686107501681
  0.1995199417797590  0.4027243652692745  0.3961269657910142
  0.1985976304938501  0.3974621357826777  0.6032421138384263
  0.1981676528090282  0.5918682251213990  0.1951054637838566
  0.2009472557223489  0.6000154542047743  0.3985536452579023
  0.1981911894874226  0.6007192627863278  0.5982207458533767
  0.2003830994935145  0.5977273847807121  0.8064183166263387
  0.2057726415646518  0.7985381647080282  0.4051826176965233
  0.1970734182270349  0.7991799929274344  0.6021120228352689
  0.2049686469206900  0.7996140020475503  0.7997538027591055
  0.3969264134167807  0.9999945012864273  0.0015525651001826
  0.3976480169102141  0.0005392135735677  0.1984267587717520
  0.3988412379340300  0.9958365391295382  0.4003984654254076
  0.3993342055688502  0.0012781562473787  0.6001443517603112
  0.3942371568895841  0.0012755959727505  0.8005605198248734
  0.3965623157722864  0.2004127062998674  0.9924099532960668
  0.3987604539285145  0.1985614774209449  0.2010810342501439
  0.3997794457934841  0.1972427902258927  0.4020377761942122
  0.3964178868605289  0.1980669492886089  0.6046973409389430
  0.4011438403766900  0.4003622972619162  0.1946100296195435
  0.4010858763405998  0.3992070711407052  0.4028211016731188
  0.3997431942975097  0.4004462664925237  0.6031891815661755
  0.3947277155047395  0.5991203972786483  0.9992967755635517
  0.3991229613213535  0.6010585740055837  0.1981543085722736
  0.4001986563385301  0.6038940193935833  0.4005818222287904
  0.3989969758058165  0.5975440056435672  0.6001212775968375
  0.3999167047574066  0.6031548446134262  0.7975932333090738
  0.4025835652798772  0.8014188151831431  0.9969393562749495
  0.4020848550016204  0.7994854199288510  0.2002318380338212
  0.6010652263202412  0.9966329505049585  0.0087105548400881
  0.6026526348305434  0.0019248632494810  0.2025629984157175
  0.6002264483036491  0.0001941008519394  0.3974516742426742
  0.6017224741897401  0.0001251274406902  0.5937354820377266
  0.5993182176697753  0.1979757583679111  0.0004521454810218
  0.5995939140933383  0.2036119390309289  0.1994572872040897
  0.5971097849155172  0.2035240724010499  0.4001430335691586
  0.6005861535002723  0.2002611487786341  0.5991307675942967
  0.5950713367696636  0.2055630123998621  0.7996502783045105
  0.5952052394404012  0.4018874956340415  0.0043195414464943
  0.6008643362609598  0.4001177271961446  0.5955132970820907
  0.5973956917535587  0.4024305699325709  0.7996195927168879
  0.6013264159627625  0.6050067901068865  0.0014403777020624
  0.6045293061098430  0.5955229562832534  0.1998579863696417
  0.5995227506614810  0.5957042247590392  0.3988746355460005
  0.6028135716908268  0.5985505410568658  0.5976886760238707
  0.6000473916056581  0.5967002121367625  0.7999435401003481
  0.6003735562351237  0.7988618355898431  0.1952820902340111
  0.5944270348153832  0.7983333496874457  0.3998026059041649
  0.6018963895918649  0.7984589931566267  0.5996092711425840
  0.5954360759637740  0.7928237203036993  0.8038905457362746
  0.8035623711988009  0.9999169652893812  0.0005503664473676
  0.8048066780134432  0.0001515811971964  0.2012547801489472
  0.7999433605840127  0.9989889937497405  0.3989495371825738
  0.8031285813873181  0.0003815912151381  0.5990105395417747
  0.8054814165621033  0.0015001286804057  0.7994753669868633
  0.7981240697327338  0.2001331091288217  0.9981775719015477
  0.7990785920911252  0.2009353349435306  0.1967322368969938
  0.7986902105624618  0.1994612152107285  0.4010391826928617
  0.7980599119727628  0.1984341718340565  0.6014819107804937
  0.7987459838802983  0.2030810057976258  0.7995623630654564
  0.8007619440946511  0.4005636135940322  0.9990364764715745
  0.7983622124134844  0.4031879387909593  0.1989020657357077
  0.8005028059746334  0.4005085108017870  0.4009813163739888
  0.8027957178520274  0.4004797480193985  0.6000480318911273
  0.8027426244900253  0.4020599515415934  0.7999956553182869
  0.8027086200759869  0.6025352992354038  0.0026626577531115
  0.7998606235424104  0.6022357102438177  0.3949547055455447
  0.8005149385824593  0.6030117771730584  0.6003453619783924
  0.8000097253766053  0.5997360977274974  0.8013745258811189
  0.7946864303761348  0.8012486623371656  0.9981067203520650
  0.7991101291581575  0.7962194802531953  0.2006769114980224
  0.7973324296732419  0.7995387188263814  0.4010276030713143
  0.7994698895943063  0.8004989901178701  0.6006901957064184
  0.7988623450415147  0.7985425359391527  0.7992810191515607
  0.2010170349493554  0.7998431004675259  0.9994099658388330
  0.9988646841555624  0.0018828752440823  0.0031943082485121
  0.0000472534685887  0.0001220615338309  0.1977241767145204
  0.0020345915332215  0.3991712922022462  0.4038072589747879
  0.0016342088774904  0.4017462956510705  0.6000934321002810
  0.0048187829983646  0.4019918506635161  0.7954507132135067
  0.2008064736460047  0.1993937649033897  0.9994418097982521
  0.2020074233703967  0.1988834456232108  0.6056272229612385
  0.2006598683973493  0.3971181381759660  0.2005206823896955
  0.2017790361265865  0.4020106233242253  0.8001525112754934
  0.1986783892410155  0.5985037543993658  0.0022933294083163
  0.4002978667417526  0.2033846511636385  0.7992189646154376
  0.4006050006767188  0.4011985211072510  0.9946579300311693
  0.3968631199126427  0.3994549793053885  0.8022002528298443
  0.4014011028594832  0.7996468107895496  0.3951833413015833
  0.4021991041125392  0.8032274526297157  0.8032580121429945
  0.5993284237224399  0.4002406980377212  0.2029002328131001
  0.5989837215277680  0.3997075841377594  0.3974357750072415
  0.5984885327615090  0.8010187867685465  0.9995481445704218
  0.8011677385780046  0.6003450624974535  0.1980828108929198
