Zr Ti V  Cr W 
 1.0000000000000000
    12.2882735461728885    0.0000000000000000   -4.3445607757035454
    -6.1441367710433559   10.6419570608175889   -4.3445607757035454
     0.0000000000000000    0.0000000000000000   13.0336823299999995
 Zr  Ti  V   Cr  W  
   3  14  93   2  12
Direct
  0.1973669752041851  0.7955744367151425  0.8039014892382595
  0.4537284280960329  0.4022309078780311  0.0018632686402129
  0.7999019095106715  0.2038121383681634  0.6015630919996741
  0.9947719976254632  0.1955715379621591  0.1958975749539812
  0.9960116533297352  0.2052024126442455  0.4072415730001863
  0.0013731566916016  0.4020775215439581  0.6000912515433661
  0.2010174324100628  0.7981587371597020  0.3952360305426707
  0.3998526179482162  0.9980603114896885  0.7975272997686452
  0.4006148475885567  0.1963039358144895  0.2002505664450025
  0.3956328129840865  0.1971489205509663  0.4011517926718177
  0.4053409725304992  0.4012685856882898  0.2040627453324848
  0.5965884066994478  0.1913250212243010  0.7892465161593591
  0.7680951847147121  0.4063349193720567  0.9991863486101631
  0.6152475158241199  0.4056705673430173  0.2123459860216878
  0.5996914590792015  0.4028399770440205  0.6063581403169929
  0.6005657803761987  0.8011495531613153  0.9982739951567411
  0.7991390116757331  0.3967582359775769  0.4056290463201581
  0.9961677310765886  0.0029708356387652  0.0002778366704362
  0.0005896353642132  0.0024112576496661  0.2003265032590833
  0.9979494390392160  0.0014144032660366  0.4005628253921585
  0.9918074908130693  0.9971316839900205  0.5970183298960312
  0.9927299444018476  0.9977591265082278  0.8005088167854112
  0.9957853502087628  0.1966950433864809  0.9926563734894761
  0.0072870493927920  0.1925832838916756  0.6083065011802421
  0.0001782545371823  0.1999670371778439  0.8033417246292756
  0.9892228696705558  0.3964851495090347  0.9931052545050351
  0.0017252580091110  0.4034976000748953  0.8098415167332363
  0.9933615141349356  0.5981852471222436  0.1938935346784559
  0.9923404269407754  0.5997344164207877  0.6013963505515010
  0.9932832047624698  0.5993826811057762  0.8027681381492857
  0.9985602041095478  0.8025198663685551  0.9953694504735613
  0.9943682103115530  0.7993657090109706  0.3989214921419059
  0.9928604013052127  0.7985700991616734  0.6019111631541012
  0.1884867368613912  0.9975497207198510  0.9986916087925783
  0.1948885128556422  0.0001540363543725  0.1956155853585218
  0.2005153283985861  0.0055517728846857  0.3979597031756775
  0.1940439816933711  0.1957287384370899  0.9978863825686364
  0.1977229678878342  0.1998826416089574  0.1985771161337762
  0.1945820119764782  0.2011249307274447  0.3961147622880901
  0.1952092238442447  0.1980393748426226  0.5954677335737240
  0.1979632302334630  0.2006681460658237  0.7998251668066716
  0.1998719691847126  0.3946911554586588  0.9962335201966263
  0.1980040598488134  0.4024366368013274  0.4027836350783119
  0.2044862645073910  0.4029081190630029  0.6011108071541215
  0.1996992349364790  0.3975252040593731  0.7997210972907074
  0.1956869903592814  0.5973992261889381  0.1982608549522464
  0.2037053096069730  0.5999818809038839  0.4014603046713033
  0.1959429966524678  0.5948173165061046  0.5947970200571450
  0.2008666676621693  0.5930677964253748  0.8033208723063441
  0.1943500264897855  0.8007133146294700  0.0079072255578205
  0.1977820034377084  0.7997660034735723  0.1962524345216068
  0.1968800240262820  0.7930082923616385  0.5932794753498760
  0.4028937684140096  0.0058840055900720  0.0105813303968246
  0.3958215829775055  0.9978393342328923  0.2011039859494292
  0.3991323105187175  0.9967506023502838  0.4012131909153284
  0.3990880308248543  0.9964021808509459  0.5939025612998077
  0.3891736889927728  0.1851347172297736  0.9931528330912878
  0.3975195941654885  0.2006137004039647  0.6013637829872681
  0.3950809559274580  0.1989173086936090  0.7907619249314016
  0.3998103818533987  0.4051853887857066  0.4064256192166980
  0.3961001133323397  0.3983987100253741  0.5955759089925258
  0.3920077728033727  0.3966894942518502  0.7865278211176072
  0.4066709200026099  0.6016663556535939  0.0004649740353453
  0.4005100338493317  0.6005530122550484  0.4010521483774934
  0.3992260648021559  0.6009607341591883  0.5967205760950646
  0.3992763370483344  0.8027975190940164  0.0009071967872456
  0.4039201816775475  0.8003174543963345  0.4048166800375949
  0.3984945831138461  0.7989503032617110  0.5982289946322662
  0.4065548905123210  0.7965317069478433  0.7966205167126105
  0.5995306760152014  0.9998784597546716  0.9979964625656621
  0.5974869398776298  0.9968449575325213  0.1970111834691821
  0.5956439181076411  0.9968356190209886  0.3990844390905409
  0.5990468979891609  0.9979831622145914  0.6014243106569375
  0.6014765273203375  0.9928282584479613  0.7982811880882960
  0.5990456297489504  0.1900826864350271  0.1940022364915855
  0.5974340607368588  0.1995860790294815  0.3964333567657139
  0.5875263107174604  0.1955348570527717  0.5925197590964684
  0.5971179050418184  0.4084158197058584  0.4064640057205708
  0.5918006008542300  0.4046819623587313  0.8096201877100639
  0.6100137505191491  0.5994574996967217  0.0005679377132522
  0.6084584805032601  0.6158949171078588  0.2166917404413081
  0.6043279410353820  0.6051499424279060  0.4093677354689405
  0.5993397724780802  0.6047070135568188  0.6007632063405951
  0.6005302633259658  0.6014131671803755  0.7974378609053275
  0.6001206353408420  0.8022462124331553  0.2012282793274945
  0.6020093041709316  0.8036212894155583  0.4065290335980294
  0.5986064348423614  0.8008617720026400  0.6004154404700303
  0.6015613324999528  0.8002815258071247  0.7944891664797465
  0.7942980027425588  0.9951545968070576  0.9932151387396467
  0.7999129737908780  0.0045831183242452  0.1984282911711170
  0.7975731041232378  0.9987987236744731  0.4011479367585005
  0.7979789852769250  0.9951437892676143  0.6032145456900080
  0.7989633051243711  0.9997111122960981  0.7999608565954780
  0.7932390765185618  0.1961083834743660  0.9956413448254010
  0.7957198306171417  0.1979171718770235  0.1995779487051507
  0.7823588697682671  0.1806075013726370  0.3814304936933327
  0.8032347526549867  0.1997137485217183  0.8072564162122137
  0.9919500347584368  0.5972160712640066  0.9980399540783311
  0.8042400289429812  0.3998848970633413  0.2063446334269692
  0.8011516639912171  0.4156666904595367  0.6127340814277468
  0.7912872396330802  0.4018581858804606  0.8014256278838695
  0.8033122468492874  0.6107136059949073  0.9958712693252023
  0.7965203773699824  0.6028964100524539  0.2002767454600013
  0.8017245841862962  0.6105428795367536  0.4094507829382850
  0.8004479682204801  0.6053791891069134  0.6058847326645352
  0.7991464230521241  0.6036478368841103  0.8026712485246120
  0.8022203712465957  0.8040779067498862  0.9967717668739903
  0.7993952916032352  0.8042530507418034  0.4048529185760867
  0.7967565383925375  0.8006593049188431  0.6021479870439141
  0.8011915759958221  0.8017727526319256  0.8001949248082326
  0.0039302273950383  0.4048870625652308  0.3996727416240685
  0.9881964529159832  0.8001622801819190  0.8008740138516369
  0.9932669594324670  0.4000452745250992  0.1966782923439680
  0.9983421864140298  0.6010851073190276  0.4019477684705055
  0.0017519564120873  0.8036390066992779  0.2004746617952468
  0.1951868755363095  0.9959519954694978  0.5935386361287855
  0.1904393451723553  0.0012936242640058  0.7974628388544467
  0.1948782786708146  0.3972395029721554  0.1968464102624646
  0.1960283648595546  0.5953669173201043  0.9985980182748707
  0.4011661598420798  0.5988662138946699  0.1999424572215621
  0.3990779131165393  0.5990352870759628  0.7976533677064001
  0.4006136924843659  0.8015415604400311  0.2017100169656080
  0.6000046527080631  0.2071470185330740  0.0023139908180786
  0.7982904114105949  0.8043590247447633  0.2007017300397868
