Zr Ti V  Cr W 
 1.0000000000000000
    15.3185418189025757   -0.0058579337440910    0.0011531853961578
    -0.0058580518235424   15.3152820885503385    0.0003427542276612
     0.0011540796390519    0.0003423374486165   15.3446139054441577
 Zr  Ti  V   Cr  W  
   1   2 102   1  18
Direct
  0.6024587425428238  0.9996002486304567  0.7988619959932418
  0.1990941497627853  0.7957325577996589  0.2112238438995666
  0.3993827488012494  0.7998911000949933  0.6100043840478361
  0.0001600031716581  0.0007708424653230  0.3967595420921481
  0.9994713787040698  0.0022041383249742  0.5976749526804706
  0.0025706224334119  0.0030589932894296  0.7970643229388921
  0.0048546889900597  0.2047495567248108  0.9979489440843192
  0.9994108818308575  0.1999895889739037  0.1989719327238998
  0.0002620764799948  0.2059414126460395  0.4003082037527458
  0.0046831330635392  0.2038691289530507  0.5992770345525866
  0.0013856576221231  0.2060021733056130  0.8000988806979721
  0.0004437680122740  0.3998566542894648  0.9947697932438663
  0.0028561757878996  0.3989894862426930  0.2065293475722169
  0.0012440362675267  0.6037100070019047  0.0004449106957493
  0.9953733998642383  0.5997138010773011  0.1997898243953441
  0.9997253942157288  0.5980334548868721  0.4001307283884176
  0.9988312358688641  0.5979625147805079  0.5987236759199914
  0.9998530002181067  0.5979336133864555  0.7990814318983426
  0.9989362789713775  0.8003700613829194  0.9987902275028845
  0.9988909953168528  0.8026543537187637  0.2005505373565413
  0.0030352802369658  0.7991219092870198  0.4019459167732428
  0.0001450246585923  0.7995872491499374  0.6004970126650644
  0.0010883209567347  0.8023622131821376  0.8005025763676672
  0.2023353636846422  0.9920629331073845  0.0023835790861966
  0.1960411486358976  0.0016488120111499  0.2014931226202095
  0.2007243028924479  0.0001900199772592  0.3992204774322450
  0.1964756370931393  0.0045217143545970  0.5978167782591222
  0.1970312644565339  0.0003148651517195  0.8013964926191012
  0.2007875475116902  0.2031255349105196  0.1932053234916241
  0.2033802676839691  0.1999732910898445  0.4049399705910388
  0.2050788529362289  0.2034566230914851  0.8007425138811178
  0.2023801488112520  0.4156303795133117  0.0012364425738687
  0.1988493854904231  0.4005976458933760  0.3941854685003119
  0.1972820782926581  0.3964261855767739  0.6060650277071179
  0.1978772105255044  0.5949818627395985  0.1970320348841903
  0.2005000673153617  0.6003407203408870  0.3989437732327401
  0.1980527689961045  0.5999726976899497  0.5977644104011085
  0.1998940894952047  0.5991049644170880  0.8052272445709462
  0.2057520510347641  0.7995005141879846  0.4050473493757237
  0.1971093891500630  0.8003134931860443  0.6016941630284837
  0.2054749740227007  0.8002033032416950  0.7989358776496103
  0.3994087714121222  0.9986382709438160  0.0007250767680615
  0.3992335854339735  0.0008455759650912  0.1993076215701389
  0.4007343383474851  0.9951147960052197  0.4000572866612326
  0.3993764841383308  0.0015555629481758  0.5988553059698085
  0.3954839552091978  0.0009115073731449  0.7981856663512690
  0.3953275411541193  0.1997076929106193  0.9927096157364039
  0.3997904010345731  0.1986353065739942  0.1997678111525167
  0.3997369307985852  0.1982681967706982  0.4015081001753258
  0.3962931579380269  0.1985009376182512  0.6046644471075038
  0.3999077024165270  0.3991273381548192  0.1949573520301982
  0.4022472164841622  0.4018567923515577  0.4027346310624477
  0.3986718475494997  0.4002592253494217  0.6027980004813531
  0.3954972306211763  0.5994593325811675  0.9989108484614651
  0.3987538207670466  0.6009729503640726  0.1981993347788328
  0.3995241675811024  0.6038860481502450  0.4007471541307136
  0.3983109094001346  0.5971408769062723  0.5999027820372346
  0.3996532378194675  0.6027132488733854  0.7970933467626597
  0.4047111413881124  0.7997826146892854  0.9963343324843253
  0.4025924626252609  0.7993906168274602  0.2001611849379919
  0.6004832563552992  0.9955195421795562  0.0078841723562404
  0.6024456389896216  0.0017738896118432  0.2032710211432864
  0.6000096313039947  0.0006887320677768  0.3978918851743663
  0.6020803436848760  0.0008198550204199  0.5927380720651094
  0.5993949249082556  0.1975618948599168  0.9998352968503822
  0.5999119180020306  0.2034192032417717  0.1991388005527031
  0.5981209994646489  0.2039065984333825  0.4000536192879642
  0.6003638169455391  0.2006124515276677  0.5987092872328418
  0.5959748410908068  0.2053541501103417  0.7996062099178780
  0.5928261461958594  0.4002330625138850  0.0044008445921035
  0.6010357164869664  0.3997196532594038  0.5958411250847688
  0.5967456895010157  0.4023319129008592  0.7989496825832718
  0.5996425724290035  0.6031874469043187  0.0013294736676648
  0.6038534797090902  0.5948555848105950  0.2003435271752868
  0.5990885710123337  0.5959721361206356  0.3992839792533881
  0.6021291582303877  0.5982702884676468  0.5975641268091291
  0.5997735212048347  0.5963488570469722  0.7994304954714156
  0.6007783946220450  0.7986094078303992  0.1959489285857383
  0.5944240745922353  0.7983540056763228  0.4003387458981459
  0.6018774549162660  0.7984872688282691  0.5997346712219987
  0.5965745792802162  0.7927922551410149  0.8039791406286191
  0.7975624836813889  0.9987737034435311  0.0006709854402871
  0.8042925988302173  0.0001092321575202  0.2000592349039133
  0.7992511729925965  0.9994653268828886  0.3995186686873354
  0.8024476949961681  0.0003798975401335  0.5992063047156834
  0.8084556084099574  0.0011432544922680  0.8017945343470123
  0.8018457110028344  0.1972268565378765  0.9988514970809751
  0.8001520563955093  0.2000864032534453  0.1973841779317123
  0.7991525673155842  0.1995237320656787  0.4001051297830209
  0.8001262932862401  0.1982651963763396  0.6015989020151957
  0.7992127592800219  0.2016210067408381  0.8003965815541175
  0.7993662572576007  0.4000127129113445  0.9994837318148218
  0.7972961373227719  0.4027340675398335  0.1988544572424461
  0.8002250964369991  0.4006053911915393  0.4010059740735349
  0.8027240539619221  0.4002390969731219  0.6003357227091730
  0.8024654921400339  0.4009618893110878  0.8008574854795616
  0.8002510683728128  0.6008896955021593  0.0032451255438604
  0.7991269831243565  0.6029061075894955  0.3954843458802199
  0.7997822951001496  0.6028252610110412  0.6004355072139962
  0.7996861520365657  0.5996810321546651  0.8013970990953092
  0.7961723328925392  0.8011941839290403  0.9992301357520232
  0.7995841076571021  0.7962273373922614  0.2013789029554932
  0.7972161276422560  0.8001588098444339  0.4013359821888262
  0.7999866377014686  0.8007881380504234  0.6012135077294553
  0.7995690428865507  0.7990288340070113  0.8002607526629842
  0.2010862455674708  0.7996119597569439  0.9995945567198772
  0.0003172756443750  0.0011493100099351  0.2047691544877800
  0.0000120829231581  0.4023647141751907  0.4043223331632272
  0.0008874732470234  0.4008397402637148  0.6001826250946636
  0.0045307530314355  0.4023854674205004  0.7955403705646639
  0.1995424339946866  0.1802913241188112  0.9978513243709997
  0.2008727850505947  0.1991492955537372  0.6017269630052421
  0.1999223248871169  0.3980272098522880  0.1983296792034725
  0.2015490878958514  0.4011288468268423  0.8024559446146232
  0.1981247888897593  0.6045326979009870  0.0025410693848240
  0.4004664558884593  0.2024383957428688  0.7981817132267098
  0.3966695521004988  0.3988688168592256  0.9946730017160619
  0.3968098851255945  0.3984916890716434  0.8020667949003510
  0.4010624884635340  0.7995654517603589  0.3949169815084940
  0.4026351631716558  0.8031399545203871  0.8031493568012181
  0.5986983572368413  0.3999299501317611  0.2031872427778991
  0.5986871393859329  0.3998316476219674  0.3977546514569817
  0.5991069129397675  0.7991795429537407  0.9999442284382433
  0.8004881530622661  0.6000565102522691  0.1988337878229905
