Zr Ti V  Cr
 1.0000000000000000
    15.4889002550493640   -0.0195313770937778   -0.0155534076795571
    -0.0195267745976093   15.5102089440028070    0.0059105293967036
    -0.0155475950656657    0.0058984254639578   15.5083315327291498
 Zr  Ti  V   Cr 
   5   5 111   3
Direct
  0.9984017111808637  0.9928822458237631  0.8007246180725721
  0.2090768353989870  0.8018852357181621  0.1964088929040823
  0.2173810867454939  0.8090405532143453  0.8033082582489686
  0.3948800987838441  0.9642582343179397  0.8341655265840281
  0.3857371884200194  0.7964427624618293  0.9972092383921313
  0.1992681932851148  0.3115534843905133  0.9990993398537250
  0.2097586282388632  0.8142659709808828  0.5933114264554009
  0.3946998293333371  0.0163952924518072  0.0240321852543172
  0.3898617971419100  0.9891529452354838  0.5956258059245243
  0.8023679234327827  0.8010147618982258  0.2007891296361597
  0.9966175359688251  0.0008809750943171  0.0049776226543427
  0.9983750526131832  0.0004667274609273  0.2007913782299965
  0.9991410002989523  0.9994138017127036  0.3983064580965859
  0.9976116244497931  0.0002527914461636  0.5951939730700350
  0.9964073228146881  0.2002411404892415  0.9998388168575598
  0.9993393261380168  0.1999011152054119  0.1988954187125754
  0.9983914611372823  0.2001942007588968  0.3993646675534133
  0.9981385451344503  0.2013392181508129  0.5991033131283975
  0.9986424226622550  0.2015978874868232  0.8003103852509733
  0.9967512280725533  0.4001907805168319  0.0003289839011156
  0.9993143750859775  0.3999057340709317  0.1995414857941799
  0.9994131106314154  0.4005366728982330  0.3994687299645058
  0.9997185932160273  0.4005818096695197  0.5987887789953659
  0.0001473847930932  0.4008185595952423  0.7999898582545029
  0.9995098315036862  0.5983040978068749  0.0000152742929738
  0.0008946830166404  0.5995293262137995  0.1995697726874335
  0.0005527513152577  0.6007102562474946  0.3994490844515854
  0.0020613938798998  0.6012451344289306  0.5995440482707389
  0.0025648320290917  0.5990177271666846  0.8000963873816193
  0.9940911811302540  0.7987342033482485  0.9996394139466199
  0.9997722105267188  0.7994979046944470  0.2010792561593047
  0.0002158151916780  0.7991566287172087  0.3998663769730030
  0.0020411422545101  0.8007659854011880  0.5998219567696550
  0.0030080718024266  0.7928203259950833  0.7980482610676606
  0.1940198865424626  0.9970880121590699  0.0007371169738889
  0.1985363285628445  0.0064050337377214  0.1990795575560998
  0.1980605042856177  0.0012319333123607  0.3996569364859267
  0.1939643986187347  0.0086944895999276  0.5988574773012876
  0.1962740924919406  0.0151744264224032  0.8019374023767899
  0.1995103013250534  0.2014952149190400  0.2029935400837166
  0.1997726857020797  0.2000289575543056  0.4008354347759677
  0.1988613006983190  0.2032208605375052  0.5991163682296236
  0.2006195876457715  0.2043107154058385  0.7976634086450107
  0.1998842508168367  0.3988715912951783  0.2018525454527357
  0.1995467286313865  0.3997662144035395  0.4000649761970132
  0.2000222339983845  0.4013465906682858  0.5988337787047634
  0.1999289661112800  0.4006962808419829  0.7976232664413464
  0.1982045556517652  0.6017358495841442  0.9992723609127278
  0.2005006743649331  0.5948849879487218  0.1989964162087364
  0.1996723468695437  0.6009158659608430  0.4003433493134524
  0.2015406207935143  0.6014647388066788  0.6006915831759421
  0.2013279597893644  0.5970689761388219  0.8004199796177581
  0.1849558414891319  0.7993116113754309  0.0029352115602602
  0.2000209045302800  0.8011747059967653  0.3990077593203925
  0.3985988751152565  0.9988433319629767  0.2090338657292351
  0.3981840886135490  0.9986682905770324  0.3994338019408326
  0.4001759564476463  0.2032913234311479  0.9976713490587207
  0.3991012735578343  0.2005974296032969  0.2009991246142399
  0.4001037110210675  0.1990343552670972  0.4009315201244361
  0.3994827204746248  0.1979840581346027  0.6006441878601387
  0.3998875904097948  0.2021409511908663  0.7979426741425968
  0.4016705279003513  0.3982014225087629  0.0005657395119017
  0.3999920742583849  0.3995476476578082  0.2002918668576457
  0.3999987711534080  0.3992205770148052  0.3994358652075515
  0.4009239132243613  0.3980986876039755  0.5978478969900967
  0.4012629705980386  0.3981515985987963  0.7981216105598089
  0.3978951459052643  0.5907064527194433  0.0003674686773179
  0.4002972885516359  0.5981182887482730  0.1993508678243655
  0.3996569274827633  0.5988141069040716  0.3987708871058462
  0.4002911145483531  0.5958516471812049  0.5973854358709916
  0.4015031336216339  0.5907532467875621  0.7995691218151961
  0.4086583734233427  0.7976705594010574  0.2051588842264337
  0.4020295859037983  0.7973204031735612  0.4008662116966935
  0.4077003423889628  0.7923010907717278  0.5949203622546073
  0.4177295785357543  0.7758428135126009  0.7885970001902580
  0.5961590930561597  0.9988177483668547  0.9986927199397930
  0.5982037768035682  0.9994678955457958  0.1983754649831918
  0.5992010616440530  0.9993480851634909  0.3989307494938356
  0.5994312777357174  0.9984075465060064  0.5987613505643462
  0.5995031065919113  0.9993158359998563  0.7979142348989848
  0.5988942903024650  0.1985638719403256  0.9979817350380220
  0.5990019403245302  0.1992194014907074  0.1996987842274416
  0.5988901334772785  0.1980258900004314  0.3996803310407606
  0.5995433580606448  0.1977040048017983  0.5992420969043313
  0.6001250458262902  0.3987946124347228  0.9989895097123410
  0.5999134263222126  0.3983327909898259  0.1991404359114959
  0.6002538363644798  0.3992641964463920  0.3990953706552571
  0.6001998317690548  0.3984957636132172  0.5989424660876921
  0.6017532186396897  0.3980397561351788  0.7992679632702555
  0.5987200058302996  0.6003622013257129  0.9986980411548708
  0.5996050643516576  0.5997603542918030  0.1983428616752351
  0.6004479570655940  0.5999965856890458  0.3987439087989074
  0.6016862111945378  0.5986689305877390  0.5993540692001872
  0.6027696945691999  0.5970763514682080  0.7995521331881688
  0.6005718848524872  0.7988004254341257  0.9977955866868176
  0.5996548198378360  0.8003281682215900  0.1970599165333398
  0.6012509585835435  0.8000586109268203  0.3989717751100370
  0.6044473120085024  0.7992200583998199  0.5982651089824956
  0.6055291992764278  0.7984477192149848  0.7980722978613063
  0.7966868959839261  0.0006220833331143  0.0004148995757665
  0.7978469494153835  0.0029353138718715  0.1997509034710359
  0.7992180964515946  0.9999960712459468  0.3990325763496433
  0.7988778118894928  0.0005003857118620  0.5990062472349018
  0.7952435423807481  0.0006003961149528  0.8002156803620726
  0.7979849585946818  0.2002685028103548  0.1998013742568738
  0.7990717384439211  0.1994528496698414  0.5995710303791350
  0.7987300128483124  0.2003931586589790  0.7996459468484395
  0.7984246081640651  0.3994615951850717  0.9994813975312259
  0.7993237153873600  0.3990855624409742  0.2000108379746720
  0.7996132020135719  0.3996755156266989  0.3995026866502189
  0.8001196709168295  0.3993631252668450  0.5993303991623792
  0.8006513566169079  0.3998321086328820  0.7994142156448288
  0.7995631105606760  0.6000111516062621  0.9994180117511585
  0.7995133796068279  0.5975414055747859  0.1992014910150261
  0.8006212734585713  0.5998422470077470  0.3994599445851432
  0.8015873780277066  0.5998147704725124  0.5996221604574227
  0.8013463085074370  0.5992735904417251  0.7993244400021486
  0.7985033278211427  0.8002537700264304  0.9966380085820882
  0.7999139750703276  0.7999601292023019  0.4018209240023923
  0.8022019219624196  0.7999765165969538  0.5991938360844093
  0.8021065632197918  0.7990387637034725  0.7984276780375740
  0.5995771894976389  0.1982917085178728  0.7988218858032361
  0.7974136385769425  0.2001867923585796  0.9995809477615494
  0.7987459827196430  0.1998852789942800  0.3998425241487737
