Zr Ti V  Cr W 
 1.0000000000000000
    15.3990340272275770   -0.0170018773457157   -0.0022529018582575
    -0.0170107766548915   15.3787801482628375    0.0165544931564424
    -0.0022517709109467    0.0165430754876648   15.4057927644380346
 Zr  Ti  V   Cr  W  
   3  13 106   1   1
Direct
  0.1873686515443096  0.2011753006784441  0.3731111103098997
  0.2038475983225066  0.6166178430282909  0.3843119392009112
  0.3846270936029240  0.7963814620047158  0.3900665533104115
  0.0017454052529511  0.0024624381984812  0.0051904942677174
  0.0002469049306615  0.1962785121344144  0.8002678526679711
  0.2037488097271804  0.1995652414105909  0.1750736886597644
  0.2017444091406488  0.5885759169350421  0.1837659808964877
  0.2111508002548502  0.7985915106678864  0.2127260126624270
  0.3884198365118041  0.2014959307781069  0.6033823516949869
  0.6092594252966035  0.0148092744464223  0.5934907397669942
  0.6024175739392337  0.1929691777725350  0.4136206793142612
  0.5885639121223807  0.2019453313623001  0.8127897369366034
  0.7938438258910747  0.1978690023022881  0.1963347667607115
  0.7828630636308067  0.1971091120112285  0.5947101644205119
  0.7970595057587830  0.1987126265208524  0.8032188654029448
  0.7984135078537841  0.7957403545498237  0.1950461051983133
  0.0024044727343213  0.9996572422020459  0.2065262345484240
  0.0019018550967510  0.0020528000035075  0.5967056893872137
  0.0015646394287963  0.9988578731014673  0.7977999377590752
  0.0009295578980018  0.2015280235611484  0.0046848035686246
  0.0009957294423464  0.2002052092738003  0.2012034128157735
  0.9879513126501869  0.1972448589925956  0.4014183579460410
  0.9977389042770276  0.2010554219095313  0.5973083151207629
  0.0008490734858939  0.3992177388615471  0.0020571622736689
  0.0000036863830716  0.3986802015752321  0.2029748571746443
  0.0015430728082776  0.3982653177170440  0.4015360220416528
  0.9995373507539497  0.3991570942909505  0.6003910711497409
  0.0009395050117047  0.4009941837440468  0.8004687056587031
  0.0022421529552947  0.6005671855285102  0.0017089103157619
  0.0009495303536247  0.5994419518162402  0.2011348134071934
  0.9967258119267014  0.6008974685341417  0.3995160236838437
  0.0019189749271257  0.6006691486555065  0.5980426014159874
  0.0008893460883707  0.6004304284667982  0.8008329244723927
  0.0034760456631557  0.8001782004698551  0.0032438696937214
  0.0021812781972755  0.8002887344770534  0.2019316516878080
  0.9939802650239815  0.8073920242237057  0.4013894238689992
  0.0004192964704246  0.8007784197886698  0.6014831349131537
  0.0008424766588375  0.8006108406139433  0.8003124010783468
  0.2021874474723897  0.0000966958460306  0.0003843369906591
  0.2031839822855554  0.0037387258644799  0.2012491544124077
  0.1974065949734056  0.0011329443288781  0.4014929200798976
  0.2031168011442979  0.0038401489905623  0.6000226610347855
  0.2006705124415946  0.0005610646365643  0.7986730989325869
  0.1986364195055419  0.1992120245923664  0.9869014401865538
  0.1948785699806916  0.2013766373030530  0.5957998668237634
  0.2010008159541966  0.1995642766959023  0.7950636236071404
  0.1998548296827566  0.3976299300386870  0.9993996477238174
  0.2014939074668082  0.3942538520084998  0.2013662596265580
  0.2001207724894082  0.4039249148558209  0.4017957798462026
  0.2002659921631929  0.4010486674285012  0.5989494568440928
  0.2004120356990614  0.3996935005248052  0.8001430742481842
  0.2009872513885238  0.5996088835616237  0.9937334233078429
  0.2014352377751868  0.6007866546910617  0.5993550643859732
  0.2011769986785469  0.5996524760629114  0.7977543101739417
  0.2016795430307048  0.8004444707872913  0.9989110349585809
  0.1866984976677769  0.8135809460965528  0.4095443360615600
  0.2006554520463774  0.8011198933892417  0.6032577351561187
  0.2011186296755668  0.8023477676868046  0.8010547437657689
  0.4006938610766959  0.9997191490624193  0.0019880965479364
  0.4016200091240422  0.9967005608509000  0.2019221775655240
  0.3992276346634411  0.0050860974724008  0.4011069656743386
  0.4020331847473154  0.0004396120205894  0.7981849206311814
  0.3987009144194625  0.1979843086368726  0.0020064845994931
  0.4000118152612731  0.1979081702211807  0.2017966656153763
  0.3971718742794103  0.1985628236174303  0.4003585383140855
  0.3953597084926732  0.1993081790326360  0.8053484800526857
  0.4008824124278720  0.3989181567364354  0.0021076427699305
  0.4022039186246431  0.3970298397627147  0.2025031232806151
  0.4009155127703627  0.3948547886125325  0.4019187653468742
  0.4002144480696853  0.4007999476783782  0.6013728522844122
  0.4010210130996999  0.3989575896604790  0.8005572666422976
  0.3998181971966625  0.5987541081329206  0.0003845670707072
  0.4072041817117665  0.5948496583514624  0.1972099998848534
  0.4102637645773468  0.5906095111066025  0.3989109536045710
  0.4014143215690524  0.5985582443337023  0.5988851684550568
  0.4023400835054059  0.5998490095344704  0.8017557731529557
  0.4011784986075417  0.7995239609543344  0.9975791735588583
  0.4076021337621097  0.7973308588742359  0.1905131469676069
  0.4009916679382303  0.8004869700029219  0.6016717653720652
  0.4011688000523062  0.8003062588521922  0.7996129799712383
  0.6018389533248599  0.0011305491191305  0.0004414296236795
  0.6015010127592703  0.0005078349409908  0.2026123908067712
  0.5987052617420168  0.9959134898368807  0.3989169456285429
  0.6010590858679437  0.0009294298601685  0.8012713426559467
  0.5997372985214582  0.2002036173287216  0.0076517803793172
  0.5966533035955710  0.1980435789414683  0.2029263557322215
  0.5900741216007876  0.2063248643657748  0.6097649583564763
  0.6012452308014327  0.3994950459503162  0.0029773903028575
  0.6009406450593410  0.3972082637214197  0.2030058897170165
  0.6020586051011040  0.3994971476525618  0.4026776746583743
  0.6003792323785349  0.4015759802540890  0.6028782947641683
  0.6007656340026624  0.4036916908483296  0.8038151552832332
  0.6033813279623447  0.5996436700464791  0.1349832334791705
  0.6036233387703068  0.5993832833586151  0.4011755873070089
  0.6012932399491080  0.6026251425444055  0.6005971890285208
  0.6014713900366532  0.6013770934831811  0.7993218171742076
  0.6023350866736434  0.8026578380886238  0.0013239294726153
  0.6005978822383115  0.8001726442873726  0.1998197754066676
  0.5992682911444840  0.8004154944556593  0.4002382644103444
  0.5995874658883681  0.8029900202884500  0.5996483313565704
  0.6006905610611671  0.8020617834123049  0.8012537611935300
  0.8012608283600153  0.0007117437373765  0.0011375911010357
  0.8010023248824820  0.9993853185028614  0.1996833241163463
  0.8102057526617843  0.9971782510372968  0.3963842235799852
  0.8046938687952769  0.9969318283742720  0.5993264219797692
  0.8018612921956012  0.9987677516424867  0.7988377080754726
  0.8010326246170599  0.1997812537019809  0.9985078134255446
  0.7980210841190132  0.1987164169162471  0.3971333573643056
  0.8011161503331099  0.3998196396043635  0.0010795240444526
  0.8008793987048806  0.4000843045995334  0.2010623324835907
  0.8014547069804279  0.3982690610357624  0.4004526126787469
  0.8001039182908600  0.4012591674970778  0.6005197110066792
  0.8007634568082838  0.4001870265076132  0.7998888272741700
  0.8040788183195933  0.5995234513728833  0.0007225901185534
  0.8012908099150103  0.5967158071682354  0.1986742195697366
  0.8010404230416112  0.6007223671242227  0.3993146447656529
  0.8009622003929747  0.5992453694777418  0.6003567162340198
  0.8009545268343660  0.6005212855502954  0.8016249461777570
  0.8016781315365404  0.7998543172883796  0.9965383345916646
  0.7978150395216141  0.8000986185751466  0.4023427132200866
  0.8000239801170802  0.7990913524722884  0.6021623521557896
  0.8009665741727490  0.8007823990594179  0.8003856914629434
  0.3990050504697863  0.9979127786255325  0.5987693746432967
  0.0050132982351206  0.0049354199448541  0.4014102679856594
