Zr Ti V  Cr W 
 1.0000000000000000
    15.4774007178547244   -0.0057270445464663    0.0060485456842571
    -0.0057275938548885   15.4869400142696509   -0.0016006725836938
     0.0060484205712483   -0.0016004018593464   15.4828342852602923
 Zr  Ti  V   Cr  W  
   2   1 107  10   4
Direct
  0.0023986590294360  0.4008980078604586  0.0005699196325273
  0.4011663101371302  0.5969417619410393  0.8026458141933758
  0.8003510489554332  0.1938716693467685  0.6002202388509048
  0.9996695919845329  0.0000309656169637  0.2040645299143642
  0.9998489465623365  0.9998416828324022  0.3998240239346700
  0.9969459620193869  0.9997696824065466  0.5996450808418544
  0.0007824153899159  0.9995726604908536  0.7970957958113120
  0.0008989429062426  0.1947890003870196  0.0023077258610293
  0.0002166954147047  0.1984707397143766  0.1996844922851093
  0.0002055566985390  0.2003336408385987  0.3994448249119173
  0.0034649426175415  0.2002187546492930  0.5975810417179356
  0.0010849962249367  0.1305876628193212  0.8670351328983200
  0.9995153900840994  0.3996144779131754  0.2051225055540966
  0.9999057230269600  0.4001189413873223  0.4016280364697187
  0.0016754098214879  0.4003358871256340  0.5985082836051955
  0.9950014447626088  0.4019693527112274  0.7944476270879662
  0.9999856920338800  0.6078233814076113  0.0005405464030077
  0.0000951262835636  0.5998950229084273  0.2011585531133690
  0.9992823587998544  0.6003521889469465  0.3997915214030021
  0.0004689906752906  0.6014470216820921  0.5988167883919961
  0.0004912150716985  0.6010849010962702  0.7980288098550886
  0.0002563081451450  0.8012313153827264  0.1970379010401263
  0.0002591336996454  0.8001345936921910  0.3992390015577472
  0.0015603122143941  0.7985768547592313  0.6002967866565844
  0.9995743256983529  0.8012558206327011  0.8023814462230207
  0.2031417602768718  0.9995380020119309  0.9991115242059642
  0.1996871661479750  0.0001758339973805  0.1992193234646772
  0.2000176718400593  0.0001317048599134  0.4011673276433437
  0.1987416316536703  0.0009056473472857  0.7993816880957253
  0.2004748299630152  0.1986867192486184  0.9998098784113891
  0.2009881452481870  0.2006275633016940  0.1999947665229350
  0.2002654666547418  0.1996430666744690  0.3994981956781778
  0.1995928662972090  0.1987456362606841  0.6006360257095340
  0.1999124320255587  0.1998442290808780  0.8006222819704109
  0.2059457280294669  0.4007705379924523  0.9994568284405523
  0.2020226551615954  0.4001502199482480  0.2016107233939810
  0.2000632503508284  0.4004124342285946  0.4009556449723712
  0.2048881302488315  0.4004189682008816  0.6004632781162732
  0.1972870672826006  0.3984924585197937  0.7991110756626557
  0.2010008185826371  0.6011621481640717  0.9999479963910418
  0.2002217633393086  0.5991111276639896  0.2002536168913436
  0.1991199341480484  0.6004718133729132  0.3992978674820734
  0.1965256222239582  0.5996693786133935  0.7996808947568429
  0.1982211492384883  0.8011398804140029  0.9989503956448825
  0.2009139665908005  0.7997751361956086  0.1998478716410471
  0.2002097968619714  0.8003605416888646  0.4003305705901274
  0.2001487356285126  0.8002687917520919  0.5998707869416978
  0.4010609796854169  0.0006629892541914  0.0002140370235519
  0.4008019167230509  0.0003154265938341  0.2009801767805520
  0.4006156768287785  0.0005784466884352  0.4012267217553900
  0.4006910371848105  0.0006267432361464  0.5995826348175933
  0.4005229841617449  0.0005204703918411  0.7980055748885775
  0.4008309570757279  0.2004133185515203  0.0005731887808411
  0.4008048434460701  0.2004900357732274  0.2001652777136015
  0.3999413708801584  0.1999005178686917  0.3992576819529546
  0.4001409269227194  0.2026240868767680  0.5993365482010889
  0.4000093729349651  0.1986507988537520  0.8008855682212588
  0.4019142114851630  0.3985422990301603  0.9999772535315586
  0.4008667342158591  0.3998884892772112  0.4040714553905538
  0.4026334435061730  0.3939666371112617  0.7952020858173297
  0.4002035997841742  0.6009528929507592  0.0055738120436940
  0.4002199875970737  0.5994756825790392  0.2019915968439746
  0.3997664952243855  0.6007853478746622  0.3996279783728648
  0.3999328510797806  0.5967194402238297  0.5964295477774904
  0.3997263792974285  0.8015130837146469  0.0009789225822144
  0.3999847290642677  0.8005577250022703  0.2001844449947347
  0.3997103150871800  0.8003148675505762  0.4000042960371538
  0.6005930570855584  0.9994666147123011  0.9993090971129497
  0.6008382062850824  0.0007687873002146  0.2003642035070358
  0.6004574391551093  0.0003137187878364  0.3994639425071769
  0.6031191343067667  0.9991956402937341  0.5996769914381602
  0.5997976504059376  0.0006513530269112  0.7998232195993106
  0.6005212162583941  0.2002256651217540  0.1993830745518068
  0.6009588152130918  0.2003203604222562  0.3982353834698997
  0.5984203986755942  0.1988007189760844  0.5987863491727994
  0.5994187466249744  0.1987384517972495  0.8009863349824807
  0.5983172568506777  0.4009882903491775  0.0000412589161136
  0.6005328269363794  0.3995178593049435  0.2002117366739189
  0.6011592274373827  0.3998196180201922  0.3997702494478925
  0.5962956423746998  0.4006646065705933  0.5996137259601949
  0.6063263560799704  0.3991093283393501  0.8002803780894685
  0.6004383590706898  0.6014739551740103  0.0015148803708255
  0.6004693218043915  0.5995819694423296  0.2003204848059173
  0.6010301031454708  0.6003034419154046  0.3992457171755586
  0.6004440348289145  0.6022995676068746  0.5989997993791157
  0.6049265438128241  0.6015180673329775  0.8001071900377628
  0.6001763743990161  0.7999130668311060  0.9997521848932076
  0.6000056349198202  0.8003918834122032  0.1993663754061441
  0.5995183783494841  0.8006087070941945  0.3997495903907112
  0.5986364764177173  0.7988237070113997  0.6004707090095084
  0.6011517334513385  0.8011338147224845  0.8003864673731405
  0.7969663039818022  0.0008447923493551  0.9987791821672006
  0.7999990105239946  0.0006002059511972  0.4033118530839616
  0.8015792152938314  0.0025903194342694  0.7967703692198883
  0.8011268164945844  0.1967675337364423  0.0008679094465325
  0.8000528044769409  0.2005964548597544  0.1990260537388277
  0.7990656539616380  0.2028360651989057  0.8027053884116190
  0.7952940374781552  0.4005275707331197  0.9948837503342433
  0.7996675685895436  0.3997639066682155  0.1988844894484448
  0.7996961028339795  0.3991433075656259  0.4019795254416910
  0.7988012043664998  0.4012432151925246  0.6036542088861455
  0.7994201426160402  0.6003661756399201  0.0004901900625609
  0.8000829006677862  0.5987947380668575  0.2004041674351030
  0.8002720110753759  0.5997619648655095  0.4001280191411433
  0.7999628304299875  0.6006241800154285  0.5986504181734382
  0.8019729281428728  0.8021320450223581  0.9990762367949797
  0.7995901666502481  0.8000657817591316  0.2006071108070015
  0.8000261565529549  0.7994879339728854  0.3989130072111310
  0.8003407131111862  0.8014220829474865  0.6005544313790833
  0.8000320419882224  0.8005098439173766  0.8000202378841481
  0.2003213934398614  0.9993497116012174  0.6000909744901894
  0.1997760290375551  0.6007709636336774  0.5995546112681192
  0.2001505945227266  0.8006528401344987  0.7989593406973250
  0.4012836927585048  0.3999051690170746  0.2018171860629384
  0.3994008060004872  0.7997869987598882  0.6000222570992754
  0.3998719669181265  0.8030381262381810  0.7998479918302930
  0.5996633740963259  0.1999835582345605  0.0006538830263121
  0.8001990311575223  0.0001165719201562  0.2001208234843048
  0.8004941448156956  0.2001052227147984  0.3972163374384852
  0.8012749487797660  0.6009157850294485  0.7991754536805110
  0.9986323127240007  0.7984634448112143  0.0001856602365176
  0.4008303344856603  0.3993237271229574  0.6004853010792449
  0.7997670880646256  0.9954783397228748  0.6004252890767503
  0.8007139991954353  0.3952610468737946  0.7995275565670609
