Zr V  Cr
 1.0000000000000000
    15.5277836321495606   -0.0011014415353407   -0.0036444284316418
    -0.0011015311309700   15.5268057001839015    0.0012045176117796
    -0.0036459540422085    0.0012051907892001   15.5242636607114743
 Zr  V   Cr 
   5 117   2
Direct
  0.9986376186144829  0.1994014299604917  0.4004019029287310
  0.9914196854401781  0.3995369044271729  0.9951729192765278
  0.6000765227693813  0.9993934043236894  0.9989724277150308
  0.6002748268850270  0.9995377845380284  0.7744423656810950
  0.8052314582822436  0.3989165039722353  0.8078640354518889
  0.0017773475658232  0.9986846637422656  0.9995605131958036
  0.9999751431256626  0.9986013975463592  0.1998509505608564
  0.9997096706182093  0.9947486383924293  0.3997397100840971
  0.9997497291936610  0.9983282307709139  0.5997387783432594
  0.0017749539099805  0.9984481325933334  0.7988094582973745
  0.0006827763930561  0.1994563152678987  0.1944099532459436
  0.9986460918520352  0.1982994829396175  0.6036128113314088
  0.0038520067352011  0.1979367677618110  0.8000097088566681
  0.9995599726619461  0.3998387837790288  0.2020267900094979
  0.9997255390449594  0.4039899950364518  0.4000067556879994
  0.0006370074411597  0.4001171810131142  0.5984012056513892
  0.9985809946000601  0.6043117826870235  0.9997210622095781
  0.9994283453663211  0.5998542574129188  0.2004870684371257
  0.9991692170966632  0.6007961153631722  0.4007004539398829
  0.9992477416155461  0.6004142014763889  0.5993084954261858
  0.0020203002500897  0.6006406124536282  0.7979045804683615
  0.9989124366335976  0.7994689162913677  0.9995862140181903
  0.9993043407576538  0.7995466909036512  0.2002435516826161
  0.9996149001081779  0.7982033008609760  0.4003168259945590
  0.9990319206698632  0.7994791032171443  0.6003475600854958
  0.0004486104908951  0.7994205277376306  0.7996406485410524
  0.1981142545515680  0.9964133816137688  0.0004639494839540
  0.1989450548882058  0.0005816165693603  0.1996487921576856
  0.2004564968879220  0.9982984534559584  0.4004103012960589
  0.1994118129281674  0.9991470725367417  0.5987433347021539
  0.1987869541782976  0.0002849576855706  0.8001330352287510
  0.9956376095031180  0.1942239622197941  0.9987449949139681
  0.1998665333849866  0.1995882135498395  0.2023058801495948
  0.2038882805381020  0.1996041040617419  0.4002372150410280
  0.2010536548050344  0.1993191986276610  0.6005838422831705
  0.2012997114475435  0.1991440627810261  0.7985061367239382
  0.2013801638714480  0.4030730598495999  0.0008505739367519
  0.1986618422985481  0.3981402866298057  0.1990273354211689
  0.2007053754253103  0.4006073275216240  0.4003048905892334
  0.2006995018921555  0.3994435230193370  0.5987929844865165
  0.2021926608904719  0.3982414189125620  0.8004896384553730
  0.1990100794050889  0.6000265307970595  0.0003195466423409
  0.1990293695143560  0.5996680968704192  0.2010007878821667
  0.2000552486798723  0.5998155441138988  0.4002569582417555
  0.1996773807874005  0.5989406141305091  0.6002982733275066
  0.2008972365753021  0.6001762624876360  0.7997961373433295
  0.1996106285524864  0.7988736100962870  0.0004897562084991
  0.1994548301056660  0.7990712136144026  0.2007337029921856
  0.1999739039594695  0.7987713420277066  0.4003669183521432
  0.2003359101338670  0.7999015856999281  0.6002430764865619
  0.2000405684309828  0.7988261832340421  0.7998866743394971
  0.3929870234172013  0.0005371651021531  0.0007880761291559
  0.3986236005638998  0.9997233473958433  0.2004053339494156
  0.3990298114495484  0.9990407962512940  0.3995966058203659
  0.3998864826966753  0.9994948796020069  0.5998649614074978
  0.3952596189305195  0.9994455348321791  0.8000067322048698
  0.4034491783855179  0.1990652270710227  0.0001113331285405
  0.3986052145123526  0.1994920601451755  0.1986055931330934
  0.4013524206505710  0.1991330844631553  0.4009157113149378
  0.4010181622295443  0.1992205362702651  0.6006670923484693
  0.3990160625739486  0.1999890891378576  0.8019953023272017
  0.3977111680930807  0.3984152024128357  0.0007707853312680
  0.3990861893580861  0.3994348157946673  0.2012362127710043
  0.3998865075559210  0.4002060237718298  0.4003228689456242
  0.4005741804181019  0.3993052856661266  0.6000335559313993
  0.3994961146395344  0.3996595597078130  0.8002791940364863
  0.3998481344388831  0.6000822330153015  0.0005825511526671
  0.3992720382504962  0.5994748155969184  0.2007046988745533
  0.3998335832498895  0.5998701814718005  0.4006722255987582
  0.4007969668864983  0.6000893670619727  0.6003412777831166
  0.3997106894760246  0.5994928750694958  0.8004898258024720
  0.3996162395464817  0.7992905124321451  0.0003792542123264
  0.3999333509265359  0.7997132113882545  0.2004015753044991
  0.4004599661418550  0.7993929319691034  0.4006806553531005
  0.4002652265516619  0.7993257045726555  0.6002662830266553
  0.3998914111800749  0.7997110162707004  0.8008280349762510
  0.5994927153474894  0.9996529652847781  0.2040106603855553
  0.5994014623603769  0.9990130723352288  0.3974196607096706
  0.6002343829226003  0.9995312764893634  0.5845170584389433
  0.5998282720196759  0.2048497993237127  0.0006759184706347
  0.5995213166224538  0.2005344685964447  0.2009835029864843
  0.5986959322397587  0.2007880022504508  0.4003803490223504
  0.5998342695654187  0.1993080978497663  0.6006153677014864
  0.6004832318315080  0.2046402524635928  0.8000431017671863
  0.5955350702270521  0.4020179193900671  0.0017765231130439
  0.5982117853757515  0.4002114094508870  0.2024355111040607
  0.5988642270126630  0.4001950159901062  0.4010694220923989
  0.6000338411331525  0.4000154977839017  0.5998267232817578
  0.5975145759100564  0.4012555958196350  0.7992664226939528
  0.5989019200733146  0.5986211305098608  0.0005269595273324
  0.5995315736704303  0.5992244935785432  0.2013242009709914
  0.6001342414238490  0.5993094767805288  0.6001092563463480
  0.6000958690411355  0.5986420109122814  0.7995738927611795
  0.5994910236634619  0.7940782893142341  0.0009722699996024
  0.5996219272969514  0.7985672595178375  0.2009641514045814
  0.5994949000892773  0.7981544182363879  0.3999458833863819
  0.6000552541976562  0.7991294215856332  0.5997171489963499
  0.6000612065511509  0.7949013786278090  0.7999708791887074
  0.8048382399161698  0.9980823453099181  0.0016507043287988
  0.8007220375442755  0.9996073798143223  0.2010636171283777
  0.7998422319359128  0.9985441326744567  0.4002255384789949
  0.7996022127255424  0.9991834071274137  0.5996761669566096
  0.8055723150046501  0.9983555793115139  0.8002422631922692
  0.7978667972680950  0.1981057323465039  0.0013076732721335
  0.7988004857478771  0.1989596037021016  0.2005033261254773
  0.7946031281366455  0.1986848290647661  0.4004759610428940
  0.7992258826912474  0.1993892266382550  0.6019193734024681
  0.7997234359351857  0.1947189356140665  0.8016796246558030
  0.7885877860065714  0.3995726280852880  0.0114900609054076
  0.7986790457450581  0.3991380836927571  0.2050500858095575
  0.7985117374880881  0.4005975160274310  0.4015424691121716
  0.7989943213401057  0.3990019597316792  0.5986087820774589
  0.7983753816578490  0.6008534606605603  0.0019357260670860
  0.7996383133708230  0.5998442342285334  0.2015049091620485
  0.7990967077405434  0.6001915133397228  0.4005272191537008
  0.7994659313099498  0.5996815563373760  0.6010671822136028
  0.8005116352206962  0.6035421038538832  0.8013969774784291
  0.7990474351031002  0.7998189440481647  0.0011328393682537
  0.7992017210515675  0.7995318298847474  0.2008106311438118
  0.7986567058266699  0.7993104302361472  0.4008880611634393
  0.7993005213870271  0.7996379725105464  0.6002912954894200
  0.8004558970731817  0.7998451223797737  0.8015468032367776
  0.0077429278701466  0.3996768622771098  0.7927086509295653
  0.5995068747514916  0.5996286128954527  0.4010248691476055
