Zr Ti V  Cr W 
 1.0000000000000000
    15.3185418189025757   -0.0058579337440910    0.0011531853961578
    -0.0058580518235424   15.3152820885503385    0.0003427542276612
     0.0011540796390519    0.0003423374486165   15.3446139054441577
 Zr  Ti  V   Cr  W  
   1   2 101   1  19
Direct
  0.6014108185351408  0.9991459629045059  0.8010534980885176
  0.2006199357056391  0.7911635068552469  0.2093317127794345
  0.3998427414682982  0.7999985522907235  0.6099850725950280
  0.0004060286533225  0.0000511794688642  0.3959478746139858
  0.0014045501894040  0.0012520798189423  0.8036404404299020
  0.0039254084451147  0.1980953514898491  0.9980085321717860
  0.9980175289338398  0.1983731726131115  0.2004316506908002
  0.0010950183357139  0.2025366446174471  0.4019066863321625
  0.0000353120265234  0.2024730193529914  0.6006358288200393
  0.0020297752564946  0.2049476178010275  0.7982858466862536
  0.0002928868926587  0.3983219958542756  0.9933804367564926
  0.0018422050344199  0.3985495547627208  0.2068592327920279
  0.0035532946421587  0.6027289734754369  0.0000229289603175
  0.9963255741738034  0.6007345113023770  0.1986756394214358
  0.0002622055320034  0.5971994996836621  0.3994043314651948
  0.9992231333721576  0.5981219154089726  0.5989747922207224
  0.0005429912993553  0.5974691492227360  0.8003612604102455
  0.0000190989030123  0.8048260859625183  0.9982228378368727
  0.9991712044118524  0.8021384674446063  0.2009988948855403
  0.0019737971633484  0.8003829265855373  0.4017322357345642
  0.9996174666060077  0.8003992076347125  0.6007465016329842
  0.0011520469208003  0.7998791216466823  0.7988562116639271
  0.1953916590040585  0.0025923760227808  0.0032038358643798
  0.1951878955064696  0.0008795092588119  0.2025102850628244
  0.1987213999907978  0.0008421282391631  0.4009041056651011
  0.1947592224695477  0.0009467111313044  0.5997471869831991
  0.1967401124911155  0.0015981714455193  0.7998131250465867
  0.2009653686282968  0.2035034606753233  0.1966640212782607
  0.2035222435928746  0.1998145328312081  0.4008822097686460
  0.2046402183419009  0.2041307311741079  0.8055887019467280
  0.2037468588469586  0.3989654693532815  0.0083285975579755
  0.1986582115421267  0.3997302173121838  0.3963510825083848
  0.1975023884994734  0.4009265461054207  0.5998480410403144
  0.1983006162319678  0.5927972234558725  0.1957584373814694
  0.2005538437318423  0.6004851393907835  0.3975078356907463
  0.1981921287136483  0.6011058354894356  0.5967276802264553
  0.2003020334376704  0.5973584758521856  0.8065224478562745
  0.2061626787266557  0.7983622144974450  0.4050565062418550
  0.1960412151766909  0.8005037700153722  0.6019795180210668
  0.2052035215447519  0.7987049387735515  0.8000865204812587
  0.3966821068561051  0.9999877944642088  0.0013957391194617
  0.3974066181114942  0.0002669383821657  0.1988687531196297
  0.3996097155910486  0.9951852780580533  0.4002396814898107
  0.3969444481932744  0.0031088104628330  0.5995962089130358
  0.3933857366138493  0.0012052480556371  0.7999951161062121
  0.3965741357156137  0.2007866354431323  0.9935482403207020
  0.4003542671805623  0.1980468535689147  0.1994317517504194
  0.3989307560067844  0.1980199227648214  0.4031647399346148
  0.3988641253192635  0.1988100366026908  0.6048421046250246
  0.4009233970532537  0.4003453680599975  0.1965318238378704
  0.4030654082108523  0.4013068088096414  0.4018560932421356
  0.3979446938138110  0.3993901779776339  0.6016150134756486
  0.3944644761729638  0.5989247502409027  0.9988884578428178
  0.3991027717355012  0.6014122301838434  0.1978409536789993
  0.3998542362722747  0.6036077537893817  0.4006429653751987
  0.3990509769299346  0.5976207609860510  0.6002652991283239
  0.3998744235705188  0.6024456752407916  0.7975675239550788
  0.4026062031874073  0.8014599591291015  0.9968698766324197
  0.4024469425462198  0.7992830830014330  0.2001986305347218
  0.6012120706634423  0.9968471354280111  0.0083452138297422
  0.6032028805299000  0.0018493945224303  0.2026311452006368
  0.6000992150023409  0.0005537379418308  0.3976710808742062
  0.6032523544616697  0.0006579377908260  0.5937005636468397
  0.5992655013628885  0.1980061690792647  0.0001763411870648
  0.5995151982428482  0.2035330834196004  0.1994477551780273
  0.5979913872223691  0.2036850518684135  0.3998998682408497
  0.6007711400356996  0.2003814055946435  0.5988929267572378
  0.5947967265778776  0.2054708097007502  0.7997208784839699
  0.5950130809617636  0.4018207053516191  0.0041984366369479
  0.6024276483762898  0.4000827719237048  0.5956104709145296
  0.5970544870983719  0.4025085792951174  0.7991645538163443
  0.6015117355443914  0.6049329354282831  0.0014405561128430
  0.6045651226269840  0.5956288817492614  0.1998561968956241
  0.5994225054375432  0.5958882138183726  0.3988741135587862
  0.6029397481585619  0.5986795690100312  0.5976308538183785
  0.5998744490222865  0.5965452638654662  0.7998922401673663
  0.6003202122467562  0.7990668352496922  0.1953002624148157
  0.5943626067398304  0.7984814812954095  0.3998422429962490
  0.6023291287165853  0.7991681153426242  0.5995376390538061
  0.5954882865576121  0.7927217920224556  0.8038728849079785
  0.8038339422293636  0.9998809651343851  0.0007474514286806
  0.8046693645036173  0.0000666399115143  0.2010491025999088
  0.8009264805914106  0.9993127960892890  0.3993031267013054
  0.8047075045118509  0.9997690591144835  0.5990608327100022
  0.8062318342306161  0.0013148728067638  0.7992379179859542
  0.7984162042501612  0.2001876233757339  0.9984287352378035
  0.7995634152175258  0.2008679811975694  0.1978252643812626
  0.7978486486667226  0.1996822251331806  0.3997784710694345
  0.8006453837524052  0.1972715644491362  0.6013238552889033
  0.7965788436701211  0.2029106729011666  0.8005729255652180
  0.8013181289938814  0.4003930389196568  0.9992024893130952
  0.7979975467403733  0.4034888915980690  0.1986134073425468
  0.8008997164935322  0.4001041025536839  0.4004520875104076
  0.8034262498974042  0.4009658657941498  0.5997273662627393
  0.8032724061212082  0.4015056212916322  0.8001495859062587
  0.8028888156327303  0.6021681141867369  0.0027477454272641
  0.7998961730997199  0.6023966291251496  0.3947407216082094
  0.8008410392910096  0.6029710661142200  0.6001226575285393
  0.7999596356456714  0.5994672044629511  0.8013659360348201
  0.7946888981991947  0.8009601082881843  0.9980730370413164
  0.7990951447426007  0.7961598286327587  0.2010620414372758
  0.7962218483614673  0.7991615299371468  0.4007609637763851
  0.8006637116062331  0.8011507779978633  0.6005671240077342
  0.7983462673121472  0.7978414864633553  0.7996880075106403
  0.2009138540824977  0.7999088339947645  0.9991608802513030
  0.9989818746895581  0.0021785116445108  0.0026250191033244
  0.9996859055851243  0.0001610347041923  0.1980468902594149
  0.0000328593259025  0.4001433758686876  0.4037335057835272
  0.0007227105281632  0.3989328592929142  0.5992628809948094
  0.0049828427831474  0.4012690113297574  0.7953739357170845
  0.2006698640521810  0.2001383826821398  0.0007306771659544
  0.1004609551332645  0.1001353670886711  0.6004250347937061
  0.1998122382265882  0.3979190551189253  0.2023932831895761
  0.2016967998413321  0.4009778159769389  0.7933016051450418
  0.1985107281712443  0.5978201999492746  0.0022745990489372
  0.3995020679328935  0.2032551654455297  0.7993854802667542
  0.4001274950332772  0.4016001821999894  0.9949251906591322
  0.3967686977792277  0.3992511558405538  0.8018478607967612
  0.4010226658443183  0.7999121389806396  0.3953606192764230
  0.4019956525578890  0.8033197048694355  0.8028780966056139
  0.5997960426152715  0.4002451880244909  0.2026281734687904
  0.5991417414468804  0.3997244583887524  0.3974350934844352
  0.5983412550412406  0.8010217657141364  0.9997007868072904
  0.8014413240099072  0.6003077467551600  0.1978997879485619
