Zr Ti V  Cr W 
 1.0000000000000000
    15.4119853477336850    0.0092002105036784    0.0075686985216924
     0.0091978282521091   15.4168317070722267    0.0033033723005877
     0.0075647771218920    0.0033039266611125   15.4231482065347798
 Zr  Ti  V   Cr  W  
   1   3 110   3   7
Direct
  0.3991614648964415  0.2006443966939608  0.5986419610537480
  0.9996973101830088  0.2017456541724234  0.0038078540910404
  0.1781847039271981  0.3985046508715931  0.1944131519418200
  0.4005116954266804  0.9982261418454385  0.0081065229184869
  0.9997677741892117  0.9986617368031483  0.0005265026305816
  0.9991821201231291  0.9982909558755479  0.1999023741112348
  0.0008042256976057  0.9982198628580740  0.4000279672713343
  0.9986578335789511  0.9995635109772076  0.5995508491435063
  0.9998726854102491  0.9999608712997461  0.8003638467588182
  0.0001859062851592  0.1967368704850029  0.2012171540730713
  0.0034238821081675  0.2002059516235815  0.3983194285425969
  0.9972851470197517  0.1995249601450971  0.6003060190223315
  0.0006528010383013  0.1992080865258400  0.7998099736065142
  0.0003498431774853  0.4013519283549854  0.9969363899872844
  0.0022353470943852  0.4010370958649841  0.4006979944039258
  0.0017465818537218  0.4011702689659957  0.6002151608088608
  0.0001709349877803  0.4004266674626684  0.8000733119054800
  0.9994522814199462  0.5989385361376394  0.0010756639951140
  0.0007420179221171  0.6016377375499993  0.2005828174694206
  0.0006427330465742  0.5996108507768019  0.3987020298006194
  0.9983910767993825  0.5998732646337204  0.5990378234310969
  0.9992133980868800  0.6003329872169296  0.8001438979005803
  0.0006989309439718  0.7991047958330930  0.0003318453204770
  0.0011776364748073  0.7995243204220136  0.1998078556748384
  0.0033556415007867  0.7997368342934494  0.4000503200547913
  0.9997742225404102  0.7988201462429775  0.5989570875128997
  0.0043181806911610  0.7996202410989156  0.8002660815981043
  0.1985990158678901  0.0012503514617028  0.9995329282746476
  0.1995409642843076  0.9998491847583284  0.1985607099509687
  0.2006571408987498  0.0045590115499701  0.4009064938296766
  0.1986626942290013  0.0012334337737294  0.6005207243362674
  0.2003277391508817  0.9977079886276521  0.7993194735786032
  0.2055648200988823  0.2001114860104179  0.0004946847642480
  0.1999682181034027  0.1981222891448351  0.2036118209159453
  0.1942040388089931  0.2030103856726775  0.5965607294800623
  0.1998956299233950  0.1977136612510023  0.8012072034903551
  0.1996079881452507  0.3994330072882504  0.9946375589063708
  0.1999769910097303  0.3949681924995809  0.4070769046532472
  0.1999801497541360  0.3990198761924451  0.7956721047147051
  0.2022380994768792  0.5986425166766263  0.0001234081828367
  0.1992081807052054  0.6011339248982129  0.1992194554743084
  0.2051299678296497  0.5993580423833920  0.4001024240666006
  0.1996109661887385  0.5949908232327730  0.6001148771069246
  0.2008790660641459  0.6036063097174611  0.7994750425639313
  0.2008851965742491  0.7999928871169494  0.9953263243367546
  0.1996995269204450  0.8012154157740498  0.1980031518611509
  0.2032276034336923  0.8021430836885265  0.4012068173469805
  0.1998280644302577  0.7991290769576038  0.6037948565997157
  0.4003286908110692  0.9986607712280117  0.2020662950611308
  0.4011658611185130  0.9952277605813407  0.3991370993957902
  0.4018982737288209  0.9952222786839198  0.5992110125214216
  0.4002341609678243  0.9987405520815923  0.7983314923263457
  0.4041789025829839  0.2029633397202708  0.0021265017793321
  0.4000818764702333  0.2013833154757209  0.1989552105229502
  0.3971627158228044  0.1987339900074858  0.3929218123562533
  0.4001322888486631  0.1985855770087151  0.8048296634591825
  0.3989581351927814  0.4021548231350300  0.0012078253735663
  0.4019151355212530  0.4019419767876652  0.1995721483851259
  0.3994331107257889  0.4050942166440157  0.3971290731797860
  0.3955996845632601  0.4056271919557257  0.6013187344647992
  0.3987266843516409  0.4018326584877793  0.8008344955346026
  0.4016267326789025  0.5997949994775628  0.0021664947378931
  0.4006062227638952  0.5995048663584568  0.2037042947288524
  0.4054709219293574  0.6009491935776494  0.5953976400838766
  0.4006862668011020  0.6013446774914624  0.8007615031686236
  0.4004013099884611  0.7973420397214186  0.0022650448603112
  0.3992767929836769  0.8000924752541975  0.2025642704173737
  0.3995185760319027  0.7988159845523418  0.5958023576583158
  0.3954680689676079  0.8000991519565579  0.7999255806374076
  0.6024134389326707  0.0046596713537561  0.9993976365994185
  0.6013921306616385  0.0011250208038377  0.1996626841491335
  0.5999424780261667  0.0008137313536366  0.4007395556419771
  0.6024613380054975  0.9991614704359647  0.6004699515046540
  0.5998417388636027  0.0001479655898691  0.7994685112598630
  0.6008736926026838  0.1995777491194961  0.1962841444975588
  0.5999904722730136  0.2005682725029304  0.3981337052913322
  0.6008653668621429  0.2002029292573191  0.8035488469049223
  0.6004350663114646  0.3971614686360724  0.9979142402430811
  0.6021784501208670  0.3996833610157238  0.2007196897375610
  0.5981289830056397  0.3984960218788661  0.4006586426388158
  0.6019943232076320  0.4026882353767302  0.6004518973823443
  0.5988215273921865  0.3995524255587727  0.7993127408849130
  0.6001385237904127  0.5984625028395152  0.9993385575950393
  0.6017719157724839  0.6001452749219559  0.1992241786167381
  0.5978716649914406  0.5984510959745291  0.4035635876229948
  0.5994886437778701  0.6006672815439280  0.7968386110610678
  0.5989736987448033  0.8014852643818489  0.9987268399720068
  0.6005833281300427  0.8004754037647011  0.1990138897141119
  0.5958600556795500  0.8022862180405457  0.3998040331400742
  0.6006987391895964  0.7962648400108537  0.6015502522942474
  0.5980600891160546  0.8013882691296246  0.8007095194883191
  0.8009885005243982  0.0000253946248358  0.9997673139899044
  0.8010064151939383  0.9990245446783372  0.2003369381358102
  0.8001273839883498  0.9996067943652542  0.6001566724798976
  0.8011317833666509  0.9992851783312937  0.7994411740299958
  0.7949078063368211  0.2003591112124721  0.0002640393046476
  0.8020029970420460  0.2007277431628978  0.2013614164369652
  0.8007276792714459  0.1998748957041819  0.3996614209885987
  0.8010901412827657  0.2012773691330304  0.5985496268786653
  0.8012176556004902  0.1993553422812274  0.8000156913971320
  0.8013830011383782  0.4001584068145040  0.0000473568039995
  0.8012625336256348  0.4001317308907633  0.1990905804146534
  0.9000555338269270  0.3996186590565534  0.2992256528978669
  0.8019283988472470  0.3992988089307949  0.6002894049686655
  0.7988957562894332  0.5997428862827281  0.9998016631039436
  0.8006011612298287  0.5984936337307708  0.2012930069377913
  0.7994576795430669  0.6018123596487618  0.3991599000638835
  0.7968102617440175  0.5986444681084913  0.5984368908281880
  0.8004207927381172  0.6009410361117677  0.8005211945974779
  0.7998913305253882  0.7996822730507718  0.9996478173129539
  0.7998838988474591  0.8001990976094951  0.1998140485738416
  0.7996383501121017  0.8000006988167738  0.3993591189512878
  0.8004326615679015  0.7998282857072008  0.5998808506125145
  0.8015896544578586  0.8010599816252156  0.8005328220767184
  0.6039597199612757  0.2007115374076297  0.6009225171033423
  0.8001794036047984  0.0000944524490682  0.4000390709339492
  0.8004119126804321  0.4000701488776860  0.7994945819804512
  0.2027411664484223  0.1995985828211358  0.4008820541517046
  0.1996636956393003  0.3986151248107976  0.6022055671255888
  0.2001237121296045  0.8002725389109218  0.7988752007079046
  0.4011047215699621  0.6042329802230408  0.3990447221920177
  0.3983433050703719  0.7978908405094605  0.3987433696632479
  0.6003890514406540  0.2018834195247521  0.9996152312334990
  0.6015737714010984  0.5988983684805512  0.6012579478671207
