Zr Ti V  Cr W 
 1.0000000000000000
    15.4771126092992706   -0.0171409429028663   -0.0108832458615090
    -0.0171377985850307   15.4835452709138899    0.0089453070842751
    -0.0108770206815257    0.0089383803551370   15.5150560916889226
 Zr  Ti  V   Cr  W  
   9   1 107   6   1
Direct
  0.0003409693698246  0.0032612661931998  0.9962003205937637
  0.9876389900306242  0.3956238273193009  0.5934754028481616
  0.9953885019099215  0.7987849424353558  0.5957376339817149
  0.1706625518405888  0.0000719754301846  0.3739041829415257
  0.3947565627526214  0.9973322886559330  0.4015608349709851
  0.4029012501037930  0.2026889387672551  0.9985269218483708
  0.8054331818337963  0.4003300434630680  0.4161962272173674
  0.7827221698868374  0.3451777328537373  0.6207161524544416
  0.8041823764055254  0.6259677631858804  0.4091253558728278
  0.5971914198325153  0.8007955203560788  0.5982412455298762
  0.9839695364800045  0.9987978880154430  0.4032993023431786
  0.9990102462618173  0.0015469863062220  0.5990454470547516
  0.9994191457775643  0.9959700857306424  0.7951570720465264
  0.0012903341090017  0.2046265791132668  0.0028244756155396
  0.0013209648200422  0.2048250847637109  0.2012890450620132
  0.0038944064465594  0.1949573648802156  0.3985975953343303
  0.0031484638598576  0.1928628819031651  0.5966348508910092
  0.0019121387718870  0.4018586736764768  0.0041858692958214
  0.0100588771550952  0.3990717010265139  0.3883148069683907
  0.0000589836827904  0.4016537672447629  0.8044566552235900
  0.0010082967214867  0.6003478449319080  0.9999059073257875
  0.0014490176315207  0.5958908636969676  0.2008604940040511
  0.0066998231909998  0.5991313947379775  0.4002323410888719
  0.9992444540341481  0.5995308134687349  0.5991533297961742
  0.0013443785461509  0.5978551646281892  0.7980841326703517
  0.0007327975066684  0.7963937507312652  0.0023595616506278
  0.0001699882730693  0.7983046689454573  0.1995397173179814
  0.9982296268391002  0.8005284068155707  0.3942730321620455
  0.9992735270467349  0.7978120446182780  0.8015052808801861
  0.2050428118643035  0.9998842841145905  0.9930908316811063
  0.2052639298641915  0.9994877443690103  0.1828447940106842
  0.2007237171148459  0.0011614893508087  0.6050390167916189
  0.2003940966196719  0.9993252111785882  0.7982587290158426
  0.1977574771274055  0.2004656744278982  0.9971089618706347
  0.2022531225810880  0.1971287686072199  0.1991573368557543
  0.2033931803448160  0.2013269317481341  0.3993611507930183
  0.1997952766871886  0.1992298613613482  0.5982169667844741
  0.2010492376067561  0.4003156603518674  0.9978952425965765
  0.1985318139678642  0.3998402492126081  0.1973479235535390
  0.2030741494078019  0.4004814213526784  0.3992980113090979
  0.1995372545406541  0.3984969568176782  0.5994617751702629
  0.1975945821732963  0.3988240737298735  0.7985062874004597
  0.2018665590799181  0.6005299102302957  0.9979882117596452
  0.2019141548244173  0.6007337550857039  0.1989153774107021
  0.2017555585804970  0.6004571956363679  0.4003284854524848
  0.2006236145216277  0.5998162958974878  0.7986004119946741
  0.2007831268882079  0.7987224180988998  0.9984898439464358
  0.2005685282078829  0.8011603657886283  0.1988659075038777
  0.1985742255510086  0.7970306828958902  0.3992167167767112
  0.2017368946478408  0.8008345351454186  0.5983374414524730
  0.1996864378965826  0.7981256441828893  0.7993300210041426
  0.4034889351743855  0.9964574879321693  0.9972477723211443
  0.3995964449846129  0.0002051711952787  0.6048385592427092
  0.4013945533265627  0.9998331878159711  0.7999733942419531
  0.4015605297044133  0.2005421566606048  0.2030385486962210
  0.4007485507723998  0.2039406471482055  0.4010770293712012
  0.4001626524124523  0.2004395965025576  0.7955138762365537
  0.4005183695424785  0.4056886842119661  0.0002776442421326
  0.3994682712679822  0.4010717402220763  0.2003162882791754
  0.3990105815877497  0.4011889645920877  0.3990903799192005
  0.3961307545572136  0.4012451940955215  0.6008065423309918
  0.3993124679692532  0.4001902904317469  0.7999721465921498
  0.4016113478251200  0.6014212568727048  0.9996484434322664
  0.4004816802676669  0.5999041563914261  0.2004728609039683
  0.3999941058146428  0.6002790104776513  0.6005865159721216
  0.4005173322972934  0.5999685756602831  0.7987064978150819
  0.4009090835696515  0.7987692029890126  0.0000217141641380
  0.4008504043677762  0.7991376764439695  0.2000237944580554
  0.3999153238776798  0.7936700228180100  0.3995341668798030
  0.3982551715379877  0.7987529521563526  0.5995600962571632
  0.4000388091349346  0.7995295093994618  0.7994568451319901
  0.6012188058665365  0.9997048022604662  0.0010207351578388
  0.6008813239862379  0.0008748412257231  0.2003862292451646
  0.6002071517397503  0.0007920944619226  0.4014326097195385
  0.5987080316042070  0.0039692187522160  0.6013239968995989
  0.6005221620164256  0.0010957537680496  0.8010458605388613
  0.6061035647157260  0.2009647010859216  0.0013857471874188
  0.6018947781647549  0.2004487089739918  0.2020225237587310
  0.5997809196537502  0.2013676564793076  0.4019449334972346
  0.5985881071743812  0.2019195783329544  0.6005706683477322
  0.6019784562525280  0.2007019781785125  0.7994189940231624
  0.6016645863914032  0.4016336787595127  0.0023312405361443
  0.6025019311557774  0.4002121694457981  0.2021201097018782
  0.5969245765750142  0.4003305589364469  0.3995377971854069
  0.5875753277506124  0.3994208883753955  0.5988490569429922
  0.5995935480851102  0.3998943764793899  0.8020505783762468
  0.6008555229825043  0.6000544032066082  0.0008997252818460
  0.6012192452394632  0.5992801160841522  0.2017117269218222
  0.5986374965424498  0.5995124024000835  0.4013112564683111
  0.6001842864822963  0.5964111393902867  0.6004833115292189
  0.6001651773115334  0.5991553043085398  0.8006929413534770
  0.6006134592644520  0.7996361332799617  0.0017995707880386
  0.6006833089963426  0.8001730130083782  0.2003253538581232
  0.5993223264061917  0.7988491316221352  0.3975235161673378
  0.6003533005929201  0.7995697418561583  0.8030860804940728
  0.7977008228902439  0.9997837377713130  0.0036196354595077
  0.8011232889588893  0.0010688757721292  0.2015882671922511
  0.7952030418359965  0.0032618759811263  0.4026416143083871
  0.7981971567443310  0.0024551701447815  0.6036777305783705
  0.8000393736425994  0.0014334173386841  0.8007916888699542
  0.8023820838822440  0.1997587390445112  0.0006017935384755
  0.8016554694822576  0.2003280123524203  0.2028990993335243
  0.7995943321232872  0.1956265233467735  0.4003296469700179
  0.8681014248133608  0.1986458605124000  0.6696229805162880
  0.8003323057757131  0.2011204281023741  0.8027662491176253
  0.7998719552801898  0.4015673030192234  0.0038378691116449
  0.8051630349168581  0.4004330484685367  0.2000739324722730
  0.8032127392812958  0.3993519788873111  0.8141000725896947
  0.8004705181245962  0.6027495005971152  0.0002596152301886
  0.8012308319262174  0.6016076125864219  0.2009766468130200
  0.7982505449374923  0.6070574630699858  0.6097131853776731
  0.8008427910185110  0.6003457993748738  0.8019373032834842
  0.8001585044120640  0.8007919832227378  0.0015744950145813
  0.8009702517728743  0.8013730940587660  0.2014370940777838
  0.7966371954015740  0.8147845843098880  0.3991815864916233
  0.7922693514673834  0.8037552226504071  0.6024176110274932
  0.7992956891721655  0.8008871942563196  0.8032152867704762
  0.0007444924076345  0.0010844491823814  0.2031860643123162
  0.1981877191840438  0.1995208090693025  0.7978047286699208
  0.1998124016934809  0.5987230483671570  0.5994745736672306
  0.4020595437485672  0.9995848700132159  0.1953245640824316
  0.3988681550546993  0.2006394827884245  0.6000283228906774
  0.3996232673740545  0.5988719077161068  0.4008780567528253
  0.0013943279628124  0.3999150264904821  0.1981633458688116
