Zr Ti V  Cr W 
 1.0000000000000000
    15.3185418189025757   -0.0058579337440910    0.0011531853961578
    -0.0058580518235424   15.3152820885503385    0.0003427542276612
     0.0011540796390519    0.0003423374486165   15.3446139054441577
 Zr  Ti  V   Cr  W  
   1   2 101   1  19
Direct
  0.6012778171649650  0.9997516411421679  0.8015867505713057
  0.2009197843208782  0.7905936651649894  0.2099099354778586
  0.3979818002075323  0.8016718473584191  0.6080647758820732
  0.0015917506617008  0.0004504601305217  0.3956145682875966
  0.0023067896640185  0.0016127986016719  0.8033808460410196
  0.0040690079863299  0.1981478442172948  0.9981774506444935
  0.9986364268924346  0.1984699516183501  0.2010991294428125
  0.9998088840977551  0.2035425283634552  0.4009283412552754
  0.0036300985391778  0.2026773123596881  0.6005983028667462
  0.0000737801612938  0.2061603292907765  0.7990738854145401
  0.9998065492787029  0.3983412016058720  0.9938818281794362
  0.0023958860176898  0.3987506696731491  0.2056522713296964
  0.0032821704269912  0.6030587740873991  0.0004749203794018
  0.9961561609479166  0.6008599306777077  0.1986918703198557
  0.0001582691341480  0.5975006621757025  0.3992795138531788
  0.9992167850327579  0.5971488607516828  0.5987214627852480
  0.0005003991598591  0.5985968294955559  0.8003618347030669
  0.9998699912776808  0.8047461118595585  0.9981676303669672
  0.9992516825259643  0.8020990094949251  0.2011885742442266
  0.0020351016045501  0.8001607686895922  0.4016448441021743
  0.0006329516244450  0.7997175794224741  0.6005422790462217
  0.0009506280823216  0.7998627598696161  0.7986285489975925
  0.1954479114972788  0.0028321337594650  0.0031652702843736
  0.1955718647844233  0.0011731908698837  0.2023092002652304
  0.1991289985776123  0.9994992003439980  0.3977933807388722
  0.0648796401663770  0.0017804519646976  0.5990710249055374
  0.1964763000188683  0.0005702090776081  0.8042721643790546
  0.2008633601631495  0.2040156568370392  0.1953525024405956
  0.2033153610858153  0.1983018491502141  0.4060358501917172
  0.2044184429250197  0.2037500970896559  0.8028388215394192
  0.2034728215315978  0.3989076359933852  0.0012752390180951
  0.1986634309131318  0.4000362919263621  0.3944123012972827
  0.1975369505174541  0.3949278487470181  0.6055248753166530
  0.1981528529246318  0.5921996558719662  0.1954511600420758
  0.2006058175646085  0.5997885776210353  0.3981558853901752
  0.1981179606122825  0.5986313415687275  0.5976414360999884
  0.2002542728175776  0.5975160401579015  0.8073272004951303
  0.2056029321521929  0.7995593187782519  0.4070375236606454
  0.1962222859630766  0.7970571316185586  0.6021099018825041
  0.2047604891278727  0.8008264522808134  0.7989476024226342
  0.3970076350135684  0.0001018561612411  0.0010671272615592
  0.3976733748002705  0.0003080254542235  0.1983875447464409
  0.3990248857354444  0.9952111843520066  0.4009037585319346
  0.4034373791914951  0.0014120582608563  0.5990807242149409
  0.3922982179325799  0.0012611939087889  0.7978542986777331
  0.3963788640523593  0.2003093834178725  0.9925490840428719
  0.4000014130150302  0.1985114738346048  0.2003742188693858
  0.3998555327644697  0.1978694566971848  0.4016898712619609
  0.3966940061752577  0.1974263818409863  0.6047849624438826
  0.4008957860719907  0.4004754620601607  0.1947018307819624
  0.4025339621891783  0.4011244386030304  0.4023627766061530
  0.3994450008558966  0.3999233096908374  0.6028048004513960
  0.3945907556568601  0.5991338051086331  0.9994681003367862
  0.3987358278634049  0.6012271567979907  0.1979933306253413
  0.3999406287358678  0.6036156127433139  0.4006076607368169
  0.3984814114199253  0.5970105598841513  0.6001832594353752
  0.3998033145412183  0.6030983162338415  0.7978186997136478
  0.4024920357982164  0.8016098440606200  0.9965024203353617
  0.4022665879382004  0.7992703756736752  0.2004095437420246
  0.6009588346548440  0.9968917706479190  0.0084245858040006
  0.6027875120075190  0.0020148103254079  0.2022776719165498
  0.6004504727484978  0.0005427254687093  0.3969322698342815
  0.6034515299247617  0.0006916133613344  0.5935989818271231
  0.5992967022061931  0.1982244853173311  0.0002024271294261
  0.5996657762614860  0.2037735209760415  0.1993789119521740
  0.5981554462378986  0.2036257160196679  0.4000161087334725
  0.6007493602631347  0.2004683286143191  0.5989303623624231
  0.5944787852519372  0.2056289665951625  0.7994669158278260
  0.5951202171296903  0.4017840619475031  0.0041517047986599
  0.6017016504238435  0.3996826666702505  0.5955886910014487
  0.5972631234811061  0.4024695476558134  0.7995435596539243
  0.6012851720544967  0.6049432402418601  0.0015285849205524
  0.6043962235569840  0.5955065305544353  0.1999305591561783
  0.5994321618943897  0.5958702773899739  0.3987550436679829
  0.6028106474346495  0.5981392894107020  0.5977479952175060
  0.5998375791427532  0.5968033180643387  0.7999689645807240
  0.6002061581964675  0.7988222925212309  0.1952895932529973
  0.5943705726975419  0.7985567163775323  0.3996387175528970
  0.6021258108103701  0.7985213491620649  0.5994380474326634
  0.5951319174098136  0.7931819432834091  0.8037117726883167
  0.8034576469735378  0.0000297597118357  0.0006712574967553
  0.8044036708067351  0.0002733212482338  0.2009200748314617
  0.8006724494113286  0.9993441909166291  0.3991157178737667
  0.8038515613853550  0.0001582375372888  0.5990522178830218
  0.8060893612601285  0.0015014863197493  0.7992562074870525
  0.7981907175347650  0.2002103934736259  0.9984467676250515
  0.7996552212409570  0.2010398229401214  0.1977406499732132
  0.7989402713910352  0.1993338275248700  0.4004888259634873
  0.8002092982765493  0.1976885690134843  0.6013794689195094
  0.7981919127229538  0.2028894014853014  0.8000532589954249
  0.8010763402074375  0.4003891002663106  0.9991342278847740
  0.7981165935554837  0.4033396831299524  0.1987164228844780
  0.8007697120281949  0.4002422584507186  0.4006438900533892
  0.8030687384995483  0.4005085802492441  0.5997865063748006
  0.8027531784751721  0.4018863429887666  0.8000543684449513
  0.8026830883177913  0.6022858227644252  0.0027589448790771
  0.7997105778448252  0.6025634300260978  0.3947118919009944
  0.8004442261255914  0.6026447382048858  0.6001245746818737
  0.7998558735824458  0.5998822517630195  0.8014465682721243
  0.7945189280106931  0.8011291925094925  0.9981353323413288
  0.7990180167915116  0.7961689963966539  0.2009025899235454
  0.7972291919155760  0.7997032021027268  0.4009818823338175
  0.8002405052529755  0.8007055972266564  0.6005743365332809
  0.7990206144536701  0.7986429347701517  0.7994246096336155
  0.2009398427728395  0.7996337710637971  0.9994447878410657
  0.9986383912111734  0.0021961539552631  0.0029999190562432
  0.9995238783397076  0.0001003062672633  0.1975614645811736
  0.0005247127526513  0.4008036403421680  0.4036443754205039
  0.0008577597601655  0.4001800128149243  0.5999641626794928
  0.0046694820353069  0.4026158715382503  0.7955477434993845
  0.2006683551898661  0.1997494697332129  0.0007883996087574
  0.2006584183889892  0.2005515274973754  0.6024109800170742
  0.2000610295175312  0.3976396987532478  0.1990904199471948
  0.2013411830628571  0.4018178642968191  0.8013362010362073
  0.1984657317445847  0.5983092473542146  0.0028963855577004
  0.3990027816049427  0.2035419853517594  0.7982963674040316
  0.4003563922656414  0.4012953810090441  0.9946588067315528
  0.3966893785457329  0.3994061549071877  0.8022414484459119
  0.4007016584033439  0.7997905894840677  0.3951937142387481
  0.4016390014159676  0.8030523333947190  0.8024952478844217
  0.5996270741187181  0.4002723666734602  0.2025812984628918
  0.5992142199857617  0.3996525869352861  0.3973004643673499
  0.5983005157650049  0.8010483981005242  0.9996004349607051
  0.8012249414937596  0.6002385633306824  0.1980129084440914
