Ti V  Cr W 
 1.0000000000000000
    15.4603446293932016   -0.0041322082870834   -0.0012082850725322
    -0.0041323107289872   15.4623066666688764   -0.0009055477358807
    -0.0012084946887904   -0.0009048943237887   15.4540012347107183
 Ti  V   Cr  W  
   3  99  15   7
Direct
  0.9717299937018914  0.8061912521068411  0.9943723641091713
  0.5924726930327910  0.3956640007021846  0.9992198832855865
  0.8027357839704167  0.3941943863237864  0.9984973747778624
  0.9985480226433543  0.0011811665009487  0.0659241596647544
  0.0006214445069501  0.0005478304040740  0.2676005809642879
  0.0024120838750842  0.0007532078565811  0.5346239557146529
  0.0011972885054412  0.0686029617678696  0.9293823715372920
  0.9990666647676816  0.2016140633854210  0.2667288126863019
  0.9994834589796130  0.2003968042273931  0.4665818245367106
  0.9999841428446500  0.1994080854283414  0.6678122592320992
  0.9995871503405390  0.2672563388686703  0.8669283905396398
  0.0004351242687161  0.3995359737778780  0.0665902589819161
  0.0022612414470087  0.4015272205380341  0.2685069107711257
  0.0003817533631436  0.3994850618534794  0.4688012751796140
  0.0010832880887827  0.4000876708535860  0.6661005217707646
  0.0018633533780532  0.4676730780881961  0.8672415859632595
  0.0004592242921501  0.6007635823207191  0.1348304671224747
  0.0006688794193095  0.6009108378733241  0.5316177581785093
  0.0007043892859465  0.6664980191291006  0.6669164539401027
  0.0006785651060423  0.8001708190298492  0.5328792964760760
  0.0667917914108417  0.8666021683275319  0.8661213787017670
  0.1994443009189665  0.9993495488237683  0.0688475649883202
  0.1999894783474360  0.0011081930460681  0.0687375508409404
  0.2007300611998593  0.0664657229612962  0.8680603233930740
  0.2004704463202642  0.2000453114927758  0.0667905299490500
  0.2006277758783520  0.2011128435211179  0.2658093843836459
  0.2009606283764877  0.1966513525526301  0.4671394717483947
  0.2009232811961069  0.2013360929664440  0.6673696320658388
  0.2012338098775378  0.2671838923455773  0.6675110601351085
  0.2008734331930906  0.3999315987811116  0.4652322323062766
  0.1999437773595083  0.4011287490417832  0.6656824753757370
  0.1994280395023335  0.4655598691702286  0.9313154603025785
  0.1983241005296389  0.5985157941517433  0.2648219985395575
  0.2010833814086002  0.6020476869483092  0.5355346859480205
  0.2002816547272648  0.6666222665774978  0.8699460764747512
  0.2040811998647661  0.8000759740537262  0.0679007288795240
  0.2010640688655962  0.8019681185104991  0.2672535304956321
  0.2019738025523415  0.8019688982475036  0.4675795633877886
  0.2017050570253132  0.7991323021651169  0.6667221879174536
  0.2676844319873452  0.8677681945172960  0.8669000578338711
  0.4029002647580084  0.0009459699408061  0.0673374642025957
  0.4008362178165136  0.0003214451924134  0.3340604183005124
  0.4011521176292262  0.0006617409951947  0.6669423545319899
  0.3995873744651822  0.0671108648586540  0.8667187694728745
  0.3997591490463900  0.1993492667710676  0.1342387992229153
  0.4009465706146302  0.1994879045638283  0.4677360758968082
  0.4003090348356831  0.2002299725058260  0.6671623352690983
  0.3996697895218413  0.2674261341372638  0.8668508428191672
  0.3977701513650836  0.3995777443003152  0.0674532004464345
  0.3976952958312946  0.3996607884399844  0.2678423038859817
  0.4000309876899913  0.3991726392169456  0.4673629569598941
  0.3992322821357234  0.3996753438793256  0.6667950469677946
  0.3984400061584401  0.4673243833101314  0.8671194870266441
  0.3978130359931840  0.5998332914525079  0.0665988160546259
  0.4009440144862860  0.5998518148940344  0.2664225376319453
  0.4005796869385724  0.6670260707175667  0.2664486364346356
  0.4011606341308671  0.8005589459136224  0.0671077177267336
  0.4008042797031334  0.7988590807283165  0.2678952286517686
  0.4006590187884443  0.8006332515125341  0.4667484001417034
  0.4004979634136127  0.8011115183092363  0.6665699107315903
  0.4672863495360158  0.8670928709869932  0.9316235371158434
  0.6006693689546596  0.9999458322864077  0.2656704085286559
  0.6009743288227846  0.9997834487262076  0.4671294222436885
  0.6014944765928102  0.9992006389561877  0.6685414881715815
  0.5994237461306000  0.0649449334464229  0.8690051536970324
  0.5997811896291203  0.1954886593065002  0.0672025115013572
  0.6000546362466346  0.2004560558871658  0.3341866022697928
  0.6005328391618329  0.2005341143875677  0.6674684242135668
  0.6005817962933012  0.2671040299722761  0.9337195673462018
  0.5998249561731527  0.3999544804861113  0.2667079547416121
  0.5991893040198194  0.4009807819113805  0.4660270044422928
  0.5995659198070434  0.4037171641201244  0.6662267055962477
  0.6002698190428227  0.4669671398888998  0.9329284225477634
  0.6015417824384993  0.6000041996579734  0.2669408308107202
  0.6003081542205118  0.6001966222786204  0.5343231005779766
  0.5998928238916943  0.6680627247251075  0.8649771351932125
  0.5984124565368669  0.8015087149799799  0.0672423561010962
  0.6010765697240489  0.7996890800988636  0.2664899320172299
  0.6004930830101314  0.7995738760704413  0.4655428814588952
  0.6003617434795401  0.7974642800936151  0.6658267204900207
  0.6671742139668275  0.8656674961797873  0.8681095462028081
  0.7991382501227620  0.0032451031479660  0.0671497180970799
  0.8009315169589535  0.0010156890548383  0.2669792958427137
  0.8012836052410151  0.0001344036848876  0.4658929207189942
  0.8022574982048278  0.0009817508933758  0.6668816811354817
  0.8664905412822278  0.0013882989840291  0.8671698131046388
  0.8001376985056360  0.1998682703797082  0.0682523078737305
  0.8003082789445818  0.2016163191369604  0.2673344263153581
  0.7985059509016401  0.2008873061415328  0.4665470681954220
  0.7983497335235777  0.2021517328227535  0.6663039798059013
  0.8001170470720373  0.2676308746259573  0.6668558748191229
  0.8005077676535646  0.3998151631462022  0.4666472094931255
  0.8010689953906521  0.4001850034674188  0.6661760702185265
  0.7997049537670199  0.4671789864800334  0.8659200830276670
  0.7999593147040081  0.6004802077816520  0.0664014478416909
  0.8022900699436147  0.5995346003093537  0.2648124135799755
  0.8009641895759743  0.6002982108990715  0.4656038208221029
  0.8006565798313956  0.6004636186157583  0.6666241885476586
  0.8000809731924091  0.6673026399278722  0.8684245937524105
  0.8003728099701706  0.8011194923741315  0.3979260596976893
  0.8012488220147118  0.8002270686036022  0.5991847820086040
  0.8001923003008709  0.7996851459462198  0.7971745505924471
  0.0009265975294504  0.1994106118991116  0.0002331910209437
  0.0005767836362092  0.6007045832209360  0.5996457427705155
  0.9997078726069337  0.8008319179099326  0.2016470061001654
  0.0015718669478637  0.8008147002031465  0.5993408511966484
  0.2006425360543201  0.9998142186703640  0.5996256118294245
  0.1990435616371614  0.4001886473502019  0.0003900361885376
  0.2000228473906529  0.6002774181341696  0.6013040156974379
  0.4001805322568351  0.0002219546278596  0.4008756616173823
  0.4004125294708507  0.2001835961399062  0.2009632697198776
  0.4006902268673161  0.6002514026461440  0.6009155541087522
  0.4000686223627511  0.6002165780642829  0.8001406373638549
  0.5997837471485273  0.1994966612041855  0.4005284164511503
  0.5982354575937595  0.6039291129425122  0.9990033423415134
  0.8007792268067950  0.3995370938772578  0.2026304141680839
  0.8002943682866360  0.8000987246278430  0.1996667500184064
  0.9968642736050531  0.0042035738408728  0.5997882860647812
  0.0011963128697507  0.5987761996696271  0.1998241078889800
  0.1965903732108972  0.9993592410078737  0.3955299840595161
  0.1996659103190686  0.3994959609619640  0.2042484261162100
  0.1963551287030371  0.6069701852076607  0.0021189973183204
  0.6018417065895710  0.9981151877262351  0.0017605610720120
  0.6049240060103482  0.6005330391663887  0.5992589153954232
