Zr Ti V  Cr W 
 1.0000000000000000
    15.5203045776677033    0.0123623473933798    0.0020430338638102
     0.0123621989531639   15.5305412365208202   -0.0005354779444938
     0.0020440238761689   -0.0005334620644981   15.5220072543039933
 Zr  Ti  V   Cr  W  
   5   2 106  10   1
Direct
  0.9829131122369158  0.7989660071044078  0.6007678488649523
  0.2001939757377362  0.5997820024484285  0.9938693436334038
  0.2009080986600143  0.5969789052352703  0.4030730338408713
  0.3769833997199639  0.2058552948571012  0.8056643744464944
  0.6001689787742777  0.1990869490423655  0.7979864520495916
  0.5986274177313107  0.1976767017063571  0.5884836995727039
  0.6006002703864807  0.5989163717125869  0.2004958582446782
  0.0002162224460847  0.0014929025173856  0.9997481952563365
  0.0007257341035132  0.9995461959747938  0.2000733854276745
  0.0001828117083240  0.9996519916019408  0.3997316620641412
  0.0008008066198444  0.0036599005535518  0.5993724342522669
  0.9997984087573881  0.2001382483653660  0.0006738388839068
  0.0006249305163553  0.2004259248911173  0.1990848722269594
  0.0006327882533585  0.1992439021937743  0.3991043452960567
  0.0014085319342483  0.2004343525517590  0.5992202839173524
  0.9980999627292026  0.2003252728318908  0.8008302789724197
  0.9994897143948096  0.3984544223794190  0.9998466820122341
  0.9983172737091928  0.3986932270631330  0.3989865292422317
  0.0017453934273421  0.3977247149065931  0.6003033157376654
  0.9997384502193589  0.4009891175161701  0.8000881921749323
  0.9959692486491197  0.5987239747221602  0.0001522466915589
  0.0004220139987767  0.5994200293456516  0.1995837733928414
  0.9968070063729254  0.5998478673033031  0.3993174577996837
  0.9998779637208433  0.5949746886738541  0.5995836887999115
  0.0001946903008022  0.5985569827771966  0.8004252428523669
  0.0002431754238927  0.8008005684251833  0.0020624066461582
  0.0010949956620379  0.7998201663809127  0.1990795765959856
  0.0017048483616761  0.8011355438886991  0.3955128564282207
  0.0016776561892129  0.7997452534631980  0.8048212882744938
  0.2011648082718015  0.0015339414366524  0.9992546140623629
  0.2009184505631689  0.0006711419821450  0.1993734496017205
  0.2011406142575616  0.0010663133026541  0.4001107953767085
  0.2003194789339070  0.9998831083556557  0.7991900267259595
  0.1998280413872456  0.1988380924710760  0.9996005963968910
  0.2002547392807993  0.1999203000142459  0.2000387488576942
  0.1994710131430034  0.1980969975110528  0.3993148787463809
  0.2011432822656000  0.1987735859741720  0.5993327124453327
  0.1869530815218388  0.1979929630943384  0.7981216506561184
  0.2011784512052051  0.3947605892196947  0.9988702238324026
  0.1982578437738406  0.3973223972128793  0.1988179451813181
  0.2003388681200643  0.3936615202983474  0.4003239483384032
  0.2008658130914998  0.3978835268566558  0.6000841663529625
  0.2005763138635610  0.3978447527761593  0.7983670049425394
  0.2009249396423644  0.6009475447547868  0.1991125335634437
  0.2011661185671841  0.5988008776534000  0.6031995751382386
  0.2004931597826893  0.6001922547981525  0.7949871941525362
  0.2016675368252504  0.8058464681852737  0.9990199853759872
  0.2003149290887760  0.8022202391663228  0.1994355883728886
  0.1973159600139904  0.8010819204601259  0.6007268818381282
  0.1992542491501555  0.8018390033706547  0.7988453880419784
  0.4022560355421953  0.0016811436696949  0.0004976516036097
  0.4001083403369796  0.0009427585361423  0.2002394258854583
  0.4004711106224919  0.0002814208668143  0.4001258831824387
  0.4000084147502411  0.9998400087937643  0.6006269593804167
  0.4002825116936517  0.9979300397741461  0.8002589251828449
  0.4020550370898430  0.2011571980896434  0.0082456912258488
  0.3991677641484586  0.2025794826910009  0.2015749543992690
  0.4000031352888423  0.2008683468167324  0.3983970885928564
  0.3995976035555809  0.2016988490872451  0.5970035903658820
  0.4024929162738433  0.3998278737882067  0.9996952509769643
  0.4003695586075558  0.4061814792679905  0.2002277583759153
  0.4025100573258003  0.3988356663063579  0.4000006258674002
  0.4010334306706767  0.4023755547311774  0.5993639860705087
  0.4021346944804139  0.4082182711590308  0.8006590779196162
  0.4062786447229077  0.6013464825024337  0.0067390887515095
  0.4063136752040660  0.6012339109195841  0.3943675056704011
  0.4011985021904111  0.6007728773543665  0.5983911197540213
  0.4008629926565068  0.6027860362553500  0.8002559710030138
  0.4019500214617384  0.8016398265399484  0.0001779979776357
  0.4015108478094034  0.8021122681993492  0.4001044076759089
  0.3989037291990597  0.7994037038605967  0.5990355356661614
  0.3996991532872750  0.7994787308879563  0.8000788165814711
  0.6008333491285877  0.0009610462460411  0.0000932352261581
  0.6002154093436357  0.0004874093869522  0.2005268045878405
  0.6010964879744951  0.9990193069716119  0.4007669938600031
  0.6012508328509221  0.9930870844673410  0.7985883913020503
  0.6000572913986136  0.2008006338856017  0.2011467219028238
  0.6010918988349020  0.1998745259248083  0.3961079588248306
  0.6011590086534774  0.4002847603923589  0.0001988874162855
  0.6004506364202895  0.3979795808301553  0.1999803817287013
  0.6013171937739198  0.4000019414979973  0.4005865731740173
  0.6018677566502283  0.4060158389553487  0.7998470668065816
  0.6019320933411660  0.6005716215177828  0.9975010569582885
  0.6023233086594101  0.6023171098899400  0.4034089031237615
  0.6019339747940159  0.6023497726738273  0.5995016749247640
  0.6013794505104382  0.6026100030481790  0.7989185492354333
  0.6000722439010228  0.8010901732981508  0.0011054308733123
  0.6000180735544071  0.8030033456253221  0.2002343177640454
  0.6018990445644969  0.8009282256655018  0.4001456653548607
  0.6023519122702270  0.7989222480618502  0.7995444345621120
  0.8006394308985897  0.0009644588488467  0.9992189460242223
  0.8007965456148629  0.0015871699086161  0.1988892714876003
  0.8006940991331021  0.9993107819299307  0.4007464108398976
  0.8015923455266288  0.0030135309555528  0.6002790163460556
  0.8008889163113847  0.9983026026312877  0.7988103330116189
  0.8004970848814585  0.2005325432808724  0.0010250777865135
  0.8010097771110626  0.2005064209050273  0.1997430740738477
  0.8014338763952112  0.2010241913523662  0.3979409780642220
  0.8013729942818827  0.2010653449737174  0.5990204152168506
  0.8043277559089294  0.2006761290769804  0.8003816905417641
  0.7998830641432328  0.4002741913858018  0.1995272269225629
  0.8000372870165505  0.3993046938610500  0.3996236155279712
  0.8001449826934286  0.3995477448419077  0.6000327230055097
  0.8004955000274347  0.4005082504596612  0.8004518574590542
  0.7998891712082805  0.5989743046550121  0.0001363183820635
  0.8024072067688337  0.5992601203000736  0.1990307962638799
  0.7999793811201587  0.6000768736130455  0.3999844508789923
  0.8005934899822391  0.5956894428228594  0.5992460311919243
  0.8008233588772516  0.6021478321345666  0.7979370022742364
  0.7997615847775942  0.8006855889648428  0.0015181509993007
  0.8002350808656008  0.7997344457008376  0.1999982603016278
  0.6019708966683106  0.9958344246498876  0.5991711954083405
  0.8024305473769466  0.8006375209715906  0.8058561475914519
  0.0006263099777147  0.0001704534026985  0.8003995452212335
  0.9997022487239658  0.3994562969951808  0.1995495024201520
  0.1993439120759302  0.9995647951685606  0.5997069977242816
  0.2011228347751964  0.8037217365591885  0.4000078564603152
  0.4000768909592200  0.8003110206552373  0.2003167446532318
  0.6013327614451883  0.2006207181488245  0.0048370226481906
  0.6004117981757428  0.4034992384683208  0.5991750064465411
  0.6018448125652071  0.7997184730301868  0.5998846254629026
  0.7997586743975106  0.3996987700388243  0.9999871039219508
  0.7997454344558558  0.8001791452014368  0.3967450441873406
  0.3926999404321894  0.5983365205517218  0.2006634936932038
