Ti V  Cr W 
 1.0000000000000000
    15.3720038313806135    0.0023998420144863    0.0001449001601191
     0.0024007571799185   15.3633006247875361   -0.0006442210894229
     0.0001450310074229   -0.0006449824026597   15.3697544548857330
 Ti  V   Cr  W  
  15 105   1   3
Direct
  0.0025614021179259  0.3933148429989725  0.6015677450415594
  0.9914823750466911  0.7995029430350299  0.2036785930920647
  0.0082551609806992  0.7977021842561824  0.6018615682594671
  0.2022364487229324  0.2022695392296949  0.4020643661398355
  0.1951668202140323  0.2050412974661154  0.6117729590448566
  0.1975256719049125  0.3980650217580467  0.2026206693556977
  0.2029267493818814  0.7989765858936220  0.2006480048629400
  0.3968045986792197  0.0006492682113063  0.8004737918957823
  0.4024296142682972  0.6029733326959351  0.8004131384417014
  0.6004848841957737  0.9952485953655129  0.0015254639293116
  0.7922339678295736  0.1977728700297831  0.7958176906187050
  0.7996594403125435  0.4037837315782693  0.1926623258107439
  0.8014721579931040  0.5935135930239612  0.0030776403239911
  0.8062859091334820  0.7978303866195848  0.3916940148360549
  0.7973778074253777  0.7963345821333830  0.6043019797844640
  0.9990263026924823  0.0008098432722832  0.0007234118929520
  0.9990054024194441  0.0012504968691083  0.2012188163017378
  0.9979689807608856  0.9997875366771359  0.4000766662950194
  0.9982445977219078  0.9995689020148527  0.5983238702481294
  0.9995784201987785  0.0002537877888784  0.7988647968297600
  0.0008878648202275  0.1995460359858592  0.9984619317078430
  0.9993687754605983  0.1996468900634497  0.2015897469084161
  0.9983059824030927  0.1961953740700742  0.5978959189167821
  0.0099340002148684  0.1991032922151714  0.7987585644860802
  0.9961131526654979  0.3991637721680060  0.9999537171707366
  0.0005827134649834  0.3990497628213858  0.2001468539463566
  0.9999794558379733  0.3982130615517910  0.3967765834305196
  0.0006608959335286  0.3984486757860102  0.8015742554228675
  0.0026789862605636  0.5999280587217637  0.0016046213193437
  0.9995166000469285  0.5973818652173840  0.2012091892417743
  0.9997097197627943  0.5988778229090517  0.4003387827439658
  0.0000980904861769  0.5984589267423530  0.5985534033201835
  0.9987759296310081  0.6008730125467222  0.7991088394160619
  0.9997045348640522  0.7992824804456596  0.9997400928263183
  0.0029893656081375  0.7994624833643663  0.4009829660845858
  0.9988678408533748  0.8002234664907675  0.8025989678763247
  0.1981238566236352  0.0004611312153022  0.9985692945505438
  0.1978789984555105  0.0005845533032856  0.2018658385298409
  0.1992721745461622  0.9990743589399287  0.4014784223300864
  0.1986614538884215  0.9996370554212440  0.6002254204673239
  0.1971855970921828  0.9979591899130422  0.7994875685250309
  0.2000207397767473  0.1976957880629968  0.1998748867553091
  0.2000373261572484  0.2003744325160158  0.9685875072167068
  0.1991322824084230  0.3987746505519525  0.9959344396406640
  0.1992282705537777  0.4026703339017937  0.4054327061376840
  0.2029042887274784  0.4033110859956147  0.6020565433187635
  0.2000027846473106  0.4038673922735448  0.7994861427680003
  0.1991751685982461  0.5992323805361497  0.0008116265357350
  0.1990536232783493  0.5999498731929482  0.2015952320159194
  0.1984164080115521  0.6009791881767990  0.4004475491591906
  0.1996667151908415  0.6018443400648289  0.6003303901153232
  0.1971053898973973  0.6004771848612500  0.7997173427013818
  0.1992354303261024  0.7995271622368854  0.9990757807364873
  0.2004469140949585  0.8003357196496054  0.4035437204974494
  0.2044270029461685  0.7999634861149721  0.6019413578550308
  0.2000758169776603  0.7996823472486431  0.8007742375391240
  0.3965936860962111  0.0001327896060328  0.0032769259431327
  0.3984593370880983  0.0003117409290601  0.2006255452690386
  0.4026470167267053  0.9997900129815841  0.3993643540699783
  0.3985306852597556  0.0004865598077008  0.5968389842668809
  0.3995166380375857  0.1998712441447261  0.9986283047985761
  0.3997511947393090  0.2004277617498136  0.1984000320502529
  0.4018978720400154  0.2008566284501762  0.4004841891019201
  0.3987584825315597  0.2008446635893400  0.6008594214279460
  0.4046678329009261  0.2016923734425097  0.8000604356930182
  0.3995537827458846  0.4005805192701480  0.0002964558053967
  0.4017091299917462  0.3997301550204057  0.1997625587171992
  0.4004810470167746  0.4003462302338799  0.3992459391285796
  0.4012350355481424  0.4016938276200896  0.5992918794788268
  0.3994560650449104  0.3984270246072505  0.8003633352413485
  0.3991176459061113  0.5988624447976691  0.0031677733251492
  0.3995685753129475  0.5998884593244325  0.2008988566661100
  0.3994694969622182  0.6003725295096491  0.3990578072531886
  0.4005712112372583  0.6003565128907508  0.5968918914268889
  0.3993293501834642  0.7993753087975531  0.0000524425187238
  0.4012188333599661  0.7997513081724834  0.1992482461520544
  0.3994216076985503  0.7996845710785581  0.3989163634938384
  0.4003843024470026  0.7995677469577960  0.6009940452021817
  0.4012575960001145  0.8011857089229748  0.8007498444798441
  0.5998446871728150  0.9993860740893008  0.2053281339050015
  0.6001900746929492  0.0000265541850479  0.5948959359691747
  0.6034010346586153  0.0039920746882335  0.7952196102336651
  0.6000405264197681  0.2011509623477696  0.9956479520407470
  0.5994692629885423  0.1996868622893672  0.1981481276183898
  0.6006050006444303  0.1971164999615991  0.4008269246028537
  0.6009155502202036  0.2005065428392490  0.6030475237549832
  0.6040634364820425  0.4009408429279165  0.9994215372210223
  0.5978594967919403  0.4007071029849322  0.1999389545204924
  0.6010587245640769  0.3987336884196171  0.3999991287830716
  0.6004407509626083  0.4007550240268843  0.5997225759824645
  0.6010222410592588  0.3975447437414683  0.7990877801604900
  0.5970434509585058  0.6000150460008150  0.9995813629767714
  0.6002750816727185  0.6012981755682621  0.2015910124371224
  0.6016046912846902  0.6018129929612812  0.4000467692966120
  0.6006222159502064  0.6006061772584719  0.5988922793046291
  0.6032121453786035  0.6006823006065595  0.7988933235974651
  0.5995263173956018  0.7974959320075075  0.9983587100023329
  0.5987330865558588  0.8003051125913802  0.1977359881593541
  0.5988398982708838  0.8043136519872158  0.3997757250385715
  0.5985766207439007  0.8005027983405135  0.6001130959983846
  0.6003610411497157  0.8028531104130713  0.7998841583602418
  0.8024277209388930  0.9995037115619529  0.9999518473881458
  0.7995148689484289  0.0001234448032267  0.1990195965498654
  0.7962765247592342  0.0015525950460724  0.3987965424523529
  0.8012208322385113  0.9997468251042357  0.5977995970446118
  0.8011457989493821  0.9978466637441614  0.7987946719786669
  0.8008518442305976  0.2023601981965783  0.0007216567612227
  0.7991228622619445  0.1986953889665312  0.1981086641498398
  0.7997091236194723  0.2016606482256214  0.3975211074091807
  0.8011484060589635  0.2014145542842065  0.5969881571685280
  0.8003450217837037  0.4000204871457523  0.4000359918357184
  0.7997154428624581  0.3998325328572630  0.5999245286692497
  0.8011630184492772  0.4029798026391236  0.8011120937676226
  0.7992194772944248  0.6037286683189831  0.2031234408158945
  0.8013501382128406  0.5969880451993071  0.4001569710980913
  0.8011930860471541  0.5974015271291579  0.5991970267954517
  0.8009186835794456  0.6008964020304426  0.7975876699425489
  0.7989047407720422  0.7998343903025985  0.9987049078452079
  0.7954515342982756  0.7998748942346736  0.1939659740962576
  0.7998836969849001  0.7992808794779555  0.8027348946137969
  0.9969785112479526  0.1995260458311194  0.3999139862283420
  0.6000676136374110  0.0009794031939963  0.3997561493892302
  0.5976827479401149  0.2001866721111905  0.7984233449843857
  0.8004881153217269  0.3983585263253538  0.9957123907326608
