Zr Ti V  Cr W 
 1.0000000000000000
    15.3185418189025757   -0.0058579337440910    0.0011531853961578
    -0.0058580518235424   15.3152820885503385    0.0003427542276612
     0.0011540796390519    0.0003423374486165   15.3446139054441577
 Zr  Ti  V   Cr  W  
   1   2 102   1  18
Direct
  0.6020989110933880  0.9993609620372140  0.7994771657703631
  0.1991177815017104  0.7941707168351326  0.2107825759063602
  0.3993661007971992  0.7999434325640585  0.6099689389584041
  0.0000983304019237  0.0005060091550757  0.3963297616145804
  0.9992897558931633  0.0020221638696400  0.5983655639818104
  0.0022986488615755  0.0024560643726188  0.7994001740944058
  0.0022601896886458  0.2024234726452180  0.9983242935122476
  0.9999038002536424  0.1995912912695456  0.1990873457469519
  0.9997515517297392  0.2054056631072003  0.4004765578439100
  0.0042106513314775  0.2034329606583540  0.5995042318197801
  0.0023181471123775  0.2057327075377240  0.8005756557377617
  0.0009837775080290  0.3986852159224556  0.9951923518045130
  0.0029309585836306  0.3988370514173235  0.2058084081944763
  0.0016215435499569  0.6040150120870176  0.0003839601022860
  0.9956568647498283  0.5999701976410718  0.1994110794786386
  0.9998243134389247  0.5977516271283518  0.3999752916409988
  0.9989276935606962  0.5977126812614845  0.5987711482905569
  0.9999815396621279  0.5977886124030433  0.7995440293501692
  0.9990686057063274  0.8019141779377574  0.9985345658806364
  0.9989832517715421  0.8026022354438824  0.2009160659442383
  0.0028380538062345  0.7992483543591904  0.4017508940505236
  0.0000492103687051  0.7997124750919749  0.6004599540341706
  0.0012037222317759  0.8012959237986089  0.7998024570097180
  0.2003669733832291  0.9939498400649228  0.0023577775764538
  0.1959062634848102  0.0022177604041832  0.2013604275703883
  0.2001843561391582  0.9996342394475427  0.3994480433235467
  0.1960844340669111  0.0040962846669348  0.5979800674625684
  0.1971818870380717  0.0010554550558577  0.8016986908774102
  0.2008830813310067  0.2029579768425265  0.1970673207391243
  0.2035123762560451  0.1998452050768102  0.4048226511926197
  0.2048976955242468  0.2032766910858695  0.7981765053208570
  0.2025966580374569  0.4131881100067561  0.0011668729364044
  0.1986281450383862  0.4006459089785801  0.3945307325323590
  0.1972435083183147  0.3964856107298245  0.6052859685582450
  0.1981090850254432  0.5942959776041370  0.1969170511577820
  0.2005783469100580  0.6001404105186914  0.3989937452064215
  0.1980416594390193  0.5996856037564047  0.5981366218416264
  0.2000859035948667  0.5984355132516989  0.8051644656071424
  0.2057524851434397  0.7990612787185011  0.4052751798852598
  0.1970357530493967  0.8000549311116282  0.6017435389710003
  0.2053561305107749  0.7997327413464914  0.7988951988796943
  0.3980613000074618  0.9999655881066412  0.0010561354519421
  0.3985093355869065  0.0008500651455423  0.1989447424183794
  0.4004214809353117  0.9951148395340679  0.3998429829959774
  0.3991802663424787  0.0013824579094373  0.5991881012962865
  0.3948286214055798  0.0010014074636076  0.7991223332534960
  0.3978559359760192  0.2001738108457390  0.9934120401668987
  0.3992846100027531  0.1985106933736947  0.1987397495150192
  0.4000826882803364  0.1980402140794029  0.4020834778082660
  0.3965951551144449  0.1984677212003029  0.6045585254972147
  0.4000217978629042  0.3991977374227500  0.1952521971192192
  0.4024396389296840  0.4015515175382324  0.4023170339799731
  0.3989258696866084  0.4004799166403314  0.6027088832754559
  0.3956003314899172  0.5997729803921172  0.9991034484784117
  0.3990097404610186  0.6011751533100733  0.1983330994990024
  0.3997195606350200  0.6038259831916594  0.4007589817998684
  0.3984892232331027  0.5972532991373750  0.5999717433597381
  0.3999057337181006  0.6027000012355179  0.7971860074550267
  0.4042455184194135  0.8003974136212131  0.9964680593534260
  0.4024956858223053  0.7995714959313350  0.2002152977890435
  0.6011558249440189  0.9957213533076674  0.0079798968655223
  0.6023349456230270  0.0018852242774929  0.2029869550386492
  0.6000264989749146  0.0005301753899005  0.3977038145643721
  0.6019737079246908  0.0006621412596233  0.5929537417853824
  0.5995408918924047  0.1977578295829896  0.9999766256919130
  0.5999851906785167  0.2035593542881093  0.1995936172041371
  0.5981706447091196  0.2037803988439544  0.4001880966473228
  0.6001908171794582  0.2004836738252984  0.5988191921494020
  0.5955088437596459  0.2054075864502840  0.7992749365097590
  0.5932717371582586  0.4011587843737735  0.0042994135585388
  0.6012772272021549  0.3997726273510862  0.5958116976781466
  0.5968144056156078  0.4024245775506712  0.7990013255930909
  0.5998416948756007  0.6036257704468038  0.0013978852731054
  0.6041339017274133  0.5949671870812117  0.2003255347490033
  0.5992785977881617  0.5959277695430222  0.3992534705715087
  0.6024274982448083  0.5983383055548467  0.5975081743893802
  0.5999582833137715  0.5964587390632159  0.7993890160617303
  0.6006871284455673  0.7987631105256140  0.1958074767313990
  0.5944227029481953  0.7983362159955530  0.4002109588942858
  0.6018866329005808  0.7985330063760842  0.5996360528664819
  0.5962459929369185  0.7927720681605658  0.8038000295623429
  0.7994741561263679  0.9989645785934734  0.0006763719081782
  0.8044029332810910  0.0001882384090652  0.2004982093112387
  0.7994499704364151  0.9992901892962327  0.3993822505254083
  0.8025973404493668  0.0003362181193842  0.5990858204840904
  0.8075036317157799  0.0013083201858002  0.8008403190352090
  0.8005244319920609  0.1983249752256117  0.9985992949502102
  0.7999491243546646  0.2002353148809725  0.1978147799570041
  0.7989343366373861  0.1994830657489519  0.4003370384543014
  0.7999923365144289  0.1982097975738982  0.6014870440265321
  0.7984272225291623  0.2019225671173194  0.7999394547783392
  0.7996474941829416  0.4005027891106024  0.9992627054573288
  0.7976507197483735  0.4028386058803710  0.1987099525275600
  0.8004380081164092  0.4006194842787261  0.4009510972188765
  0.8029896994204591  0.4002951440548438  0.6002228843129674
  0.8028551829050781  0.4011072811224556  0.8006923218106181
  0.8008694236390870  0.6014312858962102  0.0030327293887486
  0.7993434746121940  0.6028358038309045  0.3952691476877899
  0.8000357701890444  0.6028293573553067  0.6003017112335333
  0.7997878402633481  0.5996261749123275  0.8012562196744730
  0.7956733872960822  0.8011302705885420  0.9987798578410898
  0.7994986948262955  0.7962628980023105  0.2012828432178654
  0.7971014734454782  0.7999355074708846  0.4013281342219611
  0.7999268911321079  0.8007450652984686  0.6009678410926124
  0.7994510907523324  0.7988545506706277  0.7998283543768135
  0.2011318826499821  0.7995742134561079  0.9993491908306364
  0.0002157793196442  0.0009820056548315  0.2023681518825954
  0.0000319530643063  0.4017840413730838  0.4040036319645301
  0.0008956770599513  0.4005001273981498  0.6004533434515188
  0.0047328897623810  0.4018857975841106  0.7960176687151627
  0.1326091676378778  0.1209000141714509  0.9994109172985691
  0.2007810647224339  0.1989801462600163  0.6012369674399093
  0.2001922412098122  0.3976336045920421  0.1981839339540234
  0.2016364807049554  0.4009904484339403  0.8020741701382504
  0.1982163557719483  0.6030843879371112  0.0024216889187171
  0.3999364356490752  0.2026492565916495  0.7986468587959427
  0.3971851317406139  0.3992871740055355  0.9950229485976684
  0.3967622730020824  0.3986051301082655  0.8022950692284592
  0.4010741852027352  0.7995972952565987  0.3949993169694958
  0.4024648160003463  0.8032576199507576  0.8031342312240800
  0.5988632267043814  0.3999330323157972  0.2030834878374937
  0.5989938280048119  0.3998220742914256  0.3977005378987220
  0.5990140207316046  0.7996329357489215  0.9997991198617805
  0.8007646548979777  0.6001173479535820  0.1986349541438819
