Zr Ti V  Cr W 
 1.0000000000000000
    15.4426403378846846   -0.0320005039046650   -0.0557208927597321
    -0.0320601671519035   15.4795610846132128    0.0067732802617652
    -0.0556571551947803    0.0068453986319217   15.4616290361641866
 Zr  Ti  V   Cr  W  
  16   2 101   1   4
Direct
  0.0029506327663543  0.7735756233683250  0.7692242701576602
  0.2319478539037834  0.1973051613011660  0.0324971977730044
  0.1998112222782957  0.2041119201950052  0.2449757919729059
  0.1981413301117279  0.2039081981839317  0.4498443029091638
  0.1602455069484637  0.2023166544419471  0.8260997127523866
  0.2048648698346826  0.7986346747522493  0.4042817754025679
  0.3796387541314699  0.1914058609651979  0.8034898919019985
  0.4037224143025477  0.5997767012360327  0.2036885652427402
  0.4089243364945849  0.5989210428684276  0.4274603534639589
  0.5969556305615054  0.0198539490184446  0.5792507934200805
  0.5945386910097165  0.2375464912840086  0.6093434711311485
  0.5966169171261684  0.3973152368556651  0.0016636017952520
  0.5828206649246873  0.4507702725405912  0.5979419076497751
  0.5958233655345140  0.6213882340353137  0.9913157514465222
  0.7816321165674189  0.0159990110068394  0.3971558095403532
  0.7945123706660158  0.3540558874953859  0.5643937132854554
  0.5872933248555465  0.6398976126640601  0.5926410781941456
  0.8249585680488493  0.9811795532922830  0.6100567508746614
  0.0033438500879219  0.9998482936408456  0.9968736378449028
  0.0027378127905737  0.0001874577743658  0.1977354317783666
  0.0000244696281479  0.9979697111755671  0.4000901939447982
  0.0137332616261258  0.9938805202497510  0.5999527595926532
  0.0039340591796775  0.0094350213055843  0.7993902896486499
  0.9884771009296592  0.1987186748927663  0.0006927938415846
  0.9980762553436502  0.1997925976443101  0.1995433230568510
  0.9988810453314955  0.1978578196052919  0.4007620819403242
  0.9990312730525434  0.1925826666054285  0.6050783909397470
  0.9743279464566535  0.2046026196947758  0.8013140038151144
  0.0028485895072701  0.3971313979663916  0.9971606330240109
  0.0049013691944505  0.3980330053373011  0.1966827583155296
  0.0010335794703879  0.4000152199753674  0.4006184858655574
  0.0000598732147150  0.3913193781085901  0.6008008823406326
  0.9996411504001252  0.5990545723586640  0.9916482500385416
  0.9999158903892644  0.5981035679218977  0.1967354392123462
  0.0002789994786999  0.5996719270039893  0.4013343253982534
  0.9972843700633115  0.6586546404576546  0.5961847045360249
  0.0014729419494135  0.8014350583954724  0.9912957453753319
  0.0018082993843017  0.7990079297070467  0.1953505322164251
  0.9980419851459594  0.8008758900551366  0.3944674312657750
  0.2012134043054134  0.9976387359313831  0.9942043928056890
  0.2019762549990622  0.0012093562413562  0.1929301812432443
  0.2011046273975566  0.0050657391861906  0.3964116020290295
  0.2043236085833590  0.0009677710309968  0.5992479226956600
  0.2055544163541391  0.9979277765875586  0.7982451699230065
  0.1982485369723367  0.2000803359700701  0.6335711094237554
  0.1980034710332533  0.4004991036386205  0.9979912735454926
  0.2034241644560898  0.4037188260045986  0.1969404888697474
  0.2039329493927910  0.4016446723828340  0.3988872802089949
  0.1973414658921356  0.4000789154079550  0.6002785943581803
  0.1982707710482219  0.4035648319421574  0.7984537703052973
  0.1985326484297462  0.6016698929922482  0.9998252022948698
  0.1960443808504319  0.6018890654938227  0.1989392446658773
  0.1969730338684936  0.5953698990296757  0.4001740905215377
  0.1975356480782072  0.6007426306604609  0.5974157505674268
  0.1902811198096335  0.6000574749355589  0.7991659265474005
  0.2029680937514360  0.8006474560633450  0.9970562025258535
  0.2029167429492972  0.8001978115643528  0.1958241070582508
  0.1986238240185356  0.8018022999124680  0.6061200026623934
  0.2060137217293098  0.7971955531125506  0.7998167359022895
  0.3998014506301774  0.0088825551613949  0.9931277603481570
  0.4012567698982328  0.0031239275079242  0.1964732408280012
  0.3985545737581151  0.0019532080240301  0.3994958945281645
  0.3965182780205079  0.0022717116146129  0.5988593914036295
  0.4046231068580095  0.9910035437905299  0.7951835559086046
  0.4264807451414864  0.2075413596697933  0.0060486229684098
  0.4070198285585552  0.1991299585545873  0.2047013264932952
  0.4004878187416996  0.2003866633234188  0.4019672487771498
  0.3908493655784318  0.2013311298693715  0.5979317914597940
  0.3917102288987394  0.3987815752585488  0.0015717601331116
  0.4018522958202326  0.3952037915018660  0.2032491942108105
  0.4055204304791039  0.3959883239143576  0.4038189924007530
  0.3905181394605159  0.3998727485266829  0.6012391391141833
  0.3924779005682522  0.5999697814812726  0.9972277100279994
  0.3879257706119376  0.6029178249494094  0.6168657626282384
  0.4020279036885378  0.5987800620027284  0.8037630010679124
  0.4037900890916551  0.8017571076813083  0.9986980392909427
  0.4038894043085350  0.8069691536363466  0.1973563348015516
  0.4083104819776388  0.8052900092188906  0.3981677432794519
  0.3994941151412247  0.8032505633775854  0.5975317100069799
  0.4032670792994082  0.7970010975879471  0.7995129470814204
  0.6016494175045504  0.0011184397776459  0.9958268206157969
  0.6021991770202341  0.9989656821824626  0.1917205179208740
  0.5870742373074372  0.9998254140866566  0.3799994519713159
  0.5999954838547649  0.9990587948670208  0.7976764352672238
  0.6052093591904771  0.1954229580521048  0.0029911553883768
  0.6040067426638787  0.2008940963730353  0.2008776149836792
  0.6009055381888665  0.1941606092478978  0.3973593757246121
  0.5921597231835515  0.2007812092373545  0.8052171910567393
  0.6012604767637260  0.4001078919009790  0.2062753871405293
  0.6060047972197712  0.3964456688980809  0.4029420946989838
  0.5983311892271055  0.4030222216521640  0.7970991879159074
  0.6084582206860895  0.6003906315904701  0.2026696009603240
  0.6112956093366281  0.6013556495453772  0.4012550797498245
  0.6004203963931888  0.8133713266591336  0.9992384286521308
  0.6032392185906882  0.7971573750474986  0.1964114855255016
  0.6083809378164625  0.8077833358523185  0.3968962461833277
  0.6061636629975776  0.8183460287156693  0.5980739515885776
  0.6024124920190702  0.7961375936442409  0.7959182495121363
  0.8037328728173311  0.9981144151980600  0.9968656445826739
  0.8037305386851695  0.9988789475144142  0.1920205832345282
  0.7997450087817807  0.9942151489620169  0.8040376289385331
  0.7962316717771105  0.1954621669819725  0.9990065760140333
  0.7997306358562712  0.1983122288378590  0.2026470495225798
  0.8009996574956201  0.2136680307581199  0.3995111596719285
  0.7839309549537841  0.1967387130388616  0.7930197340944375
  0.8043492185152569  0.3962678338697012  0.9984976248561389
  0.8013344931468911  0.3986478026230705  0.1902875117216710
  0.8046119416050080  0.4048101792028815  0.3767967027360529
  0.7979690159957399  0.3951579150746597  0.8049622773028541
  0.8014449215987622  0.5999413005982509  0.9989203361510267
  0.8038168238730182  0.5994892333350830  0.1949856001488674
  0.8041583585821435  0.5988684487520500  0.3972100645844421
  0.7954071433436485  0.5919880289198649  0.5958816539850748
  0.7937440468040560  0.5918715866661340  0.7965571178314532
  0.8006922460800000  0.7995654182023954  0.9974051876478498
  0.8024129673364254  0.8000686381285369  0.1988486296465046
  0.8030912840374234  0.7993312545648515  0.3989256128381908
  0.8072033118172105  0.7882718993282519  0.5995741086800013
  0.7991152808688228  0.7954896391750165  0.7985958413362040
  0.3961447704095528  0.4032191480701126  0.8014300761022526
  0.9987539452415954  0.3941551341640174  0.7973759235817008
  0.9930138676994332  0.5769416969054563  0.7978244128850380
  0.6009537673494291  0.5930862241741119  0.7909129246433296
  0.8000666846027380  0.1572038699018059  0.5965213829398027
