Zr Ti V  Cr W 
 1.0000000000000000
    15.4553867420840287    0.0026143812950059   -0.0105005805915079
     0.0026215152151141   15.4868225341161789   -0.0153794539020766
    -0.0104972775696231   -0.0153901058770574   15.4931386040514418
 Zr  Ti  V   Cr  W  
   5   8 106   4   1
Direct
  0.0050559121568274  0.2012935729406525  0.8008641455215489
  0.4058059304163865  0.2303108091069153  0.3893835181896939
  0.6000958552822124  0.5966858121127921  0.6367693714005734
  0.5800685914473590  0.7887362967761518  0.7939170318516683
  0.8054791391850268  0.7988285089263583  0.7999653354184271
  0.9975907351583574  0.9979213676622126  0.3992565539960361
  0.2094295099353085  0.4007648863048797  0.5985369802623453
  0.4091034700387298  0.2017506295624355  0.8074144852267190
  0.3912747195594340  0.4361754786367885  0.4234141060410044
  0.3950523891113271  0.6299501292514966  0.5712672754976649
  0.5944576712257584  0.2017130826624535  0.9943696508592939
  0.5886809314849256  0.5827549231205228  0.4073685163255713
  0.8019993720577031  0.5974054045227307  0.2076158979763308
  0.9995438312140449  0.9977096606754106  0.9982206820028191
  0.0010310754346722  0.9991184252225873  0.6012005960159188
  0.0008782062285978  0.9958537506607749  0.7988113058625805
  0.9998516747738343  0.1993522241315529  0.0041299137227326
  0.0004248780204115  0.1992596471528566  0.2003863085026819
  0.0003363130099398  0.2026731513477965  0.3983712906515472
  0.0016390678268599  0.1994591921569885  0.5960102442851115
  0.0001271391311334  0.4001615489448236  0.0010985911479715
  0.9988183426763366  0.3993142916336804  0.1996326905215406
  0.9981559958673341  0.4013706567166860  0.3999287595093602
  0.9996150169260114  0.3998298516980262  0.5993063447923246
  0.0015773013739903  0.4040045796746325  0.8001427444606762
  0.0008046401140856  0.5988712211825874  0.9996737673941157
  0.0007476535991409  0.5985676171942889  0.1995186595223134
  0.9975016735345027  0.6005367441180185  0.3999568074568237
  0.0009900174674256  0.5992162255525442  0.6005197752326041
  0.0030364517528403  0.5993379767760925  0.8005799436372042
  0.9987696443462540  0.7978692992543936  0.9999888644743034
  0.9991925462272006  0.7998010325879654  0.1992535980016869
  0.9990541838849025  0.7979691733713216  0.3980783726717947
  0.0004058838670500  0.8003748984074718  0.5972637886169950
  0.0065490510456231  0.7973512131019765  0.7994201607493532
  0.1996479989854971  0.9990200066095118  0.9971942006871451
  0.1993920505280409  0.0004488764304252  0.1987199880430509
  0.2014170536197675  0.0010623965392411  0.3991409879333289
  0.2021615375703301  0.9984939352523517  0.5995671902194054
  0.2022671693759969  0.9991715913879138  0.7982434812410986
  0.1988313383615582  0.1994683981579255  0.0004902209599844
  0.2000985915592012  0.1991018789396528  0.2000763174960022
  0.1980810437283482  0.2010337116533920  0.3985860597988520
  0.2028751330109243  0.1969287535430210  0.5975753329521153
  0.2071896498298017  0.1998302432738732  0.7988479048836715
  0.2000573315773606  0.3990553289221483  0.9985681695624322
  0.1999783800915317  0.3990398657235102  0.1995650703871447
  0.1949350424726471  0.4013441624247568  0.3983651663039167
  0.2044452182004717  0.4003295508645309  0.8004135809117642
  0.2003800205975778  0.5993730831993733  0.9989349371349372
  0.1985397627844426  0.5990663193642388  0.1983655865221260
  0.1946730026609580  0.6004097418193111  0.3962759788096207
  0.1964310784804285  0.6032097542982340  0.5994798427295396
  0.2043691832439800  0.5982757203989342  0.7974939739865531
  0.1985520890404257  0.7990836075527633  0.9994563742009599
  0.1985750379586418  0.8004312491663956  0.1986900624735347
  0.1991940610396161  0.8016402203491975  0.3976553334266196
  0.2010848939200638  0.7998702432934262  0.5972676657137322
  0.2034127912620294  0.7979161043378387  0.7961822801605478
  0.3998633271421770  0.9986833091901817  0.9990909742164815
  0.3998065811556751  0.0021042485487843  0.1968674017745620
  0.3988237468893838  0.0070487892689357  0.3987133557788721
  0.4003735028655310  0.0009018421677261  0.5996610638959697
  0.4026726967111882  0.9946715774011879  0.7991081325004622
  0.3968948648086540  0.1997841433863801  0.9998538478483872
  0.3991882837046992  0.2004536440147385  0.1916956911638334
  0.4028572432821906  0.1974693025586121  0.5994617620007915
  0.4006265551485580  0.4009166637193006  0.0010895734611966
  0.3998921242642044  0.3995119966910031  0.1980303175709383
  0.4064806025039842  0.3932961411398267  0.6080624589902560
  0.4032879528873300  0.4043099767982798  0.8012198790979173
  0.3990147422715500  0.6003122003404345  0.0002779429330442
  0.3976405176508635  0.6001334619605769  0.1965286029312528
  0.3896997525538652  0.6168579402637119  0.3877717707596090
  0.4055949323581582  0.6001680018098662  0.8047859285775579
  0.4002760212948225  0.7992507862007570  0.0013182670753625
  0.4019308991671605  0.8086812743632694  0.3922406891054235
  0.3937330471547223  0.8003518232832004  0.7695366482833828
  0.6005166079020532  0.9951840955159990  0.9990690010938063
  0.5991936162137844  0.0003652329837966  0.1984541722834871
  0.6007162465756651  0.0015734736792393  0.3994493954280874
  0.5998208410650808  0.9980030205607117  0.6012832218546406
  0.6017571512209579  0.9993277327120268  0.7989585500527056
  0.5983971254211740  0.1976777374108280  0.2021634780003094
  0.6062425248604167  0.1962529640809459  0.4005270582028090
  0.6027381369688655  0.1950184164075090  0.5988606048243021
  0.6034638279277084  0.1987330612779739  0.7963769234322612
  0.6008931765583643  0.3991708267059046  0.0028294276679230
  0.5990463588019626  0.3979280293040202  0.2023095121769848
  0.5988429995571055  0.3902909420709701  0.4028462856149692
  0.6031784270105410  0.3931109975195679  0.6024969412217388
  0.6023674716757318  0.3967509444315528  0.8021716115526289
  0.6018141060305626  0.5984849254796486  0.0088266470420084
  0.5967791126900995  0.5973809332641555  0.2018258790386781
  0.6056793134219747  0.5886876928066624  0.8252929627289981
  0.6004949916747477  0.7973161689941841  0.0060007826956257
  0.5994063936388059  0.7982706817338159  0.2055246000749814
  0.6031856228370724  0.7999495233389627  0.5894349102807354
  0.7995999715599466  0.9997907571376070  0.9990971039803371
  0.7995196265479385  0.9998109567353518  0.1979689606738388
  0.8008584794423009  0.0017055867574247  0.3988444746343738
  0.8001102670514860  0.0026314345573220  0.7994348915658097
  0.8011640950248833  0.1979815430445566  0.0004770478680609
  0.7990170996121785  0.1984403235629100  0.1992482341976294
  0.8030156529093392  0.1999284035644847  0.3994189008201244
  0.8015886259704312  0.1987775639651239  0.5985988822807257
  0.7991741641861427  0.1997761968410449  0.7989093988991688
  0.8001078777837756  0.3975659554884869  0.0010819447449799
  0.7978528527433784  0.3965445454208023  0.2017026127387395
  0.7980979008535309  0.3993368035051827  0.4010064369118808
  0.8005911679244450  0.3981834172515523  0.6001626547103335
  0.8015025498579458  0.3970855328394330  0.8006777973517337
  0.7984388859277962  0.5984862844792899  0.4048396516621740
  0.8040930722120030  0.5983442018912899  0.6016683832938127
  0.8031179552658988  0.5931393756274627  0.8023976765584582
  0.7990634321993991  0.7982715172704394  0.0049123824305817
  0.8001582471414895  0.8001146439193326  0.2007972697639964
  0.7953432510672914  0.7994119351917426  0.3979757057933892
  0.8020772912032640  0.7981337056456486  0.5944464350928589
  0.9994325671333114  0.9994741692342405  0.1963747609209538
  0.3983445713969588  0.8017617431833277  0.1968965644522503
  0.8009359395232633  0.9995500774064766  0.5993942588582447
  0.8019912355545238  0.5975810826317720  0.0013150835354212
  0.5977053029056916  0.8087181372066570  0.3993707858003971
