Zr Ti V  Cr W 
 1.0000000000000000
    15.4219977637485020   -0.0153525296692176    0.0018800521315798
    -0.0153399539639544   15.4042384266248558    0.0149563524432868
     0.0018828811446291    0.0149768248118706   15.4308175709018371
 Zr  Ti  V   Cr  W  
   2   1 100  10  11
Direct
  0.6007966662860857  0.9876039663345809  0.7908376339980200
  0.8064439789205787  0.4056477089594561  0.2021024660986435
  0.5970051859253794  0.4033806108801828  0.1968781904133146
  0.0020134107501080  0.0008447625354449  0.0001033997962501
  0.0004001759440327  0.9999737464953342  0.6008594079374069
  0.0013015638878222  0.9998720324013214  0.8003461112934965
  0.0048122223555474  0.2000918416174508  0.0008142551826058
  0.0007867111821061  0.2026997604103774  0.2005172638198533
  0.9969492346777392  0.1993490269329644  0.3998463925464435
  0.0013509605555952  0.1995720972876416  0.6006482949792832
  0.9984674402878888  0.3979817949636846  0.0042752920616276
  0.0008246708071492  0.3996496434012893  0.3979880127299430
  0.0009312476416046  0.3997034482929883  0.5994303212167853
  0.9992281766508456  0.3994339060845508  0.7994628535369053
  0.0016906307741073  0.6004795335608402  0.0015459169512695
  0.0011332810071377  0.5989053470243888  0.2005183506508831
  0.9996480777887264  0.5993172399465442  0.3995594791619457
  0.9985163992379963  0.5987746668714571  0.5991598611692233
  0.9998494847191606  0.5995851189588142  0.8012901972038288
  0.9975273454530859  0.8014027349195669  0.0005213666736731
  0.0030135581409639  0.7994338288853253  0.1990397038961917
  0.9991678676156784  0.7996811347834738  0.3990058891749790
  0.0026502300767958  0.8003476288057664  0.5993071164451488
  0.9993618386959279  0.8003427204091219  0.8017122468066820
  0.1999799502723236  0.0093080676419721  0.0002781427662144
  0.2014673185025940  0.9990103997279018  0.2004867890128055
  0.2009744291071014  0.0017393769299258  0.4005561473683402
  0.2011926881872798  0.9976772579261215  0.6002107237432830
  0.1990042902903603  0.9985856045376974  0.8003142410508945
  0.2002050943979356  0.1997210430207726  0.4010976020485881
  0.2005289799233990  0.1987309020766060  0.5998215732724402
  0.2007323942630549  0.3970370595549512  0.9995385681504898
  0.1996181361807376  0.4007658350595181  0.2030666496723620
  0.2001479773815264  0.3990996018008122  0.4018413463725790
  0.1997532495157783  0.4055823078732293  0.7979524491375320
  0.2043036637638460  0.6021773992770731  0.1964606293750126
  0.1995935149988795  0.5986297742491521  0.4024486234150452
  0.2009962093207010  0.6022152920513061  0.6041758034194805
  0.3978826391668815  0.9995868249638200  0.0007835539456091
  0.1991695010761352  0.8014339554254578  0.2050561389687633
  0.1998281542776561  0.7998644672652884  0.4042622424408117
  0.2006468249960374  0.7960437902899822  0.7936294565084746
  0.3997814182216358  0.9982001908834375  0.2009474454001949
  0.4016738809823741  0.0017723459439226  0.3977204468693351
  0.4037501661487681  0.0011391055281676  0.5991824592685661
  0.3939115642884249  0.0009952941685371  0.8001624586143895
  0.4008070555359741  0.2018282125387726  0.0006723103026280
  0.4024670258426417  0.2015611969793404  0.2019635643989026
  0.4025590726995381  0.2015281030328945  0.3990671594984968
  0.3998789594695807  0.2006990609106038  0.5991655860469312
  0.4011904361864624  0.2013209232601568  0.7985545488582866
  0.4007125430867886  0.3992757398397775  0.9994076840556089
  0.3970376503827971  0.4059381403097919  0.2021081880216732
  0.4007008554622057  0.3996242020257781  0.4003352818911322
  0.4001178232008630  0.3995721653355905  0.5988323544013936
  0.3998106176914139  0.3999563070083276  0.7977214645989494
  0.3967969433067178  0.6005944547426594  0.0025629617236245
  0.4023975196375770  0.8016741635120389  0.9987589799106101
  0.3988298714660459  0.7966862447844545  0.1983641271567403
  0.4020927204026493  0.8006355261248136  0.3997307665979950
  0.3963994681507171  0.7997399500186626  0.5968895640646134
  0.4003095386469879  0.8008905868791074  0.8004478567905805
  0.6005424307273225  0.0058600908479430  0.0009852981407161
  0.5994090621984393  0.9983654611509565  0.1996230715338408
  0.6011211845217271  0.9999684561006151  0.3998331292538031
  0.6006989620252973  0.1989432067924986  0.1945887159874475
  0.6051826778439758  0.2009107017616917  0.3978745518025651
  0.5999174402103312  0.1955003226900962  0.6038124114908671
  0.6010552912470131  0.2023843268211407  0.8037833567141072
  0.5998507303986602  0.3962960797015059  0.9960619283868912
  0.6004371948391574  0.4003631875146398  0.4031797699379995
  0.5993635275409976  0.3996356696061720  0.6005681155538193
  0.6000107884535780  0.4060575074279768  0.7975881213255716
  0.5992428515832466  0.5973245634553435  0.9958755353143137
  0.5946267172116108  0.6046834644122324  0.1974625260975317
  0.6010575695070208  0.6000790670148606  0.4001935995429005
  0.5994914491304759  0.5997024205574585  0.6023212507840235
  0.6000256382107431  0.8034791638824972  0.9944781230354084
  0.6008735026136376  0.8014781435474714  0.1985429777975968
  0.6015730916974046  0.7998376424828801  0.4005432737770677
  0.5983342450436283  0.8019969904509854  0.6015022831171026
  0.8018240481003740  0.0020002962102466  0.0006842424072646
  0.8021750787070481  0.9988759733767996  0.2007065730688131
  0.8013312320862337  0.0035464429430119  0.3992907246712519
  0.7978681869502023  0.9998275083324438  0.5993209028990168
  0.8068974386413065  0.0002726992033173  0.7992942716275899
  0.7955289603367415  0.2000030049133103  0.0006084988660386
  0.8010929899528738  0.1965110569992158  0.2041770793949781
  0.8007267532794654  0.2000349171180908  0.5966186108831035
  0.8006082558886628  0.2003189867489341  0.7992627242065652
  0.8012469742420499  0.3989454256296415  0.9965951547070455
  0.7999488280655306  0.3954831175087762  0.4064690035647143
  0.8005870440130539  0.3987123683097977  0.6016013026646637
  0.7993057437336495  0.5999594554723957  0.0002708050966989
  0.7976954727961247  0.6073247386889919  0.1997011060136990
  0.7985815993607929  0.5986993078822590  0.3999371719667372
  0.8001831184513419  0.5994729807040680  0.5987267685855350
  0.8003418150156891  0.5993503368484892  0.7999657541545401
  0.8002814695299529  0.8011340883922092  0.0001572928220307
  0.8005741255430998  0.8024535004868537  0.2001889164930956
  0.8007444887137003  0.8003079017915264  0.4002233812962386
  0.8029527841484918  0.7992954903824219  0.5982528245113761
  0.7990440757668152  0.7996079700377930  0.7986541591136888
  0.0021768493650667  0.0004078273553328  0.2002726328908342
  0.0008295631688668  0.0000894199936685  0.3995770137167507
  0.0005030039627236  0.2006333083375355  0.8004908382401772
  0.2014759996818723  0.2006541228360555  0.2016346546375571
  0.2001620947191153  0.2022680253633745  0.7994289237460620
  0.2004707900349058  0.3999598225220904  0.5996807966243402
  0.4004571608400598  0.5999554368242577  0.3992815329282018
  0.4005681517429022  0.6001273009651034  0.5994464053523185
  0.3991886210736748  0.6002339241016708  0.7999568497117325
  0.8013636278410151  0.3998279371400840  0.7988263858054081
  0.0073472360948834  0.4026724080454058  0.2015265334021067
  0.2033853991391507  0.2021012984910568  0.0009920469086224
  0.2001142605408170  0.5906693790128015  0.9969797158629039
  0.1957972628692232  0.6023762348720756  0.8040197979881766
  0.2007298885701250  0.8007122020630772  0.6003828809868439
  0.3989332826279957  0.6019574098651543  0.1968564213905029
  0.5999076232650351  0.9985300937934557  0.5927448274683770
  0.5993062020731446  0.2003419317497801  0.9976924611327461
  0.6025560956645996  0.6027516451582173  0.7999377433868889
  0.6006076947314187  0.7881300661581270  0.7979984917160532
  0.8000579987184125  0.1998248554706370  0.3998903440740050
