Ti V  Cr W 
 1.0000000000000000
    15.4539762940606913   -0.0009302546193068   -0.0040609226562242
    -0.0009305541856652   15.4553324993326164   -0.0016432811203864
    -0.0040599645847516   -0.0016432389492442   15.4631351219687598
 Ti  V   Cr  W  
   3 114   3   4
Direct
  0.0045659722729412  0.4007780060182026  0.8086295772301508
  0.1949520068435313  0.3990738740248618  0.9932043692398607
  0.6052102026058765  0.7988329371717278  0.4051832917044092
  0.9999799221885312  0.0000777484075285  0.0017969342160708
  0.0013195475830339  0.0017411317092426  0.2001210159357550
  0.0002444671355908  0.0003852541577601  0.3992398357838930
  0.0010695200119482  0.0008588402857972  0.5993147337319800
  0.0004366126490425  0.0003064067882157  0.8008646919754271
  0.9996115737672502  0.1990572434306528  0.0007737000900962
  0.9985110857548061  0.2029904620536419  0.2004462664496030
  0.0008305565645251  0.1994853269924924  0.4004139944375095
  0.0011529017580124  0.2008780196277828  0.6007824883871771
  0.0003548688410220  0.1981022090272863  0.8000314511544192
  0.9957907291648797  0.3998167529504931  0.0078118740508202
  0.9994050719734909  0.4000468499471271  0.3974095725365351
  0.0009651651503012  0.3995798406530842  0.5978120741862289
  0.9993529762989543  0.6005533462943753  0.0009352497731192
  0.9994508340692874  0.5970332758089240  0.2004795500489710
  0.0004874186600843  0.6005859415740247  0.4003407657583753
  0.0005257012146926  0.5987274903371010  0.5998504715160096
  0.0009038899654868  0.6012297284296733  0.8008645412139703
  0.9999153646666121  0.8004239715466619  0.0010120808282969
  0.9995997529189471  0.7987482286429651  0.1997632640093670
  0.0001268401790828  0.7999928360921923  0.4000933356547897
  0.0012378640108319  0.8000867746054185  0.5996389386370307
  0.9960052407809347  0.7999119819656837  0.8007556226258319
  0.1993140305114127  0.0002812829636483  0.9996972849703092
  0.2031909294268069  0.9980915482642689  0.1997433401913424
  0.1990196796943914  0.9999197650373477  0.3990254100307965
  0.2006759053649008  0.9992241806666724  0.5997659891665889
  0.1999322307398845  0.9981170664237498  0.8000203110340411
  0.1998776983392573  0.1985553205959875  0.9961917700132743
  0.1996088515777678  0.1998316174598498  0.4021000563020299
  0.2040835654298668  0.2001016606376524  0.6002189014028959
  0.2003514984469060  0.1987524813583351  0.7988081728818895
  0.1941278239026026  0.4016426866508973  0.1994970945378003
  0.2010615796246205  0.4003852074321360  0.3980994569765762
  0.1999752203043751  0.4007904376362912  0.5990111640660438
  0.2026627731434383  0.4007823905114634  0.7964539409798198
  0.1998121011311532  0.6024068448619069  0.9987105745868016
  0.2017978185222919  0.5997610897027231  0.1993462884116362
  0.2006706890566276  0.6006963159268530  0.4010710597854376
  0.2008720738504595  0.5996516299272961  0.5999605436560338
  0.2011100575361783  0.6013467021484952  0.7984211727563311
  0.1990533587757799  0.7994716232849669  0.9983494330146395
  0.1985959540946522  0.7992163100442646  0.1993955239212987
  0.1994564167137802  0.7991516109133412  0.4008929556757188
  0.2003326680115153  0.7997540506892248  0.6009369699773893
  0.1993343911812480  0.8001787347710162  0.7993738654486884
  0.3998178053412488  0.9997830417065112  0.0029239773195158
  0.4004101148814638  0.9990720231424299  0.3959200986106046
  0.4004716331647177  0.0033029321700029  0.5984740780804272
  0.4008394014407018  0.9988857119031339  0.8010186479772604
  0.3991972026846491  0.2010423220720747  0.9991444244937004
  0.4009905946679949  0.1959297436850251  0.2004200303513853
  0.3997000898892190  0.2010312947234180  0.4028201440715253
  0.4008396130790868  0.1990499892896272  0.7961061607854470
  0.4004157486062724  0.3997310424316352  0.9981445877600027
  0.2987105086235727  0.2994132691823950  0.1992352929553905
  0.4005459947295629  0.4006535298628595  0.3994839777785310
  0.4007842016464858  0.3964145772876144  0.5988737010957725
  0.4012918865025898  0.4005432779815464  0.7995797519000226
  0.3996558978030972  0.5993743455402860  0.0012958075216725
  0.4000031842721796  0.6018438990577760  0.1998211698704055
  0.4004161393233399  0.5998645380446915  0.3986970004864426
  0.4008111470443488  0.6004493465934333  0.7991703025235062
  0.4002133979054116  0.7997151664286222  0.9982933355918530
  0.4005776618661132  0.8030527136980206  0.2000610597082750
  0.3988684562232103  0.7997591124417637  0.4014477616635310
  0.4004988019591839  0.8008801247091154  0.6003223322604665
  0.4013470416198747  0.7999544211695474  0.7994515013383984
  0.6001323898325195  0.0002072803610240  0.9999275537280042
  0.5964187057508987  0.9992046682475588  0.1997830666342174
  0.6013656167822190  0.0015680241281138  0.3994947211603675
  0.5996460286575130  0.9999264002152819  0.5992470857002880
  0.6006340660608336  0.9995530093558708  0.8009487843736930
  0.6003994093468662  0.2003441910012005  0.9988035840644551
  0.5993651265450696  0.2016918995034289  0.2000423845357245
  0.6014865811264144  0.2006099024093075  0.4001469428734795
  0.5967836492294363  0.2005125089290641  0.6002834748436754
  0.6009138151848133  0.1996154731131156  0.8001664997910313
  0.5991467532988526  0.3997890370990805  0.0013245856048527
  0.6025437175870526  0.3999839017567918  0.1996067002716914
  0.6005416138968632  0.4004660288291089  0.3982254263729585
  0.6010718263142301  0.4004821956807182  0.6001183660665622
  0.6019557997017212  0.4009991284341511  0.7999026689891440
  0.5996538521204366  0.5991692884866832  0.0001770849542382
  0.5996911845571173  0.5980489583890851  0.3997377574523188
  0.5993749713534537  0.5988343387921526  0.5997654630117808
  0.5993073366018031  0.5995582319840399  0.8002014631127005
  0.6000219874942204  0.7989540885354569  0.9999584144443686
  0.6014770177786134  0.7988205855893282  0.1981285034544222
  0.5993836735852085  0.7995484466683870  0.6020180165054865
  0.6048034935993191  0.7992511887874892  0.8004371172279399
  0.7999144223565442  0.0003147450935135  0.0009041687195389
  0.7988556152974885  0.9992631249146616  0.2000271763703800
  0.8004870388535212  0.9996326988957441  0.3997294561995660
  0.8000081648580235  0.0009711688250031  0.5993681363319431
  0.8001999276301482  0.9953395664938008  0.8001573435311564
  0.7993282255863315  0.1993111185073564  0.9983080829844777
  0.7989237764219739  0.1984371365786822  0.1999029180659785
  0.7997826854765219  0.1995867358978678  0.4020233163841511
  0.7996652222747352  0.1996186043060920  0.6012367067015761
  0.8007085472334855  0.1989788205152109  0.7992003550027176
  0.7986541980517207  0.4001486988312243  0.9993703664150864
  0.8028836094489611  0.4004051096930926  0.2004491906640063
  0.8001773732218579  0.4001723572753192  0.4007963749153670
  0.8011303341013588  0.4000461552272644  0.6011004793353667
  0.8002337902801936  0.4009459874547331  0.8007822448326051
  0.7990336145647451  0.5999392449355022  0.9998735989680645
  0.7990307937106970  0.6014853905898260  0.1999340378503153
  0.7994010110501318  0.6010805871257860  0.4009115618769756
  0.8003017875523347  0.5993484557138983  0.5998276961835983
  0.8002627826244645  0.6042248720283355  0.7998196401732369
  0.8002142029340730  0.8001912973507295  0.2005577824946142
  0.8031318900942939  0.8001295594546626  0.4017024750046457
  0.8009948680157902  0.8000360391585549  0.6027852810627059
  0.4002066941272903  0.5990703135202952  0.5996481372268941
  0.5994746063631953  0.5995743148840357  0.1996617565335782
  0.8001268619589654  0.7998759542677761  0.9999650781107267
  0.9992880361947575  0.3995234866532578  0.2021043033349322
  0.3990795824556708  0.0012404338639974  0.1996382007292455
  0.4004870868649693  0.1994573909367323  0.6001468540164466
  0.8006935659052578  0.8001336333276995  0.7970695026680020
