Zr V  Cr
 1.0000000000000000
    15.5277836321495606   -0.0011014415353407   -0.0036444284316418
    -0.0011015311309700   15.5268057001839015    0.0012045176117796
    -0.0036459540422085    0.0012051907892001   15.5242636607114743
 Zr  V   Cr 
   5 117   2
Direct
  0.9994995617095264  0.1998905106173575  0.3837982387633844
  0.9899970252357951  0.3725516409157293  0.9963495282071794
  0.6002155398725764  0.0002828350717352  0.0012841523521061
  0.6005509159587514  0.9991872045829068  0.7772435187679915
  0.8018607868223260  0.3987682069483549  0.8052510140903822
  0.0011978500937020  0.9971059678530020  0.0006803612324267
  0.9999002535125175  0.9995882326686895  0.1995911641576396
  0.9998444749790139  0.9953904055246904  0.4003288945858864
  0.0003147968203550  0.9993498918961985  0.5993240691770463
  0.0019184779233745  0.0005774916838408  0.8001963644272895
  0.9987809237438530  0.1989144971222712  0.1272492717920827
  0.9992430891186952  0.1991974934029291  0.5987188762416175
  0.0016403511191557  0.2000104369215746  0.7985861172784230
  0.9994664377740395  0.4011967536043864  0.2026470666882726
  0.9997679928778054  0.4040070038175617  0.4005471816738163
  0.0008689894489728  0.4005151957659460  0.5978130416529914
  0.9987122220370641  0.5962852055511720  0.9999406378221246
  0.9993451977456577  0.5998810152960659  0.1999681272919991
  0.9995131183462148  0.6011752180202455  0.4007809169979830
  0.9996397007624687  0.6004526394582883  0.5999459387174778
  0.0017213024269262  0.5999640033487841  0.7993824728267066
  0.9995845851227256  0.7976786295319344  0.9995929465434894
  0.9995019488543642  0.7997317561961588  0.2002607267320914
  0.9998422941106575  0.7983749467979941  0.4001352996541349
  0.9994545104064666  0.7997570390186362  0.6007834199841603
  0.0007667886122111  0.8000650345510381  0.7996394301779330
  0.1974282558491506  0.0008146919155878  0.0006691476887644
  0.1990181151339489  0.9997953215830129  0.2005163486944729
  0.2005988062049857  0.9986446683085745  0.4007096497116692
  0.1997099478524290  0.9994773611598061  0.5993820010724893
  0.1990897623920515  0.9995482410624038  0.7991928434102147
  0.2008206870848913  0.2001787956697846  0.0004228060915038
  0.2006939715874295  0.1992590492337181  0.1994140562889075
  0.2042121606143182  0.1997453945468410  0.3999003108068576
  0.2007934323423058  0.1995529669148695  0.6000409710740701
  0.2008956269119675  0.1989682260595321  0.8007024100411255
  0.2007519201236722  0.3991249859120927  0.0004985561772520
  0.1995032672793924  0.4000829180615194  0.2006117779876135
  0.2010025430937249  0.4003386550237650  0.4007315371959999
  0.2008035843208801  0.3991628839892618  0.5993399944355742
  0.2021359275027444  0.4004209900923635  0.7987027524383981
  0.1988277655490902  0.5989085142348836  0.0001908376522480
  0.1995109029452420  0.6000507951448084  0.2004329427103068
  0.2000855427592443  0.6000599522204139  0.4001055860396555
  0.1997545378405674  0.5993926983178302  0.6002681747803595
  0.2007506890942732  0.6002991533352567  0.8003717649664539
  0.1999202499810109  0.7996212831383337  0.0002631286939920
  0.1996667766229052  0.7996012538245691  0.2001421427068710
  0.2002812115085156  0.7989415142242784  0.4003132766007931
  0.2005738089096057  0.7998674421388063  0.6001288232825143
  0.2002172580701715  0.7994275801798558  0.8002875566525843
  0.3945624959949861  0.9991914225830343  0.0008932084434499
  0.3987422927207637  0.9993869666626691  0.2008722687898374
  0.3991123604639986  0.9990490745425724  0.4000061865285603
  0.3997817424023651  0.9996528051898652  0.5998241566006838
  0.3957279783205306  0.9991285178396525  0.8000326544989926
  0.4000648738248411  0.1994440991105543  0.0000483085038202
  0.4000268666496390  0.1994662380625962  0.1998546442979525
  0.4012784357885663  0.1991574386847181  0.4007022348055211
  0.4009054459126871  0.1992118094362230  0.6009743174281378
  0.4000069728995416  0.1996025047356968  0.8010315814909121
  0.3985241033254385  0.3999689263895428  0.0006745123588507
  0.3992502092167649  0.3997229822795580  0.2014001310649873
  0.3998164545891064  0.4004179259594963  0.4005137928966558
  0.4004409832264266  0.3992478071330789  0.5998888758305243
  0.3992153650899681  0.3996448205822448  0.8001197256852367
  0.3996215596954720  0.5998947475509063  0.0006041403833519
  0.3994116788178528  0.5998876851835541  0.2004934972788162
  0.3998347623696857  0.5998405343680929  0.4006069270209525
  0.4006256400920001  0.6000003537888198  0.6005600790145537
  0.3997736126726638  0.5997604045614772  0.8006755850970803
  0.3991700414656654  0.7993558547277487  0.0003370004967795
  0.4000655358568383  0.7995842400186242  0.2003347128919722
  0.4005427065508482  0.7993877745836322  0.4006242812306531
  0.4003848364841650  0.7995110072552761  0.6003613131546303
  0.4000957075555731  0.7995063085989215  0.8008877506203583
  0.5993991319680070  0.9996205932122924  0.2052648493809173
  0.5993885606449950  0.9992948246575214  0.3984323615749502
  0.6001419538279699  0.9997989077185582  0.5868222691284212
  0.5987441057800820  0.2052936182415021  0.0009740442970104
  0.5987610210841618  0.2009741423827171  0.2011987110416177
  0.5984031834625165  0.2008204194747687  0.4009324183373232
  0.5999623223663525  0.1996593538176806  0.6010362704001266
  0.5996672697339531  0.2043744408313022  0.8004167419216430
  0.5951673696467350  0.4018945136354941  0.0019228862204259
  0.5980592497141394  0.4003040637482281  0.2026216685945502
  0.5985949052520781  0.4004375893525656  0.4011425435792995
  0.5994570005614466  0.4002620387704580  0.5997530944812935
  0.5962235560483578  0.4010077079723929  0.7994233415416583
  0.5989918991082049  0.5988705590641968  0.0007493203909922
  0.5993343981352389  0.5995701478093958  0.2013107284548577
  0.6002399478152430  0.5993276720586093  0.6004451149175702
  0.5998860785378199  0.5988493286290838  0.8001313116132033
  0.5995053533532090  0.7945657169468632  0.0011097211887154
  0.5992672763045143  0.7988658736260177  0.2012059819336559
  0.5994122297560377  0.7983824594829845  0.4003045282796225
  0.6001003711266517  0.7990706453671312  0.5998629732347636
  0.5998512698113649  0.7948363290696313  0.8002214064121905
  0.8064021634976207  0.0011802457184014  0.0021417132782904
  0.8005232441204491  0.9999756633644793  0.2013131654586951
  0.7999978428221159  0.9988149146850609  0.4010948177501185
  0.8002703135389694  0.9993540003214108  0.6006121549795410
  0.8058032454552334  0.9989497764180231  0.8010978165029596
  0.7964519990411462  0.1996278519533249  0.0024915420513916
  0.7977251676617413  0.1991098589376501  0.2012466238302898
  0.7946621068094875  0.1991009596732735  0.4011128416007483
  0.7994641202009448  0.1993242737346460  0.6008947517258814
  0.8000706468120399  0.1948865334458951  0.8023944948137528
  0.7898207483145158  0.4011259839537862  0.0094812458449101
  0.7979179782120595  0.4007569214486246  0.2040966583059024
  0.7984235232452284  0.4007593109693149  0.4015071163774265
  0.7989677106700460  0.3992828346460932  0.5980012749139605
  0.7995447684952667  0.6003863556504925  0.0019345211471578
  0.7993159072844022  0.6009841149295322  0.2018553771614306
  0.7992350024265982  0.6005656451733573  0.4007408881584883
  0.7998460770221090  0.6002150701578689  0.6012034772788815
  0.8009455420795590  0.6039147477341404  0.8016704073025059
  0.7990827087374048  0.8008203978763215  0.0011826098688785
  0.7991260820924475  0.8000895379571816  0.2010290038120123
  0.7986183039859489  0.7997812841392454  0.4011714437866233
  0.7994830855756851  0.7999985508115478  0.6005360021514990
  0.8006633142379070  0.8003101760983371  0.8018337439043012
  0.0060820834060633  0.4004544098609245  0.7937751606830977
  0.5996128339419732  0.5997739043219201  0.4011623817803428
