Zr Ti V  Cr W 
 1.0000000000000000
    12.6172176936866709    0.0115451545700756   -4.4669336730166407
    -6.2903605648566554   10.8649981714077679   -4.4432462987804993
    -0.0385933284248056   -0.0380859578850954   13.2914089255054595
 Zr  Ti  V   Cr  W  
  10   9  91   5   9
Direct
  0.0014873858501594  0.0007888975885799  0.8013204836247366
  0.0089907203942003  0.2022775336750445  0.0088262747293181
  0.9991027350050827  0.4040033609654123  0.6080113322024862
  0.2006788881306295  0.1997951453020439  0.8003209783514174
  0.2215314997660645  0.4010878592139802  0.3985099335262586
  0.2470181436102542  0.2286413794055470  0.2390016720759433
  0.4029668069219270  0.8017235014299998  0.6069751256141518
  0.6008374298188409  0.1948187899186963  0.0055851679880393
  0.5989627407352440  0.4077725264954319  0.0049072340822267
  0.5602246988550523  0.4025175929134414  0.4076359802015035
  0.0037385450113172  0.4052442213831156  0.4007210174069125
  0.0030950635809599  0.6145099167792671  0.0074208242216929
  0.0036537666869218  0.5983163432084971  0.7974503097881712
  0.2365212201397889  0.2220671812497175  0.0274458223498810
  0.2005287719659469  0.2005350749469093  0.5957280218961450
  0.4062524832664209  0.8126514414783441  0.4041186756510621
  0.6090946520676811  0.6226318799771229  0.0013010974485808
  0.6106869622172340  0.8050458875237521  0.8101801290335554
  0.8019801694176577  0.6083436063390287  0.8072693200658723
  0.9995716813560092  0.9964455094113573  0.2051813025077545
  0.9974902167295729  0.9974710437557159  0.4045858604722726
  0.9915553868085210  0.1926898859305069  0.2083116701501155
  0.0015347035047002  0.1955900125134080  0.4044854394141711
  0.9929881645591329  0.1900393680975372  0.5982057679227482
  0.9983173027225840  0.2257140874060162  0.7991902395361810
  0.0092508342196069  0.4123263400374380  0.0017236524677740
  0.0046288618249808  0.4082760414005793  0.2009754037118756
  0.0016827918526543  0.6075726421015464  0.2073096376346491
  0.9999292029197179  0.6058702654555334  0.4013530769243219
  0.9952007184207439  0.6072125751013695  0.5928974784097312
  0.0073268934683409  0.8155386985596588  0.0076283467997183
  0.0027326742121534  0.8034993663119923  0.2062186432056289
  0.0019786587317918  0.8021180246860147  0.4023009777121831
  0.9981841824176348  0.8003190550404997  0.5993299971002461
  0.0003550784196098  0.7955808510559794  0.7995290347065771
  0.2046252503423957  0.9911870317294125  0.0006124746032398
  0.2011428441543801  0.9891455846579036  0.2021602715985832
  0.2010461012047365  0.9964164829832322  0.4036050779474329
  0.1969499323913530  0.9920178263179051  0.5992504559262340
  0.2115339205056758  0.9875712599525032  0.8012897302672884
  0.0195203779114608  0.9998358654581120  0.0271593094671453
  0.1957313277410245  0.1788522152555584  0.4016874113066093
  0.2177617524038478  0.4260562504925463  0.1942332514033617
  0.2071806210596237  0.4160326999774891  0.8119387161260830
  0.2060891352578893  0.6073834613837563  0.0023777257598994
  0.1936500340883640  0.6005442902112426  0.3923208224422258
  0.2075316331610866  0.6035793804920774  0.6056264413545935
  0.2193844808118700  0.6161641878220729  0.8137899561559276
  0.2050330872548291  0.8051294117385132  0.0045278176864598
  0.2063668521591044  0.8085391403641619  0.2084134369976625
  0.1967913454623074  0.8059694173286819  0.4044560829199611
  0.1898761612302427  0.7958439156939957  0.5994160832847265
  0.1994966744874345  0.7982009913484485  0.8017109571326025
  0.4028619231052856  0.9973429710291539  0.0043114109091452
  0.4033648854525856  0.0012095126043161  0.2046320662805370
  0.4050367510560944  0.0071970929960494  0.4059177664130074
  0.4033536086612003  0.0082116059626846  0.6027270256208357
  0.3918958643996928  0.9891484990557357  0.7930275373822605
  0.4033858669703460  0.1983080901204119  0.0000663997756545
  0.4093530918915184  0.1843520121109313  0.1875199804262570
  0.3979053621656923  0.1862258230219557  0.4071573277897274
  0.4031519857719698  0.1973205655729776  0.6025468750090723
  0.3981814526132069  0.1837416263634942  0.7848442702958837
  0.3980802525317145  0.4207144402869489  0.0091264758763497
  0.4213552535713589  0.4289936281863438  0.2090151296405754
  0.4062389857238974  0.4029007296628195  0.6084150633129962
  0.4023555657195049  0.4074281974035698  0.8050186182471059
  0.4064276642032850  0.6132967696057335  0.0031090048973567
  0.4105162113256516  0.6154414191863976  0.2019858052066022
  0.4100434003294682  0.6036970714076970  0.6136382453310275
  0.4108663716208428  0.6072136772609242  0.8062089220255656
  0.4060775934375682  0.8070378892240838  0.0058234777054551
  0.3992840367591862  0.8015811096463780  0.8144046755184576
  0.6068328314508734  0.9943471384327419  0.0063318664163298
  0.6051371068305643  0.0072192096852588  0.2067226142436170
  0.6063635802016575  0.0067599511487069  0.4049489164754833
  0.6126855490709033  0.0142671724502684  0.6092944525560848
  0.6160957459153814  0.0156640909904411  0.8125907050378358
  0.5999422020768542  0.1959927506281114  0.3994967923848537
  0.6020917589172572  0.1984420841859233  0.6014583180753581
  0.6034477442982575  0.1986604187783635  0.7957241963696412
  0.6045153794637933  0.4044176588457895  0.2118475310952233
  0.6009458868565676  0.3965627800254554  0.6122648316986822
  0.6091393240479771  0.6124528306104291  0.2065140717159692
  0.6150374081956860  0.6183820886015901  0.4043491214655696
  0.6083769303817961  0.6133279654087089  0.6226294247003776
  0.6104153774170460  0.8193759080841976  0.0143139072170734
  0.6109730396410082  0.8112502038047641  0.2051279950666380
  0.6129718504765942  0.8072070535151218  0.6029291824670620
  0.8116356699268585  0.0053658651987758  0.0117216350258357
  0.8055963239927590  0.0031956776152577  0.2087143018478794
  0.8024050205609370  0.0059986881199026  0.4027978225912031
  0.8033184384821861  0.0058079658058181  0.6006563035879857
  0.7857981174573813  0.9963978536150060  0.7961286854691608
  0.8091592265566374  0.2065372884489544  0.0083602855008527
  0.7952307909416757  0.1964260232680830  0.4018903018569213
  0.7991744961028657  0.2004936144578418  0.6010151498552627
  0.8018533663704549  0.2030942775744014  0.8030192288636601
  0.8155276607878670  0.4091807424093107  0.0089010538482600
  0.8116380043904846  0.4139305587467491  0.2132591257198720
  0.7850709825273566  0.3977026482610673  0.5963485734791851
  0.8080326800690598  0.6094764845306621  0.0158086031637692
  0.8122493465052207  0.6155529120207820  0.2123521332521911
  0.8035453120070897  0.6077004073330377  0.4013219738739978
  0.8047662622654461  0.6099486033202289  0.6057267713232759
  0.8043940583920950  0.8026840087660776  0.0056394400900759
  0.8103243898650497  0.8106291541121017  0.2107000018767574
  0.8084237440666657  0.8092612337083980  0.4057635387514408
  0.7983740116145539  0.7956636742578694  0.5985547785102941
  0.8083970808723130  0.8071826448717748  0.8045084713442379
  0.9907301989216589  0.9936065434288489  0.5834980741095764
  0.0047106738144470  0.4053260305140363  0.8138894697209825
  0.2138133405173074  0.4204419529378214  0.0066800072528900
  0.6020659626371303  0.2005915702880504  0.2117778531479567
  0.6035372884016692  0.6040814578610380  0.8019977070447243
  0.2097566188845046  0.4073858476110567  0.6077441896276622
  0.2023570242471024  0.6109073835411813  0.2004903602804419
  0.4166911526136990  0.6075418559616661  0.4087663897281327
  0.4072727635968475  0.8101651714574908  0.2012026700146594
  0.6030128138838671  0.4057976139750924  0.8017905172063359
  0.6104923794639310  0.8115732946110178  0.4042064530734293
  0.8014939854075800  0.2006820485873476  0.2067941003310547
  0.7921202877090276  0.4008769169841103  0.4004633142997081
  0.8039771955927315  0.4005111578513876  0.8028685014368885
