Zr2 Ta1 Ti3 V111 Cr3 W5
1.0
  -7.5249999999999995    7.5249999999999995    7.5249999999999995
   7.5249999999999995   -7.5249999999999995    7.5249999999999995
   7.5249999999999995    7.5249999999999995   -7.5249999999999995
Zr Ta Ti V Cr W
2 1 3 111 3 5
direct
   0.5932350045381608    0.7979244073242643    0.9979108219427011 Zr
   0.9971408807576223    0.6024701070547628    0.5953238827309673 Zr
   0.0008691622742128    0.5984065346649740    0.2009789764783786 Ta
   0.6058406517198985    0.5974078195972000    0.0000551869936202 Ti
   0.3972629194053555    0.3968214404295100    0.2016554246693709 Ti
   0.9995568485631223    0.9978150022246461    0.5993740485680014 Ti
   0.8005908641013053    0.9984081484939293    0.9998599974899320 V
   0.5957615862379559    0.9916429928404982    0.9968811476313808 V
   0.7984283458139761    0.1940518054206232    0.0010833361534728 V
   0.7977419607482414    0.0034628319978630    0.1982262167577287 V
   0.4046525822522999    0.9996288544804484    0.9987353076403618 V
   0.8029734769245551    0.4005102916254962    0.9999273790593556 V
   0.5958639589653013    0.0043327046366225    0.2018670879943998 V
   0.7989733041119227    0.2046488019860407    0.2017700710707795 V
   0.8000827487947368    0.0009441245574436    0.4009958183859573 V
   0.2060530697231398    0.0013422985848311    0.9979463953266463 V
   0.3979908980268922    0.1995589371256919    0.0028053271008589 V
   0.6026811749318699    0.4016909469834202    0.9975923856338230 V
   0.8020454894984473    0.5982562485435531    0.0031604884983534 V
   0.4007447255176495    0.9953357966712681    0.2043718990438273 V
   0.6042735502887107    0.2042979799343432    0.1975202145127150 V
   0.7995338938482400    0.3987888660462047    0.1990997913640906 V
   0.6019785127935646    0.9955924639072062    0.3944088320613198 V
   0.8045730994545166    0.2037807021753287    0.4036611803878561 V
   0.8007803141059713    0.0042546308407542    0.6027742988455121 V
   0.9969966372888152    0.0009533367120921    0.0007992590744668 V
   0.2038343460800426    0.2002474004791595    0.0046045438994832 V
   0.4028517128471575    0.4051627687673316    0.0081790029593643 V
   0.8034357445842581    0.8002811032520950    0.9984651714972638 V
   0.2039912588965406    0.0018779319824189    0.2046589818969423 V
   0.3993218901207400    0.1974949498957219    0.2043945245176504 V
   0.7974916883267449    0.5936094912242259    0.1954119293581517 V
   0.4068659242774691    0.0025424717308865    0.3992831146277023 V
   0.5952367541139580    0.1966553490007160    0.3984387371671835 V
   0.7980014668881887    0.4014399240155018    0.4034656882111717 V
   0.5956110549577797    0.9921881522463372    0.5949279513915706 V
   0.8010338237990066    0.1968815615166719    0.5988125872694102 V
   0.8010542966868951    0.9990749183220976    0.7994541758516243 V
   0.0074097619657526    0.2057662616050605    0.0042935302612202 V
   0.2044930984068911    0.4051662739503510    0.0019351954970833 V
   0.4027471136122177    0.6031943751948281    0.0009057511095743 V
   0.0049458165200661    0.0024795606023548    0.2005410649834444 V
   0.2035428236880420    0.2004392344974181    0.2082400842467926 V
   0.5966211249152555    0.5986549161097028    0.1958981557948590 V
   0.8046947259586431    0.8002175231921558    0.1969858514756820 V
   0.2046457139938204    0.0026823045168361    0.4041971720910632 V
   0.4029113403107478    0.2014260132367292    0.4030154837324189 V
   0.5990258260919918    0.3989354381474525    0.4066144178710825 V
   0.4044113413747575    0.0002756793935991    0.6004037549985550 V
   0.5974886800673874    0.1986390256496747    0.5980044145813532 V
   0.8019927969082630    0.4029175112609354    0.5995263232496358 V
   0.6009511655384541    0.0001437263300397    0.7999362367656866 V
   0.7936201745621403    0.1930320543975982    0.7977274034017451 V
   0.0000961499843293    0.4028743755949580    0.0027595651014044 V
   0.1935038606697620    0.5948802429451308    0.9966991525051867 V
   0.4082503882782024    0.8008909541065535    0.0038546369819963 V
   0.1986843679353864    0.3994276023432219    0.1998018323915236 V
   0.3994474190802685    0.6004863249498812    0.1997324704952193 V
   0.5998461464500102    0.8007338421894277    0.2001595367668017 V
   0.2004784611681915    0.1970892294711948    0.3939087788902863 V
   0.4006528661788326    0.3955058510319993    0.4007319555734273 V
   0.5965123477039649    0.6010712413831331    0.3963191278276432 V
   0.8005050606977565    0.7979209452560756    0.4013145797188374 V
   0.2009480284860685    0.0006022177571732    0.6017071017232913 V
   0.3984346442002354    0.1937475590409595    0.5957095786827992 V
   0.6014142719897331    0.4017599256283478    0.6012496945919333 V
   0.7990354909084301    0.5984830717866594    0.6000787133948384 V
   0.3948515690762443    0.0024962245260812    0.8013216173596880 V
   0.6053226486270690    0.2030312933344737    0.8051782305276614 V
   0.0025244200823398    0.6016927587472316    0.0005408939187954 V
   0.2056796717818116    0.8046337409479616    0.0073610090293836 V
   0.9983736521174931    0.3975161979250719    0.1983144953053783 V
   0.2012980361555316    0.6009591629360094    0.2057984915296538 V
   0.4021221669809555    0.8042421006761560    0.1953087344131147 V
   0.0025080101793036    0.2050648020608179    0.4032932918067700 V
   0.2002186854055028    0.3992668202931571    0.4007422956935239 V
   0.3929820917421593    0.5972108640434000    0.4010495894626602 V
   0.6002472428307909    0.8021716454013581    0.3999923641098809 V
   0.2019394226475881    0.1996812437420830    0.5985253245650843 V
   0.3968346631860873    0.4006727759729202    0.5991048436220705 V
   0.7935923075513526    0.7996839245769856    0.6005410724171698 V
   0.1992171856459998    0.0001148030833601    0.8006109157133910 V
   0.4017938818116498    0.1986803949443816    0.8042243176706516 V
   0.6011075713356274    0.4008364448208634    0.8002096511759051 V
   0.7993581168098369    0.5998973412827616    0.7988973230500707 V
   0.9967253127717812    0.7959238651573713    0.0025909335067938 V
   0.2012134953901962    0.8023045076143966    0.1982703696424299 V
   0.2076485251908706    0.6063127156667697    0.4059679271195518 V
   0.4032386644238160    0.7979859912921123    0.4010224557125228 V
   0.9916753314386160    0.1984278396941693    0.5984239655705886 V
   0.1988236775870250    0.4022797637964353    0.5975014019876130 V
   0.3999026269999170    0.5977737549948059    0.5996302029866976 V
   0.6018574366442985    0.8027594135203437    0.6030935638175203 V
   0.9999309322267820    0.0011568839805702    0.8017962760665005 V
   0.1969187008613195    0.1972204396892590    0.7984986130872752 V
   0.4011068048712351    0.4025718997765121    0.7967366158418068 V
   0.5968206661566617    0.6005664700777158    0.8012513222531614 V
   0.8050118621779239    0.7992574200847116    0.8017436864413063 V
   0.0000083815822388    0.8073409571032641    0.2024916278009709 V
   0.0014816684029642    0.6004666016008843    0.4013769904441317 V
   0.1978962183814339    0.7989246757758018    0.3985481498332195 V
   0.9979022709264947    0.3960476994130596    0.5953521250600173 V
   0.2018403474694263    0.6020876990690067    0.6026273978632208 V
   0.4047364698781943    0.8007739474209162    0.5977736710427500 V
   0.9987754642660367    0.1954550200833118    0.7955554677578112 V
   0.2072962770051408    0.4029709771740214    0.7986978013101569 V
   0.4081686232007689    0.6070719921018481    0.8041663655956657 V
   0.6000848924326769    0.7998305187169998    0.8008148001777229 V
   0.9996429164961851    0.8038365307464216    0.3993227860718011 V
   0.1966756624649413    0.7925299888339381    0.5973413003280406 V
   0.0004332744451901    0.4002558708022602    0.8018315296470823 V
   0.2007652380716665    0.6010139141706199    0.8009419479864953 V
   0.3978385140726456    0.7975691274297493    0.7944939064314462 V
   0.9988945382427242    0.7985821128679562    0.6012655124156653 V
   0.0035343176934364    0.6026115709178476    0.8044915612848147 V
   0.2050867290993479    0.8012701551759188    0.8011797250193132 V
   0.0025335510780473    0.8028331692801852    0.7973020860605294 V
   0.7939089963304415    0.5919562786292822    0.3919792145301639 Cr
   0.0009175379082421    0.1998001647640301    0.1994503192848782 Cr
   0.9988738501568127    0.3987486332379160    0.3990289675728833 Cr
   0.5990558630727228    0.2003243936409869    0.9982801965622556 W
   0.5943029820191288    0.3996414258373582    0.2018453089072781 W
   0.9955572397689731    0.9937520602810275    0.4003215390533588 W
   0.8069184179128289    0.4070996005216432    0.8045827039188997 W
   0.6022053155780464    0.6030815764624260    0.6009456916315234 W
