Zr V  Cr W 
 1.0000000000000000
    15.4863295998759050    0.0024137293282322    0.0105674120120943
     0.0024156779473548   15.5040449564505511   -0.0174543962439357
     0.0105707746262879   -0.0174578174046017   15.4782021514271442
 Zr  V   Cr  W  
  10 107   6   1
Direct
  0.0004693355427707  0.9682879066525875  0.7582606346284828
  0.9979065888854862  0.1996581714205088  0.6077818942975604
  0.0003714699204078  0.4336115921158174  0.0392950344260142
  0.0039508529311785  0.5781327916442623  0.2207084069640609
  0.9610430366211207  0.7914542306589091  0.1942519254400303
  0.0032011185926450  0.7963501914669610  0.5991604906371588
  0.1974855266916104  0.5937259217856609  0.5994065123494735
  0.3584798715896702  0.8032645210177218  0.1996188684311699
  0.8327371267766790  0.4312914569052241  0.3976938444391201
  0.7504245178723770  0.7915993015817853  0.1985311939551462
  0.0009125389971279  0.0062941488862864  0.9987027511003590
  0.0035563004677395  0.9985379673099134  0.3936226963962258
  0.0011878817657971  0.0017440238195779  0.5713144404044693
  0.0006232411281306  0.1993566941075575  0.2019236329281267
  0.0007681169229607  0.2000869768040076  0.4000545693884733
  0.0015521847374307  0.2059768728080134  0.8093363204420913
  0.9991884858946547  0.3865372342201312  0.2309981050012389
  0.0200778060564127  0.3990792605606614  0.4088549667165252
  0.9963760712292333  0.4028144421358699  0.6006405670852529
  0.0005310008839923  0.3977958582691678  0.8008627007241174
  0.0008025604412725  0.6231432238970467  0.0130200702105403
  0.0056145961394840  0.6058733246156335  0.4179015770805639
  0.9942894968442987  0.5955653808487364  0.6095067200229671
  0.0003086461430173  0.5918533735316577  0.8096418145114492
  0.0014191947818558  0.8118269726491607  0.9929726796292320
  0.0026679152696030  0.8000635998005882  0.3956102988552687
  0.0002831285627178  0.7817978046991025  0.8045965863589941
  0.1996079129879367  0.0026525715940737  0.9977217443105458
  0.2000159362314822  0.0021332395894202  0.1987112092128357
  0.2020379445469281  0.9995664401079568  0.3969515375555923
  0.2013880387351747  0.9999557812916012  0.5972091999790644
  0.2032514832912748  0.0001632172976422  0.7991873214764534
  0.2016896324297835  0.2021393270940526  0.9998239143404474
  0.2009095749496563  0.2004494302026834  0.1990930790033311
  0.2026123242926285  0.1994896221554508  0.3993120514946890
  0.2011681939799303  0.1982973783109283  0.8004073775523676
  0.2030823694206760  0.4012522236413011  0.0008278156049173
  0.1984103282905732  0.3995477420137465  0.1992677158094695
  0.2064432357320316  0.4030036834960922  0.3988401811076321
  0.2009577376460972  0.3989053666797658  0.7011129423986614
  0.2017763110714136  0.6024443965438596  0.0015460276475613
  0.2067836571468082  0.6010717923781319  0.1992775277718307
  0.2011888466056900  0.6013512875680486  0.3937641333454631
  0.2007348275434714  0.6021056654608720  0.8060568593645658
  0.1996339793813299  0.8032160284727250  0.0003116746182441
  0.1714573109119996  0.7974260461256141  0.1975134303054797
  0.1996023534202570  0.8002468889850166  0.3976224530694858
  0.2078796381955660  0.8007020016605260  0.5987043784184178
  0.1996811586021818  0.8003302518735541  0.7992651122951087
  0.4014595455358887  0.0007474191915406  0.9985887102885531
  0.4020309528656977  0.0039794605555568  0.1984984777745827
  0.4003178129273975  0.9991924710186714  0.3990276276335711
  0.4023797522633543  0.0006640504925108  0.5984299415269898
  0.4009145029117004  0.9989749253156549  0.7972903834854910
  0.4011864968511763  0.2002484143643346  0.9988579571764599
  0.4007898456515342  0.2006472259386964  0.1997951803588074
  0.4005959799239540  0.1991500106459792  0.3997728092844836
  0.4022097572075462  0.2002403943723862  0.5991509282135555
  0.3998337751900765  0.4001243043254696  0.9987936066264589
  0.3997679903442177  0.3979889764406640  0.1993041623092456
  0.4012397073750146  0.3991955078635627  0.4005438763633583
  0.4009474333728565  0.4000076324783507  0.6013252853905566
  0.4014283436487868  0.3998842826339598  0.7987426823323196
  0.4025481182472009  0.6010309873475046  0.9999980738384947
  0.4042374456104372  0.5942783565604104  0.2006392410033625
  0.4017662812197959  0.6013329676783193  0.4005411561330186
  0.4053847557788576  0.5993210633889549  0.5993007808364087
  0.4010379746783093  0.5998682879693028  0.8007233792216467
  0.3996813971540978  0.8011465549014090  0.9950540693028839
  0.4006803216076000  0.7999500292714553  0.4029009148894913
  0.4019038639714955  0.8004206895619046  0.6005881807871177
  0.4009185375109579  0.7991372034859570  0.7989901175450275
  0.6006972440973510  0.9993242531616728  0.9986172462209651
  0.6006918875328711  0.9963881122425711  0.1988011931261533
  0.6007588872310606  0.9978099859793734  0.3978994987860231
  0.6010633287757948  0.9992820566419808  0.5970805741143559
  0.6010558556136275  0.9978604876000814  0.7977593684179604
  0.5994201691581801  0.1986913658157229  0.9998228808450144
  0.6011926045380508  0.2002516424895423  0.1988446559368295
  0.6001242887076088  0.1988465941851335  0.5991208898317626
  0.6007935851308175  0.1995140800159560  0.7998214610391094
  0.6006639511513915  0.3990791793103255  0.9990816685086870
  0.6015638334437590  0.4003824266953827  0.1994045751448516
  0.6003161677816599  0.3985634114637163  0.3980209237859443
  0.6012394239587121  0.3996266047907895  0.5976637599039588
  0.6000986788844003  0.4001285244772517  0.7992898031900377
  0.6025105899313677  0.5999728738498348  0.0038979890666058
  0.6049006104632612  0.5993401227971225  0.3955584103707780
  0.6020722068571108  0.5996748580440071  0.5969386236791929
  0.6029552026260413  0.5999906166403821  0.8015669069773164
  0.6011403980993810  0.8006173105455019  0.9982534793172022
  0.5645423187796416  0.7907542808393530  0.1989913624755573
  0.5996362080041395  0.7998432825009753  0.3984384093889980
  0.6013864560444023  0.7993860955611517  0.5984548856992786
  0.6002811596432009  0.7981888491495868  0.7985987380630238
  0.8015446747106174  0.0013819475784882  0.9971374175190253
  0.8011035788293859  0.9975518045460127  0.1982365193843943
  0.8000833753666442  0.0007273149620812  0.3980669901183048
  0.8023839707849121  0.0001031254529441  0.5989342313565591
  0.7985519316287770  0.0001038836307013  0.7988088276848370
  0.7995564858921422  0.2002843738905880  0.9995164998971358
  0.7991654745162348  0.1994669859808973  0.1986991707875634
  0.7994215133516125  0.1967284949057212  0.3984876116564997
  0.7943925753765215  0.2014814655764081  0.5994628008366890
  0.8004198876199033  0.1991203240491162  0.8013209562628385
  0.8027706488724948  0.3977316518656444  0.1950156248414092
  0.7977218010570764  0.4002261141204944  0.6005891633842406
  0.7999103320400548  0.4002291284635369  0.8004411855788552
  0.8034626204220715  0.6008101928605653  0.0004000015781627
  0.7940953690916889  0.5945292094251399  0.2079337794807779
  0.8029936891088965  0.6186609875878594  0.4037726760085132
  0.7987997761917111  0.6002126439873676  0.6005564990290433
  0.8013583540030361  0.5994529026951080  0.8025611217804097
  0.8024085684924085  0.8024689807031852  0.9975287931468625
  0.8065252996952724  0.8064583685570300  0.4012593136965888
  0.7961331665530358  0.8003126840155146  0.6006404003661158
  0.8007509048101416  0.7988294726272932  0.7988881686549693
  0.9998121466979374  0.0030115957357317  0.1973341375500497
  0.0005378052166064  0.2012163379432042  0.0036200436722757
  0.2048957588996393  0.2025533714041963  0.6000444922286577
  0.4014885180165542  0.1997964848001830  0.7994186393530256
  0.5998108206287980  0.1985539738098738  0.3982939582583467
  0.7979117038686312  0.3996222009996064  0.9983580350761518
  0.6015405601874589  0.5981238861351146  0.1989834205449659
