Zr Ti V  Cr W 
 1.0000000000000000
    14.6212482612180565   -0.0293758078654998    0.0154282161196324
    -0.0296890060193252   14.6236589552720631    0.0720936386109893
     0.0153304178043287    0.0731097023427220   14.2871691527117211
 Zr  Ti  V   Cr  W  
   6   2 101   3  12
Selective dynamics
Cartesian
 -0.5738793883157274  3.0536497268591289 14.2796800029982318   F   F   F
  3.1664569240921701  2.9365660079557623  0.0933232785941008   F   F   F
  5.7020079107704271 11.9136279360500836  8.7829230341041171   F   F   F
  9.3813545972796817 14.3733151529478587  5.8602227809343388   F   F   F
  9.0609398465496707  8.5483257409096520 11.4443026005335611   F   F   F
 11.9077002890798234 11.5022128009640792 11.3760723129301073   F   F   F
  8.4931373373680028 10.5807053408381826  6.4551827781394699   F   F   F
 12.1222947322928380 -0.1322446477245444  8.3183058788258979   F   F   F
 15.2926520242666673  0.2884507849215874 14.1989834521191902   F   F   F
 -0.7732171118776912 -0.0293300830886052  2.2890463444543232   F   F   F
 14.7401783763607028 13.7381810765248940  5.7703006409574060   F   F   F
  0.0830339687306312  0.6761692288072292  8.4522855555885084   F   F   F
 -1.0040974897159873  0.1992211557430514 11.8838931548347997   F   F   F
 13.8650671360650577  2.0936328414415581  3.6360870593970782   F   F   F
 14.9650389579800720  2.7712052835598677  5.6046944209982810   F   F   F
  0.9314854092026394  2.9653901174486030  8.5885549787458118   F   F   F
 14.3906961473674251  3.8245979788598130 10.8489400612646261   F   F   F
 14.3717005679753616  5.1706685103309766  2.8110843961050582   F   F   F
 -0.0118354781438466  6.3772576144140398  6.4742935401103781   F   F   F
 14.2865489637211596  6.4672134178700960  9.8267187592471821   F   F   F
 -0.2100600380305292  5.9280408515834955 12.3140370657459908   F   F   F
 15.0123219863996198  7.4649580671286069  2.8866222823801957   F   F   F
  0.3587933344556635  9.5074106973756418 11.5983293626605146   F   F   F
 14.3431128669442458 12.4377037747904691 -0.4554334674328397   F   F   F
 -0.5826484790512928 10.9463369701329771  3.0965631921773302   F   F   F
 15.1489819582783021 10.3657597292721473  5.9444403998552797   F   F   F
 -0.4043505473842434 11.4817650474974542  8.5598833377814483   F   F   F
 15.2792586093594149 13.1657447055241388 11.6029309091368340   F   F   F
  3.2634113306715400 -1.4345459132209890 13.8147839605623961   F   F   F
  2.6556936787502567 15.0974324454806688  2.8695903034584869   F   F   F
  2.3548225349617384 14.3457876369738813  5.8088876910457170   F   F   F
  2.8407352039585172 14.1442255922630746  8.7893211806171916   F   F   F
  3.3520038251860469  0.1788295220126877 12.1909835217843625   F   F   F
  4.0776225998796587  3.1516844818226879  5.0491236138797078   F   F   F
  3.6140703985620810  2.8954375637910919  7.0605995764204055   F   F   F
  2.3946397203578194  2.7460115702666243 10.6339240910721280   F   F   F
  3.0821860023397312  5.8372938193536710  2.6494589352697142   F   F   F
  2.4324754890538722  5.7393443263247494  5.0666399487950198   F   F   F
  2.9735078790524612  5.9965591200892359  8.8826575573866542   F   F   F
  2.7392768233635381  5.5436909680971329 11.6513780098435760   F   F   F
  2.2517758409019137  7.8783075468682364 -0.0309549398286088   F   F   F
  2.6383318543748762  9.4160326724432029  3.1722884169478527   F   F   F
  1.7130630522889572  8.2918373178734797  5.8530911588767722   F   F   F
  2.7951665649652924  9.7760986153200200  8.8990790844391956   F   F   F
  2.7392359096035417  9.3843125644967831 11.9970179692481658   F   F   F
  2.9179133903521763 10.8366161174998279 13.9383016873004220   F   F   F
  1.4148480174809888 12.2347336879755400  2.6976138203335847   F   F   F
  3.4995445884514980 12.1283648423618846  5.8414720453787199   F   F   F
  1.8746544557027975 11.9930453975547753  9.0078485753285165   F   F   F
  5.8498100056491680 15.0596627105981806 14.8520272602678496   F   F   F
  5.8694360874643072 14.5441211582095544  4.3207664208222702   F   F   F
  5.8011592248832358 14.8659312758938746  6.7769380108579833   F   F   F
  5.5579412574740585  1.0738503143375626  8.9613910917273873   F   F   F
  5.5541073350960621 14.6534908325299558 11.1470433636185202   F   F   F
  6.7477227425769311  1.9851174811052004 13.7916319624362291   F   F   F
  5.8537577240465088  3.4100192270057237  2.5832376956211092   F   F   F
  7.2567541142785341  2.8025246332453784  5.3833306845859372   F   F   F
  6.4199379864568238  3.6744379873021376  8.0386892258029015   F   F   F
  5.8139489853497679  2.8382863803001377 11.7968777402491494   F   F   F
  5.3137810603965585  5.8566233544382538 14.0158775276930605   F   F   F
  5.8236223538976812  7.1121263059180189  3.0471777519671770   F   F   F
  4.5457115488720516  7.4629047574700289  5.6778737104038131   F   F   F
  6.1402258978067179  5.6650117254328318  7.0267620080788511   F   F   F
  6.3168827404207653  6.2187508360630703 10.5160478214754978   F   F   F
  6.1440057670870196  8.5752928930475658 -0.4829896366088625   F   F   F
  4.5307015367520345  8.4690351231045380  2.0932516718037544   F   F   F
  5.5473359224134331  9.9832126700879069  5.5241215547657490   F   F   F
  5.1209496343238525  8.5051189155815319  7.9177479981389896   F   F   F
  5.4723760083207402  9.6474190595809137 11.6095945172029076   F   F   F
  6.4507724975956675 11.4020486984663911 14.5705030656535204   F   F   F
  5.2649755280084571 12.0794847458646277  2.6527647262444707   F   F   F
  9.2588629459692307 -0.9598827628506618 -0.0850173509132919   F   F   F
  9.0332050587693900 14.0600421225324652  2.1382460206840865   F   F   F
  8.3231893396376311 -0.1413747349340459  9.0513427023683892   F   F   F
  9.8694360476075520 14.4902914095869342 11.4251045630083770   F   F   F
  8.4709838621861113  3.9614418244271814 13.9469964092450542   F   F   F
  8.6668063530819488  1.6436610845785664  2.7280200848952449   F   F   F
  9.0873123902100890  2.1541129508203900  8.4828923637698157   F   F   F
  8.0847025371649437  3.0227066465443571 10.4875328749292205   F   F   F
  7.8347225700292187  6.4601957626342781 14.1472624673664367   F   F   F
  9.0910648461948256  5.1600679202282684  3.0995209591858583   F   F   F
  9.6237966345873840  5.3320143644858797  6.7059927569557045   F   F   F
  9.1748347905701202  5.6457507782674581 11.8342966359761341   F   F   F
  8.7661110219895235  8.4586988530579603 15.1857149638221465   F   F   F
  9.6057552495939156  7.1753082271977862  3.3823136054054239   F   F   F
  8.1987613550769183  7.6357060592550852  5.6901433829221979   F   F   F
  7.4886298334451187  8.8194990348288655  8.3247038512527389   F   F   F
  9.6048959193121171 10.7776705999299462 14.1433255290869244   F   F   F
  8.3384415169098443 12.0783949475290520  3.1966323260514611   F   F   F
  9.3083707572639671 12.0022734029839047  8.8745478098981962   F   F   F
  8.2671173991653362 12.0868942255368754 11.2696665406325014   F   F   F
 12.1870058768911438 15.3535471892304063  0.2312152333506879   F   F   F
 11.4923700387407859 13.9518756676317057  2.8762041250968786   F   F   F
 12.8337921333753879 14.5461367569062219  5.4506439394270183   F   F   F
 11.5379280802020006 16.2311601758890163 11.6748459367606490   F   F   F
 10.4719299724903969  2.5024036252021205 14.1233791418464758   F   F   F
 12.1246194521001129  3.2424491713925376  3.1718826116120673   F   F   F
 11.4989913537612480  3.1678352383076818  6.8912752319495043   F   F   F
 10.6591774908952743  3.8181135383941065 11.6786215608815294   F   F   F
 11.9844852435305409  5.4686467927620175  5.3923888576841881   F   F   F
 11.9427696932277492  9.6049146681951356 13.8483215458418307   F   F   F
 12.1808200892385194  9.0171299213577321  2.2999822489771669   F   F   F
 10.7184490643760348  8.0181496190501420  5.5893823721077176   F   F   F
 12.0375537063066087  8.4591744217502978  9.5226593245581963   F   F   F
 12.9969066649036353  8.0867336094622431 11.8397198925872669   F   F   F
 12.0251431783331384 11.5134417764105699  1.1593524331755782   F   F   F
 11.3635243686601140 10.4425903643120943  3.9368564698799493   F   F   F
 11.7804898338314938 11.7260424207545864  5.8968892588236663   F   F   F
 12.3578785409688692 10.2151731429953596  7.7450951719616006   F   F   F
  3.6213560714252986  2.6837513956719463  2.7651432400846261   F   F   F
  9.6398829604629626  5.8994181669477337  8.8500323002860490   F   F   F
 11.6694447061026025  5.9004953912962623  0.4782665006778907   F   F   F
 13.9118067696612950  7.4691736316428319 14.6860330058338366   F   F   F
  0.2468656414570153  9.9394961862475970  0.8960511373043232   F   F   F
 13.2798467505127942  8.5185720809389451  5.3420073178733425   F   F   F
  0.1306131721861351  8.5048115117637391  8.1032307651573490   F   F   F
  1.4423916738434506  5.4623054510163174 14.6921696017543120   F   F   F
  3.3117301552850655 11.9526427812165590 11.1393427593058743   F   F   F
  6.5095441716891695 12.3829975787502082  5.4530574119381718   F   F   F
  5.6070085010382487 12.5997241753663278 12.5326342852829526   F   F   F
  9.7259317781381451  3.0162561864726403  5.2673090417153006   F   F   F
 12.3176849252996803  6.7009748250522287  3.1317372137281194   F   F   F
 12.2237333825013899  6.6472576194734154  7.7232630989726747   F   F   F
 11.7223622160067737  6.1267945054103450 10.8598128128609677   F   F   F
