Zr Ti V  Cr W 
 1.0000000000000000
    15.4922094526580185    0.0026204863925650    0.0046977305367004
     0.0026188043060658   15.4835477254094869    0.0031726630963070
     0.0046996939887954    0.0031721804069598   15.4787035328288578
 Zr  Ti  V   Cr  W  
   3   2 108   7   4
Direct
  0.0003983473652879  0.5994242776126719  0.4013485593159276
  0.4055273826656196  0.8003798115617956  0.1933828449572761
  0.5662129700995514  0.7844454960251654  0.0161074343357090
  0.3972541615986539  0.7965003320484995  0.5990663250522055
  0.6016129588675908  0.2056979294730718  0.2053942416427655
  0.0001047046658613  0.9992267856246591  0.2014367989990067
  0.0000337434229931  0.0014543711511463  0.4006461200669468
  0.9996634302368350  0.0007794667593691  0.5990292484696694
  0.9959359802422497  0.9988251438265622  0.7973046709024565
  0.9963334993526742  0.2034590937666995  0.9993278185575758
  0.0005529661587609  0.1990522693761703  0.1996269489028458
  0.9997359749052758  0.1989840115698942  0.3999084799883446
  0.0000686948127750  0.2006290003433486  0.5994029036674732
  0.0012461672342023  0.1994351846010070  0.7991656029736630
  0.0006981926183633  0.4002197081986933  0.9985795722676986
  0.0020532661179804  0.4003554285312071  0.1999397125284740
  0.0004914072503723  0.3946698695902199  0.4000513852300093
  0.0006050089261935  0.3991500749787172  0.6000812268769388
  0.0000482087380897  0.4000227256559604  0.7984766622929875
  0.0002239026086039  0.5972965168232762  0.9977542286902645
  0.9958700560550621  0.6006545931042817  0.1946027644188367
  0.9993269240546688  0.5987371541977198  0.6045570532584124
  0.9986593932054276  0.5999460293231011  0.8011085100520772
  0.0007738303089804  0.8310827493211590  0.9997851809367959
  0.0015218947255576  0.8021184844463368  0.2007431144747368
  0.0017759996704019  0.8047595830721136  0.4007726109208717
  0.9997743230104558  0.7996341962383448  0.5995565858462275
  0.0009714690603553  0.7998121458442692  0.7992382834778224
  0.2018279197561406  0.0009826952609022  0.9998282511612595
  0.1994865838051660  0.0004499305491798  0.1989701201218845
  0.2020987591924934  0.0000454860341968  0.3991032733158785
  0.2004481245313398  0.9998752182825322  0.5990657866082836
  0.1984584716086646  0.9989937738386604  0.8002416806248895
  0.1977684901100805  0.1994740536505999  0.9991244265277933
  0.1994226673263370  0.2010318081883551  0.1989443854926401
  0.2008369263828219  0.1993457957729910  0.3991836452159500
  0.2002649843961789  0.2003572106085714  0.5992499068826743
  0.1997543437197082  0.1991097719747339  0.7998209562580240
  0.2008050382431601  0.3999427957632567  0.9990773281382277
  0.1995156582412254  0.4008405873818282  0.1991737918139002
  0.2023584284119836  0.3997621575318208  0.3988035517326229
  0.2000496307839543  0.4001924329302349  0.5988215750431436
  0.2012673718440515  0.5993160880422347  0.9990284497090826
  0.2007158552846140  0.6004707868861103  0.1973508243047793
  0.2052003715503988  0.6008422252842237  0.3982119697682674
  0.2010457332870338  0.5993099502423459  0.5997989451153776
  0.2005701314062963  0.5997603185289143  0.7999130824427871
  0.1939291916104301  0.8007632711472166  0.9986058647828179
  0.2022996842485063  0.8011641305452459  0.3990462982430200
  0.1974741566607593  0.7991817937275223  0.5987712884092923
  0.1976405537894017  0.7999226515843600  0.7971040923349804
  0.4007226332328188  0.0008702730278265  0.9986140314172639
  0.4008112117476128  0.0059089126365892  0.2005700928555770
  0.4008873650747350  0.0023355570632466  0.5994598353639402
  0.4018766928446788  0.9998342207001260  0.7989113914206587
  0.4004975543094453  0.2002920510398494  0.9989705826361354
  0.3983209375773241  0.2009440736128926  0.1987112940942711
  0.4009561985891191  0.1999067220922289  0.3992823462094821
  0.3996647037241255  0.2003869350934665  0.5995604684373466
  0.3999242224599997  0.1991524666765212  0.7996481437783463
  0.3998153707583019  0.3997004963770577  0.1983036762592993
  0.4005195976124804  0.3988977571582961  0.3990695401796249
  0.3999348575188746  0.3989725536227277  0.5985114805410037
  0.3993598360261979  0.3991868698434820  0.7990233134149792
  0.4032486240877297  0.5977949821572913  0.9970925252221728
  0.3998241330009131  0.5947968363110323  0.1999154522199394
  0.4026959083070994  0.5997535111971676  0.3974467054366007
  0.4010977151787842  0.5962354580694841  0.5993674457665782
  0.3994493242855708  0.5980738556793923  0.7976631793771660
  0.3783262429975843  0.8003093164719343  0.9883679685863004
  0.4003950288333282  0.8012823064317176  0.4004461279707933
  0.3991759236481797  0.7993177451929628  0.7974395914591447
  0.5977255637752490  0.0010316103036087  0.0022029595591924
  0.6019068075411915  0.9995356494837616  0.2034027642960554
  0.6005078684648619  0.0006021517114343  0.4020790689853562
  0.6001869181262521  0.9999574489238282  0.5999603743357690
  0.6030091129791839  0.9983592653658557  0.8004527987792426
  0.6026892043694745  0.2012498054569031  0.9987380298088271
  0.6006338624059864  0.1997116891247063  0.4032208209440075
  0.6006164023322599  0.2003639117470782  0.6000965135119772
  0.5989821493085783  0.2009723303934756  0.7985848854309774
  0.5975911959026771  0.4001700622782625  0.9984704502304854
  0.5986128491887760  0.4019639517056051  0.2007607079632059
  0.5989203550830998  0.4004080549633252  0.4003222824539865
  0.6003516620577103  0.4003926257037914  0.5997416945517737
  0.5992347620190021  0.3991225075090315  0.7973136701761341
  0.6060037131347220  0.6019905104932358  0.1956906608616415
  0.5985301860332989  0.6007448341526885  0.3998047602473939
  0.6005672891142617  0.5992864570542071  0.5999872007746829
  0.6095987459431506  0.8025290824061764  0.2135852455174618
  0.5993191665270375  0.8007931815250878  0.4062249051827848
  0.6021082306943100  0.7985668671865467  0.6023946528318016
  0.5987466472652714  0.7994496252711321  0.8018683255870249
  0.7952572267396760  0.0020052462177247  0.9986714507505221
  0.8010071973534107  0.9994318690984316  0.1999598525487849
  0.8000216210916694  0.0002433637673676  0.6035421975261861
  0.8031266926737000  0.2007707816945486  0.1963933723463450
  0.7998296500271598  0.1996059634469709  0.3989992153748452
  0.7999678661398549  0.1955693643300196  0.8031755066833941
  0.7997657690475601  0.3944310281154752  0.9987830198206946
  0.8009034062559511  0.4050367881815252  0.2000783179871237
  0.7988849185589547  0.3984065640454790  0.3999534955556677
  0.7999083949103377  0.3998979577703761  0.5991237820228412
  0.7999253656517112  0.3994574590934868  0.7987131935614713
  0.7950665202635826  0.6003303660890592  0.0023169678708272
  0.7942118687274367  0.5999054581254361  0.3954698035673078
  0.7990209707659056  0.5997977398919521  0.6002676994872160
  0.7998421478473990  0.6006466034231865  0.8007437010344239
  0.8062157825352915  0.8034803391457510  0.0019503820981934
  0.8032135490036013  0.7973553268117775  0.2012823516278544
  0.8006728258094339  0.8021774525386820  0.4024438018182521
  0.8008317878783180  0.7982977894997887  0.6001164410084686
  0.7992851853963164  0.8018594600105285  0.8027901445311693
  0.1999007856838500  0.3996847246888590  0.7989132183849726
  0.1979835544131289  0.8005090066883073  0.1992837359646994
  0.4009468246923729  0.0009044077345652  0.3994098495931765
  0.3994053891624160  0.3981575259345670  0.9982456085839387
  0.6000780566288464  0.5988302424090457  0.8007030924572663
  0.8000552702861725  0.0007893936409569  0.4015335981961888
  0.8004074651051274  0.2002033896548097  0.6005198937114220
  0.6027311742956331  0.5887706871595251  0.0005452803554606
  0.7996227665961672  0.9984162139205552  0.8021777567130546
  0.8005269206513710  0.1993268789046402  0.0003154875446151
  0.8021525935156721  0.6002357495205759  0.1999514156609189
