Zr Ti V  W 
 1.0000000000000000
    14.6853827578748088    0.0297835820478323    0.1122213727717476
     0.0298206486797816   14.5407478417437535    0.0151358330274621
     0.1127576065006712    0.0156506682204352   14.6102625195228804
 Zr  Ti  V   W  
   2   2 106  14
Selective dynamics
Cartesian
 -0.0460341378631748  0.6295488625658964  5.9117424419304854   T   T   T
 11.7381689378663623  3.0121666882955367 -0.1225187460086616   T   T   T
  6.7890280077995957 11.7460070995376498 10.7698494596212697   T   T   T
  9.5066390477274449  9.8021816813678253 11.2936412159240671   T   T   T
 -0.1927654862334370  0.4041589929823616 -0.5291176437552642   T   T   T
 -1.0352595573871737  0.3953429349107202  9.5121157483156651   T   T   T
  1.3004351072067359 -0.3223207867968116 11.7179247097293437   T   T   T
  0.7889767550642679  2.5961460455743257  1.0051739164860218   T   T   T
 -1.0570776799565305  2.4716550099587806  2.9363898742307284   T   T   T
  0.0587790858828016  3.8514359411270078  6.1792431020708349   T   T   T
  1.1471702930687924  2.3777258178627600  8.9698964688594742   T   T   T
 -0.3200918930832717  2.2874866859051117 12.1605456900745423   T   T   T
 -0.1040344764235938  5.5367569745870293  0.1257219056666598   T   T   T
  0.6073872422349555  6.0988641104788668  2.9526086692594022   T   T   T
 -0.9490492059172458  5.7947023575721266  4.9233981338741213   T   T   T
  0.2002700026499385  6.3944569247855165  8.7433710557751567   T   T   T
  0.4215970123808752  5.0672108741830932 11.8496621929022155   T   T   T
  0.6900499591821151  8.1296082084206667 -0.0785237082407552   T   T   T
 -1.2427483111568918  8.2836240086795776  3.8621907504286090   T   T   T
 -0.0551812560617902  8.0243987968158415  6.4075026243565194   T   T   T
  0.2000780240219612  9.5626495279304784  8.6930984199887824   T   T   T
  0.0542223340691815  7.7557301127024632 10.7539402340382075   T   T   T
  0.3945744969326676 11.4013963412117061  0.3633344618901881   T   T   T
  0.0399019118711093 12.2728625562401490  3.7226410711379243   T   T   T
  0.3718509308728614 11.0951788504618989  6.1935979524003937   T   T   T
  2.1877884926105411  0.6704102219965951  0.8151076339059035   T   T   T
  2.3938785014420629 -0.7066306041616333  3.2385252921769485   T   T   T
  3.6314394659210869  0.4227384521931834  5.3878939181073884   T   T   T
  2.4076954241511483 -0.6455455722915202  8.3204321259866258   T   T   T
  3.8600419834855506 -0.1069672344383731 11.4099688315573964   T   T   T
  3.3608706370082091  3.5625195001038579  1.0372643499322467   T   T   T
  2.2318717486906894  2.8978158793626880  3.3603698050925841   T   T   T
  2.6726598131498309  2.8464213349645053  5.8277633884262121   T   T   T
  3.9366378255482863  2.6690131584331640  8.6954248784650083   T   T   T
  2.8010097915695615  2.9894311954669983 11.9802294605719801   T   T   T
  3.7358740319984483  6.0931826392264252 -0.7356915262683825   T   T   T
  2.6909610378738549  5.3737935664274188  4.6948416830277218   T   T   T
  3.1691108388507323  5.4985542561193217 10.5356675253700658   T   T   T
  3.1171493235903203  9.8308604423626260  0.2748484399208125   T   T   T
  1.8205883089216708  8.9926745662145855  3.1893315144469354   T   T   T
  2.3627490768026949  9.4952978112030326  6.8067737380580029   T   T   T
  2.8308217707032011  7.5310001796544768  8.4413390330488696   T   T   T
  4.2958712971436732  8.8003780335484603 12.1423222893138778   T   T   T
  2.7099748987573742 12.3547773898581212  5.3161301470874518   T   T   T
  2.3101236632923876 11.5275772215726526 10.0318524755989742   T   T   T
  3.7676681491602833 11.7128196620507588 12.8788121260916988   T   T   T
  5.1681388449318524 -0.1420775166101976 -0.4306414170885073   T   T   T
  5.7174335088549739  1.0763109193462421  2.7778130901390181   T   T   T
  5.2237001643970871 -1.5337823395991417  5.6123015057514447   T   T   T
  6.5072346877727973 -0.3688188673017483  8.2133299728425726   T   T   T
  6.2820653967391014  0.6440969442123206 12.0602465091542541   T   T   T
  5.6432796827598644  2.8683277804990119  0.3166336141142996   T   T   T
  6.6908031618392503  2.1724395973912123  5.4005331830560301   T   T   T
  7.7520670636865123  2.9919012623888053  9.2090022888970609   T   T   T
  5.5190930533037683  3.0274293233805643 10.7312741858844962   T   T   T
  5.8188015063537772  6.6200000989443524  3.1184335686995697   T   T   T
  5.0051180265967279  5.1327947481637715  5.9600775814651952   T   T   T
  5.3677907731022145  5.4712554334548678  8.8576919495884034   T   T   T
  6.1041490980177580  6.1667519973573324 12.3004399007362686   T   T   T
  7.3234685078855817  8.4125148052450491 -0.0414560578275708   T   T   T
  4.5649432545100002  8.5750459443353808  2.1668129102350582   T   T   T
  4.9382992175944409  7.8651989648495020  6.2439560437276320   T   T   T
  7.4441769652983929  9.2079904856413091  8.6359861469235746   T   T   T
  6.2266764238117496  8.0929177150848588 10.6078973720765788   T   T   T
  5.5248737710037803 12.2095691504351009  0.3408546825756172   T   T   T
  5.9265238540660246 11.0092340072671782  2.6480250702754091   T   T   T
  5.7616513717496414 10.3717096975085070  4.9591659357703097   T   T   T
  4.4466502275672708 11.0619249125098094  9.1204584824398474   T   T   T
  8.9131971712007925  0.8975736843968787  0.2101444838177595   T   T   T
  9.2333676672783049  0.0798629251541867  3.7914596139301775   T   T   T
  7.8825454013663094 -1.4338040465530053  5.5077709061070070   T   T   T
  8.8163675694163555 -0.8476508633945785  8.6535969311541709   T   T   T
  8.6364479315385481  0.0287006595425611 11.5807912397252473   T   T   T
  8.7692069349238970  3.1604232753794674  0.9664883537943060   T   T   T
  7.7513152851815894  4.0003445612170125  3.0312244112975790   T   T   T
  9.6226713828931132  3.3560343152714496  4.9950583918853697   T   T   T
  8.6953206902614646  2.3889611031975404  7.9627468391900509   T   T   T
  9.3154325051240150  3.1222475202397959 12.5900526573599514   T   T   T
  8.6644859916109613  5.6323715390947093 -0.0395210391732924   T   T   T
  9.0614960922230274  6.4420268924508806  4.0682893609158164   T   T   T
  7.7368018576252595  5.0688949157250995  6.1721990743230561   T   T   T
  9.8585783286175452  6.5110163171510509  9.6305734132433845   T   T   T
  9.3046632932680513  6.5751806506492301 12.3772933267286511   T   T   T
  9.8886040597145843  9.6649521773206430  0.3484302654862277   T   T   T
  7.8637255438029880  8.5227253334096496  2.9807262745417051   T   T   T
  9.0281130951012383  8.6436526109158525  5.3852806905682540   T   T   T
  8.3568284207674548 12.3058816221265026 -1.2605323255915835   T   T   T
  8.1463992274274943 12.0210234685265025  1.3500857703852784   T   T   T
  9.9243952570735949 11.5142366071631272  6.1443557910963271   T   T   T
  8.8204489839959663 11.1864069508153356  8.5361884864359787   T   T   T
 11.7640054739355620 -0.4694981265366019  0.9920598123556515   T   T   T
 12.2047164767834300  0.5692469866666015  3.9693465239204642   T   T   T
 11.3381234938747291  0.6479878994978525  6.8268517382585641   T   T   T
 11.0649001635601838  0.3945190840630444 12.6840076996379487   T   T   T
 12.1825591890620935  2.4106157368703949  8.1458833106740975   T   T   T
 12.1607888341129993  2.2430239671510321 11.1788251338295055   T   T   T
 11.9745867663344931  6.2668848985321253 -0.9059515297334343   T   T   T
 11.6442556892352904  5.6172013058790959  2.0541553035673732   T   T   T
 11.2100126236294919  6.1422432420159474  6.0465730591144284   T   T   T
 12.1227537066466304  4.6853739914421801  8.8219695303366166   T   T   T
 12.5700690201331327  5.0368729222272908 11.4715392953068189   T   T   T
 11.7719178898277086  8.4352141947747672  0.4824097914303909   T   T   T
 11.8836989295311675  9.3921255036490479  5.6380830086901872   T   T   T
 12.2675234499534973  8.3586405620811526  9.5303272171345537   T   T   T
 12.8875587236647320  9.5114394111722049 12.2050612730418386   T   T   T
 12.7165750027007434 10.5130865200182360  1.9194054597911676   T   T   T
 11.0395475419258098 11.2055494606554085  3.8241196079705886   T   T   T
 12.0976157378250893 12.9496830581287163  5.8358054344084307   T   T   T
 12.3848119094476807 12.1487191189075610  9.4611420709980560   T   T   T
 13.4043195119982048 12.2989013714242734 11.8506715520221686   T   T   T
 -0.0851815792508709  0.0070358893274178  2.3355723691098227   T   T   T
  0.3119135933845588 12.4642434999778651  8.2256825539242300   T   T   T
  3.2016547061866332  6.1928737921070702  1.9354733438218912   T   T   T
  2.5064131702366588  5.0438464346757197  7.5264887835444423   T   T   T
  2.7875341236300830 12.7952246815813417  0.4505164138186739   T   T   T
  3.3106585161723325 11.2577113762546723  2.6245155764508983   T   T   T
  4.9202183746419053  3.9969363053968396  3.3434190564624533   T   T   T
  5.8661157893687781  5.3254282534486554  0.8925167657237203   T   T   T
 10.2534444862026390  9.0226651639106521  7.8053937335093178   T   T   T
  9.8222438027945120 12.5031312807922106 10.9906818946903542   T   T   T
 10.9958681796805173  0.2955675363582261  9.8229393205908178   T   T   T
 10.6789682027934472  2.2996635433083501  2.6675941968446253   T   T   T
 12.3136649921361077  3.1907676293428562  5.1332706766566396   T   T   T
 10.7723983825227894  8.3765290816460869  2.9747064895482822   T   T   T
