Ti V  Cr W 
 1.0000000000000000
    15.4073529780286407    0.0026422717652441    0.0115039126781883
     0.0026423919818586   15.4169890810637895    0.0057190451176722
     0.0115025714523025    0.0057202193077188   15.4178430470237693
 Ti  V   Cr  W  
  13 101   9   1
Direct
  0.0000709738627185  0.4045368181619686  0.5955477675093740
  0.0002261712178083  0.4034059851654475  0.8070902443995248
  0.9968709762656529  0.5996191843417800  0.0068870416353354
  0.9927866133999720  0.6024279263986372  0.4126093824801647
  0.1966633003066408  0.8090272967406976  0.8007974510827612
  0.4038725628816845  0.9983098374641690  0.4003335567888165
  0.4017249316339214  0.6040284444326762  0.9984533906498145
  0.6003947454847340  0.3981521822820313  0.3909871514654277
  0.6001147288269968  0.6072530385765720  0.3944498781946857
  0.5993770083779797  0.7928728460463617  0.0023015603697905
  0.8009463910318025  0.9993521366375125  0.9955155117113177
  0.8075407697311923  0.5983932347414872  0.1893983577559368
  0.8078719777489621  0.5992759402194437  0.5939474595212489
  0.0022314877690264  0.9988431633456137  0.0030353082164556
  0.0003834749348252  0.0000064035002134  0.2001477011172160
  0.0007936983389518  0.9984357931534967  0.4006235382378723
  0.0015340004035694  0.9994938710706657  0.5994793180301622
  0.0003934347389605  0.1983849948940568  0.9997613247783906
  0.9997103735129118  0.1987963123257020  0.2002351596455230
  0.0002992076816766  0.1997601054953955  0.3987884186557204
  0.9973003882038284  0.1976262460333828  0.6022505912528114
  0.9994379549639583  0.3981886609971911  0.0021439318945637
  0.0003814144754626  0.3992356496801590  0.2007807654961068
  0.0030391222994638  0.5999343824407520  0.2033105371363374
  0.0055396470915046  0.5985886240708508  0.6060114575442090
  0.9988904531967554  0.8016683399286411  0.0016111641435035
  0.0005411439766881  0.7997708489164217  0.2026900659964203
  0.9990671224040073  0.8009335475492866  0.3997747627000624
  0.0010034444394733  0.8997808813368487  0.7009769027327200
  0.9979966483138577  0.7993387521797907  0.8030754874244417
  0.1994602099076062  0.0012687454288088  0.9998771728721985
  0.1994400021609323  0.0000701737590880  0.3998211356207222
  0.1997344738689742  0.9998291865945916  0.6005936613153702
  0.2023479972509830  0.0030578644778006  0.8005467864255644
  0.1999256223211170  0.2005484720754259  0.9999608921581311
  0.1997306152374876  0.2014662173903405  0.2003476129843277
  0.2001265522010572  0.2001537976903010  0.4011177409847370
  0.1999306535884696  0.2010505246692723  0.6000157992357292
  0.1995839567570322  0.2016347247433217  0.7992720683486928
  0.2004475731189984  0.4010437704977007  0.0006121577486264
  0.2003388650676374  0.4009212454471682  0.1998470171680885
  0.1986145040841275  0.4009539070894179  0.3987437416873393
  0.2018579992701566  0.4000050609153334  0.5999997537607905
  0.2018454789407435  0.4018497862171803  0.8005810922829321
  0.2005018208003879  0.6009375681700520  0.0001528455052462
  0.2005505908278380  0.5997487363529298  0.2017938006612887
  0.2011017795568278  0.5993974403971480  0.4014800422633944
  0.2003185476617026  0.6005262888323319  0.8000436468642322
  0.1992615779893615  0.7998934390126597  0.0035374678775739
  0.2002346461412749  0.7996182457427823  0.2010417414945740
  0.1990892077210999  0.7992621270979108  0.3998300250148777
  0.2030098668006391  0.7985108183717586  0.5992989752604777
  0.3997268122921184  0.0003199126786460  0.0000538867403654
  0.4006020299223829  0.9997890644041897  0.1981281514644305
  0.4015140336039372  0.0000966278110328  0.6023410907863196
  0.4006968862960603  0.0000092543646495  0.8006561646618560
  0.3994004068929023  0.2008735909913817  0.9992142825219921
  0.4009223787135837  0.1997475997771436  0.2000374730910146
  0.4003466967446780  0.2026673910121391  0.4005615158537550
  0.4016289247083868  0.2010432396564965  0.6001488368957700
  0.4018529765663449  0.2004715196271800  0.7993951576047690
  0.4010564996543466  0.3991004497319558  0.9999395365035288
  0.3996376627967315  0.4009561456850264  0.1995595803355789
  0.3990959951654081  0.4008924181415853  0.4003462309237147
  0.4008868064905524  0.4017267100847443  0.7991237302906560
  0.4005869957808442  0.6002582056283822  0.2011716862865726
  0.3992929992008488  0.5988168068158364  0.4005494139757794
  0.4013748565708234  0.5997049252054720  0.6005781959773746
  0.3979296815816322  0.8018600319635486  0.0003236468508552
  0.3997566369146375  0.8006011402927187  0.2010644911083182
  0.4015010469851059  0.7967535477699970  0.4006039467034820
  0.4006271250838936  0.7991134750270560  0.5992039729960618
  0.4036517355368725  0.7991718779253555  0.8004343804618658
  0.6001006037350881  0.9999521231539541  0.1973242706195308
  0.6028026000679344  0.9993333432276061  0.3983317363629821
  0.5994166314690960  0.9997309426066009  0.5986640349552876
  0.6003026597354362  0.9990031953507386  0.8007323282539968
  0.6012942527642741  0.1996371491849512  0.9988524342273064
  0.6006784274406068  0.1995354010007954  0.1987505046640031
  0.5999327146313121  0.1984129876312207  0.3980242865581715
  0.6037446510869192  0.1998889557094181  0.5991040707278522
  0.5999311239644362  0.2012405141512998  0.7991228116351560
  0.6000384684097271  0.3993546086478439  0.9981598367267073
  0.6003214665866693  0.4004548062993413  0.1954610526992174
  0.5993358552095081  0.4028791241358997  0.5989377929881767
  0.6006061854082021  0.4010885938674604  0.7991115625767619
  0.6011938752223135  0.5960739206480478  0.9968240613009997
  0.5985376081882193  0.6007919911789977  0.1939062997773852
  0.6008850584784381  0.5996593803027505  0.7976942166670796
  0.6005429073620200  0.7998627429815354  0.2010288158481062
  0.6008675291861579  0.8025914876617281  0.3988965952636708
  0.6013188355545763  0.7992057165593960  0.5996124370487614
  0.6014515848264268  0.7992353736345086  0.7987058765648497
  0.7991884595519012  0.9994267785688257  0.2005129672920652
  0.8007444263993309  0.9999618012488497  0.3982343255893767
  0.8013488809034529  0.0024184551890589  0.5999697959612316
  0.7988189378962347  0.9984507526598160  0.7985471502561819
  0.8006558601839727  0.2016847664722922  0.9971927429642551
  0.8003265652887717  0.1999122851992451  0.1999443811412533
  0.8010747256608212  0.1994124818897320  0.4033618357285958
  0.8012618953749512  0.1988136169636342  0.7951564050006332
  0.7999245141398957  0.3987625425737060  0.9989491628731703
  0.7998279430240809  0.3981479172981194  0.1985925978490120
  0.8015970614987268  0.3997833245549318  0.3967754901481010
  0.7976197985125414  0.3939097209645608  0.5977952156421094
  0.7991289674240545  0.4010634651880934  0.7985197973633873
  0.7972978886655903  0.5984265396654253  0.9932865110078489
  0.7970516462385063  0.5991726270567260  0.3966463591017038
  0.8021937593227650  0.5994988753109559  0.7973332728421130
  0.8008194947121897  0.7964889269921690  0.0000693839456054
  0.7999579505825687  0.8015844413559451  0.1993477047654891
  0.7999747051811358  0.8000702572469138  0.4000701633588773
  0.7994027668356476  0.8012895366519478  0.5985212542980135
  0.8001022959679064  0.7996185060798454  0.7979045151709284
  0.0003376163216722  0.1950956926493461  0.8011200349234382
  0.9998682841158463  0.3972651699218491  0.3972117914867069
  0.0006698306642396  0.6046697975613169  0.7998714683257840
  0.2007190612601172  0.0001618981739169  0.2001361387213967
  0.2023393864381833  0.5998753747620855  0.6001611319323246
  0.4005967785827945  0.4002840686998020  0.5992094569407403
  0.4009341189523588  0.6005870477958171  0.7972143020445075
  0.5975064617606812  0.0015832002756879  0.9994533707571568
  0.5999511949652164  0.6005808607136477  0.6005183970261555
  0.8001526337797378  0.1995407072886019  0.5977840573812536
