Zr Ti V  Cr W 
 1.0000000000000000
    12.5062221911064633   -0.0118592771758309   -4.5188867799002281
    -6.2437795351313943   10.8693910899341972   -4.4629948533269008
    -0.0196216462483696    0.0342470852872195   13.5010443303164465
 Zr  Ti  V   Cr  W  
  11  18  74  14   7
Direct
  0.0014054070818155  0.9898808746334968  0.1944529775394527
  0.9898480248354817  0.1892540234683306  0.3908429356494423
  0.9879758938754342  0.6000392886742303  0.3883785736979707
  0.9990306328099979  0.6087433044004090  0.6040825676351570
  0.2123030443336044  0.1805990176055998  0.2060693169016408
  0.2047639732841578  0.5956330510883061  0.3841802600607312
  0.3799867959385239  0.7930245827617479  0.7891500451881818
  0.5962726073207887  0.0100211891555262  0.8058307216132744
  0.5925169764863916  0.7994948920142617  0.3855217071105666
  0.5922826508377583  0.7958870913613519  0.5986553778264325
  0.7937431356054574  0.3995231019129075  0.6036488550639807
  0.9964095727413218  0.1983090069548042  0.6093434344085327
  0.0023022800250512  0.4019801476898015  0.0077445098470522
  0.0053089543579117  0.4027923603719228  0.8053872162058018
  0.9974631897875040  0.6090285220351894  0.0100245982776330
  0.0140613826459602  0.6233222516564880  0.8234426666575482
  0.2090406189031508  0.8551527212428744  0.2011668077248010
  0.2025325125824057  0.0137145825430283  0.3979038553207253
  0.2025927919368028  0.2019427473666681  0.8002520595023276
  0.2110381812728905  0.4018197251995149  0.6107255310996605
  0.1984589733975130  0.8150674936331481  0.3972807437072524
  0.4084712562938957  0.2070886028433438  0.6087969858732811
  0.4178659834910489  0.4008204769575615  0.4101705571146534
  0.4007222337975039  0.6037099860742218  0.0021944118170173
  0.4004608325543721  0.5775311811219040  0.3698598347157248
  0.5964271542667446  0.0008149183728596  0.1977277255445414
  0.7971410344247479  0.1996311443263801  0.1988912077188402
  0.7945697173687224  0.6000177178543581  0.1965928767696459
  0.7999381488760410  0.7946551470319815  0.7951349591912331
  0.9917195501591364  0.9885259898715096  0.4047421884329828
  0.9951555620248810  0.9935925625084802  0.6002374823696028
  0.0055870751276851  0.0017670394549679  0.8027268380774828
  0.0071902377456668  0.2004945019515488  0.0059310008050279
  0.9965826693971583  0.1969563655659689  0.8110601726789155
  0.9851861607673301  0.3770977910282120  0.1916660835939966
  0.9881053019887267  0.5760393923487950  0.1803674892273809
  0.9997490388824709  0.8046556824646554  0.9922509461730997
  0.9857571209690278  0.7782655869183746  0.1963095498386631
  0.9984878764679347  0.8179539955813439  0.4085676913709951
  0.0004494923319314  0.8155465003668038  0.6060006105908625
  0.2048386694982307  0.0012932927002067  0.0023370978779724
  0.2039610468804468  0.0113011248499196  0.6073135826999216
  0.2092454894466860  0.0085264779930821  0.8079678553660238
  0.2112287476871102  0.1979230578051736  0.9999427162362988
  0.2211414781242526  0.2204304950133014  0.4291637148552693
  0.1995374006636616  0.1906640484934445  0.5983287573555500
  0.2042487592412192  0.3944892985499709  0.9973519718152087
  0.1988592435698071  0.3895282797355854  0.1840264294455813
  0.2082891399534889  0.4080389702999480  0.8114600848843651
  0.2057153859124806  0.6165974919567059  0.0031442997550999
  0.2186955872833814  0.6137425977059545  0.1893383588398765
  0.1859194855128789  0.5768689975344650  0.5774918750410165
  0.2020404380315893  0.5976625564725414  0.8064591137519729
  0.2028184630931748  0.8239782458761161  0.6098100756465796
  0.1912976546618425  0.8166899218454851  0.8174917009621031
  0.3998131240368051  0.0100135967695954  0.0022800123210998
  0.3990167427047108  0.0129144083543267  0.2011954081838770
  0.4018620433000287  0.0126620926483745  0.6077766825753155
  0.4161365919447259  0.2066351246635297  0.1948104255013791
  0.4149513960638235  0.1951435624619627  0.4036970607253729
  0.3993298941288149  0.3947193784731391  0.0001002249800715
  0.4045434919310831  0.3929135643352926  0.1924085625195263
  0.4147945093240765  0.4103306691394810  0.6152050420742232
  0.4010881071580581  0.3966576792810848  0.8058618025740046
  0.3910460165628982  0.5791521467087004  0.1788707459865047
  0.4046393024504719  0.5898744667490513  0.5996483452063193
  0.4088804300212532  0.5946562856391037  0.8072052152237789
  0.3875983056546782  0.8061688535806985  0.0042786563694165
  0.3997088938161144  0.8160881695131006  0.1983075837496370
  0.3967539269271278  0.8322350020939775  0.3962590163887458
  0.3819606827762768  0.8209622000101134  0.5859032146108410
  0.5932139289126908  0.0016773460670543  0.0044006530571877
  0.5985887794425955  0.0159287485942516  0.4018869540442890
  0.5907488760355614  0.1972645149073756  0.9973113283283298
  0.5965933755139934  0.2048080542288988  0.1983178018414647
  0.6060554475393016  0.3931993620781456  0.3952649437214719
  0.5974562847796960  0.4020949336695163  0.6067078013446582
  0.6035092636717441  0.4006871586437505  0.8076951096969447
  0.6017404294758408  0.5972400385993306  0.0019304846959582
  0.5937647184953380  0.5926092342841045  0.1938340321874120
  0.6059101315106148  0.5895112100670579  0.3943376333862161
  0.6022088156777377  0.5976487276999031  0.8043589419582921
  0.5955082964864653  0.7967202645389965  0.9989070612348055
  0.6074951716659864  0.8010212573676919  0.1941546949927562
  0.7788573457153454  0.9742892574046581  0.1811823607392735
  0.7926840113589314  0.9966997741830070  0.3971655559859733
  0.8047091363217120  0.0099147718141452  0.6060950134359294
  0.8156457109834502  0.0196766722398061  0.8076328876815028
  0.8054303652683557  0.2104712415279824  0.0033476558163467
  0.7890209223758421  0.2046430866675167  0.4076698040174205
  0.7907217080541286  0.1947038707164977  0.6005521301493711
  0.7967515633660424  0.2036380859914454  0.8015537752083410
  0.7792543183205274  0.3874867600565258  0.1821410339890707
  0.7916682982880426  0.3896687497014090  0.3843692707754133
  0.7903491893388358  0.3933714949057602  0.8100013911022237
  0.7918834679467729  0.5914325484193066  0.9951966872389704
  0.7780539278501089  0.5928911009047851  0.3926483409237224
  0.7840924447700710  0.6064340384972408  0.6022505388236973
  0.7967206315946674  0.5955962233233764  0.8079498702271062
  0.7949988262310407  0.7887843755242310  0.9961180962740214
  0.7944210432101318  0.7979713784120411  0.1967831818161109
  0.8017205464235651  0.7979887598727381  0.3973017473610113
  0.8074903190706464  0.8017397646805565  0.5944101591457233
  0.9985303449073979  0.2000531906689134  0.1886651116960679
  0.0022319138968742  0.3995251840514532  0.4009429514929937
  0.0074468840995790  0.8107264675311636  0.8042591657321562
  0.2072533443200293  0.8149895683085497  0.0042287798884527
  0.4144399592621750  0.0190791896003204  0.4109240365794756
  0.3905088690713311  0.0155948336588732  0.8016935633548302
  0.4002878069645112  0.2010775350584988  0.9984376390964864
  0.4035836906410705  0.1992984938522449  0.8058770055948070
  0.5953823984486015  0.1965642165541737  0.3941259506950156
  0.6003322945585342  0.2019851050580372  0.6011390813198103
  0.5980424620953156  0.2122218594068545  0.8046797100921542
  0.5972205239098093  0.3961053536026754  0.1914891735037284
  0.6032877379930188  0.5924076313332000  0.6024050545463003
  0.7921507888588371  0.3949698380839656  0.9976632477784250
  0.9962537596371220  0.9969432807472658  0.9869627532014685
  0.0038949493601145  0.3992738784470609  0.5985231669644838
  0.1981103542508704  0.3893557905908804  0.3925818893161028
  0.5989932896936212  0.0137641608676319  0.5998445521152218
  0.5936711781533327  0.3942269454174424  0.9970742312026827
  0.5969127523992875  0.7917820888884834  0.8051017325745252
  0.7980967796998156  0.9993465286580889  0.9995251312886441
