Zr Ti V  Cr W 
 1.0000000000000000
    15.3205282173675101    0.0002014824685806   -0.0032720455521328
     0.0002023707323046   15.3277042438828079    0.0007193262014022
    -0.0032728540049734    0.0007198926617368   15.3420216939870571
 Zr  Ti  V   Cr  W  
   1   2 101   1  19
Direct
  0.3910494596845934  0.4186324642492628  0.8172266584770226
  0.6094574740658262  0.6091386811252527  0.0074062601737511
  0.7897958638384883  0.7905626475068058  0.0100595369072388
  0.9964816211648183  0.9980440598000314  0.9944635083442507
  0.9991190587641614  0.9985295821840103  0.1984650066567823
  0.9989748572594900  0.9990736425147362  0.3994459962748348
  0.9989287357641007  0.9962488213530555  0.6054888336147914
  0.0030635287790800  0.2007469005974062  0.9984654555824832
  0.9996978386494342  0.1993740241830381  0.1989627662595738
  0.9993411435888235  0.1989558499762601  0.4019737343331889
  0.0070371864043590  0.1995959098981315  0.5987555005914941
  0.9962417124864151  0.2013069570553156  0.7973872830156369
  0.0033036199905209  0.3987334968063315  0.9970374951112172
  0.9996342093805392  0.3999848886779560  0.1966692138566443
  0.0003854366714431  0.3999730135039554  0.3997621373669397
  0.0006486055116275  0.4007136846651870  0.6045987705491638
  0.0020856696674465  0.5990921179483858  0.9943295938940510
  0.9988262008432092  0.5979575368825110  0.1979977004978797
  0.9959132644032849  0.5977097861151619  0.4058787987355384
  0.0031257962455846  0.7978192835200351  0.9986885442960880
  0.9958106271491970  0.7979552015201479  0.1987292908574815
  0.0029429445622743  0.7988799254783373  0.4039376241492135
  0.0014233259047223  0.7980102522245736  0.7971001771728612
  0.1999728363832000  0.0013311220330265  0.0007054958599885
  0.1981849174453367  0.9995475940216862  0.1984863284572918
  0.2039591976720531  0.9957425611507048  0.3983741074508719
  0.2010848450370762  0.0042518198627162  0.5999444594559371
  0.1940276743431332  0.9996814363620338  0.8007273489725759
  0.2014618697078745  0.1985225907051300  0.0001642103505319
  0.1993384745536031  0.2001913064046092  0.2013039970385055
  0.2005571965882081  0.1994703147285823  0.4029692608718041
  0.2010800087398265  0.2007217701984602  0.7954414679680782
  0.2065007367312679  0.3982279483372418  0.0000890045059943
  0.2005431629115215  0.3997794160047637  0.2009336344198087
  0.2008592562799787  0.4003558822757988  0.3981453214743200
  0.2026839490539240  0.3954269809143771  0.6000063082277223
  0.1898624962133122  0.3984582271289973  0.8006329784659917
  0.1983860928458033  0.6009314968530681  0.0010406684610737
  0.1987200944474177  0.5989701988804417  0.2001508677667067
  0.2011855417517619  0.6025927844572965  0.4003999039451093
  0.1975854890220620  0.5975835289428101  0.5989694930402295
  0.2014021958940658  0.5974721248413237  0.7998727216474285
  0.2002616180361432  0.8006687666502218  0.0033253142712160
  0.1993961687480515  0.7985110045321002  0.2033199934717937
  0.1977588501323366  0.8011405964629781  0.5934524866856575
  0.2012955134027948  0.7990060705105222  0.7997728426771342
  0.4002043259245235  0.0014480789396667  0.0009367501076159
  0.4014904257675799  0.9990920245493200  0.2010624202599166
  0.4005002333654609  0.9983252263202763  0.5965962921905934
  0.4002373337025021  0.9951356953010928  0.8016896307423489
  0.3998882814714839  0.2029864131477737  0.9986119858217370
  0.4000751590456589  0.1998329530817085  0.2006365574461348
  0.3993384433279245  0.1954952809994820  0.4001601452482985
  0.4003071687062905  0.1997135324529566  0.6018500444662146
  0.4000479562594683  0.1983802239687192  0.8000582537874038
  0.4040806240477047  0.4014789610249384  0.2024663680408287
  0.3998823505357125  0.4017354860826540  0.4007898824656538
  0.4007312162951653  0.4001661652412192  0.6020613764396925
  0.3988058572666296  0.5983883381358586  0.9965637990148790
  0.4020391644821789  0.6009419040973933  0.1995728406784006
  0.4006619421975108  0.6002381229094887  0.4031599177908068
  0.4003539533778880  0.5989949964563639  0.6049833046001937
  0.3974907951042415  0.8013820784690825  0.9978032909828314
  0.4012784554258679  0.7976096800210075  0.1964619710184820
  0.3987281141817063  0.7999474580535353  0.6029234753266887
  0.6021563682934686  0.0030350439584150  0.0006399142083962
  0.6004301345453001  0.0006734636350772  0.2000994253283377
  0.5961345443049610  0.9986276939890864  0.3985575870022361
  0.6018916413866696  0.0025067383812002  0.6010415453832636
  0.6006327152527680  0.9980481956749775  0.8012660476147095
  0.5987877898339481  0.2003017176654217  0.9994609273944788
  0.6016042622198596  0.2027051192283635  0.2010479240319128
  0.6004619210010063  0.2003552174539245  0.4040633090319398
  0.6012380150228259  0.2012661615752555  0.7977260589911741
  0.5965554665032724  0.3981096346585717  0.0060878425363722
  0.5989798888724929  0.3989273037094613  0.3964258192390944
  0.5999474945831132  0.3954867595791787  0.6004063324876465
  0.6008696283950516  0.4022537519870669  0.8038619213595636
  0.6007406154055317  0.5953841783889784  0.2055042630242921
  0.6032222409725640  0.5993598693160876  0.4042288141279225
  0.6019949178166781  0.5991727834244566  0.5997215841085852
  0.6034306499108845  0.6003947317631723  0.7970644454103188
  0.5927101458412647  0.8050743424910692  0.0006300081958608
  0.6014467192555277  0.7976402793902428  0.1998435137867922
  0.5990356188805802  0.7986807323460682  0.4001771867052085
  0.5995216170188780  0.8014595847024991  0.5978856405485020
  0.5970574172361681  0.8000155964548379  0.7987824616352556
  0.7998150622053584  0.9938561000901476  0.1951762583538353
  0.7985496709333357  0.9990013820745178  0.4011428728951495
  0.8021133813335153  0.9987697148726010  0.8062371415319992
  0.7995154254033114  0.1985541631516371  0.9964891464883573
  0.8008925095374277  0.1994152538304874  0.2000945896352758
  0.8008096063775249  0.1987409283851093  0.3966821490605127
  0.7987264105586732  0.3992953971608375  0.0026843868585387
  0.7969132064377678  0.4008666658760375  0.1981853499753130
  0.8002264467507115  0.4022676041856794  0.4005864339613097
  0.7997585890320420  0.4023864934945010  0.5992979860780598
  0.8005439177212054  0.4010147181538747  0.8023331261206005
  0.8033130743995524  0.5960653494368766  0.9942363537906144
  0.8013196580982342  0.6021990135091020  0.2049755226146956
  0.8034926649028791  0.6001114927354403  0.6000498280439165
  0.7985333805061187  0.7961197931178287  0.3967255928850253
  0.8031750574076744  0.8034496151764342  0.5984863029685820
  0.7959157548595627  0.7932865759572435  0.8002975687668937
  0.3995830712215330  0.7987823063442331  0.3996856421836927
  0.9973008650972867  0.9962686507386278  0.7991904493639543
  0.9959144525444728  0.4027457983146567  0.8019247570090980
  0.0018058666265159  0.6032209652705240  0.6046403913797257
  0.9962890442437972  0.5963211820789189  0.7958720762536743
  0.0016338690790418  0.7967795355108417  0.6003380970496272
  0.2019550028169196  0.1994585722799283  0.5985034660215375
  0.1972753523092127  0.7996352401914929  0.3980284768838450
  0.4001999455604921  0.9995212940321415  0.3984882885884125
  0.4020267288104535  0.4013769964846941  0.0121132022157733
  0.4026000046450043  0.6145419352108347  0.8010364203318259
  0.3976388424329754  0.7998534669192996  0.8001465081953724
  0.5953447732420937  0.2000505288499542  0.6015048018799134
  0.6006577069690906  0.3984346845303855  0.2015057629303725
  0.7997958072094877  0.0048774624446604  0.0014199712056245
  0.8003478176833648  0.0286037854822041  0.6025325417099842
  0.7995415505273060  0.2016656201430818  0.8051092289637410
  0.8005325429846787  0.6005025904853323  0.4030081824394425
  0.8026716816316094  0.5984028164273641  0.7972125661342742
  0.7992553439031435  0.7986815564095580  0.2038876179146891
