Zr V  Cr
 1.0000000000000000
    15.5277836321495606   -0.0011014415353407   -0.0036444284316418
    -0.0011015311309700   15.5268057001839015    0.0012045176117796
    -0.0036459540422085    0.0012051907892001   15.5242636607114743
 Zr  V   Cr 
   5 117   2
Direct
  0.9993777679203186  0.2000465253104151  0.3983415309641079
  0.9868885519937023  0.3670165718044911  0.9932152229138643
  0.6005391960510174  0.0005673687071421  0.0016241018390331
  0.6008672848280913  0.9992634938866899  0.7774358594000643
  0.8033764104074498  0.3985907560435077  0.8067540739115467
  0.0007334897366424  0.0292706502926877  0.9995911809485628
  0.9998583260678792  0.0002462860336718  0.1993412739801506
  0.9999185345435289  0.9952319531234342  0.4001222003016899
  0.0003952698520053  0.9990338553386818  0.5995637817019540
  0.0021992204855101  0.0011810442498714  0.7998993288121928
  0.9986937313308885  0.2009627157059819  0.1935290710951788
  0.9993899794642883  0.1993332357890167  0.6033440518766368
  0.0019870645402036  0.2004635775205090  0.7997361950632281
  0.9993081628694497  0.4007407688652558  0.2010611354111867
  0.9997492834612279  0.4042945296599224  0.3997781089028581
  0.0009501494902211  0.4010074554447204  0.5975679466158523
  0.9987003545047253  0.5944427330689489  0.9997864645833410
  0.9993753954972738  0.5994974312756841  0.1995889728160769
  0.9995148650208440  0.6010622772927025  0.4005797630292935
  0.9996745633189018  0.6004936485849088  0.5996274187896758
  0.0019897255411791  0.5999700598785203  0.7991825411105796
  0.9994792886717602  0.7968235243417876  0.9994758965096138
  0.9994900397634549  0.7998387969976581  0.1999117640381089
  0.9998659974239692  0.7983884866527838  0.3999336548619993
  0.9994991416422924  0.7997220653007558  0.6006185562719280
  0.0008755435096335  0.8001677713005969  0.7997163268206787
  0.1975149802200145  0.0013080494091946  0.0004467342792978
  0.1987475221101641  0.9998631080562768  0.2005028875749510
  0.2006071639605932  0.9987206809984409  0.3999880927900198
  0.1998174139128654  0.9994956799467537  0.5987765627323298
  0.1990701417853441  0.9995894498783540  0.7990650283061891
  0.2015044860727659  0.2003788388227176  0.9995104056621126
  0.2003100322428177  0.1991402260380589  0.1986461673125067
  0.2043834495565072  0.1997725615655394  0.3996146538650443
  0.2013292179032087  0.1996027149598602  0.6003385319908926
  0.2011157223687194  0.1988714546360323  0.8006304824686714
  0.1996856183094357  0.3989766722298693  0.0002408075401498
  0.1992392970064202  0.4001896310908946  0.2005699462967513
  0.2009452200677245  0.4002481582395546  0.3999005633185380
  0.2009220025526443  0.3991176404246926  0.5986232755385400
  0.2023925030512339  0.4007564921573127  0.7982547324843111
  0.1985561594716182  0.5985136832613539  0.0000919082323934
  0.1993847328513898  0.6000415903689446  0.2002656921276530
  0.2000148779514928  0.6000301076104321  0.3999837600434233
  0.1998278953354292  0.5993145979165208  0.5999975081715500
  0.2009558819585307  0.6005163413943657  0.8001834602220349
  0.1996613418613129  0.7999102280580361  0.0001841602711049
  0.1995228333031825  0.7997239654960534  0.1999224065622036
  0.2002506112685680  0.7989070357262361  0.4001829759916882
  0.2006936755790896  0.7998657112010382  0.5998662132183100
  0.2002818987159417  0.7995811561135542  0.8000954557033753
  0.3947972732177067  0.9991589945061282  0.0008586120163105
  0.3986242949882562  0.9994654509076329  0.2007514531001027
  0.3991646117468697  0.9991418911565185  0.3998966218096691
  0.3998104456597106  0.9996427227468763  0.5995750952502806
  0.3958434591624561  0.9991473011740448  0.7997764575470786
  0.4001050486756075  0.1995249215531913  0.0000128881243644
  0.4000664729600668  0.1995130756420911  0.1999006878920114
  0.4011497687300233  0.1992194162924373  0.4006100368515344
  0.4009909978316667  0.1993080598322814  0.6007840670959023
  0.4003274225501162  0.1996826489125890  0.8009320955129005
  0.3981576560686110  0.4001171215182237  0.0005927135307200
  0.3990520114960360  0.3996333722401934  0.2012550352166994
  0.3998521131492165  0.4003817528528306  0.4004224925995862
  0.4005507279426893  0.3993785632136665  0.5996574926749429
  0.3992847584018558  0.3996741122311382  0.7998986747564658
  0.3995483883478120  0.5999971172487840  0.0005079530362752
  0.3993404992798472  0.5998582462287152  0.2004371784721791
  0.3997733553347624  0.5997941851122389  0.4004726295141867
  0.4007234972682414  0.5999915446249419  0.6004656623553895
  0.3998854282483840  0.5997881549549655  0.8006201994776305
  0.3991244884974832  0.7992961199671014  0.0002202482735498
  0.4000000052204400  0.7996199166182927  0.2002930383271181
  0.4005269924443806  0.7994097427804253  0.4004740221420628
  0.4004787637516859  0.7994506553136493  0.6002604651073947
  0.4001938662051419  0.7995345384100890  0.8007723453645099
  0.5994293704554280  0.9997560744675441  0.2053576512604194
  0.5994313680103970  0.9994282906235713  0.3984309323186374
  0.6001514291976945  0.9998109750228616  0.5866267472275694
  0.5985065147049748  0.2055738512447138  0.0009499452603952
  0.5984883763142514  0.2010790394211132  0.2013326102790828
  0.5984755277153336  0.2009084323252142  0.4010046958019405
  0.6001106230565976  0.1997430056456083  0.6009406823356481
  0.5996782282523091  0.2046487305648389  0.8002593338928392
  0.5944556930763594  0.4021955283183303  0.0018526816348248
  0.5980400873399405  0.4002001220378538  0.2025790987307445
  0.5985768354235754  0.4004630932794441  0.4011902362303265
  0.5997730759209182  0.4004521386587428  0.5998506314593470
  0.5968145855172011  0.4010625181533101  0.7993521835740878
  0.5989471775297611  0.5990543140065170  0.0006735572961477
  0.5993208043158845  0.5996022582322976  0.2013451777361826
  0.6002693118876783  0.5993995873478152  0.6003483560436824
  0.6001859626622228  0.5987091742262983  0.8000666086201262
  0.5994905889442284  0.7946498935324899  0.0010427325565472
  0.5993024311700464  0.7989307325820398  0.2011800386586969
  0.5994420830583802  0.7984691032336937  0.4002116244261679
  0.6001097498944515  0.7990663353269228  0.5997937622868585
  0.5999735489740098  0.7948662862391203  0.8001700183869529
  0.8065326459963386  0.0017257083482130  0.0019346528851107
  0.8007458075887655  0.0001225884087612  0.2014409065984690
  0.8000568429736893  0.9988742062481782  0.4004753103413186
  0.8003316218447494  0.9994752065319802  0.6000575059337143
  0.8064964719141422  0.9990220046179119  0.8011628824303330
  0.7951160390450074  0.1997630524100096  0.0018862365788079
  0.7977828607451971  0.1990135750577953  0.2007391015629947
  0.7944866931712745  0.1992357598885691  0.4008449541605772
  0.7992540224773792  0.1996007027889543  0.6013684725255192
  0.8001304570731815  0.1947764214628091  0.8022472258262507
  0.7881616353035328  0.4014992165945299  0.0104851263831805
  0.7978151099986694  0.4009535589421100  0.2046759820284791
  0.7983931496828497  0.4008027552100383  0.4011347339225699
  0.7991362229870390  0.3992863947534561  0.5982043202450870
  0.7995509286883117  0.6003871823585621  0.0020110673283498
  0.7994891130864128  0.6010364401419074  0.2018247911478320
  0.7993175096536285  0.6006119291344133  0.4007456767989355
  0.7998420744943683  0.5999895606022205  0.6012195767189855
  0.8010456469171187  0.6039177322494895  0.8014859569987184
  0.7992437149916034  0.8011236696371710  0.0011594498712315
  0.7992481449714289  0.8002165330665472  0.2009645999473636
  0.7987068809860661  0.7997814838971880  0.4011399025977805
  0.7994433562258869  0.8000298368812794  0.6003729102239969
  0.8008767347520956  0.8003292187158447  0.8016844711654744
  0.0069111904805745  0.4009329349114262  0.7926220849185120
  0.5996846099716207  0.5997660114558151  0.4011100871124086
