Zr Ti V  Cr W 
 1.0000000000000000
    15.4553867420840287    0.0026143812950059   -0.0105005805915079
     0.0026215152151141   15.4868225341161789   -0.0153794539020766
    -0.0104972775696231   -0.0153901058770574   15.4931386040514418
 Zr  Ti  V   Cr  W  
   5   8 106   4   1
Direct
  0.0034805445883979  0.2005622534711890  0.7990438599229555
  0.4016637185317511  0.2389510228882135  0.3985741376080335
  0.5926973253124641  0.6060574554575050  0.6154904953775255
  0.5898743738422974  0.7913771597001238  0.7925598464121610
  0.8147867176824084  0.7968181938795452  0.7981281468513723
  0.9971288236996059  0.9972437447222936  0.4025548827100009
  0.2053146098958506  0.4021351226287716  0.6040149158557514
  0.4078187018651548  0.2025766872746130  0.8069948413389111
  0.4044280558530949  0.4346906549754895  0.3974547848741806
  0.3800164836143558  0.5858604914378932  0.5901581170018163
  0.5934050290889186  0.2017265510668823  0.9934426997432695
  0.5948183286497903  0.5913738800090820  0.3969568950022520
  0.8042756218902848  0.5973441868798213  0.2040351011095536
  0.9995001667886600  0.9977581050415875  0.9989924988401259
  0.9997987704605600  0.9954074587072470  0.7991375972535039
  0.0000675543407937  0.1992702838602212  0.0043661009064251
  0.0013341873825712  0.1990672683256465  0.2008532508112840
  0.9995483521670260  0.2027917852370016  0.3994337936355016
  0.0032427983295109  0.1995851218178025  0.5955677183692100
  0.0001292573205256  0.4005149052659913  0.0014551396418288
  0.0002773655349186  0.3997024645674968  0.2008287392187053
  0.0006804951615333  0.4018026356114214  0.4007862589156791
  0.9970473364493859  0.3991225935918378  0.5998467127347344
  0.0006007614288808  0.4037743593673713  0.8011345003187242
  0.0005110920721805  0.5995360883494080  0.0010303239054811
  0.0026857801482016  0.5993680906236907  0.2007776683880703
  0.0004370997055384  0.6001791337374126  0.4009107433717030
  0.9991228188551783  0.6005845315638859  0.6007543574284605
  0.0010294427994468  0.5989383934379273  0.8013648002190814
  0.9995918583539476  0.7980067767562373  0.0008518484612092
  0.0005344593330796  0.7999630666683150  0.2003264861901445
  0.0004834843790402  0.7979073922508512  0.3990212453677342
  0.9996946457491366  0.8010358694797135  0.5980458669203292
  0.0099490403085642  0.7975705218229061  0.7998123478838703
  0.1996102889978305  0.9985634432276868  0.9983363710133082
  0.2000478100205583  0.9998271206921493  0.2000051634433062
  0.2025870753105560  0.0000611044150469  0.4001606207269753
  0.2010311773757042  0.9994536061863537  0.6007000217490691
  0.2014792546601425  0.9989472953956734  0.7995198633723124
  0.1992451840319264  0.1989962893178273  0.0014458649779472
  0.2004751072177704  0.1985143278098097  0.2008937124272876
  0.1973737985930463  0.2000874380937556  0.3999457396483919
  0.2018046905957414  0.1971614097498540  0.5995443558428378
  0.2065872946572190  0.1993344908014615  0.8002982035744416
  0.2005029842169016  0.3988215402965640  0.0003287226114629
  0.2005997911310476  0.3988179269779240  0.2001381338796836
  0.1998404671614373  0.4008890234314658  0.3993885188455374
  0.2026779669561893  0.4003363398357545  0.8019017060342021
  0.2004182382743731  0.5993700699850554  0.0007353291933618
  0.2001399427310572  0.5987153645009011  0.2003029275263515
  0.1996559701266448  0.6006561110567790  0.3998682121876574
  0.1915032774101998  0.6027399353352456  0.6015126853805597
  0.2002053031065753  0.5992449143069203  0.8011590795475011
  0.1993336668110577  0.7994240636651085  0.0015774665096833
  0.2006175007477079  0.8000916611654602  0.2011497322136873
  0.2010196369870408  0.7995508445071725  0.3991935185940215
  0.2010720464964754  0.8008107510984342  0.5975375814497572
  0.2019904993076812  0.7974935497866997  0.7985312727982637
  0.3996547909239987  0.9973331808483125  0.9991616855478552
  0.4000454529177104  0.0000570937965294  0.1982233150640514
  0.3995009315015119  0.0053639761637162  0.3985112005297690
  0.3994940415943573  0.9998912116554238  0.6006161425357331
  0.4016567970721510  0.9957581762119148  0.8004155433896585
  0.3967175098019342  0.1995943826654572  0.0021813968170430
  0.4000001603317192  0.1991543386723658  0.1960494686532127
  0.3997853188450123  0.1971586991577179  0.6017648101381990
  0.4001045455454751  0.4008665687972711  0.0013623235888398
  0.4011080245428048  0.3994885921905810  0.1989601800601012
  0.4032627750592749  0.3940509656939972  0.6009199229645706
  0.4022587413377481  0.4019787927178108  0.8010489632148586
  0.3989612116398778  0.5992240809215422  0.0006911290659337
  0.3981900580648745  0.5995117555761755  0.1981852902662427
  0.3952808594924600  0.6139663741058577  0.3947831107607451
  0.4008865609355352  0.5978362767350768  0.8027973230091620
  0.4001443169209922  0.7975525127320766  0.0001793944336298
  0.4045461514424224  0.8045679445042292  0.3989899479894392
  0.4003940027189133  0.7987773821200475  0.5998785165949923
  0.3923270785940997  0.7973881192088385  0.7990658497377051
  0.5998351178315057  0.9950493261781824  0.9981416041830210
  0.5992869966977257  0.0011599032750426  0.1977750761083181
  0.6003724299510333  0.0013502717652587  0.3983115040670516
  0.6007336910509495  0.0041251572880221  0.5995907908295758
  0.6003470839094327  0.0008241915697409  0.7977923441469952
  0.5989470509877846  0.1983159872095403  0.2016201779079342
  0.6067412157544092  0.1985693831466126  0.4008602050577600
  0.5961195117040005  0.1982596380355761  0.5970947702724982
  0.6048080922011857  0.1979898615633240  0.7932573620805591
  0.6002726758462742  0.4002867660360351  0.0016693056277450
  0.6010773891071214  0.3983018421740417  0.1998162556579045
  0.6012658093189318  0.3959691647483483  0.4016369949565322
  0.6027508293443999  0.3956243192102464  0.6028470622307588
  0.5999264413771153  0.3934632141696048  0.8017284044737429
  0.6004521849509318  0.5992449657861688  0.0055467199032524
  0.5980533737655167  0.5989098032416006  0.1979157152372827
  0.6021493061807049  0.5872736413785085  0.8154578904585096
  0.5992560360828028  0.7976604872446414  0.0036952056014480
  0.5993494010760549  0.7991385526811451  0.2043355765379193
  0.6002525642106520  0.8082058191039143  0.5857506017128901
  0.7988621166089052  0.9990826193346909  0.9992370018577672
  0.8000864416199397  0.9994225364911329  0.1973701182914291
  0.8011088262665145  0.0036504439898275  0.3991562618410475
  0.7991439581001176  0.0033292855590661  0.7988758123788999
  0.8011582315972525  0.1985579846871270  0.0015668381863083
  0.7994901982832577  0.1989828601227479  0.1993773538897227
  0.8024206648210397  0.2010683906511265  0.3968647328376947
  0.9997869691864326  0.9999731433115442  0.6016469438795135
  0.7981809389186439  0.1991973476728220  0.8043433812544235
  0.7999652120443900  0.3984326085961439  0.0012854537409794
  0.7996323885276192  0.3975179138301294  0.2010134689285067
  0.7998584435764453  0.3992956083088964  0.4023691696148538
  0.7989037637687991  0.4017447102601243  0.6001678134874734
  0.8004103644014610  0.3954374986560623  0.7991065939517796
  0.8009744087104582  0.5991906866471796  0.4034806517402050
  0.8018590225227570  0.5996243730449762  0.6016047960566737
  0.8013723107938485  0.5916066678043603  0.8025051995446892
  0.7987103842425368  0.7982804192303656  0.0042777881298490
  0.8009562903443448  0.8002352338981763  0.2004155319469582
  0.7966269429872833  0.7996048321912648  0.3977721337201782
  0.8011881114175102  0.8006430832027939  0.5941039038535668
  0.0000313120883676  0.9992905494619528  0.1976247908101490
  0.3992411021696870  0.8000338029836960  0.1988025550192795
  0.7999706209882717  0.0033762198192586  0.5999392115538758
  0.8007984909165051  0.5979778645825653  0.0004341065438673
  0.6010996306204442  0.8080262790993763  0.3972608215305274
