Zr Ti V  Cr W 
 1.0000000000000000
    15.4523164936863964    0.0009883961260200   -0.0085180492864724
     0.0009924876686419   15.4784058301427248    0.0104538054795659
    -0.0085149247504016    0.0104513805892450   15.4695451921033467
 Zr  Ti  V   Cr  W  
   3   6  99  12   4
Direct
  0.2030534878692943  0.3644380717870111  0.6035393913425239
  0.5938883043138142  0.2088290016371975  0.9872527542766188
  0.8012036953713965  0.4013966753402278  0.1982819613349377
  0.9938955066300081  0.4037072233663856  0.8015813096145664
  0.0048340696306788  0.8024403169149293  0.3995912182838406
  0.4027640889849538  0.1983895337640733  0.1894813750666992
  0.6024070310814436  0.3770608266053287  0.8056560590186270
  0.8037862582509757  0.3996085304799964  0.6025385522061962
  0.7954108394415300  0.7970706098260110  0.3963862524458405
  0.9991751779475554  0.0010598242394038  0.0011861372663560
  0.9996710660751302  0.0010481349158833  0.2003713228394534
  0.9996201440696837  0.0027736840182913  0.3998996974033554
  0.0675308423709808  0.0659683527830015  0.6005788360049013
  0.9996826412998321  0.0006568737365991  0.8005168390305285
  0.9995607746020537  0.2016300320958437  0.9996112286972838
  0.0001192324420283  0.2007086354139647  0.2002906346124949
  0.0000269202753484  0.2002851896725130  0.4002284134049951
  0.9995137206910775  0.2017639656278926  0.6002902779886058
  0.9998064936251082  0.1974473741608892  0.7992449131710472
  0.0001363866328188  0.4009231321469585  0.0027584506198841
  0.0039244797292652  0.4005954854279528  0.2012141601966342
  0.0002481061625275  0.4010838817272143  0.5977536783723125
  0.9986259002396929  0.6007880200257200  0.0006609348177305
  0.9999641056983959  0.6014335089248407  0.2020096886807873
  0.0001338873957246  0.5992993800936525  0.4009585847449844
  0.0007026061183702  0.6001619234025311  0.6002089970777837
  0.9993280998870593  0.6023401765080413  0.8006866983125659
  0.9991524433014005  0.8009461113784122  0.0000453700888013
  0.0000294884800380  0.8016393200794573  0.1986880744652928
  0.0001328972854386  0.8012749150633579  0.6013812587579720
  0.9997893260075060  0.8007944908243489  0.7994541980804205
  0.1969617248750597  0.9995183828561786  0.0005463643450325
  0.2036686212421570  0.0001871469553998  0.2024473478626941
  0.1993158509897945  0.0025953891274280  0.4042977460747779
  0.2034233153698018  0.9991777794583521  0.6004101744733601
  0.1989419254295843  0.2004538043734748  0.9989810762671006
  0.1977177850915610  0.2003291803370639  0.2000659142903405
  0.1999741665540758  0.2021494856219072  0.4001114075012337
  0.1982450987087780  0.2003805331119058  0.8008190237928251
  0.1989112541127089  0.4021532746927674  0.0034075416103214
  0.2008400068619192  0.4022121408601972  0.2021249956853603
  0.2018265150190711  0.4009876209963650  0.3990178601523382
  0.2020453397887578  0.3997663950704303  0.8061591939376285
  0.1997649183773858  0.6005972700816142  0.0012345871599586
  0.1993969588314347  0.6020020416694057  0.2014853851926397
  0.2005933939931843  0.5991160987974293  0.6022929640406334
  0.1998600568879386  0.5983512534436981  0.8005121303055037
  0.1986154474267907  0.7999365255579152  0.0003033137123769
  0.1997898463011254  0.7997439909811745  0.2002114561111577
  0.2015427818346606  0.8001715223387273  0.4010739601126959
  0.2002019506980117  0.7994127656683838  0.8012260591714688
  0.3998236936178072  0.0012079123380672  0.3971677229731181
  0.4034627028653129  0.0012438125037624  0.6006191052731935
  0.3993134336857362  0.9975053692417724  0.8009684096341068
  0.4001622371315136  0.2010671277081178  0.4012774121444423
  0.4009930460723538  0.2006401001647165  0.6021309751406082
  0.3997349500453404  0.1977955204885272  0.8035748103261134
  0.3989121311903406  0.3995839194957945  0.0036246152038559
  0.4003226755461436  0.4018813724912934  0.4003585116254087
  0.4059383941848105  0.3999480754317402  0.6028171478457821
  0.3989285348629779  0.4018301169992367  0.8021515099412008
  0.4005693073388670  0.6005092255056300  0.4031714981469497
  0.3994429249746105  0.5989096791474648  0.6016414295152751
  0.4036895724814114  0.5989620899782310  0.8018071073095943
  0.3979721725924137  0.7996738470673010  0.0010820277375314
  0.3999503010437351  0.8016693342884984  0.2001219881240671
  0.3996477603213680  0.7985513933876845  0.4017551634038431
  0.4000342500961788  0.7996667965435997  0.6009399144642038
  0.3983805959259292  0.8002348610972401  0.8030017600913657
  0.6006210158612049  0.9980500184010295  0.9983880235997679
  0.5949654074419888  0.9993749080823261  0.2006806903666225
  0.5992710866556636  0.9963617497449446  0.7966227173275202
  0.6012665044576202  0.1994492185736759  0.2014691345014246
  0.6005770727299015  0.2017510631045379  0.3991110840324942
  0.6004142521423936  0.1960740486785122  0.5964086455729012
  0.6006491743949333  0.1905539467096179  0.7891460224673904
  0.5990182711706583  0.4095880931026006  0.0069032934928881
  0.5991600236958903  0.4006561530913666  0.4006836101048749
  0.6012451076293891  0.3973479865442190  0.5982215863834131
  0.5980406493848047  0.6017577421190681  0.9994204154919992
  0.5988062605350143  0.6022638837090000  0.2023836661548125
  0.6000370486553578  0.5996258071530937  0.4026047670300294
  0.6009239854159422  0.5993001361065926  0.6041822176655787
  0.5989692768608194  0.7997296218507297  0.2008824177003926
  0.5985155833115388  0.7988774398915505  0.4010742871599584
  0.5993684483442816  0.7984856988969090  0.8011453484483742
  0.7977292243611734  0.0016685139917381  0.0003975453138372
  0.7973575714637522  0.0002460268754295  0.2001820261241000
  0.7999539260330937  0.0019155400675665  0.3997812565517126
  0.7945375586745139  0.9992506708015295  0.5994138043790632
  0.8003083749755846  0.9991201541143554  0.8009443674818937
  0.8015810899392672  0.2010875760890935  0.9989303314894843
  0.7985631841958956  0.1969971952940682  0.1984886244987860
  0.8009149807862692  0.2018179236482657  0.3996593850450333
  0.8015984592261730  0.1977133282465924  0.5999022237892717
  0.7998537583603890  0.1993772518882276  0.7992943819864605
  0.7991354786299517  0.4023762150949179  0.9965789746248314
  0.8005593597551655  0.3998385061318934  0.4021108633157630
  0.7998752201374884  0.3999003079621916  0.8018789273015321
  0.7991608592662915  0.6013794701015259  0.0007169997497357
  0.7994166179037655  0.6055975423663269  0.2002367479267772
  0.7997208785474156  0.5976768242975874  0.4019311450323048
  0.8005119723082739  0.6033856142800194  0.6011540410163898
  0.7956172450132761  0.6005754469099103  0.8008897975340313
  0.7994773334892202  0.8005183449151236  0.9999610933248206
  0.7985438724766615  0.8023513903432757  0.1979252901762744
  0.8008289063873848  0.8007455964704889  0.6015247843218946
  0.8003495519303487  0.8017937241526608  0.8013803799391778
  0.0021096172205703  0.4012425692136489  0.4001153602254671
  0.2000880640101845  0.9999072450449918  0.8000406574795136
  0.2007269481836690  0.5998567884595146  0.4016351331509841
  0.2008332697945525  0.7992870272853826  0.6016167046409239
  0.3987527058411590  0.0002779184290684  0.0006309672980090
  0.3993080859654987  0.4033709918468044  0.2020875909151108
  0.3986439145911945  0.6001944097428296  0.0022026418413222
  0.3990074899301497  0.6016661806842303  0.2016684035792842
  0.5997493375213732  0.0001569538527719  0.4020301053910855
  0.5946933364567205  0.4014288106616897  0.2024084988103674
  0.5986078915285050  0.8008643314895614  0.0014175161071464
  0.5995856447719471  0.8015202635188992  0.6002015029670158
  0.3995663227353835  0.9947451445269497  0.2020800271916026
  0.3921939325475903  0.2016802403089945  0.9978986977781383
  0.5992801210801247  0.0014322014552421  0.6015597449868724
  0.5998517715658442  0.6043593710696007  0.8003346314509318
