Zr V  Cr
 1.0000000000000000
    15.5364267418827353    0.0141760265446098   -0.0034442262972265
     0.0141671620811882   15.5240745923983035    0.0049821264813726
    -0.0034426786392167    0.0049831204927505   15.5354998368454975
 Zr  V   Cr 
   5 117   2
Direct
  0.9506628680678720  0.4085937558238268  0.3996407500373578
  0.1990634759882008  0.5996416420040741  0.5591266026812998
  0.1941349153002815  0.7955585659668232  0.2048139332207730
  0.7999915349088021  0.1991923299036330  0.4006176190431524
  0.8050835282880953  0.5958237205857906  0.4000128975053502
  0.0008003598479647  0.9986870639393679  0.2023917064823508
  0.0013687136837466  0.0007715359910779  0.4005598409079644
  0.9997703935392452  0.0005051768216198  0.6002981571496481
  0.0008214512288225  0.9997163497904673  0.7985881080882952
  0.0006707275231497  0.2014521556080705  0.9993417814894272
  0.0060799845432378  0.1985920758407138  0.4004331868427390
  0.0008156141490018  0.1987255619329899  0.8019677218449980
  0.9998245125629002  0.3999088428771742  0.9995451154896310
  0.0010401542865237  0.3995223362467742  0.1962452595710821
  0.0004073544829086  0.4000678267242587  0.6045122089867113
  0.9997370177054525  0.4004752153888455  0.7995915701805612
  0.9999357895387562  0.6003378346879567  0.0005535829835250
  0.0018043332115230  0.5984081933041332  0.1992807532977348
  0.0126395969270778  0.6078075229096540  0.4004831863246290
  0.9983355491309518  0.6012025213399423  0.6029334475637673
  0.0023561911146579  0.6001859625154834  0.8007457422340913
  0.0013797093763228  0.7975935356281003  0.0007767257362921
  0.9969416465314795  0.8342121594190447  0.1668562565826821
  0.9997756469608854  0.8026348836239201  0.4027122336735829
  0.9994937907888936  0.8010933100903742  0.6020353299796061
  0.0008813056776744  0.8006385455628908  0.8013674131415710
  0.2032248599857766  0.0005137782778211  0.0000648031626172
  0.2001171792417423  0.0018941227665530  0.1999270541218318
  0.2016647886342431  0.0006844690351825  0.4006382493424280
  0.2009730600003196  0.0016656199765046  0.5993169938619086
  0.1997558937987552  0.0008471446193340  0.8007110626936229
  0.1993489554189952  0.1992223060940725  0.9996897236586095
  0.2002436290541942  0.1999351919449554  0.1999573712402775
  0.1985795345324023  0.2033390704782766  0.3995781543976928
  0.2001178562473681  0.2006845248780449  0.5993004889166259
  0.2005543273460258  0.2004392858289425  0.7992148940019222
  0.2010318804776883  0.3986710375022016  0.9997674652971507
  0.1991832973274742  0.3961761038886739  0.2001690589653625
  0.2060962436507111  0.4044583296677741  0.3992454711333020
  0.1986523357610130  0.3967014471992671  0.5983112654670369
  0.2005036745414596  0.4009942127596813  0.7993839381520583
  0.2022400575053904  0.5985353262257745  0.9993487144042262
  0.2018044829621854  0.5931775326967852  0.1939809743501223
  0.2043894499026543  0.6037614296130008  0.3680966512621451
  0.2014484906441817  0.5995937592734378  0.8037224858754251
  0.2001875916098737  0.8019187844471831  0.9986392597739845
  0.2022396805530242  0.8009438666011922  0.4067299031066783
  0.2010825130634331  0.8041990095336533  0.6028593313185265
  0.2010734222190842  0.7988211538802392  0.7994475739339055
  0.4011606254952384  0.9992171159527966  0.0004688978136598
  0.4015190218641733  0.9995103701102389  0.2004375071449210
  0.3995306401587199  0.9989143594777885  0.4003858372671179
  0.4012995200505676  0.0003544099514150  0.6004899306721677
  0.4009921692457036  0.9993739348928973  0.8002376629699213
  0.4007106784191909  0.1995671033973276  0.0000441995942906
  0.3997255250126888  0.1997083463030168  0.1999449982214306
  0.3974157195713451  0.1989575835512695  0.4001188134792965
  0.3998553494838191  0.1997542761919576  0.6000189012435021
  0.3999790222497583  0.1998062275852937  0.8003075537416697
  0.4001036280855287  0.3998727272521289  0.9994533889330742
  0.4010122347585085  0.3989102289702072  0.1988719991301148
  0.3998850804784614  0.4000697752589126  0.3999330463742838
  0.4005941275753220  0.3991885871963449  0.6022634434387726
  0.3999345935034387  0.4002765949011141  0.7997326497973863
  0.4026135577712572  0.5999833668701213  0.0004979952204224
  0.4030797237948359  0.5978039335609936  0.1988625276162067
  0.3990736013277060  0.6016632003525270  0.3997945740059041
  0.4036673102227000  0.5991805886832350  0.6004649519353237
  0.3999169271299210  0.5999597129943234  0.7993756754479693
  0.4012302364031040  0.7991108502258299  0.0001956978865162
  0.4035323985935795  0.7991917489331899  0.2006786384012735
  0.4017341289047532  0.8003718901047402  0.4015695314464784
  0.4022281408821533  0.8000632473542595  0.6018121214887796
  0.4008160033687481  0.7993768385872541  0.7999373601084515
  0.6006051201488717  0.9989355114643904  0.0006241372930333
  0.6011004188620194  0.9989322498567454  0.2010852840619512
  0.5991402416452193  0.9976423957356614  0.4001682971859085
  0.6011745228783205  0.9993418676476460  0.6002288136779022
  0.6004961780147330  0.9991653511152220  0.7998648141164647
  0.5997344486744551  0.1992705547371063  0.9998880546013060
  0.5997363599270874  0.1988663995415968  0.2000484840144254
  0.5934614555552241  0.1963114785523600  0.4002598742428531
  0.5992936658520466  0.1992874931916779  0.6003973873996872
  0.5998420248257450  0.1993676647786214  0.8002800493431890
  0.6004502408024167  0.3988729282204404  0.0000374620433480
  0.5997208525234058  0.3984530460667198  0.1987459053228444
  0.5915610720342461  0.3997930555298689  0.4001657926530309
  0.5994181827965553  0.3988122479065478  0.6013375087766878
  0.6000376108942872  0.3996249712776120  0.8001172418737438
  0.6005812477817238  0.5993426095685030  0.9999822905434634
  0.6021174964323525  0.5976553541135657  0.2004257310773068
  0.5968805908142365  0.6009712779399011  0.3995462146545459
  0.6014908378352229  0.5984899109677435  0.5994580587134134
  0.6004557706830571  0.5992148082717308  0.8003194875607536
  0.6011318297163605  0.7987070243569493  0.0006047206921561
  0.6019512336037890  0.7984154467732872  0.2008607863134915
  0.6004850167320946  0.7981056073987015  0.4010157990690164
  0.6017169223629462  0.7993038181159052  0.6003305636310108
  0.6010323502857584  0.7987695835320605  0.8004080970341280
  0.7983065671306868  0.9985927025611258  0.0004009537863188
  0.8023611351628124  0.9987056938232559  0.1990636048286297
  0.7995319009285002  0.9952426091559771  0.4006403708070622
  0.8005193005486176  0.9998765300491804  0.6005974535879384
  0.8016338962193869  0.9988592929585314  0.8017470749395966
  0.8016882192763315  0.1981211365707219  0.9996409190669521
  0.8006018037927543  0.1975130477074377  0.1951495161182299
  0.7999057093086418  0.1984524395170681  0.6052731045084396
  0.8006306098573501  0.1998017250317815  0.8002402554562922
  0.7990548165049001  0.3990937918566124  0.9993578654060198
  0.7998838280337274  0.3966165688291081  0.1998579300933203
  0.7646700494461005  0.3979178011875853  0.4003208422267152
  0.7995168302833764  0.3977645258293852  0.6001059482490663
  0.7997140879012528  0.3994267617531452  0.8009303995827382
  0.8006866710079470  0.5982051043312454  0.9996524064229591
  0.8020387703254610  0.5990002476961980  0.1950458965873050
  0.8004445179927629  0.5995584293397982  0.6052969966551596
  0.8003272915254572  0.5987382691690343  0.8011067418575386
  0.8019357877918372  0.8002059147526033  0.0004332649597469
  0.7995495005093874  0.7975447248885054  0.2010254654683558
  0.8010562872460615  0.8004983578177649  0.4008326134116411
  0.8003261282064912  0.7988473189732379  0.6009893822048767
  0.8005671514439334  0.7988914768560773  0.8010762196278146
  0.0009625615138631  0.1995421607886398  0.1989185458394410
  0.0009934244336964  0.2001882083336302  0.6016591100599841
