Zr2 Ta1 Ti3 V111 Cr3 W5
1.0
  -7.5249999999999995    7.5249999999999995    7.5249999999999995
   7.5249999999999995   -7.5249999999999995    7.5249999999999995
   7.5249999999999995    7.5249999999999995   -7.5249999999999995
Zr Ta Ti V Cr W
2 1 3 111 3 5
direct
   0.8004415407041517    0.7973520538584730    0.3979427713535315 Zr
   0.4013067952622262    0.9970022851419207    0.8026158967507873 Zr
   0.8029187204614116    0.6084824307452765    0.6010021033418642 Ta
   0.6010102989005974    0.4022453870440190    0.0013684761581014 Ti
   0.0072678558937182    0.0079042360145268    0.0064259273141614 Ti
   0.6018798492090370    0.1993597654538419    0.8010792952913749 Ti
   0.8001398328675597    0.9969144739865476    0.9920108149821423 V
   0.6030881220930830    0.9998883857035642    0.9993890563184631 V
   0.8021587047517273    0.1990510167976052    0.9987627424560248 V
   0.7999546882536812    0.0009530618263569    0.2005824518834259 V
   0.6009357574423081    0.1986645937813687    0.0025991964515958 V
   0.7990832485609077    0.3978200887136526    0.9953935915156604 V
   0.6067089451179405    0.0001168049928588    0.2006046639906684 V
   0.8019196111458335    0.2044996273533818    0.2026318101292948 V
   0.7980238896388216    0.0008616985567525    0.4049579706530660 V
   0.2029156713967499    0.9968263025037919    0.9961878414713463 V
   0.3950903442884316    0.2032767690389736    0.9970219147969930 V
   0.8031581066508623    0.6031690031651443    0.9984291552615967 V
   0.4037071948210849    0.9999702685723095    0.2026978092076803 V
   0.8042042381080996    0.4019978285636222    0.2062124494627098 V
   0.6012269689749659    0.9957178563887699    0.3995716442723691 V
   0.8017221592208941    0.2001851368894880    0.4009477515420732 V
   0.7945678631938138    0.0014432664933160    0.6018986111139628 V
   0.2009571582854377    0.1997269958030351    0.0013823750836599 V
   0.4002541779948719    0.3944771079213487    0.0021227025970058 V
   0.6003545801581179    0.5982823825121768    0.9983392524644449 V
   0.8010692189502571    0.8006659165780589    0.9999445052983668 V
   0.1986478617650839    0.0001054492117219    0.2019541799459194 V
   0.4005021244688073    0.1991228802405717    0.2003453748825188 V
   0.6043334905560925    0.4042538938251709    0.2027198947719682 V
   0.7988618059093623    0.6057344393381969    0.2007481431638805 V
   0.3940020267616662    0.0007320687687899    0.3993627158369002 V
   0.6001548484975628    0.1999989717369734    0.3992609465669892 V
   0.7940938941406841    0.3987160372077767    0.4028988892595299 V
   0.5948907652927644    0.9998051774278284    0.5994399578691857 V
   0.8047319318976718    0.2037659873618224    0.6072825935564131 V
   0.7994731033553950    0.9975755738790179    0.8016231137907819 V
   0.9961423067551269    0.1930029459347676    0.9955360434754826 V
   0.2054433147179149    0.4064195010758792    0.0050562288181692 V
   0.4012080301970682    0.6061526460492873    0.9999428716638876 V
   0.6024204863207735    0.8058495954668043    0.9979606415836002 V
   0.0015479701566521    0.9997309395802438    0.2006909017318611 V
   0.2002921851712106    0.2000058818480626    0.2026875641928319 V
   0.4013356107869175    0.4015253167555501    0.2040900627203874 V
   0.5980195253328751    0.6029663283764272    0.1999825709154123 V
   0.7979258207445886    0.7962362899874371    0.2014935172258608 V
   0.4017960807130178    0.1972680314069263    0.3980763448675406 V
   0.6013145910725330    0.4029864726503720    0.4054525277465793 V
   0.7988098108229071    0.6031280653720449    0.3968564998221303 V
   0.4012812818518939    0.9970184340341091    0.5944833808212524 V
   0.5954051160612861    0.1940542631264855    0.5998812933739065 V
   0.8029502972921374    0.4040618424714298    0.5986247299705897 V
   0.5943285012555954    0.9958160977495125    0.7952635216249364 V
   0.8003674943730048    0.2014910871510258    0.8013754968569802 V
   0.0077979489162674    0.4015352594414422    0.0051744394628067 V
   0.2057248158663308    0.6048558132556627    0.0079822190912766 V
   0.4006887302312517    0.8001903392483027    0.0046903461760664 V
   0.9958963550528696    0.1983710416852307    0.2044594463070285 V
   0.1968711132540918    0.4025929486964065    0.1969634679773768 V
   0.3984731101445323    0.5988506735637973    0.2010820739598653 V
   0.6041780857984763    0.8007313873647623    0.2017291142262068 V
   0.9957426750283254    0.0026135701438648    0.4004615018685274 V
   0.4072787309453553    0.4017788707875073    0.4040743987277730 V
   0.5914219204114145    0.5968430971694131    0.3980321471806200 V
   0.2044111498528396    0.0070918858052320    0.5994591058525762 V
   0.4007974679570033    0.2045752315752994    0.5983637102307205 V
   0.5932308961975687    0.3951185832111176    0.5968460335940579 V
   0.7981037816530584    0.4008522628461045    0.7999418583801097 V
   0.0011128351882890    0.5943278114364714    0.0031753092167381 V
   0.1980844927079919    0.8040648683266454    0.0056898072839511 V
   0.1972049966049956    0.6027352513152606    0.1982461254164948 V
   0.4014265477148523    0.7974050998156530    0.1985214086771568 V
   0.2010767719788256    0.4021188048032802    0.4020739211770014 V
   0.4027283020987695    0.6034302056634582    0.3962868265958792 V
   0.6005695076997812    0.8030974169752607    0.3987693300560890 V
   0.9962468297596850    0.9978227733366734    0.5969191895203838 V
   0.2003641737502403    0.2013346797679949    0.5957820902740806 V
   0.4046299266834318    0.4017630058268019    0.6036780003115483 V
   0.6026014213012119    0.5987872178903608    0.6020304246684083 V
   0.8014566566681367    0.7962082809693363    0.5984087121828738 V
   0.1972220912251258    0.9941098676158432    0.8013659603625327 V
   0.3989895623524424    0.2046737443774574    0.7956533792220639 V
   0.6051177948096533    0.3972604771612632    0.8037398682494913 V
   0.8046507253773498    0.6021171539246066    0.7998627266709394 V
   0.9932814840064079    0.7967116084048539    0.9936887926560589 V
   0.9970148412224574    0.5980417710274937    0.1953308457356775 V
   0.1930549850357998    0.7969345946959259    0.1981182857715593 V
   0.0017288233274284    0.4041766997129823    0.4061132171244026 V
   0.4042219745795308    0.8027414261276820    0.4088339396597811 V
   0.0048846532660374    0.2072160521094273    0.6063142146157194 V
   0.1998358635338095    0.4003546728060788    0.6015510626309275 V
   0.3988753724434542    0.5994334466277139    0.6041313409079633 V
   0.6003410988746006    0.7986217132797779    0.6001793989568311 V
   0.9999929560403951    0.0034160990500595    0.7959456248921795 V
   0.2050552775335215    0.2029471251180402    0.8028574555081955 V
   0.3942489972315998    0.3953013650294977    0.7973550326197385 V
   0.6014722178451530    0.6080913081042730    0.8036618542907763 V
   0.7926431860552098    0.8001739263186594    0.7967526926623401 V
   0.0022654083462982    0.8065194129708754    0.2054951745141807 V
   0.9996104501146683    0.6005767238255679    0.4006043380607226 V
   0.9982560496011699    0.4036062936896617    0.6064394230267106 V
   0.2050724263098972    0.6037513205161319    0.6067982023399994 V
   0.3998945779612162    0.8026062396089457    0.6061998079314966 V
   0.9972053055192029    0.1976860343983299    0.7983185606497419 V
   0.2002222602416218    0.3993009914578237    0.7969132560303680 V
   0.3969945674903771    0.5963505593467096    0.7968398054704282 V
   0.6010894700938576    0.8005813708739572    0.7986203266320884 V
   0.9965296570521206    0.8055686895653225    0.3997268588439737 V
   0.9937677102825428    0.5939921697677940    0.5973609990712855 V
   0.1983300244726241    0.7963101699769459    0.5990543019367999 V
   0.0001854695442407    0.3957093974380909    0.7986688911035041 V
   0.2012721896444144    0.5964252524865508    0.7930284905225850 V
   0.3974594074435532    0.8036292119762873    0.7993633984587994 V
   0.0041892025078083    0.8052112568789215    0.6055608327392888 V
   0.0030975280212453    0.6006175210380920    0.8017400696924025 V
   0.1995659657241016    0.8001289324965637    0.7991287786052017 V
   0.9981098280206935    0.8013043947821747    0.8004189659908602 V
   0.6014317499909467    0.2040696069308893    0.2001203244506674 Cr
   0.1968431662441384    0.1928545369204376    0.4004672075323905 Cr
   0.0018683887347064    0.2005712810375198    0.4005284544429993 Cr
   0.4045621744607231    0.0026454523428720    0.0013372885784592 W
   0.1992263057661216    0.9993481602784060    0.3976800843258794 W
   0.9994832346891172    0.3985553510822462    0.2021976582098310 W
   0.1995930083194745    0.6008812258835706    0.4010012690520249 W
   0.1992137101120029    0.8007526606297688    0.3984495921297316 W
