Zr Ti V  Cr W 
 1.0000000000000000
    15.3990340272275770   -0.0170018773457157   -0.0022529018582575
    -0.0170107766548915   15.3787801482628375    0.0165544931564424
    -0.0022517709109467    0.0165430754876648   15.4057927644380346
 Zr  Ti  V   Cr  W  
   3  13 106   1   1
Direct
  0.1882399477989420  0.2012033491187645  0.3737434710805793
  0.2057531528247171  0.6154408847028501  0.3815012185563631
  0.3845921877361671  0.7957336167857352  0.3897308830076595
  0.0019144119317354  0.0014377562532081  0.0042686536002636
  0.9992379814929934  0.1783825614947015  0.7977836098998091
  0.2042998469632729  0.1996118170041397  0.1756589522459702
  0.2026338808584165  0.5893369954998102  0.1827065974904436
  0.2105837577285609  0.7988157544925351  0.2123546698561848
  0.3915385277486682  0.2035094059346590  0.6003005342611706
  0.6100137119475749  0.0159536906356521  0.5932473689399909
  0.6024402082371247  0.1932747352594781  0.4138201278118940
  0.5878831718096045  0.2035606074124066  0.8134428856342381
  0.7925066001136165  0.1998724659976558  0.1957726257108410
  0.7823948731342654  0.1991018046644033  0.5946336392411137
  0.7962010355059731  0.1980363435233936  0.8037513388364750
  0.7990394280404925  0.7978105623533240  0.1942040350411506
  0.0023737046165377  0.9997498623117139  0.2052367556409074
  0.0021441980618978  0.0028103096419238  0.5942127143549116
  0.0009570526380214  0.2008795260366124  0.0044525638136062
  0.0009110789550507  0.2000682415004914  0.2011803154432832
  0.9883884741088181  0.1972607208200996  0.4007153734731924
  0.9981880660716999  0.2005601401200207  0.5970121115685363
  0.0007795017973027  0.3992559471165821  0.0018495341687173
  0.0003846835279293  0.3986856648578546  0.2032974613987241
  0.0015718312718374  0.3982947860173077  0.4016389216016922
  0.9995762431460642  0.3991616455637905  0.6010492590294866
  0.0009422302034965  0.4011781716238924  0.8012494250882618
  0.0020863765013985  0.6003964463328155  0.0030067705346651
  0.0012297563379293  0.5992249616162006  0.2012931441025645
  0.9973692412362117  0.6020635480410748  0.4001829099813783
  0.0019581912599709  0.6001914486886653  0.5977679180142053
  0.0002728799947511  0.6011194555091245  0.8006727856116013
  0.0031274079720275  0.7996670845750147  0.0032162363085391
  0.0019226682552429  0.8001732725537154  0.2016886857290813
  0.9942478850309923  0.8062720867606866  0.3993828581761794
  0.0007434900496147  0.9000713292990496  0.6999339954573737
  0.0004227081730839  0.8005127808627195  0.8023004843312143
  0.2025956784974129  0.9994747325300792  0.0004268512451624
  0.2037506402079097  0.0034439835929214  0.2010072469991280
  0.1979689402988866  0.0011322509604366  0.4010795575805605
  0.2027898658129816  0.0034265693708317  0.6004306998054987
  0.2015210352768846  0.0011008758186978  0.7990576004289910
  0.1992487338244285  0.2003665350764401  0.9876801642160334
  0.1963762283932059  0.2027027676766042  0.5957323122731870
  0.2001695711858029  0.1989273268013322  0.7958142591276213
  0.2004831340541396  0.3985014284106949  0.0000640811053181
  0.2017690823395527  0.3947696270532289  0.2015320223120286
  0.2001119088154722  0.4039127650082845  0.4019122536255743
  0.2004693905451419  0.4017598282532538  0.5993343302055488
  0.1995572937165399  0.3993948256738850  0.8005360953131343
  0.2013065679176102  0.5994658511433937  0.9933020282509761
  0.2005785968159432  0.6021716352926951  0.5991196668983626
  0.2014397819059549  0.6000510628434101  0.7979176473614316
  0.2021113720450027  0.7994765040307686  0.9994595515721220
  0.1853810042685018  0.8127418536530848  0.4108120742968708
  0.2029378756593922  0.8017018654579439  0.6031461457673185
  0.1989011567483591  0.8038253070031568  0.8008312649022770
  0.4011843077846347  0.9996688268697831  0.0023866317922970
  0.4021424550363852  0.9973048621765804  0.2017908368377581
  0.3995916412611373  0.0046079735836065  0.4006838834689527
  0.4016768369636987  0.0004326288227690  0.7984612237704110
  0.3993495991650199  0.1985079976647406  0.0020069899700970
  0.4009593634048357  0.1985292018041152  0.2014925917793109
  0.3978759182337608  0.1985138452901045  0.3994223824757688
  0.3951682562819865  0.1994583211559627  0.8050748846025642
  0.4009517785256344  0.3989852843128566  0.0023746862061225
  0.4019884397378565  0.3975423155764974  0.2025835157925638
  0.4012146505010818  0.3945222104924601  0.4021075253005446
  0.4002083688013457  0.4019617583824474  0.6015215918240115
  0.4006886322725313  0.3994302993160272  0.8009160843684527
  0.4012254121751874  0.5988984152383814  0.0013306686399608
  0.4044027365838440  0.5968474648853095  0.2005316689268235
  0.4101869600099943  0.5902585299240783  0.4007447278889306
  0.4017425158192078  0.5990780262696036  0.5993564435710211
  0.4011003295128456  0.6002068608828255  0.8014664438926838
  0.4003910207127653  0.7997888318161601  0.9977459907172830
  0.4063343520720508  0.7989517807167833  0.1910826640677010
  0.4012013376589005  0.8009925157670007  0.6017829927219797
  0.4009874292882509  0.8003151449451962  0.7998014391846859
  0.6014085637163499  0.0007638123024372  0.0010602460186374
  0.6015779617293230  0.0000855568569182  0.2022686154215201
  0.5994006623737556  0.9956062191080137  0.3984530135205959
  0.6005669640134138  0.0011078104113567  0.8018988043582798
  0.5998751254996445  0.1999751548078349  0.0081578313410599
  0.5967912949772635  0.1984739092623238  0.2028702195881781
  0.5899034904468515  0.2075331710764341  0.6099018948710972
  0.6017369743498717  0.3997521588500632  0.0019891959487733
  0.6010897341736664  0.3979064047735444  0.2035537462337356
  0.6019211397531483  0.3994712070788877  0.4026288648737693
  0.6004311316523981  0.4029851577269336  0.6030123153858878
  0.6008698285237435  0.4025679993157458  0.8028709856745542
  0.6013574753889414  0.5997738991658934  0.0020249969945933
  0.6030852631348300  0.5996207095386700  0.2010704303258957
  0.6037954620119852  0.5991885870773515  0.4005482255380932
  0.6009628708731746  0.6025073081693431  0.6010792359142586
  0.6012064196657194  0.6008077766127156  0.8014762702160043
  0.6017996400881529  0.8007150090454931  0.0010091547941198
  0.5999345950175033  0.7994154622490915  0.2004745931737597
  0.5990581389796958  0.8003049267838314  0.4002901366610780
  0.5993988346736566  0.8020359076897393  0.5999003543057162
  0.5999459621639205  0.8025132710201848  0.8009034226778308
  0.8008493333901928  0.0000211874149942  0.0006848980305087
  0.8006299498254226  0.9998104873812825  0.1990521285708577
  0.8095811591932001  0.9971079687296960  0.3954663910647201
  0.8065452648704994  0.9955742197917059  0.5996240159134015
  0.7994255956124476  0.9993180681846026  0.7985396988383087
  0.8008574864016313  0.2003338195968261  0.9986057292610483
  0.7979585086632361  0.1987750008638020  0.3966848701658003
  0.8018049637248863  0.3990884418717078  0.0014516034648582
  0.8013743482975720  0.3998861938938057  0.2012500303346359
  0.8014319831292496  0.3984275656193229  0.4008749271221873
  0.7999409330361967  0.4015189530982688  0.6005692752981228
  0.8011927730597991  0.3997384537026829  0.8000275003193933
  0.8023282371451710  0.5990073393151342  0.0002434039076890
  0.8011571614740171  0.5966127821268447  0.1997842674603987
  0.8013258973410323  0.6004413061543267  0.3996772248203738
  0.8011529394649403  0.6002071313597178  0.6008117230816636
  0.8007571435292775  0.6006351956421222  0.8011112067265931
  0.8014925253478984  0.7997713418371131  0.9966307994191976
  0.7983562367910083  0.7998638048796474  0.4030500055526599
  0.7985155027798830  0.7992103409744030  0.6019860033943255
  0.8019182310937301  0.8017910296972357  0.8000685877172098
  0.3997797893096254  0.9984643872163502  0.5984512762730883
  0.0047959039706586  0.0044499099928986  0.4001660461909986
