Zr Ti V  Cr W 
 1.0000000000000000
    15.3960504026614231   -0.0029059402776773    0.0109527228615838
    -0.0029019596058232   15.4211892961187402   -0.0178703021294289
     0.0109643357546517   -0.0178836246684765   15.3929296075496413
 Zr  Ti  V   Cr  W  
   3  12 107   1   1
Direct
  0.3882095717666873  0.4119043070641297  0.8014073032338960
  0.7969295692385038  0.9756106689684730  0.2220852190587882
  0.8109470216140580  0.2086697616844693  0.7742567484212193
  0.9848662518455003  0.3894872799393072  0.8003455698146235
  0.0011126767549769  0.6207566284753716  0.1076560064156424
  0.0098138798461773  0.7890026430307853  0.3877106703950070
  0.2092375089260992  0.0018862399909813  0.0005792257965396
  0.2035128379077276  0.5839580081549838  0.8023978537241534
  0.1874078109353853  0.7965528509686262  0.2067429224023302
  0.3965624662229954  0.0028949155827989  0.8085964530447213
  0.5931950560085680  0.6024659511768332  0.0003951766741546
  0.8039543916231022  0.9960010251917080  0.4228425471320400
  0.8000908372354431  0.1958702552413084  0.1868569952709286
  0.7976739112969730  0.2008867292085879  0.5740762270017232
  0.7989400052477804  0.7770323213785341  0.1940013743450110
  0.9997004287812550  0.0025313446053071  0.0008399964442916
  0.0033849119177808  0.0068595245883822  0.1993286516641670
  0.0015822617607418  0.0014876756165455  0.3992738599513825
  0.0008163219688573  0.9978404068925173  0.5989802597752013
  0.9996101589586778  0.9977599417706610  0.8010450893497956
  0.0007034155867101  0.1993017871184035  0.9970464292159461
  0.0022759350253128  0.2014099171441484  0.1976646418194638
  0.9998969781904630  0.1985683566509437  0.3989315791284527
  0.0026916517839839  0.1985833266958066  0.5993617007536967
  0.0089975206240353  0.1918153323617172  0.7997292032939485
  0.9977288373463702  0.3968687884960201  0.0021144664383962
  0.9980269430310070  0.3970073323797157  0.1993894370411431
  0.9981768729559799  0.3988657436545438  0.3981347905603513
  0.9992131209883134  0.3983874545626666  0.5976532340628944
  0.9999014097023060  0.5941152667166057  0.4048485793680532
  0.0004928639466282  0.5997066514048738  0.6028763704681119
  0.9990396022547237  0.5993975738246414  0.8006525121589499
  0.0008884849736402  0.8085657885874667  0.9971052130357253
  0.9911158626593938  0.8152393031324698  0.1932529420210390
  0.0009705997499079  0.8009316756126120  0.6002310010662911
  0.0018091182874922  0.7975703240970566  0.8003652288017389
  0.2004054622446425  0.0021469016738525  0.2041299742174068
  0.2008280319810956  0.9996539144233710  0.4012992056595460
  0.2009345434007977  0.0000516851917360  0.5995709270858472
  0.1967966581812554  0.9982989681531819  0.7972781977690958
  0.2001833731621244  0.2042641294086075  0.9989116161474922
  0.2001417795879191  0.2012823978389796  0.1991715652800837
  0.2002665422808532  0.2002494853103567  0.4005443719145937
  0.2010465457236689  0.1987755742930906  0.5991450818569874
  0.2027900811685524  0.1980767085752812  0.7981177841593539
  0.1957827491354220  0.4018268313638461  0.0001457312101905
  0.1969963157574178  0.4021625363145101  0.2014014249916277
  0.1986007689877827  0.3982289673494668  0.3995865761670839
  0.1977324649462896  0.3989366520643003  0.5996820465247442
  0.1875149168488750  0.3925492204993382  0.7998181471164892
  0.2001504173238763  0.6009311524851916  0.0054883165024438
  0.2006132976866658  0.5983718777786520  0.2019437619920226
  0.1994223579717869  0.5976712974716136  0.4010209533506332
  0.2007885671718463  0.5995447921207048  0.5993638364883687
  0.1978030543067787  0.7967136688171352  0.9977488563005180
  0.2045206183488245  0.7999482393847986  0.4050186180843198
  0.2008400741450430  0.7993474283934093  0.6026044912432550
  0.2005413102694497  0.7982096328028879  0.8010684099095192
  0.3973938863475638  0.9992768029294745  0.1999417006374240
  0.4006435066733235  0.0005156040821368  0.5997814715151887
  0.3987254734462319  0.1974944811806466  0.9991607955625230
  0.3987040207869313  0.2010916776003158  0.2001396353958206
  0.3998590884502078  0.1996931991621848  0.3984803847068387
  0.4001150099434707  0.2005568116074320  0.5992290444403429
  0.4001273343737567  0.2027797202436996  0.7994574160871567
  0.3984178610081298  0.4003160323494330  0.0051130725207111
  0.3985415945438158  0.4012896412752417  0.1997116889448906
  0.3991713042623879  0.4010708357857964  0.3986998089372339
  0.3995048632214696  0.4013290314381857  0.5958876103510332
  0.3959115367305741  0.6043703456264737  0.0018501839610672
  0.3999747520508868  0.6033931268054917  0.2007916770774566
  0.4005656492436417  0.6012191286557872  0.3999226664029132
  0.4005494560011392  0.6031546432019685  0.5999880755722616
  0.4049300138015485  0.6115002284121287  0.8021637727793459
  0.3987246800318379  0.8062450136970309  0.0023016539139834
  0.4009211649070007  0.8011125678974792  0.2008639967728769
  0.4012426167526524  0.8006010025044943  0.3995832215212845
  0.4014268839094260  0.8025385650222638  0.6014058574118198
  0.4001418452176440  0.8026460070856805  0.8012557765206770
  0.5983327400986178  0.0028148827051027  0.0019111007849324
  0.5947995892450230  0.0035653022577595  0.2019194998530168
  0.6003905660137162  0.0006190258085284  0.3996651452283417
  0.6004660353976129  0.0019361677825225  0.6010007627132908
  0.6033725957860291  0.0028852390500491  0.8016262943385518
  0.6000710520980429  0.2017761181559433  0.9978163023580396
  0.5966935970211044  0.2009764051968664  0.1985073875764274
  0.5996575738503742  0.2000410068196000  0.3986607892194880
  0.5988877249844704  0.2007427479446289  0.5987778418492611
  0.5984606021516619  0.2022884109333531  0.7983439109029886
  0.5981960406041347  0.3991654062247935  0.9999342265397138
  0.5994308077298774  0.4001485637008597  0.1998455734948338
  0.6003408241962426  0.4000885412884461  0.3997691444731337
  0.5981321125888456  0.4010113583779680  0.5999154231346636
  0.5986703016756392  0.4013737583514780  0.7996512506892253
  0.6003844591040858  0.6015696006959630  0.2020626702382639
  0.6002006655317736  0.6007053794203858  0.4000339860095333
  0.6015879809172417  0.6014265953003177  0.5996969018655852
  0.6014222504118135  0.6021542834404671  0.7988462889320420
  0.6007527870192536  0.8044561128719686  0.9997472591328272
  0.6016046984877358  0.8040594039796840  0.2003876236036810
  0.6006761647703265  0.8009336999824165  0.4011879832404996
  0.6009667325095347  0.8031689408100714  0.6000807294176349
  0.6014547470342032  0.8027557379076413  0.7994302704136531
  0.7990789278951677  0.0034707930961786  0.0046026032383297
  0.8008143047996719  0.0019470114407456  0.6119224588823907
  0.8010771133414901  0.9982514483537823  0.8053024380510011
  0.7985939042995828  0.2009011530177784  0.9915819654081169
  0.8004559288327771  0.1960758382259455  0.3859296685018843
  0.7988362349439868  0.4018548831412543  0.9983683219527509
  0.7995325768036495  0.4022889675452666  0.1988315487071632
  0.7988192100547491  0.3965829728394953  0.3991265283421052
  0.7996142467387944  0.4019385625939536  0.5993219295938544
  0.7924961736549379  0.4099608369707458  0.8005508439796334
  0.8103480975186234  0.6003564801585031  0.0006273430153212
  0.7985578838759433  0.5926873216664307  0.2011804406704893
  0.8025796631514928  0.5977259417390594  0.4007309097175809
  0.8001564881094823  0.6001540696767298  0.5996274621506079
  0.8014012390575853  0.6036947970253722  0.8005395630591917
  0.7998601492375684  0.8008628098304974  0.9959892200515406
  0.7998419890034364  0.7954112389682276  0.4026575468635479
  0.8021402965909356  0.8001259862900687  0.6003904160352529
  0.8004848202610473  0.7997502364888667  0.8000839469807275
  0.4007961698426419  0.0002622609538533  0.4004450536307885
  0.4046454519434868  0.0018057822093102  0.0056659065600257
