Zr Ti V  Cr W 
 1.0000000000000000
    15.4243531601052801    0.0069213360103042   -0.0227130969377285
     0.0069117328085832   15.4243730448160701   -0.0099851585265742
    -0.0226677546087976   -0.0099574154515165   15.4321734753061364
 Zr  Ti  V   Cr  W  
   7   3 108   1   5
Direct
  0.2038037009257977  0.0021697419804048  0.2114537398515767
  0.1694598891724043  0.7676638819306486  0.5986643964144770
  0.4008498405081846  0.2005816512820849  0.9981908779016475
  0.3635041220992097  0.6348439858685970  0.5993150864217898
  0.6390620811164073  0.6004823052893842  0.0383007698401405
  0.8060557389886245  0.5986087880265852  0.2080916698518734
  0.7608393555622135  0.8005113004443412  0.5979916500621218
  0.9897009239018619  0.6017398485033560  0.3868183481330847
  0.2016591252860294  0.5998937373036737  0.0049710621883641
  0.5596855393344192  0.7864510047263367  0.5979147356265757
  0.0013592062609218  0.9942636371808559  0.9985553443989894
  0.9982609316088432  0.9986553449095593  0.2009651563360889
  0.0049691340011178  0.9969629208347865  0.4040946648217684
  0.0035971559764852  0.9982413670938332  0.7933579734684768
  0.9997436346742090  0.1982413857809804  0.9989439818100796
  0.0015118704692010  0.1988387936036627  0.1980196864164763
  0.0003983464703023  0.1998749099594550  0.3981725660897120
  0.9983631812146799  0.1941676569217993  0.5991459082205360
  0.0073115809957066  0.1990773825710175  0.8003347886852457
  0.0023404110975930  0.4010911154900234  0.9997725198577546
  0.0020611298479873  0.4006590426776797  0.1977641159523300
  0.0012019273059352  0.3984003959271026  0.3982568924971269
  0.9966532722197710  0.3959257702162938  0.5976428241435318
  0.0039884362600244  0.4008071329411201  0.7993058107388870
  0.0104892636896990  0.6044970317837070  0.9968204499722075
  0.0099532102101507  0.6000905980734043  0.1949653323785651
  0.9920977372485824  0.5996926722881780  0.5997814304510071
  0.0047447484405589  0.5986802277278017  0.7980256472622952
  0.9995054367043710  0.7984225757268647  0.1920119278422376
  0.0016175912652099  0.7982569634617108  0.3988322697786413
  0.9746382540945060  0.8041155130199384  0.5996666356738083
  0.0047840248597057  0.7983481187027565  0.8005424728919782
  0.2016190186598278  0.0004412964452201  0.0016567810550131
  0.1952284467521500  0.0049431017951380  0.6000811782008325
  0.2047731923239378  0.0039728533147696  0.7990288864601108
  0.1951861911280570  0.1995804230004792  0.9961737890884191
  0.2007497105455134  0.2056229997324932  0.1985252120847880
  0.2014233841298538  0.1966309765444190  0.3983056810023295
  0.1978659097663423  0.2001627650012307  0.6037520698619124
  0.2005366079079510  0.3998659048402067  0.0005175359411025
  0.2022488714896368  0.4017717585283985  0.2004504650889746
  0.2007614344972843  0.3973534271286918  0.3994476892165058
  0.1967859217186237  0.3956404028173978  0.5969795264767827
  0.2071809503889765  0.3950126431286700  0.7990718935994475
  0.2034500452328029  0.5982569897292450  0.2076521909412355
  0.2005446016534553  0.6014449295832648  0.4050638414438980
  0.1735235410175470  0.5793972950496387  0.5962854145702824
  0.2042976571687996  0.6002391887139351  0.7907549358500222
  0.1964527505703185  0.8031362359781218  0.9997803585433698
  0.2008963528035115  0.7941077679637238  0.1981508566900065
  0.1996345732135736  0.8041600131243190  0.3937140743283539
  0.2033136208957274  0.8021344605491172  0.8048086654179485
  0.4026572754492550  0.9954399526982189  0.9999318090905789
  0.4077520583766820  0.9976215249912276  0.2006420720070036
  0.3981150383638721  0.9995969064426378  0.4001189697277865
  0.4015798216628956  0.0049417178007991  0.5995566514223979
  0.4033408020684612  0.9997782934881271  0.7986316206147244
  0.4033565923387348  0.2026561497256487  0.2019791403177119
  0.4009675798438129  0.2003682259746589  0.4001304467991180
  0.4011814006956607  0.2028942968784873  0.5973292558328427
  0.3990486687495445  0.2037817976836095  0.7940898650052522
  0.4042088682002468  0.4069578033175626  0.9968512388291637
  0.4011623272520581  0.4021893041490206  0.1984120688300264
  0.3992423553207173  0.4019648780854778  0.4000882039251983
  0.4018969139588546  0.4040338245013364  0.6030155635262407
  0.3994085707957269  0.6040825577412773  0.0013301004709741
  0.4009678269512706  0.6012411740484420  0.2007741479577891
  0.3981371153959060  0.5997859770998546  0.3982445290404147
  0.4066782080563990  0.5957925974193613  0.8071107849840847
  0.4016854317124589  0.7994001535919467  0.9993567831672979
  0.4008428195638352  0.7988559432805805  0.1972900475901725
  0.3994086557375675  0.7996635189075725  0.3989935923872421
  0.3741698537547512  0.8222395227810569  0.6006802160993032
  0.4002847768474597  0.8000409413706290  0.7991146952636703
  0.6050479173932594  0.9970541852271078  0.0010745824545546
  0.6004061488763807  0.9978545133972871  0.4005564556415170
  0.6018281193656360  0.9974385817698345  0.5992770055370252
  0.6013698210371292  0.9993896262950953  0.7997230358105997
  0.6023286521868471  0.1993036249999957  0.2006238925359478
  0.6004948216165041  0.1985376061833845  0.3994675459962769
  0.6018777589393391  0.1985368922197936  0.6008933257439609
  0.6005410652998492  0.1965030120381805  0.7993275148887362
  0.6029875581468704  0.3975289359586214  0.0036956611908635
  0.6006344888481375  0.4019084492587726  0.1999574117300419
  0.5995565922637804  0.3990791534607923  0.3997220385033000
  0.5995609884535813  0.3984236690255650  0.5955803245490323
  0.6064118986887841  0.1994862618814602  0.9993713085699568
  0.5956308959895464  0.5998000816873769  0.2222841127103745
  0.5967411041731537  0.5996617499290627  0.4099468143770430
  0.6025084532921582  0.5950344626794942  0.6052995531997911
  0.6015580592237343  0.6018989225520568  0.8015499323764042
  0.6018510748831524  0.8013869476078884  0.0004302161570418
  0.5998658487405146  0.7976417510511143  0.2000035838900429
  0.5994533812754208  0.7998003872018848  0.3990968465188080
  0.6007519391308102  0.7987990484231813  0.8029668070451508
  0.8035298704467743  0.9992606888872385  0.9993609151789523
  0.8009038598287769  0.0001963853219633  0.2014555251472166
  0.8024921208706082  0.9994702546852569  0.3994118370047695
  0.8050781376300350  0.0027173596525776  0.5984894987920190
  0.8027496545837879  0.9997700268569157  0.7997276973604471
  0.8039626173262683  0.1986963803096232  0.9992024481354574
  0.8016105034344508  0.2002686306780669  0.1991193840751173
  0.8006330322909297  0.1991401398774112  0.3987558596215252
  0.8003568372805292  0.2012125439971047  0.6001521820485554
  0.8007596430857500  0.2020092718759817  0.8006477935580225
  0.8031334168768320  0.4010710770252827  0.9986060716492431
  0.8024023197902037  0.3957411456336725  0.2001660010396136
  0.7997161821325486  0.4006236847029423  0.3991736639113748
  0.7995397430475495  0.3980487517456781  0.6006922852058160
  0.8045317357495183  0.3998447413991815  0.7999231280497719
  0.8239140927804679  0.5987912275044430  0.9955111859101513
  0.7956771682370496  0.6007751134283971  0.4102402334327758
  0.7990590856331516  0.5958669786523392  0.6038930418957704
  0.8015654412111658  0.5974306506886170  0.8012925647268502
  0.8056861633212596  0.7970379922102174  0.0001976678215939
  0.8002622127457740  0.8031310493184692  0.1981084332609092
  0.8000953325505025  0.7980918106260725  0.3935263837514426
  0.8015909028851415  0.7974212282896948  0.8017263317901437
  0.6032804605132749  0.9993079399209371  0.2011758889785238
  0.0013682057284448  0.9953706860939615  0.5991673946262133
  0.0010811432955820  0.8008326482985286  0.9967558499736907
  0.2018666180937628  0.9987277615562865  0.4102469136268683
  0.2036378611949670  0.2000931693346054  0.8010968691517885
  0.3952407061018381  0.4017548704460711  0.8004307999461614
