Zr Ti V  Cr W 
 1.0000000000000000
    12.2882735461728885    0.0000000000000000   -4.3445607757035454
    -6.1441367710433559   10.6419570608175889   -4.3445607757035454
     0.0000000000000000    0.0000000000000000   13.0336823299999995
 Zr  Ti  V   Cr  W  
   3  15  74  16  16
Direct
  0.9938306088754000  0.7964250603991097  0.3991021345697191
  0.2121489113185304  0.8022117926040530  0.4059415282831679
  0.4095684303552447  0.2091045284010086  0.0014212489747595
  0.9982795352962143  0.0043624652915311  0.2027164771928330
  0.0050245003590402  0.6086322529698238  0.6077242018934961
  0.1944892275592658  0.3972116893521855  0.5955366916436193
  0.2011320649111934  0.5984285893876357  0.0012537248658127
  0.4053205569189783  0.2088264084961179  0.2143549469139157
  0.4022412284284286  0.6029809388426906  0.8019006084856308
  0.5973050059631686  0.9987435672478424  0.5972667533972992
  0.6035282763357407  0.0002805267205851  0.8042957531672581
  0.5957082117391176  0.2052332656792025  0.4016270419258017
  0.5530372427370200  0.3518203004184335  0.7440205110093591
  0.6127986808348531  0.8104105532515912  0.0076713261005599
  0.8020568210256176  0.9948240662883489  0.3947786538884794
  0.7985840583762115  0.1967643211236917  0.3926424921802422
  0.8004904401684640  0.4071730703568496  0.3991560706894307
  0.7974225681102863  0.3953264135429663  0.8030590407602107
  0.0091082446099907  0.0114729118328448  0.4056208261651552
  0.9954627557720199  0.0047836160124924  0.6006076467227799
  0.9949028292394310  0.0012503254018682  0.8009200125777741
  0.9986143521408962  0.2018840432753038  0.0020901333017196
  0.9967266493584866  0.1933561940809829  0.3915275361254372
  0.9981585751234267  0.2036644632039150  0.8026822799287389
  0.9991285168287845  0.3994204748900714  0.9978116654786269
  0.0021998973459596  0.3983526321808073  0.3979546855825365
  0.9997918830432536  0.3960031232402337  0.6028137007570377
  0.0005608841130732  0.6015898617813222  0.9946473396245633
  0.9925221745899583  0.5841437368924249  0.1875350915437507
  0.9973863544760572  0.5868681670243268  0.3939561833224472
  0.9927819310292673  0.8019464575911998  0.6060120192977152
  0.9980620608773256  0.7961149346638232  0.8008060734307214
  0.1964331805156914  0.9983515920049584  0.0009939771560812
  0.2021093053958651  0.9996285934686288  0.2026678214469504
  0.2086718011249708  0.0122206413137137  0.4033496024159444
  0.1954461148091716  0.2037791085922052  0.0047117922175904
  0.2035839949899325  0.2108621943999843  0.4070455988970650
  0.1969626089769651  0.2006506024137607  0.5978456177814153
  0.1966421096306772  0.3970324889551370  0.0032545654693001
  0.1969736788274714  0.4023083028484777  0.1990459156967103
  0.1988397527446542  0.4019129349561524  0.3970156325086567
  0.1941924916689498  0.4010915189629593  0.8023610355895020
  0.1982496929809869  0.5962206778336329  0.1989479713563461
  0.1962022355793986  0.5869640674341147  0.3938424116291159
  0.2016655469938567  0.6025151742526447  0.5961791771092597
  0.1920850017109896  0.7995403589733386  0.9942311655863332
  0.1986913843952803  0.7946390626315292  0.1919099156781634
  0.2038822577458508  0.8009298321419005  0.6115970773453776
  0.3965647649902031  0.9928989297418810  0.9968350533477880
  0.4050437713172668  0.9986077928981900  0.3976702381507505
  0.4141848989092780  0.0218673502204814  0.6219657205635764
  0.3976381438560946  0.2010314616351047  0.4223163838414848
  0.4022798361125813  0.2013804248213633  0.7665865745509629
  0.3989020535450928  0.4112147294980020  0.0047664141635944
  0.3977181027479583  0.4067906493992843  0.2030848126776991
  0.4042871609838558  0.4044480225152255  0.4060296450210368
  0.3967363456128535  0.5968906706485105  0.1942586851376293
  0.3976827001866494  0.5963803463107692  0.3978371703556877
  0.3995895981162102  0.5965467520019845  0.5960650510757989
  0.4020278752666686  0.7992923795477644  0.0033366705355987
  0.4041089683182774  0.8002665871748077  0.1992199149474017
  0.4055732176758942  0.7916748046407357  0.3922278839893780
  0.4024736071156028  0.7957318646519580  0.5970309077379323
  0.6049391776405773  0.0054654381111301  0.0069403963773274
  0.6015288281952454  0.0001712453752113  0.3931416794843905
  0.5902262314452928  0.1955649121563660  0.5954114179765968
  0.6130731056893273  0.2069495488426314  0.8178826085369415
  0.6036297823944129  0.3970920380716333  0.0000039310181362
  0.6060685387184191  0.4095571151450162  0.2126628082189809
  0.6016447538390288  0.4059112480979596  0.5921653201503081
  0.5983907187195717  0.5978975241858674  0.1989367508379830
  0.5966043223811950  0.5954480736388299  0.4005240814530725
  0.5979146550145977  0.6028315331766105  0.6010795963958662
  0.5992329047937419  0.5959140122740701  0.7923539631537236
  0.5994001125632803  0.7967765967095095  0.6022414592656181
  0.6031100143594357  0.7969828174392183  0.7987229710619012
  0.8028835078908543  0.0023136792336620  0.0051141792521406
  0.8039458385002507  0.9994808547575841  0.6052118733988056
  0.8020981232417567  0.0000991710208373  0.8010118114357565
  0.8063800176990857  0.2062501365208939  0.0070860621007843
  0.8077432019661255  0.1982931345839451  0.1972253906517063
  0.8046548191856251  0.1969943464279711  0.8070658042120071
  0.8018881278664957  0.3979507632687296  0.1919959866624801
  0.7895796212062008  0.5881561206932775  0.1900510139057730
  0.7971760438679194  0.6037884675817143  0.4006478360835027
  0.7948171449757907  0.6021922477074720  0.5983668478676676
  0.8039824479109273  0.6052288771353643  0.7989376820968679
  0.8014977477245870  0.7940079993459475  0.9908341475821953
  0.7973018389581674  0.8017424408451501  0.1954288445280988
  0.7900118319772503  0.7927699011101956  0.3992517038618917
  0.7978984843373386  0.8004121735858724  0.6026585127188214
  0.7969545094743964  0.7988759632242470  0.7969196564192089
  0.0000518698261790  0.2065481982867570  0.1993534434694367
  0.0022009826244152  0.2029470900562278  0.6008513317893419
  0.0017982707757460  0.3960116182824897  0.1986654502814650
  0.0009716978001147  0.3972225718961443  0.8009313662469393
  0.9986345073291378  0.5991969343255459  0.8042875613254553
  0.9983902207694688  0.7985954768335369  0.9973803594159123
  0.2017960670786234  0.8030602522719630  0.8036071600397450
  0.4059508994362858  0.0039044229214396  0.8054531147319275
  0.3994025287773109  0.4071378279246040  0.5990006465844082
  0.4062641411916992  0.6062511420371828  0.0076895757273228
  0.6017886994935231  0.9935602478660938  0.1962233616048726
  0.6070386249924059  0.1984232607474077  0.0016046645619435
  0.6018021418848895  0.4115464700576743  0.4068188832885434
  0.5956741872967093  0.7944696555022710  0.1937561266880324
  0.8025748094977836  0.0045995344576983  0.2008145066362046
  0.8030415421060243  0.3973123310439100  0.0033545057334096
  0.9974669519009203  0.9966637813459003  0.9972905815988534
  0.0002487935985416  0.7966914756435151  0.1903628045762065
  0.2085702399771817  0.0098516718046631  0.6083873708123817
  0.1956322099130388  0.9960390223096158  0.8013521248358724
  0.1986009640174994  0.2040866353530283  0.2046791661363630
  0.1951831395351774  0.2026928616871873  0.8023804817851746
  0.1953908850633453  0.6016466168931062  0.7980555511332207
  0.3982168409618291  0.9948717913028560  0.1956745042772808
  0.3930273702637129  0.3973697837414173  0.7960621386599459
  0.4038966045483560  0.8065335492027048  0.8023721751010131
  0.6048869646469687  0.1974158270299021  0.1950205914970609
  0.5982296836945101  0.5977076716687373  0.9973877291924155
  0.6002446620152717  0.7984629402480311  0.3972961905584719
  0.8025018377644910  0.1975541482592491  0.6016292964158587
  0.8076307111902579  0.4070254472688630  0.6066839256204939
  0.7944988167857824  0.5862006921288765  0.9886808358518137
