Zr Ti V  Cr W 
 1.0000000000000000
    15.3185418189025757   -0.0058579337440910    0.0011531853961578
    -0.0058580518235424   15.3152820885503385    0.0003427542276612
     0.0011540796390519    0.0003423374486165   15.3446139054441577
 Zr  Ti  V   Cr  W  
   1   2 102   1  18
Direct
  0.6090609952224413  0.9997533868219385  0.7991566230453333
  0.1986316473975289  0.7954281891430793  0.2110606403237589
  0.3989789226093727  0.7999629095086973  0.6100002343233906
  0.0000694453943770  0.0006415861055160  0.3967145103694538
  0.9988318694907076  0.0020766892609405  0.5982254256229874
  0.0020280125941454  0.0028032448920480  0.7977756784804634
  0.0047348905816253  0.2040783725329272  0.9981013456922728
  0.9993105904917737  0.1997109725877636  0.1992955032916035
  0.0001905902021897  0.2056741624242417  0.4004154554304433
  0.0045280294606914  0.2036220580311657  0.5993863392385810
  0.0005742654640570  0.2056512762165364  0.8000540877269917
  0.0003390324725647  0.3997818417231769  0.9945900550224982
  0.0028128598639864  0.3990139178724887  0.2065871169278069
  0.0015175937990621  0.6034189218392516  0.0004370168871846
  0.9954938679257396  0.5998739487435057  0.1997269192290736
  0.9998316808685916  0.5979211143617225  0.4000966325128628
  0.9989034881101164  0.5978923404723168  0.5987676972002056
  0.9999547128738033  0.5979190079964087  0.7991873766187446
  0.9990101521298048  0.8005760192767610  0.9986682510855293
  0.9987756215779703  0.8027189360446949  0.2005575220026378
  0.0029479629673514  0.7991386042415975  0.4019159348048226
  0.0000650840078418  0.7995830997558808  0.6004503168644824
  0.0005403926543451  0.8022272181046679  0.8002682609407752
  0.2018301108151331  0.9938305975258981  0.0021768389958559
  0.1958131165696331  0.0017875328496656  0.2014405621921459
  0.2005817240223786  0.0002230636487623  0.3993951722050775
  0.1962686105704999  0.0044097544948267  0.5982389492654302
  0.1969240298087217  0.0004269293928469  0.8013753589334375
  0.2006456330937152  0.2032507614584189  0.1934540774769987
  0.2033219420252824  0.1999769655452549  0.4050977065792581
  0.2051064322502017  0.2033977495910590  0.8009386153068987
  0.2026066416750615  0.4129859129210042  0.0012171612430367
  0.1988548368817370  0.4005886428624920  0.3943153448400329
  0.1972197040186846  0.3963833830703017  0.6060208274244050
  0.1978758540024533  0.5946866506296477  0.1967556386775533
  0.2005800031567417  0.6003268942608785  0.3988527247529542
  0.1980547088428261  0.5999901337071488  0.5977500694749182
  0.1999241558656059  0.5989913744732923  0.8054363627596666
  0.2056945643942938  0.7994550073211306  0.4049851254717741
  0.1968778430102748  0.8003060693331838  0.6016261745695698
  0.2052139878016074  0.8003509957708170  0.7990595291335547
  0.3993820734295772  0.9988623831775852  0.0007553069475887
  0.3988719710050168  0.0008379876740936  0.1992780510310344
  0.4005598936842973  0.9951595891443362  0.3999305369810884
  0.3993802196894995  0.0014889833634188  0.5989173383795120
  0.3985897380749019  0.0007926002780365  0.7982966574804937
  0.3953019082553231  0.2000445295849037  0.9926635300348915
  0.3997023635543201  0.1986327888081805  0.1998143812896109
  0.3997016129815014  0.1982401163579115  0.4015325068833885
  0.3959429262214161  0.1985183219240207  0.6046719319662576
  0.4000556591518592  0.3993665593811626  0.1949905092107447
  0.4023260291997080  0.4018248369891541  0.4026838728198810
  0.3986153859630692  0.4002260122076564  0.6027853836066842
  0.3953260265074758  0.5993707927657682  0.9990331291650743
  0.3987424765174042  0.6010043747102605  0.1981901152436220
  0.3995678711412342  0.6039219024364675  0.4006857102576879
  0.3982700003548610  0.5970988369453722  0.5998843318491726
  0.3995907865661998  0.6025365192688338  0.7971607424165688
  0.4041918978345583  0.7999983564381872  0.9964221405878984
  0.4023759133638573  0.7994274448467685  0.2001391536098058
  0.6003291982080246  0.9957793793026394  0.0078194131277156
  0.6024822900575926  0.0018028997289676  0.2031777468026948
  0.5999520596563198  0.0006511996623773  0.3978488464858210
  0.6017819907755556  0.0008244751303468  0.5930535318041297
  0.5991952933164889  0.1975689649119098  0.9998800522098299
  0.5998521439849084  0.2034611302567330  0.1991814415878141
  0.5981283013993501  0.2038799415637571  0.4000558186067054
  0.6000570383617551  0.2005491217855549  0.5986476090847035
  0.5958663707270733  0.2048918646353924  0.7995370041317922
  0.5932103159657437  0.4003074493240472  0.0043803079316522
  0.6010409895898856  0.3996411891216058  0.5958346956843270
  0.5969491131754733  0.4022433676864679  0.7990200500418680
  0.5997935143377244  0.6036156324422093  0.0013211342949579
  0.6039082602121141  0.5950305191556855  0.2002490045344585
  0.5991270271965492  0.5959594300358275  0.3991860867540050
  0.6021008180654850  0.5982921027746982  0.5975757622622140
  0.5997923259679696  0.5964155753091652  0.7994906551763521
  0.6006766797666108  0.7986879493466895  0.1956676801540117
  0.5944077660372870  0.7983422546560721  0.4003058634227002
  0.6015865290454618  0.7985722832032661  0.5997236929289305
  0.5961063679606512  0.7932885139020632  0.8038042828214397
  0.7978920292200612  0.9989798651085597  0.0008459907561341
  0.8043025206753445  0.0001264488939081  0.2001248476834211
  0.7991984031014715  0.9993843801564164  0.3996205136407213
  0.8018827560455879  0.0002315580816923  0.5992839619310563
  0.8399527860729237  0.0009096821738861  0.8351968335572330
  0.8015799947509559  0.1976089946977148  0.9987730090764978
  0.8001152961033662  0.2001409085971639  0.1974200621186299
  0.7990683466183206  0.1994545646095388  0.4001601459884968
  0.8002239565067147  0.1981831559801808  0.6016217120491605
  0.7988763161080621  0.2018177796654741  0.8004381913435741
  0.7995161610559975  0.4000962335889254  0.9995150742077271
  0.7974248632896545  0.4027547525820155  0.1988864515664309
  0.8003165951419144  0.4004986477286377  0.4010101068061659
  0.8027374230149099  0.4002374937917471  0.6002763701745623
  0.8024857227084213  0.4009142372593349  0.8007592038798104
  0.8004279457056535  0.6009694764905880  0.0032450284990004
  0.7992297062929109  0.6028006065398108  0.3953905910669586
  0.7998156956635217  0.6026803046405552  0.6003508142784035
  0.7996805408463805  0.5996545424797696  0.8013847094169934
  0.7960890146091917  0.8010798246433444  0.9989946892437319
  0.7994302772379083  0.7962627927735432  0.2012340624628534
  0.7971144129324780  0.8000134902276101  0.4012383080249283
  0.8000404509071937  0.8006234873292329  0.6011178031584288
  0.7993529525895273  0.7986453611927513  0.8001340934130838
  0.2009038283064248  0.7997613479904736  0.9995107510841522
  0.0000970337117887  0.0010543715855140  0.2040238301158719
  0.0000738030058861  0.4021351402793954  0.4043382019111177
  0.0008837246436255  0.4006576644026383  0.6002486844532782
  0.0045489018921802  0.4023796773047711  0.7955847331356593
  0.1996592315348024  0.1835686314475405  0.9981479880949313
  0.2006448827068855  0.1990893949299157  0.6017875689519988
  0.1999254969500465  0.3980080669030856  0.1985303553484408
  0.2015646599544387  0.4010526386934571  0.8022188180866805
  0.1981745495868559  0.6035437319775201  0.0024802616328069
  0.4005578220801160  0.2025541187389638  0.7982186586355329
  0.3972709384163778  0.3993164381430008  0.9947116348645744
  0.3968486432072723  0.3986479117074527  0.8020794483407483
  0.4010305478663193  0.7996183159682692  0.3949088416585220
  0.4022498276978724  0.8028312027908650  0.8031100925829309
  0.5988368201719168  0.4000102065109968  0.2031384846783258
  0.5987651393874195  0.3998466620482828  0.3977082208395424
  0.5989142147758733  0.7997873855810705  0.9995011304202492
  0.8006240767806194  0.6000376428384037  0.1987910762157958
