Zr Ti V  Cr W 
 1.0000000000000000
    15.5189800638460067    0.0053948810984519   -0.0005922212079772
     0.0053614356663930   15.4324842596042995   -0.0034080797093035
    -0.0006771033361387   -0.0034056472556456   15.4238540815599539
 Zr  Ti  V   Cr  W  
   8   9  99   7   1
Direct
  0.0361397758756434  0.1664320976629744  0.0003995241629797
  0.1791450502049717  0.9952529593411054  0.1419752836241391
  0.1996914170143588  0.2033394740935062  0.2393733884059396
  0.1993969345879405  0.8082521203783328  0.9995300153467578
  0.4053302972462858  0.0101553458335204  0.7950805329684622
  0.4328539157199500  0.5680531081412855  0.6020747608746209
  0.5673852177410745  0.1849784123817848  0.7978683918521329
  0.5943778134394093  0.3979606762237835  0.6029323846498484
  0.0054057736732545  0.0006474191441521  0.8118226411049089
  0.0041099098439751  0.2102315951188734  0.7867578790016555
  0.2318359142893629  0.1914586446452627  0.0099276618494855
  0.1936165081949368  0.1977583341082027  0.6142473393680788
  0.4074584658773526  0.8064422751472073  0.6050818812901921
  0.6027490089023732  0.1994994452810694  0.2058993992165471
  0.7956440936610014  0.0022819954011950  0.4007174372848196
  0.7980552860613258  0.2099830782792559  0.3991883846805034
  0.8006215627902995  0.8020952923703530  0.7947068427438513
  0.9895585032805707  0.9785504617759359  0.0073651943471095
  0.9879602146846678  0.0004296485219022  0.2028932500717106
  0.9964273774769070  0.0023238981875946  0.5971764773403313
  0.9986731854433482  0.1988926669713308  0.2037639083784054
  0.0029975783054441  0.1989489986514718  0.4014437754157674
  0.9939292515817191  0.1990705972900602  0.5956926345480349
  0.9991193911981784  0.4003898267988743  0.0005294799368012
  0.9987077396460633  0.3979308196000323  0.2007595632354215
  0.0012521442266661  0.3998871617798917  0.4011055057060297
  0.9963612471095411  0.4002004606187733  0.5996068218996325
  0.9994792493985721  0.4059484190003537  0.8009964529573222
  0.0000223865872585  0.5995937673203443  0.0014161852864456
  0.9985519282707498  0.6003616288876390  0.2013473022007629
  0.9956686110845085  0.5989421421348338  0.4022811941843738
  0.9971637238812043  0.6019874282885229  0.6008398842252167
  0.9979273141010525  0.6024144010829654  0.7993254500087282
  0.9933218223769252  0.7935453294088366  0.9996386595993012
  0.9973555319695290  0.7998473226914767  0.2048813679907960
  0.0053383997646752  0.8037018564269923  0.4010875045069597
  0.9963412907733777  0.8032959106472455  0.6009499955805803
  0.2291930515591364  0.0081377293945864  0.9477206198137027
  0.1983432764347905  0.0001547835330183  0.3990276422863827
  0.1974644482604188  0.9968384387298848  0.5970388593584995
  0.2002059051372876  0.9984059771231624  0.7844252444368305
  0.2007059106469883  0.2001284192450054  0.4284427378564714
  0.1930893013141390  0.2050464736151779  0.8088708765488932
  0.1983017303807488  0.4043283570728025  0.2007516658398416
  0.1974656206557837  0.4038599061165383  0.4037400758611643
  0.1965265987345149  0.4038371679670848  0.6041369523655511
  0.1965604660124420  0.4045381732768363  0.8042001667056669
  0.2000172356326409  0.6008829539661836  0.0000142922935318
  0.1995815695954668  0.6000565924248957  0.1996018963255088
  0.2000833913918608  0.6058216427843000  0.4035653215244396
  0.1947154490267839  0.6003769700957583  0.6024595829797696
  0.1997819559535120  0.6030421302209358  0.8007865650718099
  0.2012195321659404  0.7964651591586455  0.2081211733206990
  0.2005534942240770  0.7994832200256409  0.7923675709092257
  0.4125913318589060  0.0018868758278880  0.0034778797433008
  0.4084252193197371  0.0038459926774388  0.1995501309098817
  0.3968395597414324  0.0028480835535485  0.3949806063635343
  0.3979460136331285  0.0000737125147821  0.5915378180760736
  0.4174858786646036  0.2049780503039526  0.0002126873547236
  0.4023089250344466  0.2018431969638443  0.2011621166027555
  0.3947532088480691  0.2008782432162870  0.4018248296123070
  0.3998539571526851  0.1919203985089404  0.6054893106508292
  0.3794468532546125  0.2117040963232350  0.8015037793819934
  0.3993799064706805  0.4004403658810943  0.0025430893863017
  0.3987799102775811  0.4003445968728612  0.1996537511384833
  0.3956103680306313  0.4003290117743941  0.4017114485886172
  0.3870028150631835  0.3802845198706361  0.6001231621150452
  0.3957532111787951  0.4036745407467617  0.8009212228391683
  0.4005220296073391  0.5998308885835963  0.2007758402832727
  0.3976760635267843  0.6022891308581882  0.3997836687344830
  0.3958459976143975  0.6016764394313597  0.8039386802501312
  0.4061462771239108  0.8023893546810540  0.0005328354578911
  0.3947338377156319  0.8032145006743213  0.3993140705132747
  0.3975524044547373  0.7997662126504909  0.8015827771892247
  0.6054082592280758  0.9996192921873513  0.9972611060259947
  0.6017565403362738  0.9978450748190657  0.2009325580522172
  0.5962393602100841  0.0012964250817131  0.4016295080165322
  0.5991727057806365  0.9999114336138839  0.6016599368677464
  0.6100055407934848  0.9886954288745535  0.8003925885246601
  0.6072880234905421  0.2008578450269808  0.0031184350313618
  0.5938886612715454  0.2017255809026033  0.4028271914529289
  0.5993116113632982  0.1943112283549577  0.5952116723508933
  0.5998627051596703  0.4030698290581116  0.2005327592676395
  0.5933377918201712  0.4009495297958945  0.3959376524644046
  0.5969351582060917  0.3983962036317006  0.8068143119473562
  0.5991558349499850  0.6003024072725791  0.0001949161277668
  0.5996275387023133  0.6014644164176627  0.2005302346384236
  0.5972066116863886  0.6023664786116958  0.4025742152301608
  0.6415401451918994  0.6074463568128241  0.5985243340137402
  0.5962187010817226  0.5996310916313310  0.7967157727913221
  0.5999943943458749  0.7988607026968739  0.0004844047211620
  0.6005216191900934  0.8000627268713844  0.2012477837771578
  0.5957584243565119  0.8018219040910617  0.4010388337410079
  0.6062516241123233  0.8037858030838526  0.5996419098478684
  0.5948642398130812  0.7975600542850038  0.7988082182990559
  0.7987842339852080  0.0021111668339422  0.9998252375312435
  0.7955529239713292  0.0034211353048124  0.1987170796546983
  0.7990195481431702  0.0053168719341650  0.6045986806105093
  0.8008619301065348  0.0058746394298643  0.8018411018135504
  0.8023336086523806  0.2023422628183681  0.9981563418018845
  0.8045336478682307  0.2023569628090396  0.1990884148721709
  0.7957366070405221  0.2020739936798205  0.6018467361929346
  0.8038827539021698  0.2033198363436809  0.7998760402835071
  0.8010904596939782  0.3993091807238562  0.0004862770994116
  0.7994228954982185  0.3993898733819700  0.1985760600851307
  0.8013897788569254  0.5013133596458942  0.5005425873812217
  0.8000857178544244  0.3981115733531608  0.6016685673039510
  0.7968947390590617  0.4016011545744591  0.8006583906306447
  0.7972918244352517  0.6000693745940463  0.9993279705885786
  0.7983946420726257  0.5991107667552075  0.2001668653166371
  0.7988387115327833  0.6029537972025899  0.3971240331090610
  0.7986075919361501  0.6004488965773366  0.8030180938603753
  0.7976499505771543  0.8003330289867732  0.0010215862312828
  0.7997481265181173  0.8016451864821197  0.2010168538470433
  0.7999990886492123  0.8006311103660536  0.4006155563811732
  0.8025395971799691  0.8078577057633303  0.5976621047779926
  0.9997710370993218  0.0015803769243428  0.3990921170807272
  0.0034853401090755  0.7990929581342895  0.7999590157938604
  0.2015082013090834  0.4018864406086330  0.0028239374302381
  0.1963215911067188  0.7992172322361651  0.5979023282714629
  0.4000197158018912  0.6014888744382693  0.0017641259326572
  0.4002045856813430  0.8018019386924468  0.1997981472288032
  0.5999865576852772  0.4009967576551639  0.0014071907261513
  0.2007039810357805  0.8034718856860953  0.3993584321897733
