Zr Ti V  Cr W 
 1.0000000000000000
    12.2882735461728885    0.0000000000000000   -4.3445607757035454
    -6.1441367710433559   10.6419570608175889   -4.3445607757035454
     0.0000000000000000    0.0000000000000000   13.0336823299999995
 Zr  Ti  V   Cr  W  
   5  10 103   3   3
Direct
  0.0038125459947261  0.2046836826028263  0.7997951754469336
  0.3969003234184700  0.0008192892207097  0.5854945760413406
  0.3927232198693172  0.0045913468923364  0.8068076768027678
  0.3955208774056043  0.5949787892324997  0.3950113557109640
  0.6033097812397638  0.4005146625498209  0.0036546210336421
  0.0018122948299433  0.2075768323167702  0.2068402889802441
  0.0344705549064987  0.6146383755869707  0.0172537980967580
  0.9914326594186603  0.7997915379747644  0.9916003721186202
  0.0183202609206789  0.8023615133605034  0.2077298505898258
  0.3999725943855085  0.2059143161735037  0.0071776031362946
  0.5961526754698124  0.1953777678270956  0.5924797897459529
  0.6031931349550962  0.6107949340984213  0.0031918669587515
  0.5993191430815656  0.7937934679231222  0.7978160943422848
  0.8092321233788652  0.0003959860361141  0.8037386070792889
  0.8008330821944909  0.3998382155663089  0.6023721700040441
  0.0029265040017024  0.0068098235831205  0.0048197387243837
  0.9999590176971785  0.0004922264709179  0.2013638524301649
  0.9968720812424151  0.9972423329359090  0.3954949656228840
  0.9957127681809766  0.9958409752253367  0.5933593395751705
  0.0070941350505449  0.9924586349842713  0.8009736934020576
  0.0098782510389899  0.2083205359180569  0.0129368849252739
  0.9959465787489418  0.1982112749243548  0.4008462742989233
  0.9959086510345927  0.1979076592495293  0.5895820842668251
  0.0008096175291845  0.4026184360269980  0.0058250637409045
  0.9983603258647833  0.4005928759865674  0.4011515020121567
  0.9998331959359056  0.3996665199561301  0.6004955494945745
  0.9998397558067917  0.4087924410382480  0.7987555612306998
  0.9964599217874327  0.5875435412893372  0.2026703787914898
  0.9997785533424189  0.5990116706957928  0.4052076273604514
  0.9994810200971738  0.5975166288355065  0.6003162670911915
  0.0041687561737946  0.6052635602226336  0.8005029223416235
  0.0001699809834941  0.7996143145175063  0.4025636667248912
  0.9962975616926539  0.7962443149434054  0.5979270924902610
  0.0011012211251738  0.7966130054787651  0.7956592669562780
  0.1990935174602482  0.0008482688254729  0.0018719732381691
  0.1970413519252461  0.0013776990708215  0.1975689724832912
  0.1969158486414730  0.0092924619023978  0.3997153676063858
  0.1861415902713695  0.9970156022226860  0.5938994690848491
  0.1832614970553628  0.9989303572563391  0.7975450150267634
  0.2015046052295400  0.2052855986813177  0.0061971383429279
  0.2044748652324438  0.2038442202961261  0.2029911291792159
  0.1984590523778292  0.2022173114422252  0.3976390425885153
  0.1920757811458575  0.1962080387067532  0.5950217586766109
  0.2080139802984736  0.2047302669415570  0.8012488920681687
  0.2061238613549755  0.4206674452202644  0.0105888920950693
  0.1887661916724034  0.3952370492870949  0.1944900063408664
  0.2019758799133254  0.4035840609404449  0.4057231983296569
  0.2034072064102020  0.4043988473754481  0.8011558029199315
  0.2064397046240607  0.6657205574923892  0.0643143385073882
  0.2017162085705458  0.6109858991723575  0.2027922834087566
  0.1913138607248736  0.5973273520833755  0.4008946469356867
  0.1988802443175438  0.6002792484353586  0.6031271934719313
  0.1984119047877712  0.6012355439987608  0.8075263904250454
  0.2036383697439086  0.8011246947219486  0.0068514424269373
  0.1917481269607177  0.7877293137448406  0.3910779231068980
  0.1903319287509145  0.7906319500550699  0.5937534929248461
  0.1970681358868916  0.7962469674330525  0.8019903657261106
  0.3969186877271823  0.9940332808332535  0.0118067798684973
  0.3968187086396030  0.9973287955417548  0.1936137066493335
  0.3626643195163949  0.9640253848687087  0.3507273717485074
  0.3963833334842508  0.2029271997390439  0.2027965024021848
  0.3945592910048153  0.1961148625146494  0.3956285889714200
  0.3933747308206249  0.2154602155896553  0.5965486960389470
  0.3877841740855011  0.2070935092513227  0.7880632087896871
  0.3939592901979188  0.4108673527661554  0.0012070863317718
  0.4010426322607853  0.4000928758996794  0.1980155162932588
  0.3999807839993403  0.3930367514105100  0.4022446392161879
  0.3993546458092848  0.4014012524966385  0.7962143441207009
  0.4016377909517698  0.6032036472179266  0.1909738359477665
  0.3970880256874569  0.5920458785350767  0.6038998038005736
  0.4012956755889122  0.6005985757410052  0.8060409127824900
  0.3992623695819699  0.7964954632491966  0.9999620700752100
  0.3850056106073957  0.7879825069487705  0.1872432160023107
  0.4021797156942973  0.8037072406233722  0.3997164703835334
  0.3981959947657274  0.7935359997689235  0.6023626775706129
  0.3933893927532854  0.7901251880072416  0.8011245150987287
  0.6018701485995890  0.9972950752997918  0.0033164470852907
  0.5995336242785123  0.9939751087642212  0.1990464193187892
  0.5936159596741444  0.9907989678459813  0.3924767263304761
  0.6110872106470442  0.9932725481410551  0.5998311800125161
  0.6184523789587804  0.1997614196746935  0.0161765569796220
  0.6008718199240539  0.2009384709279461  0.2030989321034955
  0.6105987366876029  0.2076623841617455  0.8080312472752629
  0.6072288130921689  0.4067346138127798  0.2165731774319675
  0.6002189478486659  0.4007317693592686  0.4010744045935242
  0.5938532591202839  0.4027556726257588  0.5975617261563401
  0.6036453449382509  0.4020880342443896  0.7937927688553464
  0.6038691158781540  0.6028830898492444  0.2045582422768773
  0.6087145445680335  0.6008893849646297  0.4008837775115763
  0.6023990259844209  0.6006501531408311  0.6005441484804708
  0.5995406596827564  0.5922992687573421  0.7945889723415688
  0.6023473697680450  0.8079586584449256  0.0057921888820339
  0.5978142989022009  0.7969629712343399  0.1966120696893378
  0.5994581952699805  0.7976831426180062  0.3931752910758068
  0.6071681029551953  0.7988913314391397  0.5980331782686117
  0.8040667291805202  0.9972233287753727  0.0091998379971594
  0.8006525026172461  0.9999702129899001  0.2020155299849682
  0.7966514191797598  0.9965010595775322  0.3935981443957492
  0.7932650316416268  0.9895680729464785  0.5833219713574315
  0.8069889388072132  0.2038469820265761  0.0059927928228634
  0.7965474642036865  0.1980881243747916  0.2041211668356388
  0.7989140377774165  0.1982683169188279  0.3993679361825552
  0.8007951613076153  0.1934193503944716  0.5938748792993327
  0.7941166108541512  0.2065237084483145  0.7958489502791342
  0.8102386552190598  0.4026226560653369  0.0009564519576777
  0.8072434852214800  0.4006940446373758  0.2059609090135773
  0.8029362672665553  0.4013256630860512  0.4005135898420278
  0.8063730721750662  0.4058872714237880  0.8084881914716323
  0.8094618864294770  0.6042661164278761  0.9988087286232815
  0.8107887204302401  0.6111513816972414  0.2098236528197839
  0.8012115287739869  0.5995062942650543  0.4010950418343818
  0.7993265468853692  0.6018245241603229  0.5984359278967301
  0.7959844115709135  0.5942527403340823  0.7930914144133979
  0.7960650652962359  0.7984061110494119  0.0007783166301673
  0.8044757397895094  0.8042622494189058  0.2040518926854984
  0.7984637540899978  0.7973306533908235  0.3956507690864815
  0.8008177423330415  0.7986116116222873  0.5974904752334286
  0.8052144769031497  0.7931820893518238  0.7998518234942169
  0.0019850064013295  0.4058926171539143  0.2059658378896408
  0.3998163038824552  0.3991780733601402  0.5988814746709523
  0.4000509550432041  0.6034258197260675  0.0013903210694949
  0.1996346407807098  0.4001266824865851  0.6007524621331448
  0.6041659047129250  0.0008918054169035  0.8018632494321719
  0.5961583291125305  0.1943608138811675  0.3927172180715634
