Zr Ti V  Cr W 
 1.0000000000000000
    15.4771126092992706   -0.0171409429028663   -0.0108832458615090
    -0.0171377985850307   15.4835452709138899    0.0089453070842751
    -0.0108770206815257    0.0089383803551370   15.5150560916889226
 Zr  Ti  V   Cr  W  
  10   1 106   6   1
Direct
  0.0017266172622645  0.0317228934338921  0.9585268072207832
  0.9989059689940636  0.2033353874948638  0.7904416198877793
  0.9922800069731924  0.3788467080683398  0.5996411087698525
  0.9783613553923111  0.7751425099375935  0.6007725488983335
  0.1256081078351097  0.0006788942320197  0.3751374907000366
  0.3552651255132628  0.9982211576521774  0.3995010818519050
  0.4041718220468035  0.2030469332254283  0.0001950225779168
  0.8105973990053237  0.3990306051941314  0.4169272812473956
  0.7745144592108381  0.4014353022696959  0.6343059332441976
  0.8066192856641604  0.6275779986442043  0.4133332795918349
  0.5969513374946551  0.7971737680530572  0.6015280021433651
  0.9965249306119247  0.1365356627684937  0.3957525076174204
  0.9994360841597598  0.9886621742910895  0.5856702215708171
  0.0022639904166761  0.9908963193418302  0.7751977453272879
  0.0016602458377844  0.2175662230514061  0.0031307640060779
  0.0013333703928434  0.2061761854625253  0.1977978905105750
  0.0001848681690473  0.1827632684665141  0.5851521159821544
  0.0031435853158119  0.4084582054305103  0.0057647620731991
  0.0130545319897762  0.4042189969503006  0.3903073148992262
  0.0016389060819872  0.4069243805640918  0.8085443821979641
  0.0013889108201706  0.6039471833887480  0.0005187832020401
  0.0020236909279626  0.5959714972933727  0.2018165478518759
  0.0100495613562723  0.6012559618035362  0.4019141971724911
  0.9992703365955724  0.5846487690791515  0.5990911848031401
  0.0018568629569773  0.6001218813546507  0.7974439601837633
  0.0010211826731041  0.7993756252573209  0.0027164762339040
  0.0000093334189769  0.8005140395163112  0.1984247480206847
  0.0007520826733452  0.7999204819427439  0.3969434291645730
  0.0010491484040452  0.7983360737097432  0.8040585980068440
  0.2043428941050785  0.9992677827745988  0.9953130952368162
  0.2035851952892671  0.9999514852280458  0.1901061616492309
  0.2012372893141359  0.9957884993458554  0.6031806790011989
  0.2014815265610395  0.9971933671308135  0.7985111219201874
  0.1977373139669109  0.1988508429401899  0.9980474491043123
  0.2023642415861223  0.1995427618856464  0.1986924472015665
  0.2064819021789647  0.2002085186563947  0.4006520429423741
  0.2004337807712388  0.1952189227628755  0.5982008251288831
  0.2024030954221042  0.4004463099001928  0.9987793406880797
  0.2000542730584088  0.3996650823219541  0.1980737275832032
  0.2048130925585806  0.3999107505783754  0.4015121868925473
  0.2017118250576114  0.3951118141153557  0.6008452878169730
  0.2002526927366679  0.3974947442829558  0.8007511331152868
  0.2027880636677543  0.5998158438560256  0.9981048320152479
  0.2023984639449560  0.6007314822741707  0.2000084372647824
  0.2043669346791607  0.5998392945406140  0.4016857375857151
  0.2012960217556982  0.5986024856041759  0.8001160800537152
  0.2005502211718676  0.8002509763074417  0.0001627237391451
  0.2011246908082588  0.7993559154746723  0.1991946571506130
  0.2001425726943150  0.7966126199340329  0.4019445872891768
  0.1964674322569706  0.7966880149785197  0.6012684577773240
  0.1997003767729390  0.7973093286835111  0.8006396637207248
  0.4035940904363167  0.9971413672698607  0.9968504141791099
  0.3999575926019316  0.9982625714016823  0.6031545563163142
  0.4025587816973709  0.9981780385620374  0.7989057310134733
  0.4028699465604007  0.2005999322626522  0.2037054189293467
  0.4026160504036530  0.2026408646729136  0.4008855107771697
  0.4015949411803880  0.1990012003460769  0.7958415273244110
  0.4013184559920769  0.4054706480691813  0.0012484094065319
  0.4007687819618733  0.4015981079881303  0.2012595493181302
  0.4010302192814525  0.4009502736530124  0.4001285287819448
  0.3968126285123066  0.3985271137471180  0.6019034806139902
  0.4011241722445649  0.3999911000556435  0.8008240787882321
  0.4021511089617568  0.6017858742410322  0.0006365197004249
  0.4016859335192759  0.5995400960268574  0.2014037194681327
  0.3998432412345572  0.5987844031446676  0.6015683908964449
  0.4010825022600717  0.5995119757509261  0.7992997289718330
  0.4017508697273867  0.7993740649928525  0.0008073516371580
  0.4021328343155556  0.7988315669780165  0.2008369691940278
  0.4008044017633973  0.7962725979812627  0.4005334752094264
  0.3975036093411516  0.7973419266203272  0.6003763930356752
  0.4002874155372794  0.7988631584377734  0.8007800513253615
  0.6032608264529811  0.0005857932314683  0.9996578550601541
  0.6002132362301577  0.0010922398114495  0.1995580855461350
  0.5992995074033690  0.0010869505524718  0.4002766432425033
  0.5983138182489534  0.0025357748022583  0.5998429071312281
  0.6020302456263810  0.0008384636742385  0.8003020284712561
  0.6079469884845049  0.2013262710694437  0.0007979401296334
  0.6036009204887197  0.2002711994329616  0.2014454933037484
  0.6012495448289902  0.2005495763869201  0.4019150381905880
  0.6019181551927359  0.2010068630872979  0.6003343433144827
  0.6016566580821500  0.2002355431771884  0.7997536442892127
  0.6029853931492127  0.4015894953539404  0.0029651607487533
  0.6034499760092720  0.4000124029654917  0.2025592631052300
  0.5993436891626138  0.3999221866489600  0.3997900292219431
  0.5865532575081804  0.3984264744574235  0.5990535028462510
  0.5992030483140652  0.3997076781929764  0.8042516811667735
  0.6017820942819329  0.6004760326412983  0.0019212027580857
  0.6023469818514980  0.5993190548262121  0.2029452997674258
  0.6006620215739831  0.5991293841347567  0.4024137692951154
  0.5999669287840057  0.5952009039590713  0.6014525991926655
  0.6004696779762102  0.5994071859423746  0.8016819028837924
  0.6017408641076589  0.8002523309167039  0.0020722922881708
  0.6017854997593216  0.8005137030293774  0.2009839775035628
  0.5993175039702402  0.8006181318383473  0.3986098198568550
  0.6017515251275559  0.7991300287910978  0.8041294314689186
  0.8005118986842457  0.0003702048085534  0.0012245428807991
  0.8027343714862598  0.0010317750567905  0.1995465274956207
  0.7983502772065928  0.0021771242601423  0.4012825561210029
  0.7998931433170088  0.9976780371840719  0.6013620151578976
  0.8028669824693118  0.9990054182109784  0.7996527310781805
  0.8048530622366650  0.1992946679283701  0.0007964330896710
  0.8031351943509336  0.1994629100215323  0.2037033906254185
  0.8017768463700475  0.1937935898201603  0.4016141834693294
  0.8016425748132111  0.1954684554440534  0.6008077397580956
  0.7970687920973414  0.2009251625357832  0.7996294548665366
  0.8003541296128183  0.4013722463210703  0.0065077762031148
  0.8055658139710147  0.3999282506014783  0.2018110855743278
  0.8025777703764972  0.4005169975687077  0.8203086909909484
  0.8007499018233298  0.6028404122007593  0.0012258035595791
  0.8020357715329450  0.6020588691134537  0.2035855067438735
  0.7991941221533753  0.6039807768749187  0.6126459180077534
  0.8005844676159347  0.6002688724564028  0.8044565195265011
  0.8019858550892291  0.8024842468452175  0.0022318533550445
  0.8015708549711468  0.8018876802149059  0.2021499566342324
  0.8030095188555941  0.8183195448887265  0.4006075974156748
  0.7855312325412814  0.8022582813670087  0.6040934197108854
  0.8019756457334547  0.8007483000497757  0.8033806842145137
  0.0017179551571300  0.0035491083283774  0.1951515118444815
  0.2050740001664153  0.1977143864374663  0.7984463902982883
  0.1992548233476809  0.5947016135196196  0.6010500194065714
  0.4023527992101414  0.9995386560670751  0.1961635122751244
  0.4013974629023076  0.1979502434312790  0.5993703051764119
  0.4010929165864640  0.5992542594739043  0.4020982171808797
  0.0024209928984640  0.4016912315342369  0.1998405941355362
