Zr Ti V  W 
 1.0000000000000000
    15.3687751858679373   -0.0034047973547748   -0.0004629384474201
    -0.0034058626285429   15.3762737440467472   -0.0028872120149207
    -0.0004620936853672   -0.0028876454386987   15.3933118945991367
 Zr  Ti  V   W  
   2   2 106  14
Direct
  0.8021345011715409  0.9922762837556629  0.7668781615526720
  0.8159994251596238  0.3870986046589060  0.0157850051686392
  0.1961655332972035  0.4048241895806816  0.3935097983384346
  0.1983052284213752  0.7932997945529722  0.4060291827656822
  0.9994681308925816  0.0029812193430336  0.0009175577777649
  0.0002642635003320  0.9998856706364742  0.2010337499109205
  0.9979452225960769  0.0001030179150109  0.4012947981973736
  0.0001532259436943  0.0018215174402163  0.5998892388245809
  0.0038557547256152  0.0012678314909642  0.8004515788506239
  0.9963503425348806  0.2025985533727758  0.0003258044482437
  0.0006496165822556  0.1994746093077338  0.2007313114762654
  0.9988190233824604  0.1995716431335236  0.3997398115228656
  0.9997470021492701  0.2003619922828277  0.5990001562088108
  0.9985505278236273  0.1997122675742712  0.8006373296457161
  0.0124129665757598  0.4000614461598528  0.9979562420591999
  0.9958612930813548  0.4006549347600924  0.1985611783641898
  0.9968381639303011  0.3987758448823087  0.4008424085914249
  0.0038062139864873  0.3994623491059802  0.6009726376828554
  0.9968629816876917  0.4016021458587348  0.8016073619695313
  0.9995415673759530  0.5992535116868044  0.0005676069465728
  0.0044119090827522  0.6019729079319271  0.2006589457794148
  0.0017673522868267  0.6008833173244083  0.3998049984497807
  0.9989182634137084  0.5990031912147824  0.5983841171459890
  0.9992464535222479  0.6009720321920633  0.7981280072285419
  0.9997509067542070  0.8016369001622144  0.0013085043263701
  0.9982603775455167  0.8006016790435323  0.1990042330972478
  0.9964111903421793  0.8013251124563590  0.4003330800879594
  0.9998630775381669  0.8000372110902536  0.5992374703532984
  0.9995633971322085  0.8008049343634410  0.8021658489574640
  0.1990406522712355  0.0032807536453736  0.0001452524657458
  0.1993865877574270  0.9972020502940023  0.2005309756630660
  0.1983653964688597  0.0004238214266701  0.4009264098129871
  0.1986505927267837  0.0011701502147339  0.5997014901455626
  0.1999726584661115  0.9958261439949101  0.7999830947503381
  0.2007273021073078  0.2037249116615441  0.9999371741105656
  0.2000257047752775  0.2015524425409698  0.1999411866204147
  0.1988255111501667  0.1998368377357914  0.3987914825579810
  0.2023927932831622  0.2057773419713636  0.6006239513540459
  0.1986145757507818  0.1992185534589992  0.8016274234854215
  0.1996414947286221  0.4055404102685920  0.1922772446236958
  0.2000307430400503  0.4038872504247419  0.8023272962251835
  0.1997757984007881  0.5958590978569434  0.0031723038598581
  0.2009932901925953  0.5953906846142633  0.5948355421584176
  0.1992581813998049  0.6048380543393593  0.7994097928144507
  0.1991067641680395  0.7994349842638560  0.9960275230686231
  0.2041410676929089  0.7948014556472869  0.1946251794101861
  0.1998414791908775  0.7986601849381860  0.6064474400224601
  0.3986430522930596  0.0021277984743782  0.0002483162209486
  0.3981816972503877  0.9958758278085861  0.2018502184667927
  0.4008402090127705  0.9998879627503799  0.4001797602960645
  0.3996414771772034  0.0034536710164978  0.5981294672251615
  0.3994330529825236  0.9986255922657447  0.7990328975019287
  0.4029958721653924  0.1979453904683829  0.0011626939771726
  0.3984996883901511  0.1997648296796124  0.2021239025888472
  0.3997841499281980  0.1991495198088195  0.4025046908246439
  0.3984094304539100  0.1977296854893051  0.7953264888718212
  0.3981733619242174  0.3983626998065685  0.9997948546963309
  0.4021456812898168  0.4008934302093884  0.2009142483308132
  0.4020506570125713  0.3994116531016906  0.3987568308312043
  0.3949239242471317  0.3956058759553823  0.5997640106454537
  0.4030124389513334  0.4017579063452129  0.8003810079718744
  0.4004602919331605  0.5995245094087367  0.9991324711402559
  0.3962414121369531  0.6038926615443653  0.2006497461884366
  0.3955566393347776  0.6009100763547102  0.3997928521269543
  0.4018909164768332  0.6007564457218836  0.5967290821865564
  0.3991880318406809  0.6025633027330531  0.7989650383626080
  0.4007777662774386  0.8018103350325033  0.0021878277719738
  0.4017495489827964  0.8023560362032411  0.3958581240379678
  0.3991619144503022  0.8019464072573318  0.5992180043281382
  0.3965984978065869  0.8009667387749170  0.8012622060518088
  0.6000819119119791  0.0052039852494270  0.9994521207223948
  0.6005563311830483  0.9968485664797622  0.2028202617117770
  0.5997308159559334  0.9998188029760493  0.6005826752866202
  0.5967006297075756  0.9983029788308063  0.7999080253809023
  0.5976822254687143  0.1986297171166256  0.1964014494855796
  0.5995778376066975  0.1992054711581910  0.3983911994237517
  0.5946980607015225  0.2012569813569387  0.5993596401369891
  0.5982634700763845  0.2062652276823481  0.8057005517678021
  0.5985927324736567  0.3963308776688470  0.9960140559048218
  0.6028028258308478  0.4039450522761133  0.1983449818613591
  0.5994356938431519  0.3994963707334472  0.3995504346978898
  0.5987657911927871  0.4028960008656777  0.6046874053354125
  0.5996257092406618  0.5971287321953334  0.9996469337546230
  0.5978708611893603  0.6035344683351096  0.2010760184313513
  0.5994460524764578  0.5992559809967561  0.4036233100642574
  0.5988794951315887  0.5976524414282443  0.7953259537006671
  0.5995150669190855  0.8003182668302781  0.0037030794217836
  0.6007090041376301  0.8007698666007091  0.3966211278023162
  0.5976213337348705  0.7957425268003716  0.5988158835234809
  0.6022252470292547  0.7989158707853737  0.8040951489329192
  0.8010460517554940  0.9977326551108399  0.9961962975740428
  0.8006409875066375  0.9983416330209036  0.1994632840044771
  0.7991812118646120  0.0000256156880267  0.3977648980865729
  0.7945267642392009  0.1888976732249532  0.9983880212498935
  0.7993268696339150  0.2039940744408503  0.1987985142494421
  0.7979251291786659  0.1975651551674063  0.4017551641589994
  0.7983619513189785  0.1980396968439272  0.6012971622723420
  0.7987369798701235  0.2008651693249425  0.8000609072914694
  0.7997878964533697  0.3987799079411979  0.4024005917387325
  0.8008263945988349  0.3979963238916592  0.6004095960449620
  0.7973167719859767  0.4015204100235926  0.8010777515849590
  0.8010065808409140  0.5989083052776119  0.9996490978887816
  0.8006352232172529  0.5976688281013699  0.2002657305100695
  0.8018099990931818  0.6004604053368179  0.3998759964292931
  0.7965258507090570  0.5989874430501481  0.5970609660950502
  0.8005120124572837  0.6011225516941272  0.7994052046546337
  0.7994846554391335  0.7997732854040879  0.9959661244687272
  0.7957314364736942  0.7973282331484007  0.1982478297989384
  0.7997117000706946  0.8006896311773889  0.4014114970572504
  0.7991157261534003  0.7986339436189062  0.6038549909974770
  0.2042966259104943  0.3998484167485974  0.9978003041972399
  0.2002030117284176  0.4011614522202096  0.6081033288201773
  0.2004248698158981  0.6003883801844890  0.2019028323401418
  0.1986916216038489  0.5991725197602991  0.3964618205762090
  0.1986857647105411  0.7988343871373449  0.8011039037154593
  0.3983968972652168  0.1990453365111584  0.5993841410657053
  0.4022488711655213  0.8001319206810158  0.1984969981749966
  0.6679319960034283  0.9998109236307630  0.4648761043581552
  0.5998147516311564  0.2019706630988076  0.0004881771820926
  0.6005140964429431  0.4025624787651228  0.8014568197531388
  0.5973183511302829  0.5981254860057980  0.5983855071455580
  0.5977276095346712  0.7991237843753729  0.1992867526102580
  0.7988936576506732  0.4020287485778873  0.2119809464103518
  0.8005250813832775  0.7938254805742675  0.8015410296916793
