Zr2 Ta1 Ti3 V111 Cr3 W5
1.0
  -7.5249999999999995    7.5249999999999995    7.5249999999999995
   7.5249999999999995   -7.5249999999999995    7.5249999999999995
   7.5249999999999995    7.5249999999999995   -7.5249999999999995
Zr Ta Ti V Cr W
2 1 3 111 3 5
direct
   0.3925146932061966    0.5992527494628584    0.3971691103587627 Zr
   0.1941423768291831    0.1929916273931223    0.7936105208046017 Zr
   0.1965211600449557    0.1993289299784790    0.9932992450829766 Ta
   0.6032147538885398    0.0017425585775902    0.6053870033654516 Ti
   0.9970504394211841    0.0029323486805424    0.6047161953698170 Ti
   0.0025178737645469    0.3976918020660142    0.4024483623539582 Ti
   0.7957645442409210    0.9966179426318780    0.9934098080497407 V
   0.6000380764431208    0.0021174258211966    0.0018530430966982 V
   0.7984596133750448    0.1967680970523573    0.9992185126576809 V
   0.8035942509628686    0.0054143895017084    0.2009190483456830 V
   0.4017022757420742    0.0009299039881687    0.0054509688920922 V
   0.8013803605740605    0.4021884222867493    0.0011896575570761 V
   0.5937751582464201    0.9911147278888266    0.1936613428437816 V
   0.8042466853258023    0.1963437245132606    0.2039502093562626 V
   0.7985595168213022    0.9978977277589364    0.3992632415847178 V
   0.3931560541333809    0.2002821101800597    0.9960934340032171 V
   0.6005829094995655    0.4041831597389223    0.0058600896618800 V
   0.8000874417875192    0.6003689469406240    0.9992510701370739 V
   0.3980659004423790    0.9979922019203342    0.2020475536696874 V
   0.5969625666452776    0.1961656827089933    0.2032876562431918 V
   0.7997686840645064    0.4016271505073070    0.2002882223134512 V
   0.6012325193311145    0.0010658207083650    0.4003692139226070 V
   0.8075903363777055    0.2026678516405751    0.4033745062652239 V
   0.7992224530081354    0.0032334007055481    0.6068794033561411 V
   0.9981330385330642    0.9994856452217264    0.9976316842596520 V
   0.3978608654465469    0.3993872947017041    0.9976755370717377 V
   0.5962898546419995    0.6014953280565382    0.9951511355293912 V
   0.7956486903410719    0.7953195970260294    0.9989313710014494 V
   0.1958883426674330    0.9937235172048299    0.1943188780394352 V
   0.3952381642090425    0.1997504044939089    0.2004829515511089 V
   0.6027997161950760    0.4052558795428094    0.2013713269106253 V
   0.8006188017910839    0.6012177738489235    0.1991989569963754 V
   0.3984171642409270    0.9927284611963284    0.3936778329121309 V
   0.5986647288656368    0.2020651701752220    0.3948241631680288 V
   0.7986310596210913    0.4060076599511557    0.4034587919350799 V
   0.8017031474874210    0.1973722132140425    0.5993404410315377 V
   0.8074533625308250    0.0027291691693973    0.7996810075054467 V
   0.0070780672101657    0.2030602223048359    0.0051085009851924 V
   0.1999937956231809    0.3999066551719302    0.0029299582801769 V
   0.4040248465575629    0.5967537614657297    0.9972043287013006 V
   0.0025509820430794    0.9996531927654241    0.1995610863725796 V
   0.2034630066815664    0.2026889536168661    0.2086773846084102 V
   0.3919234823277432    0.3950178743370049    0.1966564945473026 V
   0.8001787450812234    0.7996598347502567    0.1993039457151063 V
   0.2021928306592596    0.0025424268966884    0.3980103639644738 V
   0.4021776437841451    0.2059344952307889    0.4046266607767007 V
   0.6008134399389671    0.4032371666712270    0.4018311662310212 V
   0.7992980081689746    0.5989029074632077    0.3995996355026643 V
   0.3979416242008886    0.0003979312928449    0.5995108460325514 V
   0.6029139349269161    0.2069206836465106    0.6053238058721524 V
   0.8013706173104242    0.4034273875086193    0.6013098567303343 V
   0.5977490720804101    0.9955308230265362    0.7944311562571507 V
   0.7978293694139355    0.1918621791729639    0.7963854096995153 V
   0.9977308661289288    0.4008352451306383    0.0015303093164613 V
   0.1992042495273476    0.6027218872804881    0.9980352972855228 V
   0.3977342089625576    0.8025251915453240    0.0028158228357825 V
   0.0020194290276299    0.1996459299856311    0.2012796136470023 V
   0.1986145299586855    0.4058704647306092    0.2006185905648404 V
   0.3968239019171235    0.5967150128794447    0.1942023406259316 V
   0.5984097176790717    0.7978393554392720    0.1985717706086791 V
   0.9940888328560651    0.9974742176290146    0.3954190380966708 V
   0.4029346189494424    0.4070321274795840    0.4071122957558680 V
   0.6009738100738924    0.6009080676832776    0.4013614186275422 V
   0.3999846142358418    0.1991748637148168    0.6011977695555584 V
   0.5980984002401040    0.3998599659342350    0.5969363419900748 V
   0.8029093243945953    0.6044536667028493    0.5958817217141656 V
   0.6061233210179484    0.2014825527352584    0.8079783156908665 V
   0.8002849082427241    0.4052868638377379    0.8048232023115168 V
   0.9931976792339843    0.5977605369748812    0.9984868640085209 V
   0.1967481584975497    0.8009407686957427    0.9944455609630981 V
   0.9937579126410351    0.3988294535041382    0.1953035000037465 V
   0.1994826540567645    0.5975176129980814    0.1989421295464406 V
   0.4002613594269389    0.8014238875173265    0.1999270355556609 V
   0.0015342406418969    0.2009627316954209    0.4021026886177242 V
   0.2028044142088749    0.3952142761812781    0.4033989656907306 V
   0.5962069899397606    0.7973785371945084    0.3989663902148023 V
   0.1986398259780335    0.2001790545510255    0.6004001925256410 V
   0.4007668913648180    0.3995522614682865    0.5993879711316386 V
   0.6012187482702676    0.6015430035713079    0.6016404170933577 V
   0.8022005718374907    0.8057040543524525    0.6019869161618956 V
   0.2063973844966235    0.0049630280068058    0.8018489969642628 V
   0.4037777175768483    0.2006504946121942    0.7980098138148393 V
   0.5947535169935935    0.4030979415364301    0.8026233146638738 V
   0.7987437755476228    0.5986379362078935    0.7979419746767116 V
   0.0021019612659189    0.8064643782158990    0.0015733272270571 V
   0.0000889999335302    0.6009555903352688    0.1996890587251601 V
   0.1993438186974623    0.7987017600443096    0.1999280217660025 V
   0.1994139944979209    0.5988281730241507    0.4042736986566365 V
   0.4004050689833348    0.7974429187608816    0.4004491721763373 V
   0.9932049597944927    0.1956730387586868    0.5912250956962791 V
   0.2091878544178811    0.4036655140440299    0.6054299994774928 V
   0.3994576458115440    0.6000498941391240    0.6006040609428678 V
   0.6007685091345284    0.8003450608700161    0.6016597572366186 V
   0.9985656396643923    0.9984745327221205    0.7931770678091772 V
   0.3955265147471031    0.3996019034333332    0.7973071897978523 V
   0.5976153725622929    0.5991894582298862    0.7997843731653369 V
   0.8033187922500822    0.8002965379811937    0.7941943193344833 V
   0.9937708603176545    0.8006024864214631    0.1972634779589933 V
   0.9964313597118879    0.5981314484151523    0.4002696273784893 V
   0.1997197507814817    0.8063440337750062    0.4004739053792510 V
   0.9982492561898078    0.4009173883329774    0.5988966960883927 V
   0.2002248092616427    0.6019243350479908    0.5996420809846413 V
   0.3974093074938214    0.7916248330245066    0.5955882449576266 V
   0.0011881330002567    0.1997932130290201    0.7967644994228873 V
   0.2007764337518163    0.4021026452202004    0.7960841853685101 V
   0.3967765847940987    0.6040115928388883    0.8006313359358661 V
   0.6003263063540395    0.8004826960990712    0.7951029366413886 V
   0.9987198203016283    0.7979712495032496    0.3978963635265120 V
   0.0006675100981512    0.6016273433495860    0.5997413775357513 V
   0.1999800265727558    0.8000218800463961    0.6044881499514487 V
   0.0018344074112844    0.4040221405777499    0.7995138171866891 V
   0.2041247271586131    0.6005332982173827    0.8042013070378881 V
   0.3993432648142277    0.8002938817312012    0.7989003978643509 V
   0.9930832033409058    0.7942761400540483    0.5963662993748448 V
   0.0027343611780686    0.6038924714219032    0.8031719516262239 V
   0.1956858449549971    0.7975246455343313    0.7928477115654654 V
   0.9910427194812282    0.7960319757927146    0.7949652942325539 V
   0.1938392605951676    0.9947998221100675    0.9911379171274494 Cr
   0.6005525388097210    0.7982611492504748    0.9992514462956853 Cr
   0.6037938732311314    0.6048665819260768    0.2071417391293739 Cr
   0.5997559113605521    0.1981812690540842    0.9999970911517559 W
   0.2038616373431926    0.2036079383795213    0.3998141656877947 W
   0.8027199991838665    0.8035672324659635    0.4023065789033139 W
   0.2001225106917292    0.0044662066627205    0.6010400424606522 W
   0.3954786769138315    0.9949068123531004    0.7969924493653506 W
