Zr Ti V  Cr W 
 1.0000000000000000
    15.4243531601052801    0.0069213360103042   -0.0227130969377285
     0.0069117328085832   15.4243730448160701   -0.0099851585265742
    -0.0226677546087976   -0.0099574154515165   15.4321734753061364
 Zr  Ti  V   Cr  W  
   7   3 108   1   5
Direct
  0.2007285457214536  0.0018162727893550  0.2169019873938147
  0.1708727323252536  0.7672722355072199  0.5998098337815427
  0.4030444078692127  0.1689455268283147  0.9944561865003033
  0.3639597045918408  0.6319323034180394  0.5984533062630174
  0.6385878802545761  0.6006553585513796  0.0383867261151190
  0.8054714711706094  0.5986071287080447  0.2076889123150739
  0.7606715258672023  0.8005236181310890  0.5980041903170431
  0.9893809430365438  0.6014635685900738  0.3871932127251652
  0.2021046803501918  0.6013391820098067  0.0025497123177287
  0.5594217275074633  0.7842815371509576  0.5973323692281449
  0.0006133031330517  0.9946639223751510  0.9984536213113707
  0.9970937549459392  0.9991235361661925  0.2007742470332919
  0.0047536306928477  0.9970636756962536  0.4044315448707709
  0.0036656018529709  0.9985628403100559  0.7935809057148348
  0.0003140584734710  0.1981661016707722  0.9987020546259151
  0.0012090693231834  0.1992250869157801  0.1981717751724253
  0.0005043427466102  0.2002114126202280  0.3981965809338435
  0.9991668600123315  0.1946592087015861  0.5989747119350375
  0.0076306033076513  0.1997681167776374  0.7999290055055774
  0.0015776787429339  0.4008048719437939  0.9991872473828957
  0.0016062193293609  0.4008477258413676  0.1976096798227864
  0.0012622316673476  0.3984174113543694  0.3983920965949571
  0.9964641809096427  0.3960049449472164  0.5980669917808735
  0.0038493697462938  0.4010356596377443  0.7991512604468374
  0.0105980475502905  0.6044437287528688  0.9967463214047582
  0.0093803388087946  0.5998557339720398  0.1950112670516310
  0.9920270967919435  0.5996263800087452  0.5996441179818003
  0.0038632530116756  0.5984289714257647  0.7976651380466533
  0.9986812321968105  0.7982047993549515  0.1922385792898673
  0.0014650727399204  0.7984740014049634  0.3985606872392305
  0.9754579145642985  0.8040462799590397  0.5990795576578217
  0.0044079951134099  0.7983982711511747  0.8001538107186473
  0.2013531640691151  0.0005065985477164  0.0038909484157834
  0.1950541513218313  0.0056674389802458  0.6016623327530465
  0.2050486255700127  0.0029731732663139  0.7999414536410208
  0.1961025291235637  0.1991909590991236  0.9970965065097361
  0.2005510549099766  0.2063834767687173  0.1983526072774106
  0.2014685440967357  0.1965682879896198  0.3980335885719896
  0.1981240278631715  0.2005787710236031  0.6048110420728804
  0.2008219281763178  0.3987825160093781  0.0001464021616135
  0.2021437459830902  0.4025327942430460  0.2008455187972320
  0.2012006075204820  0.3973349930559053  0.3997867631876705
  0.1970824158078569  0.3956854925192384  0.5974272363004300
  0.2078865008214706  0.3955988265581047  0.7993232545162514
  0.2034873527308793  0.5986799916813549  0.2069805047291987
  0.2002595787535525  0.6017831492241273  0.4051321318486737
  0.1736636420299827  0.5795576720018250  0.5965273595381627
  0.2042444082005697  0.5998812835612067  0.7914842968889060
  0.1958157204248790  0.8048636734359672  0.0003583429289371
  0.2001490494328597  0.7944796386773122  0.1985136130494515
  0.1995521097060792  0.8042482586366680  0.3941415504347702
  0.2038890862218693  0.8016914801369366  0.8061758050766240
  0.4060001680331110  0.9996122328492066  0.2012489679415111
  0.3984101058021269  0.0001882807554683  0.4009039885722562
  0.4019043376814186  0.0056596499382169  0.5998307323560794
  0.4040861128170700  0.0002882435543095  0.7967195921483942
  0.4028303671765362  0.2032875034712352  0.1994684448460998
  0.4011566156454928  0.2015398080342743  0.3995540232413446
  0.4013510568350463  0.2037014104688090  0.5964604877725448
  0.3986118075577564  0.2067727978900620  0.7939553969372621
  0.4030618163706633  0.3955474736706153  0.9961622671243734
  0.4015272279991283  0.4018053837211520  0.1964492006507534
  0.3996538571755184  0.4023371355623733  0.4007486104236095
  0.4014158958999078  0.4072168455898459  0.6034955715452138
  0.3986739967216738  0.6048994185382993  0.0017648064192988
  0.4008563895018035  0.6022050052133799  0.1997391085030253
  0.3975909292115372  0.5997958809335739  0.3966802786714508
  0.4048814577062648  0.5972316471536309  0.8085780447736114
  0.4006676623558417  0.8661308839374428  0.0001365519829870
  0.4000859908836412  0.8017694149943350  0.1969897317189748
  0.3994961051399796  0.7997753705246398  0.3989166877152304
  0.3748541879395014  0.8206671427038434  0.6007425275271226
  0.4001185783657164  0.8014493434658411  0.8006200606190663
  0.6055107603889125  0.9993083068308811  0.0004080259880568
  0.6004830969195707  0.9982585456936244  0.4006621894578423
  0.6021460867285148  0.9979606009311655  0.5994655027269159
  0.6014398665334465  0.9993739446635982  0.7993986672299754
  0.6082377283670819  0.1988080894664511  0.0012883272295158
  0.6022288131867246  0.2013004736452216  0.2006469083575427
  0.6008768233681880  0.1995232653731780  0.3994522886535034
  0.6026777597226125  0.1978895137910723  0.5991531253139782
  0.6025281558752156  0.1998932432507563  0.7983877612154465
  0.6028291386930108  0.3965558837363370  0.0001542942232068
  0.6005598164744659  0.4035845487708477  0.1999824259896361
  0.5992426813715145  0.3996144490151974  0.4002045289913889
  0.5997141485988744  0.3991558808704504  0.5983322687425933
  0.5971061835691420  0.4001509337093029  0.8006625863222386
  0.5950763105237009  0.6006656641781747  0.2226243315268069
  0.5968027385267360  0.5997545462076335  0.4092857166922717
  0.6042852628801835  0.5966379393732857  0.6037648738323489
  0.6019189444618487  0.5996596722540304  0.8008908565780292
  0.6007406607909119  0.8045305677638958  0.0005244036381331
  0.5992235894191966  0.7982327990180266  0.1996734085280781
  0.5993866344578497  0.7999041857593587  0.3989067275764620
  0.5993107054639135  0.7986445198761328  0.8046053115843732
  0.8032419756978009  0.9993950923814986  0.9992924173734113
  0.8002520799297467  0.0005546968020688  0.2017668403954341
  0.8025257862896209  0.9998885479405134  0.4000064337947357
  0.8050020795236889  0.0025833515174305  0.5987992632085194
  0.8024602678544139  0.0002893825526767  0.7994026648623639
  0.8054101965687841  0.1987694500307272  0.9991073075605361
  0.8013457661348161  0.2005233140386795  0.1992604584271725
  0.8009963899793959  0.1994059160844409  0.3985016977374353
  0.8013173919582954  0.2014162081271006  0.5997075994429211
  0.8026781899784604  0.2015568097844016  0.8002398708994309
  0.8030317824568427  0.4017030511842618  0.9987858227120341
  0.8016363188975498  0.3956856305246712  0.1999474830255638
  0.7988949049481764  0.4006659663711448  0.3996733832603943
  0.7998053898006098  0.3981359446922434  0.6001339392718105
  0.8000911144195413  0.3998810814148645  0.7996379269125961
  0.8237705500632651  0.5988750716114578  0.9950710137904898
  0.7958576467495397  0.6005298524216799  0.4098247452882236
  0.7999298958192740  0.5959691866730661  0.6032363595023372
  0.8025052706100471  0.5982648866598352  0.8005375812849358
  0.8054449431820613  0.7974035607527550  0.0000650396105569
  0.7997925079183831  0.8032164128921307  0.1982070593665966
  0.8001660735867082  0.7982417305434188  0.3935362918859338
  0.8002975078887760  0.7969048412238161  0.8016678554574940
  0.6026641862399712  0.9997933661316003  0.2015717339978235
  0.0007867906139396  0.9956341930785758  0.5994657543318274
  0.0007834057685328  0.8010271806224377  0.9968010620006339
  0.2019750173752900  0.9989961400061960  0.4135146760380446
  0.2057054824191350  0.2005705558479021  0.8029344009185182
  0.4021494603775578  0.4029993330176230  0.7990489485443464
