Zr Ti V  Cr W 
 1.0000000000000000
    12.2882735461728885    0.0000000000000000   -4.3445607757035454
    -6.1441367710433559   10.6419570608175889   -4.3445607757035454
     0.0000000000000000    0.0000000000000000   13.0336823299999995
 Zr  Ti  V   Cr  W  
  11  18  74  13   8
Direct
  0.0071420855580282  0.0002821750015096  0.9958766935645131
  0.9905997490995259  0.7975795968151832  0.3852800565102913
  0.2023126733156859  0.0042151263336849  0.6030290755718741
  0.2054504097905775  0.2124551730725597  0.9990586101832220
  0.1846297120682261  0.5864323483855551  0.6290671505183811
  0.2041708214893297  0.7974662186146977  0.3957669229885443
  0.4038704531755851  0.2023398595232377  0.2014474619638201
  0.3994962155952446  0.7938392941435300  0.1981572234243434
  0.4102757318974391  0.8116684236051968  0.7929282232880159
  0.6048084755427285  0.4051732377820949  0.0016123855205824
  0.7905818386095325  0.8047555251540119  0.6074298461846941
  0.9951673689808626  0.9996513412540571  0.2043385523346485
  0.0052880119443030  0.2119776948902760  0.8008399227943446
  0.9937558994501983  0.5884760604849191  0.3980683513167710
  0.1965783782310921  0.4005510096600873  0.4024433673656037
  0.1957532317913613  0.4209637256754434  0.8000319433909306
  0.4153391672778429  0.0035354344404044  0.6156313321998784
  0.4102273013974108  0.2066064235821646  0.9951728934858770
  0.3982372467635246  0.5977348314545026  0.4022080067731956
  0.6066403712491172  0.0119075005227514  0.0148333796433983
  0.6050125679180373  0.0069506115862714  0.3990827955511732
  0.6035618177319938  0.0072501211724947  0.7983720843344738
  0.6062199351465050  0.4041596127336199  0.2135075395531368
  0.5933417456250230  0.5968755483755338  0.5998157696902204
  0.6128269350491626  0.7971551370278990  0.8042027467320031
  0.8022388592176052  0.2136625051186389  0.0082720147882922
  0.7998447941028805  0.2059881932880182  0.7968609015730137
  0.7928391418916789  0.3930349484820840  0.3966692999686698
  0.8087881807472266  0.7880422107091232  0.8130247474302548
  0.9954043070714534  0.0092097446542732  0.4027526829957565
  0.9918174712678954  0.0053207070658264  0.6004958877004070
  0.0070153743900464  0.0048003697630284  0.7902899312862360
  0.9964592080638229  0.2133981382742002  0.0050127097520453
  0.9901707873337441  0.1899312823649416  0.3912680148098281
  0.9942741861426586  0.1965928344570321  0.5925270508688789
  0.0007177225736094  0.4058383606167935  0.0024977989100105
  0.9873650298002768  0.3815799036296800  0.3903845742142139
  0.9843360718353352  0.3861884022417033  0.5952744321461522
  0.0055481661468791  0.6034935085774153  0.9973711455899679
  0.9897171229615948  0.5859672107623578  0.1848312793173107
  0.9873094535125194  0.5944691746880441  0.6004640350527745
  0.9966218273763542  0.7947013508511044  0.1798787490937007
  0.0085247510010256  0.7943994743477221  0.8055719437413913
  0.2078309705322514  0.9879095828539390  0.9962421894078232
  0.2026175667803183  0.9966249715647653  0.2009059561606841
  0.1977838306171165  0.0055320509733549  0.3885177935087589
  0.2038364474072833  0.9988733798455743  0.8046876959943162
  0.2039417795994741  0.1993902865048150  0.4078750677744400
  0.1984156743202971  0.2024105095527508  0.6009360977943358
  0.2070569620148878  0.2085211976782202  0.7940401401857408
  0.2017462444953254  0.4194956368723077  0.0061099258397901
  0.1905506864581948  0.4030038116203211  0.1983823842841274
  0.1928804535872513  0.5940313087483650  0.9826901269498115
  0.1943609931596312  0.5964108862345704  0.1961444460093323
  0.1906297853434652  0.5881506089364340  0.3902158114852440
  0.0094252033329516  0.5878567927337658  0.7965711253983295
  0.1986304138614923  0.7996798466368259  0.0009794466605745
  0.1937764776595570  0.7970697594593024  0.1902192424173140
  0.1982931097723198  0.7962178612719288  0.6110570275545951
  0.1960247321965392  0.7978442151088209  0.8060054243598361
  0.3973548584006910  0.9957479534839258  0.9985299611570438
  0.4058663155931022  0.9988163261694410  0.1998971703116193
  0.3992181559159032  0.0047133888797239  0.3968739545360214
  0.4030479760455536  0.1969284133592567  0.4043172928735084
  0.4074883442645018  0.2040197429913646  0.7993425808900034
  0.3931416501075232  0.4133815560775965  0.9953484802920692
  0.4011432098914346  0.4180242631648219  0.2065113686765577
  0.4023524905405186  0.3951654696198005  0.4072173057062032
  0.4022316508316541  0.4032190900958740  0.7974570419589925
  0.3950739790072220  0.5931546084127149  0.1952772940250812
  0.4000003693627440  0.5914617569391788  0.6068013831806014
  0.4096064677038372  0.5958888117673887  0.8054262105222013
  0.4045857467031845  0.7985113927788895  0.4017932464072474
  0.3901713045138825  0.7843746791976205  0.5824247219161655
  0.6029362486929924  0.9976119481416335  0.5923883539332053
  0.6034661101367377  0.1882847286668516  0.1939906968852056
  0.5995728759434562  0.2039029022484350  0.4009419132025704
  0.6063132338855930  0.1986242620226815  0.6013491505849883
  0.6097539194544622  0.2149859213926332  0.8121064886610714
  0.6007395317372161  0.3942285604416374  0.5988259971808946
  0.6091824942609197  0.4037059798329392  0.7974546182974752
  0.5982117962086372  0.6048934498552476  0.9976605542991991
  0.5956391338089008  0.6032786663093317  0.1952163988738956
  0.5920596599610395  0.5867197713173089  0.3876021707010237
  0.6017821339848950  0.5913474159255359  0.8017938335818203
  0.6037190707714943  0.7999665791335842  0.0078850604494081
  0.5937090070390685  0.7948768197506725  0.3942175934155328
  0.5910043393235149  0.8140940427059080  0.6061246177127565
  0.7974785923535364  0.9985857358734338  0.3930836190364895
  0.7947948906953870  0.0090394879106110  0.5971663492194829
  0.8076866628768227  0.0112724094951878  0.8068069054550472
  0.8056583634798486  0.2024163291854763  0.2088968057703353
  0.7929362368398926  0.1910691205366791  0.3945028606627317
  0.8052738519664332  0.2047278155639157  0.5992166492369115
  0.8047361985026239  0.3946685674092504  0.1956650335064861
  0.7969677314999023  0.3928303676554656  0.6009006114231160
  0.8078415918352194  0.4076283145160443  0.8017083129687009
  0.8022323312249335  0.5964731667640906  0.9987811259376053
  0.7970423992216842  0.5976323246501618  0.1949143588648802
  0.7945729482139230  0.6005883253438530  0.3974014838549956
  0.8059108164068272  0.5938142091870279  0.8048982863953075
  0.7977747136822595  0.7924798569450781  0.0027974381122508
  0.7924557863341501  0.8012817783135050  0.1933374114973321
  0.9960199941230512  0.2021017331854379  0.2001889500160704
  0.0030350720916931  0.4035949067238371  0.2068631915730006
  0.9891783397325087  0.3971021416225374  0.7977462461179571
  0.0000346125646050  0.7916570311279361  0.9990703066425415
  0.4060106757222467  0.0176139645561654  0.8154310139242037
  0.4061593683777489  0.4012583254906979  0.6035071808237703
  0.4066896694315624  0.6014822925978569  0.9995267787334321
  0.6034469950767218  0.9991048176534562  0.2008855009091120
  0.6038422562357101  0.2032352586360258  0.0069178719920930
  0.5998629542392206  0.3999783238993839  0.4099793352711126
  0.6019119623123118  0.7995024261475400  0.1922070368725730
  0.7946091157587336  0.9983169242541071  0.2018173028761656
  0.8123699215664562  0.4071959720208584  0.9982918594166810
  0.9996101666277993  0.7970759724416707  0.6032694054311007
  0.1982049705053514  0.2091174556671278  0.2155145912930769
  0.1992516207451084  0.3856034830059509  0.5964931630900541
  0.4069590814515728  0.2058151607740404  0.6020358051387213
  0.3934097932009099  0.7866771294207980  0.9888007393233430
  0.8050661175965468  0.0054655744846344  0.0113998146268325
  0.7963152949167481  0.5890256575462463  0.5995662114312216
  0.7871948972259802  0.7989960809321879  0.3924055464150243
