Zr V  Cr
 1.0000000000000000
    15.5364267418827353    0.0141760265446098   -0.0034442262972265
     0.0141671620811882   15.5240745923983035    0.0049821264813726
    -0.0034426786392167    0.0049831204927505   15.5354998368454975
 Zr  V   Cr 
   5 117   2
Direct
  0.9506918439685460  0.4088195103536036  0.4002703984006192
  0.1992785270900336  0.5997556639003522  0.5590428243932510
  0.2010138787649308  0.7958384658625914  0.2049283180866245
  0.7997333067343482  0.1989385482098836  0.4008961691860978
  0.8050262973044532  0.5959450443562105  0.3996580023984826
  0.9999242531248544  0.9997466548299798  0.2012145321184221
  0.0013966886915420  0.0005053806549005  0.4007914212543077
  0.9996113632977917  0.0003159910148089  0.6002522410159793
  0.0006647489701517  0.0000856785110108  0.7999030620725393
  0.0003960198716133  0.0992296645610743  0.9999769971119983
  0.0060206948575123  0.1984014542790602  0.3999864992405877
  0.0007949975855132  0.1991732622939371  0.8021521918674646
  0.9997665829588060  0.4019794716156324  0.9992473419169714
  0.0010567188600504  0.3991341423938933  0.1954613341319353
  0.0004519809446972  0.4000684138268203  0.6046257838073806
  0.9997441536594739  0.4000817647752201  0.8000372329881666
  0.0000492168235780  0.6008541483847935  0.0004207154067770
  0.0018914105156167  0.5993212316660724  0.1992727105368139
  0.0128505104446780  0.6078490762129171  0.4004822868532199
  0.9983236189703606  0.6012922890953202  0.6026884127983094
  0.0023376742847396  0.6005980215432292  0.8005149517751049
  0.0007937528637698  0.7983299104544175  0.0006237682671690
  0.9962041763507221  0.8004382537531123  0.2009813167470787
  0.9995628020585926  0.8028781745195437  0.4023594399251099
  0.9993961838730949  0.8011063727045191  0.6020635320661442
  0.0007809996961146  0.8001513823241316  0.8006462112118883
  0.2012568323207566  0.0010181327853793  0.0000560678819399
  0.2001130295948271  0.0021022264800132  0.2002823762881178
  0.2010762865839683  0.0005576222922522  0.4003858707272875
  0.2007823123569357  0.0015543897701689  0.5994607696416254
  0.1999643674996882  0.0007912629252448  0.8002899409237171
  0.2012443549816820  0.1994887765045458  0.9998531681050642
  0.1999062809567945  0.1998005797544667  0.1997115072112703
  0.1988286480550110  0.2032717606472781  0.3999142151946840
  0.2000968084499002  0.2005842202618106  0.5992022081385732
  0.2001023346419138  0.2003121947262697  0.7998133233819810
  0.2001365963708324  0.3978921505324814  0.9997388721597884
  0.1990738191047878  0.3959380143183770  0.2000485990652287
  0.2061634911260214  0.4044243696416821  0.3991939280518807
  0.1986780935190048  0.3967083198303074  0.5983722096591269
  0.2004085156778399  0.4010565049047776  0.7992934748087386
  0.2021429664724735  0.5989249760052482  0.9993773685966268
  0.2019672070657898  0.5929076048672001  0.1941117634432719
  0.2042668065359202  0.6034552590773612  0.3679203739984697
  0.2015066030952891  0.5996099979622509  0.8037152445536150
  0.2005751674731732  0.8014478426617800  0.9987005002154470
  0.2020585717583400  0.8008008442130209  0.4069158956702584
  0.2010104135685760  0.8042256123140423  0.6028713711528788
  0.2009582155616192  0.7990017155813673  0.7996060564544515
  0.4008837204377108  0.9989792230167873  0.0005580487755066
  0.4013724730383918  0.9995410519759338  0.2003074902211734
  0.3992195477775679  0.9987256215436494  0.4004339307813004
  0.4011859307234746  0.0002763019011227  0.6004511016343860
  0.4006676373319180  0.9993157161288787  0.8004249850230187
  0.4007427721370408  0.1994166281389830  0.0000369834705737
  0.4000048102595883  0.1995968024289625  0.2002813789853678
  0.3973748827962136  0.1988410628302722  0.4001883004026083
  0.3998136532519704  0.1996698613925342  0.6001240651101072
  0.4001091403658947  0.1997597413198687  0.8000838025237975
  0.4000963995502299  0.4000912280477266  0.9994068362362748
  0.4009219024310723  0.3989253482696495  0.1988014822177526
  0.3999184014198414  0.4000702040084706  0.3999581370707291
  0.4006290438135869  0.3992101959006511  0.6022615016840547
  0.3997807330492593  0.4002941145271436  0.7997903959926579
  0.4024171685059493  0.5999478318929566  0.0005220982610547
  0.4035077123834296  0.5976249764805325  0.1989562294494707
  0.3988799639213044  0.6017278336121593  0.3998353151223218
  0.4037169445007225  0.5991784590200165  0.6004949383854059
  0.3998812578692142  0.6000284648627601  0.7993471095139896
  0.4011930381958422  0.7992734599644925  0.0001154465032043
  0.4059167150933987  0.7991295429345934  0.2007915679228497
  0.4018811155864613  0.8003715724298888  0.4018226867239130
  0.4021327119069994  0.8000339714391185  0.6018348789360524
  0.4008177946715224  0.7993466014070919  0.7999626881831254
  0.6003628646131296  0.9986640962472776  0.0006632302349407
  0.6011548593610786  0.9988435000292238  0.2009645354081738
  0.5989068107522816  0.9974705623344101  0.4002161963807764
  0.6010399505074635  0.9991897097297777  0.6001237654755581
  0.6005414947266942  0.9990529247200020  0.8000758478355652
  0.5994510095214298  0.1990907844830268  0.9998950983941538
  0.5995448062096250  0.1988793289998796  0.2002758465728551
  0.5932939814834763  0.1961211552782393  0.4002794301225518
  0.5992352158685180  0.1991747713056936  0.6004623760663148
  0.5995637538267711  0.1992687106355946  0.8000850993086206
  0.6002919887187450  0.3992027469576976  0.0000419056920652
  0.5999363843246885  0.3983868599186902  0.1986457065277399
  0.5916155851055963  0.3998043746294440  0.4001826009739208
  0.5994168855473928  0.3988110320716559  0.6012707155528643
  0.6001440249149792  0.3996493081746124  0.8001790848247053
  0.6005024084442260  0.5993377527704661  0.9999480603419871
  0.6021898478872519  0.5977292378534438  0.2004682952420167
  0.5968096206326564  0.6009253144847778  0.3995649320767933
  0.6014897204956456  0.5985035420219901  0.5993962865851835
  0.6003983879386566  0.5993115394390650  0.8002825748731823
  0.6010949175182597  0.7988086831799994  0.0006114320707214
  0.6024186525484524  0.7984582017746554  0.2009344198128627
  0.6004603297839929  0.7980010659442758  0.4010368373128692
  0.6016945440992760  0.7992760073358107  0.6004588766204705
  0.6008539925857718  0.7987296723243895  0.8002796894551926
  0.7996110763815669  0.9991321270765164  0.0004075457372241
  0.8015532237633154  0.9993412528826965  0.1995243913605613
  0.7995458951213920  0.9951239948685300  0.4004655768720202
  0.8005056604312025  0.9997019921565410  0.6007414994769624
  0.8011585423141450  0.9988058801443822  0.8012874335182659
  0.7994700207241375  0.1985365001796486  0.9995692572615561
  0.8010556296423726  0.1975684365697252  0.1947072229265100
  0.7998015795072704  0.1983097080754895  0.6053397319212306
  0.8010147180244892  0.1997114734270950  0.8007133291208547
  0.7997798316053006  0.3984314200354677  0.9993860337489132
  0.8001462865894181  0.3965533823882634  0.1999433763186630
  0.7646950507169465  0.3978038099835909  0.4002163100331328
  0.7994670231139378  0.3977469785747590  0.6001962070936843
  0.7997612674311138  0.3994172003200094  0.8008892799553498
  0.8005288197737841  0.5985621975981664  0.9996076661872848
  0.8017411864187968  0.5988137079733981  0.1948995298735590
  0.8004294254453207  0.5995165639835326  0.6051993326319863
  0.8002748065140266  0.5985983982495195  0.8010618656006812
  0.8007403280493796  0.7997547966090803  0.0001190772653448
  0.7998309353106408  0.7980876850723635  0.2007803565407500
  0.8005680085429003  0.8004636277397690  0.4011236225888752
  0.8002492027723617  0.7987350169778525  0.6008378657039497
  0.8005269124516535  0.7990111373338015  0.8011167680908290
  0.0007388979505054  0.2000537315330920  0.1988097228739501
  0.0009624956776286  0.2000423235812755  0.6016139672402664
