Zr Ti V  W 
 1.0000000000000000
    15.3704372863088707    0.0041087699184726    0.0045828320708022
     0.0041071823098185   15.3593176205705255    0.0049868964281650
     0.0045832368054306    0.0049883200619353   15.3853693029952101
 Zr  Ti  V   W  
   1   2 107  14
Direct
  0.7912733482260691  0.4016457413847843  0.8100442167046861
  0.4090566126664329  0.7979003176615341  0.8040983161050763
  0.6123277010043758  0.4003130794320655  0.9889983597232506
  0.9985845473559851  0.9970365210611971  0.0002893386491207
  0.9972098240871319  0.0027923717721843  0.2001739930178440
  0.9997115758866825  0.9965298742671865  0.3997963935754844
  0.9949043746472890  0.9999768851499730  0.6010968983539141
  0.0027953936847285  0.9983579695671169  0.8009375331032111
  0.0008954699195870  0.1987564527104989  0.0014290765962905
  0.9992612163477808  0.2027498361282833  0.2016296064382890
  0.0019540214515987  0.1994724933629683  0.3996826324446335
  0.0022802875526060  0.2006471193610888  0.5994879098917792
  0.9987992706052720  0.2008849314884312  0.8008526443706451
  0.0033765450367258  0.3993065803940458  0.0059556413776678
  0.9987341888710201  0.4012195776307918  0.3975003335798297
  0.9976691876487800  0.4000150929675672  0.5997969574214381
  0.9991859699559502  0.4007566951980827  0.8029353467646692
  0.9976153543785345  0.6048161331917028  0.9995488691195255
  0.0038401554805911  0.5967705402662639  0.2004326374830594
  0.9995323814653193  0.6027266828975523  0.4026995661958839
  0.9994468616489591  0.5996953023884112  0.6015799303265281
  0.0026346376109936  0.6007567754687011  0.7999618859642507
  0.0040071247059131  0.7984689513298164  0.2009645168061706
  0.9990779882560351  0.7995520546646727  0.5947098805714029
  0.9994743760117322  0.7991505143443629  0.8058137437455508
  0.1994561830640268  0.0015228441576570  0.9958478017508068
  0.1979714538861136  0.9993274130169177  0.4009653110109370
  0.1983823679633725  0.0020914474070974  0.6058481656178930
  0.1997832605570945  0.2025443972052006  0.9957124706581849
  0.1993719871740157  0.0282462605301088  0.1982360846467183
  0.2020933251161267  0.1988190792066757  0.4061736795802919
  0.2008389089101486  0.1947517419407030  0.7962852020817365
  0.1976452255818200  0.4083170893698991  0.1956229182280123
  0.1993658051245043  0.4007450825890535  0.3985260985701117
  0.1980007554948507  0.3966812558984816  0.6021116774222267
  0.1977796954271101  0.4051184298141735  0.8051774887268568
  0.2003574036221822  0.5966990562017869  0.9964786277561611
  0.2008437673785399  0.5995849086415790  0.3996982757298222
  0.1996324872385815  0.5988573932514224  0.6048005977299012
  0.1952862190723684  0.7987599920042047  0.0029829023338683
  0.1959865286661968  0.7999744398452445  0.3981560994565184
  0.1994862573489280  0.8004256539597668  0.5993325180358285
  0.1985686323221512  0.7991094026545242  0.8006088514332690
  0.3996836969616574  0.0004381593775545  0.9997030586096992
  0.3998780708936051  0.9969575837046836  0.1989685231042565
  0.4005221327969135  0.0025315400241801  0.3994771006064685
  0.4003775253353959  0.9981557255772988  0.5995460886744159
  0.3968372477264928  0.0003356569729406  0.8003754726398938
  0.3994853527949311  0.2000995336881418  0.0031554015580492
  0.3999320617519050  0.1979946401576657  0.2030342461053204
  0.3964694864277414  0.2003143668465441  0.5954771367331257
  0.4001894283709529  0.2003178232380700  0.7980491221194883
  0.3961260426019819  0.3983091205120442  0.0003302904211118
  0.4012532227916965  0.4006036605259077  0.1980955954185991
  0.4000335181960830  0.3969344509102350  0.3976343817456886
  0.3992060549540584  0.4003299519030448  0.5981849578200229
  0.3968599571979547  0.3992581449822738  0.7997788218061479
  0.4019930763318010  0.5993701990959973  0.9988857007991671
  0.3982939814899057  0.6039483566484627  0.2003951696833806
  0.4004093011233956  0.5985309113639544  0.4007875834185021
  0.3985717667479804  0.6001013988816006  0.5987579722983870
  0.3957953305598454  0.5993834446576068  0.7995750967648505
  0.4018251915369951  0.8009535334421879  0.0070152595246656
  0.4013075102606631  0.8017015112002549  0.3963531253345477
  0.4002435365053904  0.8006586524917959  0.5939092969123752
  0.6003322802150127  0.0002426135370579  0.9975291045081975
  0.6032973006292851  0.9996372159692348  0.1981197034859681
  0.5993783527840935  0.9997890839721061  0.4009471591226857
  0.6020643568744634  0.0006811405021852  0.6023284090812411
  0.5976916748335358  0.9989998693665655  0.8005781596615081
  0.5990430228542508  0.1988905612479268  0.9986843720552656
  0.5982166602668632  0.2018906577332134  0.1987189899866638
  0.5943827237842211  0.2012611612735696  0.4009729720291590
  0.5978712583433122  0.2006983061850083  0.6008246172306956
  0.5966279043725319  0.2009608441476800  0.7998556613075209
  0.6030375660186708  0.4014797190470659  0.1993269996443398
  0.6011766736354378  0.4013407893890725  0.3985119589799508
  0.5998984187938559  0.4006074732947396  0.5991913294280814
  0.5898261708062774  0.4010647182242204  0.7944609914624876
  0.6004238545955268  0.6013673909792270  0.9982009480666375
  0.5984801073455716  0.5988195047430225  0.1978418585986948
  0.5994821170675092  0.5993237318812320  0.4017868355870483
  0.5985169514662914  0.6001747485626886  0.6019501597635338
  0.5956633181893108  0.6009994058251328  0.7998981829595617
  0.6017028116486666  0.7993653216206322  0.9996269797819711
  0.5959468790096053  0.7992919583251078  0.1996170273258123
  0.6034673287293048  0.7981478590428266  0.3990422024491743
  0.5996918381584679  0.7995845216013854  0.5998318691637833
  0.6029008851793674  0.7995791651418643  0.8005362988444006
  0.7992098355899875  0.0003400051386777  0.0044151046938268
  0.7987574460496097  0.9973241557030431  0.4009991700916071
  0.7992461278014250  0.9994028631047697  0.7966755137225180
  0.7991315933380397  0.1997999580784403  0.0007621444290371
  0.7991055386902615  0.1964061128132695  0.2027249877440981
  0.7972838510041782  0.1989466192040978  0.4017745198265778
  0.7993635136329126  0.1964545030488869  0.6000854418967364
  0.7994877005987546  0.1953674700959615  0.8007305764732670
  0.8075367647234064  0.3999744415609801  0.0104471393006604
  0.8051534312558046  0.4004346662575625  0.2046335675622230
  0.7999683044802602  0.4000087477074435  0.4020837034753436
  0.7993322142059209  0.3989218232511626  0.5995499036593808
  0.7994203593754330  0.6016022255326587  0.0012628816674287
  0.7983947374304170  0.6008983735086934  0.2011751168635450
  0.7984288475801737  0.6049023234226157  0.4015967119870133
  0.7985693877572357  0.6002170676354425  0.6029370516488428
  0.7991661166271675  0.6065345167563367  0.7994278867775612
  0.8032678342304487  0.8014978667978611  0.0031380356672312
  0.7990775531796603  0.8041291802362935  0.2049317787168486
  0.7999139413931710  0.8049704347302636  0.5961230665722546
  0.8007980853518057  0.8017996867656634  0.8001636636989070
  0.0027516736068365  0.4007194989336660  0.2023323590613027
  0.9980097903883810  0.8000516251348626  0.0040114185637588
  0.9980441179772058  0.7989896804702349  0.3981773148849305
  0.1998915692272410  0.9971697724855653  0.7996893709592110
  0.1990554261242446  0.1998914196041242  0.6010815671591595
  0.1997359361731495  0.3995674688720032  0.0005758963440805
  0.2027121064735193  0.6029228652034699  0.1977700690190810
  0.2006519921600641  0.6012921036034350  0.8000188411100371
  0.2021458209763166  0.7948267916775332  0.1996004026574241
  0.3979727708905316  0.1993917773376511  0.3978917000062169
  0.3974915415761890  0.8001749949781433  0.2017324718612128
  0.7985092724475772  0.0012709270712944  0.2015610601658110
  0.7987905354012306  0.0008248103194953  0.6006076235336526
  0.8032857250518332  0.8009335332489022  0.3997529264474015
