Zr2 Ta1 Ti3 V111 Cr3 W5
1.0
  -7.5249999999999995    7.5249999999999995    7.5249999999999995
   7.5249999999999995   -7.5249999999999995    7.5249999999999995
   7.5249999999999995    7.5249999999999995   -7.5249999999999995
Zr Ta Ti V Cr W
2 1 3 111 3 5
direct
   0.9972555238203629    0.3971129282915490    0.2000722822409862 Zr
   0.1996956940259853    0.4010801267124419    0.6000610421005163 Zr
   0.9993373850279854    0.4046477062684649    0.4029718089850142 Ta
   0.3998216441355903    0.5995236657975057    0.0018616153868061 Ti
   0.5993361206973828    0.6021569556010965    0.3966347247077200 Ti
   0.2014689630968287    0.4008042016958282    0.4003756389721649 Ti
   0.8019359980794635    0.0006896872765509    0.9998407265463964 V
   0.5945779511603362    0.9961494522558720    0.9970301419035656 V
   0.8064964917490571    0.2068513756038961    0.0072631763198046 V
   0.8003558569261988    0.0052064662557805    0.1997915333481338 V
   0.4004849001164468    0.9924825901839188    0.9978279648474339 V
   0.5995777184172244    0.2038696229558347    0.0003869229496482 V
   0.7959100519599163    0.3985603142347363    0.9940366564929988 V
   0.5978969364083062    0.9962963731809564    0.1929082501079024 V
   0.7930614569780241    0.9980370569033920    0.3937935217231224 V
   0.4042119434623508    0.2013523561558170    0.0061668956804992 V
   0.6032838686149206    0.3980216912537298    0.9987542756790119 V
   0.8001781992442532    0.5976126125310806    0.9971892936867970 V
   0.4021477840741936    0.9997676208489923    0.1984834877158989 V
   0.5947015544528945    0.1963447440120021    0.1978791451701223 V
   0.7990559949564591    0.4022492389241922    0.1996366515223333 V
   0.5999047886922300    0.0027228360820797    0.4007657068511180 V
   0.7986437602376570    0.1981379107874186    0.4015992413015192 V
   0.7979769547787181    0.0056366083917076    0.6008677241604277 V
   0.0015729389273163    0.9972125578504273    0.0057503550900584 V
   0.1969079802605379    0.1965299482579611    0.9951768492771369 V
   0.4013363290755911    0.4003689781642044    0.0026443020079326 V
   0.6014390278469772    0.6030167759692502    0.9968589615868424 V
   0.7994738708243904    0.8020677332707431    0.0037387680011698 V
   0.1986580920958881    0.0058631906886183    0.1995297126192015 V
   0.4004194867184279    0.2000453768334009    0.2015416035299163 V
   0.5979574597143367    0.3996482632342150    0.2024582698564987 V
   0.7988730345320778    0.5962450455131479    0.1999660331948904 V
   0.4024463721210819    0.0041751533751958    0.4035656296549411 V
   0.6003860162782155    0.2009957149937631    0.4000528114313410 V
   0.8026541865743231    0.4019755074165724    0.4037789193610207 V
   0.5957014174498041    0.9955322992061930    0.5965865282054960 V
   0.7957096400224231    0.1969799088252869    0.6026971104209310 V
   0.8081414525750328    0.0042521810548926    0.8058999946876527 V
   0.0022502679980000    0.2070426337633491    0.9985587037438073 V
   0.1991289830890195    0.4016831665716784    0.0047486921688362 V
   0.6007856248578620    0.7997748181280462    0.9978560863474710 V
   0.0079495401013576    0.0004934354101361    0.2038792372325962 V
   0.1990064668052209    0.2009096640906889    0.2012011292476148 V
   0.4016767171394133    0.3994192472743759    0.2009535048537816 V
   0.6035635515529186    0.6045883587313448    0.1983177431150710 V
   0.8007406796273813    0.7995400513464592    0.1999467062361044 V
   0.1990893837255222    0.9986539059048635    0.3986013111535648 V
   0.4007461262336053    0.2024524745816385    0.4018541099897878 V
   0.5963205741176685    0.3952409815950255    0.4011629182683720 V
   0.7979449257300935    0.6065429388465131    0.4032702545800474 V
   0.4021216700078616    0.0001926435592784    0.5992651974240941 V
   0.6038896207216354    0.2077756908248909    0.6040401227746625 V
   0.7998661881758206    0.3987958738113790    0.5987824726568669 V
   0.5942442214726870    0.9990607711953784    0.7972281315587839 V
   0.8051299378976760    0.2054023528215391    0.8014408897656676 V
   0.0008416649134298    0.4007471172304272    0.0006948357840294 V
   0.2004455360701981    0.5981509454571931    0.0025316179523116 V
   0.4073348526570015    0.8024591624147595    0.0017230368238862 V
   0.0042043818647421    0.1986518582162231    0.2040539305905133 V
   0.2008189958356729    0.4037082410179452    0.2006322215807589 V
   0.3990820183661244    0.6013486948040722    0.2013555351523888 V
   0.5987829407069107    0.8024144408117492    0.1999942500104002 V
   0.0006722252936065    0.9992973781192664    0.3986785318520810 V
   0.7978370217556203    0.8015746503389352    0.4012951142819297 V
   0.1976886885212396    0.0013768154762684    0.6042305369009090 V
   0.3973288683980947    0.2035677383269067    0.6058400565885830 V
   0.6018035709787377    0.4020130248818652    0.5997753630719325 V
   0.7920481689337571    0.5967935447474982    0.5982123472307989 V
   0.4002184293323502    0.0055101699007862    0.8039862513532202 V
   0.5979466083471524    0.1963289719087731    0.8002772082011339 V
   0.8008727967778595    0.4062391962993053    0.8055627524797839 V
   0.0055061217422491    0.6048476160265734    0.0007939421620569 V
   0.2024388455801046    0.7985153899938998    0.0019299298572834 V
   0.2065523945953986    0.6070011095424470    0.2080729529740841 V
   0.3931313359789822    0.7977308853659751    0.1995218745657799 V
   0.9982830576448020    0.1982186630425782    0.3967330033305348 V
   0.9992932366383235    0.9964343483123523    0.6014818027151032 V
   0.1992277154446271    0.1987750902150180    0.6001868538411858 V
   0.3993615742344997    0.3926546300034915    0.5983355307719782 V
   0.6063325793225461    0.5991644408783194    0.6042196981120829 V
   0.8021870077844249    0.8022388216510408    0.5996998892208962 V
   0.1985064123860399    0.0028652451887081    0.8006575945724737 V
   0.4005056187720426    0.2006776363467577    0.7998603804793654 V
   0.6004612430323893    0.4002949785540399    0.8011112661438348 V
   0.8026073877212876    0.5997738035042336    0.7981353684016338 V
   0.0042465362934271    0.7998140919484659    0.9999827196629409 V
   0.9960350609374163    0.5972819262028379    0.1992166616747722 V
   0.2023770667024622    0.8016217247551476    0.2030020693804191 V
   0.1958026025199109    0.5958604803693514    0.3983301114040666 V
   0.3939658650343020    0.8001484863604098    0.3958878966677634 V
   0.9989959923903601    0.2004933255723224    0.5974586178789296 V
   0.4060306781870607    0.6011336945255497    0.6013356598715092 V
   0.6050747081866304    0.8068072078659110    0.6068886500213618 V
   0.0000662611065317    0.0009814545858071    0.8030978899405261 V
   0.2058879085013108    0.2012104075458623    0.7968167530940791 V
   0.4058753985275476    0.4011390258247040    0.7997092956064467 V
   0.5974902130817650    0.5983573935844103    0.7940593311063158 V
   0.8045966750886637    0.8056398929617410    0.8037260527403758 V
   0.0007740783441905    0.8047677642295568    0.2051791736015397 V
   0.0016634809276764    0.5972855710266831    0.3995179664936535 V
   0.0069305629441219    0.4074546597645643    0.6060833540081225 V
   0.1972915948545736    0.5995631726789352    0.6057802850498105 V
   0.4071283071833582    0.8037083272679650    0.5995833981624633 V
   0.9967988054350378    0.1938426411691383    0.7970596314209168 V
   0.1989309877991613    0.3942963019309801    0.8005722507490701 V
   0.3929884658057783    0.6002826049259467    0.7988942507914707 V
   0.5935969866054909    0.7962213081180268    0.7945976562526995 V
   0.9990201546165511    0.6006507775032484    0.5988225392542984 V
   0.1971165009566107    0.7966484588992896    0.5951560254886145 V
   0.9989630767135603    0.3982745675162176    0.7967057881008716 V
   0.2073939637062736    0.6043909033559278    0.8033987549406245 V
   0.4012326632121266    0.8048063137612468    0.8004101001376166 V
   0.9981434779738927    0.8019581628205977    0.5987841409222033 V
   0.9910893212001335    0.5961992036758874    0.7963931107270105 V
   0.2055371251156503    0.8057664896521231    0.8065561324843342 V
   0.0029443312108917    0.8021790087089452    0.7983232640819848 V
   0.7993182853281633    0.2009914617681075    0.2007492140673937 Cr
   0.3948794891528550    0.5945996192855338    0.3994435745266991 Cr
   0.6017340548409004    0.8077544733505162    0.4032951639144839 Cr
   0.1978311867110439    0.0038625192619995    0.9983288517432687 W
   0.2066575586298912    0.1993962611747864    0.4030170915609957 W
   0.4032200987165002    0.4010822145802078    0.3981920163552592 W
   0.1969727177859882    0.7970466112695758    0.3970275966190464 W
   0.9987907744269015    0.7974198834274790    0.3998070865973190 W
