Ti V  Cr W 
 1.0000000000000000
    15.1081335035110893    0.0089842271364565   -0.0408791956600924
     0.0093391233711659   14.8721570075227056    0.0138401154942277
    -0.0409903531721318    0.0135546182961940   15.0765047783689479
 Ti  V   Cr  W  
  15 104   2   3
Selective dynamics
Cartesian
 -0.7566082671377657  0.2859919612662148  8.6061340949130436   F   F   F
 14.0576154459771487  3.0096588142426532  3.3425933582322909   F   F   F
  0.3509400795825198  8.6024736795123662 11.5371656124215853   F   F   F
 -0.0270193642213115 11.5740399222666337  9.3456715752996704   F   F   F
  3.6184718187891978 -0.3688344387862412 -0.7176236022379217   F   F   F
  2.6272236094168582  2.8730048352729471 12.5240455994864330   F   F   F
  3.1734348212572718  5.9647759046811810  0.0092001498740924   F   F   F
  5.3516161213964768  2.9519970226564065 -0.3218356139322374   F   F   F
  6.3864655236588046  9.0803765039509408  8.9471026574182595   F   F   F
  8.1806784321393700 -0.0618456118705543  6.3330840997059772   F   F   F
  9.4675318517711080  9.5511079234503562  3.2737619403306892   F   F   F
 12.6716014835127702  2.6798075493519491 -0.1007334143995525   F   F   F
 11.6878087047380159  8.4924248808456912 12.3022339290706562   F   F   F
 11.6089935860970233 11.8557897137099904  7.9543465081805991   F   F   F
 12.5005630022084819 13.2559915399506583 11.3675912659253164   F   F   F
  0.3757037265668033 -0.5668316116849718  3.4673131177249283   F   F   F
  1.0293766405053886 15.6853211621772513  5.6965609080556678   F   F   F
  0.6910369963585267 14.9286932287791547 10.8936948595315286   F   F   F
 15.1289545686496751  3.7896934239802440 -0.1405389164899279   F   F   F
 15.5218376109503833  3.9575795601248753  7.9413537887648298   F   F   F
 15.6139202408045836  2.8959103222151925 10.7636528187964373   F   F   F
 -0.7162846136338598  5.9105761824740348  0.5689175769605301   F   F   F
 15.9370215390673877  6.1567770262128727  2.9546073183077022   F   F   F
 15.2066553631213139  6.0792277924808724  9.0911935432377646   F   F   F
 15.3707098175456647  6.0124821933649182 12.8567150534223327   F   F   F
  0.8576534932053403  9.0820230834669573 15.2916410452286105   F   F   F
 14.8641452604303268  8.3228167927021452  3.4643893897148570   F   F   F
  1.0394025104944671  8.9716378126485772  6.0639024845626013   F   F   F
  0.3039908731254868  8.0451174788965325  7.7795059305625180   F   F   F
 -0.0068387900373088 13.3323425678474177  0.5332613987822836   F   F   F
  1.5133056707868340 11.1395663863182826  3.5436116434146734   F   F   F
 15.7051552911061005 12.7164288222503057  5.7369475258793834   F   F   F
 -0.4189575333681264 11.4137210379248923 12.1271942985382726   F   F   F
  3.1177136246289026 -0.6045819438815705  2.8746420246860982   F   F   F
  2.4387932237732493 13.6407117667265165  7.2539207738982592   F   F   F
  3.3736300094021829  1.6982660882006981  8.9040659538155804   F   F   F
  3.2770003928130014 -0.7519852670213280 11.5961733233153499   F   F   F
  1.9549363162138726  2.5272831713210957  1.1547784072844891   F   F   F
  2.7587413172899256  3.0011451870803616  3.4214710118285989   F   F   F
  1.7628085403840588  3.1484062701928455  6.0270492671906615   F   F   F
  3.9384502335286586  3.7059414352820892  9.2052396791897113   F   F   F
  3.0486153806120067  6.4947882065686633  4.4250168159513636   F   F   F
  2.6148877016412726  5.4120043418143213  6.5621320786677586   F   F   F
  3.6762297773782731  6.5023556663010647  8.9733340563368778   F   F   F
  2.3130747023171221  6.4379640235578455 11.3566392796513007   F   F   F
  3.3082241067250049  8.7845881693873906 15.5533944907545294   F   F   F
  2.3575165234776390  8.3316753263423529  2.7323327058190516   F   F   F
  3.5764057361294839  8.9588426053115562  6.2311925596666375   F   F   F
  2.5801958095710109  8.9378521555522230  9.4093262914770168   F   F   F
  3.8540710587853608  8.9704752413568496 11.7278156484013785   F   F   F
  3.5109826836761409 11.5665735589381260 14.3683672103096534   F   F   F
  3.5935928531598349 11.4808869116627026  3.5936206855943800   F   F   F
  3.8022182186284463 11.5402167564611329  8.9128968521887089   F   F   F
  2.5320962670881553 11.6656608383242979 12.1160866208254685   F   F   F
  7.2049137703891848 14.6936815056646619 15.2523297128025774   F   F   F
  5.5210407990363324 -0.1982737907555577  3.6930528619721343   F   F   F
  4.6424647870460358  0.7661753005728092  5.8046553697784908   F   F   F
  6.3352833658659318 14.8190740868609030  9.6813124767126801   F   F   F
  5.6663692331987408  0.6898996086436437 11.7183837334570331   F   F   F
  5.3881107779759523  2.2631505410317230  2.4190190550208142   F   F   F
  5.3948392003659054  2.8917917317375892  5.9932771318919018   F   F   F
  6.7096011789869818  3.1020515665330404  8.0592715661319314   F   F   F
  6.1154202721380662  3.4132735330266524 10.9960282961026490   F   F   F
  6.8712636615164522  5.3392873403988803  0.5400084616411058   F   F   F
  5.6736854178449070  5.1221613035699152  2.8049492901372255   F   F   F
  6.2369370840363256  6.2838118962838179  6.2309036586473905   F   F   F
  6.3054857888108851  6.3041484514712440  8.6031680055891471   F   F   F
  5.3005239348954101  5.5600552425662473 12.0601620227836772   F   F   F
  5.7977395667144469  8.7834683688011577  0.0789198198000077   F   F   F
  5.8394977841364257  8.8127061603458881  3.2593666531378234   F   F   F
  6.3593910200624526  8.4643462045200426  5.2423203944127934   F   F   F
  6.2969248048586062  8.2579257465611953 12.7321096179292770   F   F   F
  5.6874840255648538 11.4514443295119737  0.4412610942663215   F   F   F
  5.4659813552417722 12.3957048420621376  2.6890728781299469   F   F   F
  5.6077478303885133 11.9620902164040661  6.5298072739981743   F   F   F
  5.7431725742184758 12.8511588913988550  8.3434977191909230   F   F   F
  6.2398153586212981 11.8355998380203946 11.8872017048208338   F   F   F
  9.8043686099483729 15.3726394450716128 15.4923124531152681   F   F   F
  8.5322489286169585 15.6514056047291508  3.8300815399901937   F   F   F
  8.6411342226562056  0.2101877075606648  9.9192222700170749   F   F   F
  9.0729742330247856 14.1341622669317051 12.1056654478988275   F   F   F
  8.9262879750823156  3.0392530203690762  0.0499720954495675   F   F   F
  9.8472810652011180  3.7460540202798436  2.1498118772102290   F   F   F
  8.9030036184259860  3.7567935525862661  6.8531798922368674   F   F   F
  9.5247797968154178  2.4947358758421756  8.8101317230273501   F   F   F
  8.3769895665616474  3.7367157530762722 12.5480567424198650   F   F   F
  9.5581696628269288  6.4837832946606140  1.0500719477068352   F   F   F
  8.2599759955028969  6.0370797792945403  3.1274676970814332   F   F   F
  9.1372732517435278  5.5585903419584568  5.3036274256637181   F   F   F
  8.7071071322249054  6.0825817364832169  8.7785073231364485   F   F   F
  8.9629514863910096  6.1084175313893159 12.5066974304075931   F   F   F
  8.3474025848299345  8.7982987864321291 14.8376549434617910   F   F   F
  8.5392001615137492  9.1554838895082078  5.9177089896941446   F   F   F
  9.0278514270738448  9.6181157064598963  9.3065079336897654   F   F   F
  8.5727892845914848  8.9503970690927570 11.9971256836496138   F   F   F
  9.4035362670788274 11.5995543440987827 15.1646299207058615   F   F   F
  7.9518008035511816 12.0155003631988446  3.6779122243981508   F   F   F
  9.4874364904441606 12.5668176988883697  5.5253441025874741   F   F   F
  8.6198445311693419 12.1092490949224434  9.0414315215663432   F   F   F
  9.8015781587434496 11.1976156975267962 12.6073025363711277   F   F   F
 12.3081218636948986 14.7586438154708475 -1.2546802002111856   F   F   F
 11.7984872892148935 14.9918005335025839  2.3284493875497896   F   F   F
 12.4806960456638336 14.5535400718891559  5.7251931518647323   F   F   F
 10.8351381356616283  0.2796616990344478  9.0551171395264429   F   F   F
 12.4990310874059691  1.2716805147618739 11.5791707092656395   F   F   F
 11.5345556755220553  3.2595429157948264  4.1498840980325786   F   F   F
 11.6142439343400756  1.5421804207701593  5.9225028957324071   F   F   F
 12.4929401347543152  3.7079240621947607  8.6611096799988392   F   F   F
 10.5096711106119951  2.6046218691263534 11.8120606118424814   F   F   F
 11.2164194405107125  5.8304014406237323 -0.5033558400420408   F   F   F
 11.8328926324968204  6.1946908324379057  3.0765275181658192   F   F   F
 12.7144400771307211  5.7119816204655898  6.4755854249568410   F   F   F
 11.4070033238953439  6.1999152050038280  8.3244479801078164   F   F   F
 13.0639398206601314  5.2282671391679436 12.2103870755960706   F   F   F
 12.1907312549946933  9.0332937770300994 15.9252426709377737   F   F   F
 12.3649850043188341  9.2651840755262747  5.5605960834006511   F   F   F
 11.5820788142740465  8.9037880728852627  8.3766459028800995   F   F   F
 12.2659236612819704 12.4850512358495536 -0.2660433933629914   F   F   F
 12.7171712433275825 11.4257905609577666  3.5336283222565230   F   F   F
 12.4948590718832584  8.4780964357173101  3.2233040472463501   F   F   F
 13.3568688305481764 11.5744241398795236  5.8931535246138855   F   F   F
 13.9452935303250349  2.9751474706502252  6.0234702314212463   F   F   F
 15.3289951806218259  5.7917850903195252  5.5866749715307673   F   F   F
  2.6152818872774253 11.1760584926198412  6.5231470041156827   F   F   F
