Zr V  Cr
 1.0000000000000000
    15.5176564344983579    0.0055358052127085    0.0009235349890332
     0.0055289702635454   15.5339659065587714   -0.0041197367383691
     0.0009253811786535   -0.0041210125583897   15.5341853465245965
 Zr  V   Cr 
   5 117   2
Direct
  0.9997365990311913  0.4008449042299513  0.9999759634116687
  0.3736445596723225  0.1998788733308192  0.1981764759106889
  0.5998881273194774  0.2005421769705509  0.1997727944005268
  0.6087562015628424  0.7918208527048463  0.7996008433589110
  0.7928857012243009  0.6075254624551257  0.7999567139037694
  0.0025963846862493  0.0002887214998324  0.0012070856709522
  0.0020580682168515  0.0007016511539111  0.4000250421590154
  0.0005238925599835  0.0002240731424364  0.6007606697210266
  0.0015523590182447  0.0011074233385585  0.7994565367148553
  0.0003110889940325  0.1961565947231022  0.0000389969532403
  0.0024724806570675  0.2000408513313330  0.2012048641723242
  0.0008689653695861  0.1992983984938013  0.4007410316511721
  0.0007504028981576  0.2004542310567181  0.5997079035192476
  0.0011185719898372  0.2004117707461646  0.7997542389341996
  0.9991586405566014  0.4020859239808287  0.2044139504680718
  0.0004765501493076  0.3999735071843393  0.4010178650608890
  0.9997275687624485  0.4010315775712374  0.5993196047953302
  0.9996545352642602  0.4013545175573514  0.7955357240115002
  0.9997446908236680  0.6052297428990030  0.9995531797759023
  0.0001687746769923  0.6008668726555862  0.2008172700416618
  0.0003156221370082  0.6008279584908368  0.4004701976943625
  0.9998064922757348  0.6006528226331010  0.5998460843095119
  0.0014593826871814  0.6009733797492136  0.7993547070770839
  0.0014944192670449  0.8016715946987366  0.0007394054793589
  0.0021277361199026  0.8013529007190987  0.2008618952476240
  0.0013670695508010  0.8007782274668311  0.4003324328541888
  0.0013918658895717  0.8004695295656900  0.5994255303535586
  0.0041591595112094  0.8013484269391445  0.7999099191794219
  0.2019412566404144  0.9998557018733761  0.9971202787291357
  0.0321236583131269  0.0000090142934448  0.2009224820929976
  0.2015141397895107  0.0003520921719142  0.5999068941587925
  0.2014319137413124  0.0009850290489688  0.8001869847699079
  0.2005199968141502  0.1986744136238936  0.0002472581068511
  0.1993495256492281  0.1993591987695044  0.4006808118072217
  0.1996230800569596  0.2003966423555768  0.6009331110102352
  0.1996654812036706  0.2007930244769209  0.7996022326990420
  0.2041038811594954  0.4006097383230072  0.9996269247140870
  0.1998253326443278  0.4015102314257725  0.2010628390949114
  0.2007221619712722  0.4007344916319338  0.4012124135381894
  0.2005554134708821  0.3999747069944152  0.5996735102147012
  0.2008365292391875  0.3994826154011558  0.7997678031516356
  0.2013182294773752  0.6003896839273513  0.0002473571951901
  0.1993826776372652  0.6001993875667114  0.2000326654017087
  0.2003843042669176  0.5990858742621001  0.4001691095798726
  0.2003128733205304  0.6000980079429716  0.6000543411692992
  0.1994617054726909  0.5995960149921857  0.8001422158878667
  0.2012019703357412  0.8015733978348663  0.0013591224247770
  0.2000868171238387  0.7978832034045719  0.2005119485339489
  0.2010566681073944  0.8005817557100018  0.3997029531374318
  0.2005979311168288  0.7999011255591317  0.6000152406787688
  0.2013074905715485  0.7999816187878754  0.7997971082522231
  0.4012016092674394  0.9996847544571691  0.0008382994118338
  0.4055644377436231  0.9949271592137330  0.2002923865892975
  0.4008449277647523  0.9999517348166912  0.3994239027565181
  0.4014611641322725  0.9992850482629855  0.6004122912915351
  0.4017694910579546  0.9990716630731520  0.7994342120048438
  0.4015606392023883  0.1994690506528125  0.9935399976587745
  0.4000702679987100  0.1995566363753528  0.4047273676818215
  0.3995344393554329  0.1992807785657278  0.6009330075537318
  0.3992574411289597  0.1998531077761236  0.7984173202918420
  0.4014782515491768  0.3998677684360287  0.9996763434201946
  0.4007783937223688  0.4055222636548994  0.2001981486810076
  0.4008887718261271  0.3997731896251882  0.4001430711941257
  0.4006781949545926  0.4003989295530366  0.6003268346744516
  0.3998043475018152  0.3994883998993002  0.7992627082405850
  0.4002500303511195  0.6009170246365851  0.9998184072034267
  0.3995767050061944  0.6012779202726211  0.1997955021597803
  0.4003028431266027  0.6003974185385024  0.4003824362001864
  0.3998152478062267  0.6003325944340033  0.5998502694379336
  0.3967317563467876  0.5992188742941719  0.7998141941896705
  0.4014507540155438  0.7998914601218424  0.9996693024684958
  0.3990454741879354  0.7996876703816642  0.2005933562518959
  0.4003121254759838  0.8001262320139032  0.4001984488295057
  0.4009176875020515  0.8000515577228096  0.5998927330405162
  0.3995936133812554  0.7998466867113853  0.7999788309642285
  0.6011782411146098  0.9992477731918227  0.9991285318297117
  0.6023473393469043  0.9948540229355606  0.2004014951532868
  0.6014051540783530  0.9998527716293831  0.4007411332713163
  0.6007710303721784  0.9993165545196531  0.6002170371431010
  0.6006738994904444  0.0009358978924445  0.7997580473174756
  0.6011411645503656  0.1998934691974922  0.9943707355908658
  0.6009434429981330  0.1997524652532161  0.4053000069680648
  0.6012180127237461  0.2003738525688308  0.6013898110895978
  0.6009432858660725  0.1995745767346915  0.7980209184956858
  0.5993251047565875  0.3998034160744013  0.9999973149588138
  0.6006817772797831  0.4055088205128596  0.2002009670765822
  0.6003151147164896  0.3999735449709846  0.4003454441484939
  0.6002315591921066  0.3997961741671150  0.5994728318545065
  0.5992681254583335  0.3967607314364481  0.7993831974285444
  0.5984970040554755  0.5988651324259980  0.0011105224346690
  0.6004239132920175  0.6011386345016475  0.2005622260627270
  0.5997044591506510  0.5995350751844318  0.3996039077414610
  0.5988679763394149  0.5985233270829633  0.5982342341369220
  0.5903952282659228  0.5897107100689869  0.7999080120184600
  0.6011909821264479  0.7993993056551629  0.0038379608249925
  0.6021672971978149  0.7975926801329722  0.2008531048899552
  0.6009278055584883  0.7994534485461874  0.3995846857927203
  0.6015178842199519  0.7989934430506829  0.5958478565409454
  0.8000338492239334  0.0009518036403886  0.0003205237378651
  0.8007057802765662  0.0007339756845497  0.2000740347242855
  0.8002453333824767  0.0007941441516219  0.4002449610339766
  0.8002912235363776  0.0010067070944646  0.5996169487121111
  0.8015682875329504  0.0040026931243858  0.8002815231502934
  0.8004512339121401  0.1999070818154471  0.9999510633460260
  0.8052194262363611  0.2012105880388304  0.1999094757288211
  0.8013012997988359  0.2006545547727643  0.4002859560651378
  0.8010597769898359  0.2006359065548304  0.6002011200977894
  0.8016190658801534  0.2013650982706519  0.7997691883712614
  0.7955030489402655  0.4010865265792086  0.9997574853898893
  0.7998657802092243  0.4008293233882931  0.2006979105878477
  0.7996570935015558  0.4002303082945089  0.4001002841502420
  0.7997950486886977  0.4009769213379599  0.5996147001697736
  0.7995636422246124  0.3992277831762561  0.7993649733427275
  0.7987362094916248  0.6018843457495925  0.0040769295439210
  0.8005719278344862  0.6009646318086377  0.2006266794114726
  0.8000362052278921  0.6004424678204416  0.3991812618960147
  0.7996602718175080  0.6010391963182584  0.5957110973064124
  0.8021528884730146  0.8025538358320385  0.0018026164705640
  0.8020401399157729  0.8004896248559299  0.2006612479700676
  0.8014163228785429  0.8010766010927270  0.3993519022921792
  0.8021820759582954  0.8017230470026744  0.5983401193544504
  0.8109752713322628  0.8102536105963596  0.7999879136444128
  0.2013428873857589  0.9996883885363171  0.4001552926343463
  0.1916483359609033  0.2012928277995300  0.2000298536785986
