Zr Ti V  Cr W 
 1.0000000000000000
    15.4549315649027950   -0.0222495129286640   -0.0105509386160289
    -0.0223053274730288   15.4776580052303601    0.0156777599783081
    -0.0105831741986949    0.0157005871891177   15.5087905410777189
 Zr  Ti  V   Cr  W  
   8   6 107   1   2
Direct
  0.9977887092348549  0.0009317850577612  0.4116432003752428
  0.9951054058524875  0.6464975885227101  0.9653938415981685
  0.0089209950940874  0.8087464813055851  0.8019345691676046
  0.2139602498661140  0.1848986754331942  0.9838467568734808
  0.2162895740069863  0.5734937172605110  0.9935390212209561
  0.1876989227445584  0.7911513126278401  0.9904840672794739
  0.6086148068914518  0.2010157687937007  0.9971572066967144
  0.6005321834114634  0.1974495421920355  0.4045011500126731
  0.9982075363959170  0.9898810488140722  0.6208973965458455
  0.9843353481620249  0.4054347771963571  0.4233223515723260
  0.3896539792368273  0.2012938403505427  0.8078100932296248
  0.8057097161441326  0.4024658049276194  0.5904849797222672
  0.8021715556965254  0.5948254131753181  0.4069219610406901
  0.8129667053424996  0.6030914941697743  0.8020807977657041
  0.9990181835941174  0.0132290796814787  0.0039872870789817
  0.9998179996182526  0.0028938840189494  0.2017528920656359
  0.9997188889347052  0.0115537918087869  0.8098967434709218
  0.0018976801232331  0.2061137171999692  0.9969983932866390
  0.0027558713667026  0.2048011578681951  0.2018166543534472
  0.0001650530078892  0.2035047033949990  0.4021158353861286
  0.9998363104288681  0.2030716128268227  0.5997924534264003
  0.9995044532521750  0.2068515376700412  0.7981363892918688
  0.0042470883379104  0.4027021968017328  0.0020793409383487
  0.0038775613289881  0.3998117472019538  0.6092515319454881
  0.0001222049720408  0.5928392375215403  0.2071915308946609
  0.0029685324397963  0.6032948063500517  0.3995450811710524
  0.0025720734007950  0.5995217656591022  0.5940586468204663
  0.0068838275814852  0.5979080080977817  0.7812926828181743
  0.9861910819792586  0.8301746349841458  0.0113366248403986
  0.9984462891368598  0.7966543645919750  0.2014830260983610
  0.9967115222527775  0.7970194579578914  0.3992539196695991
  0.9989963964870799  0.7958488858679020  0.5954178977320020
  0.1986052644480615  0.9931452521309937  0.9989927710818902
  0.1990422197884968  0.9976644327747273  0.1977919920048927
  0.2028432823230690  0.9972773565342131  0.4011833239404716
  0.2012744301966170  0.9996691538804982  0.6001257845404330
  0.1982397547250030  0.0006828416359643  0.7984138090836329
  0.2005245669346527  0.1969472566451964  0.2001617102311054
  0.1988629683347488  0.1985109694718332  0.3976986590935993
  0.1982920376728886  0.1992836355491955  0.5947548019770409
  0.1929134236523227  0.2015239815672752  0.7859831442482453
  0.2026315113270515  0.3880142515864751  0.9982387660539733
  0.1959378050994725  0.3972352276612056  0.1992437157741438
  0.1987771122472755  0.3993240192122329  0.4359642924817650
  0.2017576172563715  0.3998411918398052  0.6340298303262553
  0.1998549203845531  0.4337948745521008  0.8676540701916512
  0.1994215821217399  0.5986910285939477  0.2331684324617518
  0.2016661657404526  0.5981362017493981  0.4316157208665484
  0.2012592988252150  0.5992540375285333  0.6281716944353896
  0.1995909810151473  0.6356721602596854  0.8594475087715860
  0.1980045429575385  0.7972662194172258  0.2346859090120612
  0.2004044366541742  0.7988995477029732  0.4314285985860440
  0.2013308958297969  0.7999963119738825  0.6261416644865664
  0.2408840959673831  0.8346435917132808  0.8224310437549637
  0.3981691266220322  0.9974434315785029  0.0346097691067438
  0.3984336817042979  0.9981846561842285  0.2334772012553896
  0.3987677965748276  0.9987642940407395  0.4335307313169157
  0.3997797645568857  0.0007650178950465  0.6361843053150815
  0.4012419198143016  0.0326770742903524  0.8361602854256213
  0.4068425853934624  0.1994273643204763  0.0392429783585457
  0.3992509539498154  0.2003603662547970  0.2354887853823341
  0.3969343539155987  0.1991926616011644  0.4344524269561341
  0.3994104345947150  0.2329693523425550  0.6655318416063559
  0.4048040949248740  0.3986849482031333  0.0356777501516729
  0.3974063399520446  0.3980232209952043  0.2336440683280266
  0.3989921060195383  0.3995983054601526  0.4317486450933650
  0.4010514187556678  0.3994638152443774  0.6360113086423516
  0.4019636797857417  0.4350110147941134  0.8346823556946213
  0.4087868629777860  0.6007012602208205  0.0337946550790572
  0.4002269710834456  0.5955789267249799  0.2330303067483365
  0.4001424831366851  0.5985718455131797  0.4341266856265911
  0.3991285553383382  0.5993495197282378  0.6341891833390900
  0.3994791825187623  0.6330607951957272  0.8346416871362825
  0.3985790510084061  0.7980816156445364  0.0333719868862220
  0.3973161782708398  0.7982137688534890  0.2317588505659643
  0.4025412909989425  0.7981943685998060  0.4336086620385126
  0.4008299772814824  0.7993288474812986  0.6337643836782110
  0.4341616666293796  0.8332824258989481  0.8338952966845556
  0.5988539032111641  0.9955828821291737  0.0336029623910774
  0.5983645477894115  0.9962162508924398  0.2341673431475077
  0.5974537055517151  0.9922362288860864  0.4362043089064377
  0.5988519790347280  0.9997187503736990  0.6363973177045569
  0.5984297298991035  0.0346717072551991  0.8677450274585673
  0.5997512802924998  0.2015475808105725  0.6058188259774273
  0.6035424899348452  0.2018337896629010  0.7952412426198782
  0.6029740881230840  0.4054591795982281  0.9975574249013421
  0.6015327944749014  0.2294828907866000  0.2019920043962669
  0.5980346035132393  0.4053352219462935  0.4039736328983916
  0.5995911706605089  0.4018536408395337  0.6009744972102981
  0.6018906660326327  0.4035274377549023  0.7992917093251777
  0.6033638804092127  0.6017694225161260  0.0001201003379092
  0.6007743165958653  0.5998023393924803  0.2019110104878034
  0.5983975805443535  0.6029673739518353  0.4011948606554880
  0.6009890790662791  0.6005328060615458  0.6034858263827408
  0.5994937088497569  0.6018815036218557  0.7998085523984432
  0.5985447709188604  0.8001948569958348  0.0011026200227421
  0.6001437057110446  0.7969853313568597  0.2049955089266720
  0.5999043628698323  0.7999901282404726  0.5970215929210131
  0.6010442765411244  0.7998338539718989  0.7985956617036154
  0.7959859982334933  0.0041085167585838  0.0009040279531169
  0.8003925613147098  0.0000188223613562  0.2001781257225471
  0.7943670174999855  0.9988930716938669  0.4010385516829039
  0.7972238665020169  0.0016599844823642  0.6029700196786231
  0.8014048697433215  0.0026807901815391  0.8020735120259945
  0.8073915943245933  0.2003572645083666  0.0006379550284709
  0.8017141447827740  0.2001094640046547  0.2015395816045454
  0.8039139398141351  0.1962929619508591  0.3990436693695608
  0.8016961714714536  0.1978795530645973  0.5988447567579006
  0.8022553476416048  0.2031056147698843  0.7975725859471359
  0.8017227791486329  0.4035639075481518  0.9990585885009134
  0.8048821132631904  0.3983300339728696  0.1970928400746331
  0.7903749068468832  0.3957313072528954  0.3919265754757122
  0.8031906747704748  0.4002849319489116  0.8025305675616207
  0.7966650771991880  0.6024593459776159  0.0049825594085124
  0.8010767376958683  0.5975845571498812  0.1997237777459275
  0.8018898918981422  0.6043333519530311  0.6029065258041315
  0.7957513143656002  0.8044261526413139  0.0010861998601173
  0.7999899774006053  0.7986782010390339  0.2024655443264408
  0.7955224292192072  0.8007831019207312  0.4012240493514158
  0.8006829576394426  0.8016642568784339  0.6013749646986404
  0.7977267554676487  0.8053553606041370  0.8000246308745965
  0.0015225628030919  0.4042147714682355  0.8023981719390751
  0.9993247928561665  0.3989816044567596  0.1958024870816393
  0.5993025421969861  0.7977770267510192  0.4016221667215233
