Zr Ti V  Cr W 
 1.0000000000000000
    15.4881673496800545   -0.0044988716137269    0.0023284428611688
    -0.0044995262007590   15.4868836992738235   -0.0013404811889266
     0.0023287711427859   -0.0013405450580446   15.4872612960135356
 Zr  Ti  V   Cr  W  
   2   2 106  10   4
Direct
  0.9975124092694575  0.7957385239921823  0.5989390521725406
  0.6053455325676562  0.6016102281287899  0.4012403046095530
  0.1974644854938719  0.0020509701698304  0.1981847007656607
  0.6012083639653509  0.6053614214498457  0.9970941471078654
  0.9987186087692359  0.9999576180857906  0.9973937684320537
  0.0002257670161405  0.0000891951444510  0.4029946432405814
  0.9986367146540115  0.0019434292259293  0.6008288612238275
  0.9995192364583355  0.0001347264948572  0.7992586899667647
  0.9986583907014215  0.1984224346720771  0.0008280691782927
  0.0000089943156225  0.2017351231793627  0.1996964799352534
  0.0005022435604232  0.1985542647520097  0.3985328648433802
  0.0003669468292973  0.1993319898641931  0.6001046674155478
  0.9992625995535188  0.1997585410621550  0.8003016193497765
  0.9997677985772611  0.3997661636582229  0.0005801175242494
  0.9994489128887414  0.4010247749329527  0.1997643855004621
  0.0006068062923223  0.3989969785501238  0.3993728141972519
  0.9995863272576172  0.3978135650124002  0.5996716392731176
  0.9993700946588278  0.3989096664369169  0.8005825109233401
  0.0017237336265779  0.5989033349439660  0.9995831708475201
  0.0020931548490642  0.6027729287426046  0.2002143810641313
  0.0020213926435833  0.5987528444906116  0.3998982806099400
  0.0005604115370255  0.5933670554403734  0.6002316236129936
  0.0008647009864489  0.5982433566673505  0.8003686065006330
  0.9966888877023800  0.8010165675944526  0.0034717649015313
  0.0017426275812147  0.8015724414713590  0.3920215314709555
  0.9991461779244509  0.7995653658478071  0.8045492010952423
  0.1984462822209634  0.9992864195392968  0.9976330088433047
  0.1999020804618857  0.9995185165281770  0.7993288933574760
  0.1998159939519430  0.2005132983557908  0.9987211775131949
  0.1993707351617400  0.2005064646761155  0.1995405219437373
  0.2002136415009231  0.1999221861362144  0.4007171653336064
  0.2003947302018699  0.2000413424816056  0.6002681826060242
  0.1995027571315353  0.1998318752380718  0.7990076017631287
  0.1998750748836682  0.3997714356347624  0.9992859982075556
  0.2010909023981541  0.4006149654057772  0.2000101770953935
  0.2000499974292797  0.3995069660025821  0.4003373828795443
  0.2008554499301627  0.3994353055521581  0.5997080609827682
  0.2002371321773995  0.3996632027089682  0.7993643651443281
  0.1999839576722765  0.6012487276694443  0.9993970942887945
  0.2003318184148178  0.5979663600387143  0.1998245189909729
  0.2003720942631251  0.6001052689842289  0.4009313824916144
  0.2010082780642107  0.5987205290934369  0.6004595020013134
  0.2000859086935524  0.5997882075518262  0.7988473777996652
  0.1998178330345597  0.8006901959928368  0.9973475931560504
  0.1005053302817609  0.8981650437474705  0.1993485747896448
  0.2004068269224270  0.8011400110963106  0.4034432795214810
  0.2036352959432579  0.7992646071473118  0.6005270955577020
  0.2003022413932103  0.8000603113982641  0.8006177712911622
  0.3994216444586948  0.0008445970465170  0.9989227354261815
  0.3997706793333836  0.9974806991045926  0.1993653749855977
  0.3994040201998676  0.0007698463790962  0.4010693281755148
  0.4005712534599877  0.9996291919911916  0.5996906677460326
  0.3991452823492142  0.9993523526226844  0.7991926562328954
  0.3999614791846348  0.1997936829314182  0.0000238614483106
  0.4005318810160276  0.2002696857451601  0.1999573792241445
  0.3997411009504675  0.1996337933308465  0.3996534565208927
  0.3996305122595489  0.1996063832997647  0.5991719479060686
  0.3995602623691351  0.1999348598928889  0.8002362165268461
  0.4002391668251049  0.4004496069302362  0.0004050182590321
  0.4007989836544251  0.4020741749107801  0.1994995380166831
  0.4001370115275719  0.3998188098084552  0.3993538935650837
  0.4004624644546720  0.4000640612424322  0.8000185734117627
  0.3974832007368394  0.5997628935693653  0.9988880987161959
  0.3994191221475554  0.6044987230403744  0.1996561025566695
  0.3979938989523914  0.5998989451179537  0.4014309843180149
  0.4000966024707282  0.5998728291861244  0.5997789685367280
  0.3992513568094234  0.5997632289019021  0.7993286936155530
  0.3996881876917097  0.8011996896427253  0.3965767775217091
  0.4004074830641436  0.7997259324424928  0.7995672469856906
  0.5992920953227359  0.9997702013971321  0.6004180981098701
  0.5983579206608367  0.0003602255937464  0.7989531023609513
  0.5997128369524470  0.1990187673516632  0.0000474141185232
  0.5997447563417451  0.1997638016910947  0.1995122258813345
  0.5996369604670870  0.1987057700047618  0.3996412231900533
  0.5995899056374722  0.1992714106539648  0.6005571378526307
  0.5995797423560844  0.1992645740795710  0.8004268900163150
  0.5999141976831353  0.3993422248857591  0.9995767875118510
  0.5994846902710784  0.3993091950630838  0.1994736428053838
  0.5995552152782629  0.3983954185349382  0.6004588472699716
  0.5997809117218885  0.3989821786117558  0.8004974757915411
  0.6007343301651202  0.5987132403155109  0.1977982923014518
  0.5990102488047334  0.5997393420595620  0.6043809582866672
  0.5995487945518164  0.5986999090552303  0.7971711758448649
  0.5953501291239305  0.8010499295234571  0.1956405506818171
  0.6008804614580044  0.8043187790760906  0.3996477464786335
  0.5982194334377022  0.8012003751293143  0.6020063812990798
  0.5989524650942939  0.8007251676323787  0.8038572402450509
  0.7997631071217124  0.9969683444632618  0.0002828837226663
  0.7987213487104411  0.0011665115204895  0.2017621928600764
  0.8003553095656164  0.9998195032712353  0.4002801198102631
  0.7977162266651295  0.9993504108839514  0.6010266657538295
  0.7990660889200032  0.1980181952456262  0.0000115505856073
  0.7995954312415139  0.1995257121533957  0.1994358812705341
  0.8003980516314417  0.1987480009651353  0.3999243395707979
  0.7991970187599508  0.1998943436593559  0.6001134620600002
  0.7995628952153693  0.1993690901423013  0.8010022907676900
  0.7992176076005997  0.4005598133071682  0.0001852070928772
  0.7992467722532096  0.4008547269440163  0.1999974650688846
  0.8009902977497761  0.3981798951715230  0.4004309825071148
  0.7993459103361903  0.3995084252493865  0.6004716897897190
  0.7993708284809462  0.4000466342487186  0.8002551341879187
  0.8044389651486686  0.6021021646694857  0.9987336106943735
  0.8005004038600554  0.5984455789751847  0.2008487633170710
  0.8065205521135478  0.5996014675833350  0.4011313916202343
  0.7999931140506783  0.5992566895536555  0.6011295305618143
  0.8009855357241419  0.5988885275441412  0.7994711268069825
  0.8027296972860175  0.8007024372518715  0.1974905429410778
  0.7988404211442082  0.8007585494415059  0.3987078778633880
  0.7941985168604809  0.7993161997682777  0.6020555735363925
  0.7993973408314460  0.7995081000909741  0.8047255131560533
  0.1997514843232134  0.0005150237378579  0.4021824841998702
  0.2002060907400567  0.9999029080580044  0.6000431840051457
  0.4003667411118723  0.3994257271684096  0.5999562681879268
  0.4020562746551535  0.8003665760388283  0.9998482117721745
  0.4001306766259752  0.8004757665735824  0.5993994078825469
  0.5996037156741097  0.9997904949948498  0.9997003981615461
  0.5997244822623387  0.0010498420988678  0.1998924304142296
  0.6000780200655095  0.0005238524696643  0.4000399843150793
  0.6002479348732407  0.3955951027625569  0.4002324602174230
  0.7985514396103652  0.9998872522884007  0.8002503597669972
  0.9986730756078711  0.7974027278859981  0.1989129334709991
  0.4017524959330454  0.8021716895656996  0.2016733232782388
  0.6068728355653904  0.7980464065878268  0.9988064879034432
  0.7975966068508366  0.7988825683737689  0.0027433453561931
