Ti V  Cr W 
 1.0000000000000000
    15.3720038313806135    0.0023998420144863    0.0001449001601191
     0.0024007571799185   15.3633006247875361   -0.0006442210894229
     0.0001450310074229   -0.0006449824026597   15.3697544548857330
 Ti  V   Cr  W  
  15 105   1   3
Direct
  0.0054105409578940  0.3942018745799459  0.6011056793214131
  0.9911627477377445  0.8003936537641693  0.2038375536158208
  0.0090923479876153  0.7986109005144245  0.6024934456269335
  0.2009426404992133  0.2036374971819744  0.3933522259338568
  0.1967602096299573  0.2045187099346970  0.6055314258384162
  0.1981928106548891  0.3950092551988458  0.2003131116900088
  0.2026426015991956  0.7972494423995882  0.2013735507114667
  0.3987745970418088  0.9970756199935473  0.8048416951006553
  0.4021976116939558  0.5986094373259376  0.8012457943300344
  0.5957541893253756  0.9951552876755695  0.9953199212058119
  0.7922020415082298  0.1981555405968072  0.7950807406811787
  0.7995333441335681  0.4044012266355722  0.1933682987590526
  0.8018798180955580  0.5931941204240969  0.0030657658346504
  0.8068568853018200  0.7977926772715137  0.3917390862821027
  0.7986379091746580  0.7967903652436369  0.6043786947424481
  0.0001660055261989  0.0016474216246507  0.0003579026776408
  0.9984534123486477  0.0014380927442632  0.2015772714183076
  0.9981074467772671  0.0002059896972115  0.4007030815768655
  0.0006176723558694  0.0007510845698100  0.5993038310300258
  0.9998963532601882  0.9995833906262290  0.7987993269685038
  0.9976734369473429  0.1995473249211091  0.9999123059871684
  0.9989094699982244  0.1995732323304045  0.2002966862693110
  0.9976968720793181  0.1968118455901817  0.5981276888970645
  0.0024420321418187  0.1988317612253463  0.8009044408743335
  0.9974763390679117  0.3985123169985040  0.0004757996888898
  0.9997724588568357  0.3992644690178428  0.2010486015287672
  0.0001013554984222  0.3983080797323747  0.3978988926641842
  0.0000172901333693  0.3986866685016471  0.8018987953483542
  0.0022076114128302  0.6004488149289118  0.0018765203717299
  0.9994927623984037  0.5976739927673701  0.2015832191187669
  0.9999482158911803  0.5990615553254123  0.4006322402334657
  0.0007575632945147  0.5991121221726732  0.5987785454133451
  0.9991446196850816  0.5999229136144046  0.7993508996620137
  0.9994578666457112  0.7992098939389853  0.9996861756116704
  0.0032588625524881  0.7997626238212829  0.4014195104991438
  0.9996738290514120  0.8005092476144652  0.8026574567049722
  0.1977895624503078  0.9971782222473734  0.0008562500376849
  0.1975614554857936  0.0008810295162699  0.2003071866479074
  0.1991912719696695  0.9989739456190473  0.4001574122316247
  0.2002276879541837  0.9993175731299372  0.5987695634619016
  0.1992859374693955  0.0340907486453733  0.8345386958199278
  0.1991126671125606  0.1976702846218791  0.2002895243088590
  0.2014372859936240  0.1999687295333122  0.8003994225431637
  0.1983933170565378  0.4022235375961857  0.9997627563683438
  0.1992213711355787  0.4029497270448613  0.4051618848823221
  0.2037164062604922  0.4044600657906791  0.6025790967955138
  0.2001670372226624  0.4001989618007556  0.8027715133401904
  0.1990577228374728  0.5998241796656808  0.0008208444143654
  0.1989904736436611  0.6000914293321492  0.2018929115553973
  0.1986150562395168  0.6009687871702458  0.4006473602163685
  0.2005106740846727  0.6021606841956069  0.6009786673094437
  0.1973480544172254  0.6001794148455040  0.7998881303949337
  0.1992258528846827  0.7997480258339213  0.9978872333134265
  0.2006396198117068  0.8004673375270355  0.4037160369006690
  0.2051867027758641  0.8006638012495600  0.6022105768129966
  0.2004926452915594  0.7989494240479117  0.7998795253923427
  0.3942172066188031  0.0013235866611167  0.0043322449293593
  0.3981108570650986  0.0002352485037209  0.2012107149641363
  0.4024821051008581  0.0000708324625047  0.3999906366355417
  0.3993442025048283  0.0003048274218460  0.5982030980106590
  0.4019337656856493  0.2000527935038638  0.9995874137078742
  0.3985910153188730  0.2004859245380593  0.1965419140088078
  0.4019818115285116  0.2009448617169679  0.3998127525935481
  0.4008750514606125  0.2004213263639370  0.5996684200794661
  0.4013306128059428  0.2018144925744542  0.8010228724328817
  0.3977231987068407  0.3999172993799373  0.0011021148550100
  0.4020675146786267  0.3999754489353655  0.2006372877835940
  0.4002398037938813  0.4001274488009565  0.4001524452473046
  0.4012856693626345  0.4012367484339570  0.6003315799553612
  0.4007877289315099  0.3993836991024823  0.8010381708346310
  0.3994744023361101  0.5991874541499095  0.0036172946712238
  0.3995856223572347  0.5997986877202581  0.2013087554597021
  0.3996461212667530  0.6001410368344143  0.3994643532608169
  0.4011602752531607  0.6004459233413512  0.5968897451592483
  0.3996118016861658  0.7994835034892068  0.0003798984544392
  0.4012062621662453  0.7998316078481215  0.1993976046690594
  0.3996170957649258  0.7996430777083362  0.3991581345179457
  0.4011496740790388  0.7995074571615171  0.6013638341868526
  0.4011959584192420  0.7999174284055959  0.8009960192485205
  0.5989376631841046  0.9993897875913709  0.2043570945959801
  0.6009342817937816  0.9998797904915162  0.5942801541869374
  0.6049487030209483  0.0043235869952969  0.7938949356344734
  0.5992764355609224  0.2018098110113516  0.9944117880943386
  0.5990987036001519  0.1994282821943599  0.1977241921470296
  0.6003372051067914  0.1971349091740289  0.4003539596406531
  0.6009220028583663  0.2004962052062477  0.6029585305410337
  0.6045842942802182  0.4013907919946952  0.9996555457482588
  0.5974874104510163  0.4008358850008232  0.2000054342214773
  0.6010894094549475  0.3987160080137496  0.4003784860703814
  0.6009953621746308  0.4009700971095830  0.5998559877989500
  0.6006969296181158  0.3970899411800499  0.7995119998307882
  0.5970525872626830  0.6003007142244650  0.9995980647402752
  0.6000831306428002  0.6015540142316417  0.2017817347775694
  0.6017625163790472  0.6017825570661955  0.4001551838856732
  0.6011259500594867  0.6006352269946210  0.5990096292247294
  0.6034119567915768  0.6009082060723699  0.7988994488891388
  0.5996329973856421  0.7975475646305098  0.9983557005383512
  0.5988403130659729  0.8003842958872248  0.1980034218347924
  0.5989351319771157  0.8044132186125628  0.4000276279533544
  0.5993070386886915  0.8005803958002464  0.6001928161925332
  0.6004367699538613  0.8027944959816761  0.7996091490038928
  0.8017927732526302  0.9994709465386179  0.9994061893510305
  0.7987678610711584  0.0002503200938685  0.1984985877096000
  0.7965149717718427  0.0013856191950392  0.3990683196985026
  0.8023385332438071  0.9999689044566490  0.5979617416809655
  0.8016370054134289  0.9971796370168328  0.7987898672868121
  0.7994434409147753  0.2022715856130114  0.0012463085209811
  0.7978818878189602  0.1988636616170298  0.1984730751407388
  0.7994068435844192  0.2016861090246118  0.3973632639557589
  0.8008944408907287  0.2015369154294429  0.5964318360475397
  0.8004171851899861  0.4001627734811221  0.4007299010623088
  0.8003658921192325  0.3997980775141444  0.6004175255261547
  0.8009456891148270  0.4032166373977767  0.8015715800867393
  0.7989851133087075  0.6039300846469902  0.2032847166100537
  0.8015753836925165  0.5971261716445758  0.4003069925628512
  0.8020216753982882  0.5973790283184178  0.5993633766537620
  0.8008771445623788  0.6008757839334706  0.7976565831367716
  0.7991594445248533  0.8000489677072485  0.9988461074495757
  0.7950860319698922  0.7999995793240992  0.1938175628778641
  0.8000373627468489  0.7988158411501451  0.8027610473490457
  0.9961384654016433  0.1997448092497436  0.3992175845310387
  0.6002161266094268  0.0009285900230871  0.3992228822199438
  0.5968501293667464  0.2001792168463707  0.7972965112390233
  0.8005916079138448  0.3984514920877407  0.9958684705076927
