Ti V  Cr W 
 1.0000000000000000
    15.3720038313806135    0.0023998420144863    0.0001449001601191
     0.0024007571799185   15.3633006247875361   -0.0006442210894229
     0.0001450310074229   -0.0006449824026597   15.3697544548857330
 Ti  V   Cr  W  
  15 105   1   3
Direct
  0.0054128566224365  0.3917319472399923  0.6033357254174464
  0.9913296892290181  0.8004088415685972  0.2038396308737204
  0.0092458124649410  0.7975203996108422  0.6018703868251025
  0.2002940347146718  0.2044640932886406  0.3933274501659089
  0.1961104001691724  0.2045598407261358  0.6055876837588888
  0.1985062920961860  0.3955414496876371  0.2028198898462503
  0.2027640191761624  0.7981382518463735  0.2008584897883714
  0.4069332539862920  0.9960929682042229  0.8063954157399024
  0.4017643804557581  0.5986235699327174  0.8017673337572305
  0.5933728484910765  0.9957510367440097  0.9948388922625769
  0.7965424914462593  0.1975274849008526  0.7968393072625729
  0.7993011133279498  0.4045072029851958  0.1929656887531803
  0.8013764498142401  0.5934125901172135  0.0033551141660467
  0.8066098228005614  0.7976909264424162  0.3913915218031943
  0.7984481430175896  0.7964473374339635  0.6039762147264911
  0.9986930793534043  0.0022397685280118  0.9993539926292954
  0.9984387404006935  0.0010900637476114  0.2014646170540557
  0.9983105758151077  0.0001151429801096  0.4005196684809116
  0.9998964970234422  0.0014538543483444  0.5995664446685162
  0.9993858321110085  0.9986893905192744  0.7983556355169944
  0.9985120372510727  0.1996724590355753  0.0012624563338275
  0.9982515646256477  0.1994816426294699  0.2002977538530714
  0.9976928416283005  0.1964433304542268  0.5968112085307669
  0.1321996946801354  0.2001489862158802  0.9323524709764077
  0.9968262142344830  0.3982330927866254  0.9996886164843432
  0.9998718308764303  0.3994754446241247  0.2010340959593696
  0.0003667754766006  0.3981495169269824  0.3980086387695896
  0.0000904317454903  0.4001687030921190  0.8013304037155300
  0.0022423768800059  0.6001274393006086  0.0022709973040766
  0.9997238130282554  0.5975952575719016  0.2015709532190119
  0.0000052411653217  0.5988222466110799  0.4008473285016939
  0.0009620947312860  0.5988488135939684  0.5988540974690520
  0.9993280133899330  0.6003500454095503  0.7996732956435526
  0.9996008831165191  0.7989485404265073  0.0000773777866377
  0.0033919827576987  0.7997837165351902  0.4013562917260285
  0.9992845564541026  0.8004097288392303  0.8030023238557326
  0.1972738284696910  0.9985809648909661  0.0003067025113894
  0.1975927787333106  0.0004489215642194  0.2007891189661923
  0.1992810816407091  0.9991286653439807  0.4002976860503797
  0.2003719628392206  0.9995213343039510  0.5996662846834557
  0.1976880609949367  0.0012907135216063  0.8007499635595219
  0.1992516233086411  0.1972559220199650  0.1985337927809594
  0.2029322523728135  0.1990720540804551  0.8008441315703136
  0.1986976890045649  0.4009065512654095  0.9993831963018415
  0.1994774267517038  0.4035054313854437  0.4050845384258496
  0.2043506864932080  0.4045993778414443  0.6022888653200150
  0.1988418979388144  0.3995782937844193  0.8016862039038554
  0.1989511041893331  0.5994651281424713  0.0009960764844048
  0.1990805272114729  0.6003896153032726  0.2019938500290428
  0.1986241904372388  0.6013628937504842  0.4006483832815824
  0.2007468501400465  0.6024364716788260  0.6010907365691694
  0.1977128777403305  0.6003401732704911  0.8001327941300697
  0.1992390921863988  0.7999372031804625  0.9983011772511716
  0.2006407646057828  0.8006413863695845  0.4037998183645928
  0.2054467914190100  0.8008556648860213  0.6023394677428864
  0.2006105817236598  0.7999579644336271  0.8002602926003659
  0.3946142596204968  0.0006549517055788  0.0045193033076879
  0.3981347062778248  0.0001967881565077  0.2013438160812156
  0.4021809969140142  0.0000612764796601  0.4002563077365079
  0.3997135554701899  0.9998847493092591  0.5984421666326560
  0.4000325804723213  0.2005591181906471  0.0001370621653200
  0.3990618982995421  0.2002690644140102  0.1973942838555520
  0.4015122319692597  0.2009557465190488  0.3998199128958926
  0.4002703576362355  0.2000838444062785  0.6002069923958296
  0.4038384428331930  0.2017225987688978  0.8011282111871594
  0.3982241554088740  0.4008990123267167  0.0012640050967066
  0.4019071885052134  0.3998468125823390  0.2007658753683237
  0.4002650067161888  0.4001902026540360  0.4001628045001728
  0.4014685699917460  0.4014968778730499  0.6002661805228674
  0.4008209276964393  0.3991604051700111  0.8010371170703158
  0.3991711127504081  0.5992585559779318  0.0038968383174651
  0.3993998932103552  0.5998802294330118  0.2014153312624766
  0.3995868122366377  0.6002536415446921  0.3995230010046946
  0.4013264707890413  0.6005400564183648  0.5970118110464178
  0.3988580255924961  0.7992215789117254  0.0006281947834306
  0.4011099722720151  0.7999290830800552  0.1993383263597496
  0.3995509836528469  0.7996466133422540  0.3990190039107484
  0.4008553666498040  0.7994701185385749  0.6013683415804592
  0.4013484655834054  0.7997785337323438  0.8011988139733115
  0.5986141680579724  0.9993071749043417  0.2042167572982726
  0.6009847972445022  0.9999744397764414  0.5939133032440203
  0.6051511045157262  0.0043400865377242  0.7934603201319864
  0.5986717853126682  0.2019287394028313  0.9946606034546355
  0.5989885004989075  0.1993226027861638  0.1974550798290100
  0.6001560120199663  0.1972026155157262  0.4003451033317868
  0.6005664790950691  0.2004963563034946  0.6028012415476363
  0.6040105497098576  0.4012555862392173  0.9996239982079018
  0.5973479629054415  0.4008175996654258  0.1999362689358782
  0.6008567987271808  0.3986589050755049  0.4000796646635374
  0.6008623878783353  0.4009719613039243  0.5997449387844123
  0.6009420068161382  0.3976182603888199  0.7993387442285501
  0.5968322931976411  0.6002505156760266  0.9996949464347522
  0.6000080336175135  0.6014651383249957  0.2016717887679171
  0.6018900956794390  0.6017871533048993  0.4000309972371661
  0.6010052753638760  0.6007880103437504  0.5988903603661778
  0.6033659847587699  0.6008380275935895  0.7989447550363179
  0.5991386367338224  0.7973411831091941  0.9982898076153788
  0.5987891696797508  0.8004642337077050  0.1977807674271649
  0.5987563609800234  0.8044447803690237  0.3999024827039200
  0.5990210745350909  0.8004085447676683  0.6000977136367643
  0.6007468886129876  0.8025715180185130  0.7995644335007875
  0.8005764218899702  0.9988241869169439  0.9999075939771189
  0.7984766779163902  0.0001500398214342  0.1984025861504678
  0.7963320759031571  0.0012682233480630  0.3985360706143588
  0.8018004380105930  0.9989441705008894  0.5969102474652025
  0.8017788086117926  0.9977855658720253  0.7988272955888888
  0.7995203585031162  0.2020752650545035  0.0011358704650668
  0.7974808904309358  0.1988583185231854  0.1980484226325530
  0.7991225889385977  0.2016094180453905  0.3970564434662217
  0.8010061951322744  0.2015390528004315  0.5968826475410821
  0.8002795630501576  0.4002662810020312  0.4001346680223567
  0.7997133879218363  0.4004163284553280  0.5993923737812705
  0.8014372936938050  0.4031084436173692  0.8018368622009476
  0.7989303274874859  0.6040739311874507  0.2032975336865525
  0.8016138505791195  0.5971910114537878  0.4001958237353938
  0.8019743818449891  0.5976729723646463  0.5993659037269038
  0.8007450795808240  0.6010608847703697  0.7978726714097547
  0.7988806498427575  0.8000542064426299  0.9989975624348703
  0.7949597287293598  0.8000038420406272  0.1936614314258639
  0.7997872643227971  0.7990872082804559  0.8027594542391746
  0.9959567800594977  0.1996693492965272  0.3986581081548643
  0.5999596268458879  0.0009804141799161  0.3989613491029034
  0.6006491385356308  0.2008875749904694  0.7972831996923478
  0.8002256076100892  0.3983010599928676  0.9961893856383888
