Zr Ti V  Cr W 
 1.0000000000000000
    14.9321930472580142   -0.0038850274068224   -0.0366811240661873
    -0.0039628058785721   14.8973644029839249    0.0165466925735279
    -0.0367462244504078    0.0164089319596562   14.9639470151298237
 Zr  Ti  V   Cr  W  
   2  10  99  11   2
Selective dynamics
Cartesian
  2.8892456468425460 12.0421016422244058 12.1343768993964414   T   T   T
  8.8172101649310655  2.6245939494424544  9.1750828722791553   T   T   T
 -0.5549536401090008  2.8092058465700505  5.9822784356822600   T   T   T
  3.3507664796587791  2.4649403694003245 12.3579927730214116   T   T   T
  2.9362334827182877  6.1427968712318455  9.1468944558187335   T   T   T
  3.8798081132216078  8.8949947080455765  6.0132733288238898   T   T   T
  5.2319282830988874  3.4027745251664769  9.4747838159215316   T   T   T
  5.4505571663102179  5.5084831455810752 12.1218416241570317   T   T   T
  8.8014979429042075  6.0713417839161297  7.6288573714807013   T   T   T
  8.2423859341206533  9.0775796966088471  2.0515428636594928   T   T   T
  8.7449554483379810 12.0207059286792486 12.1181531151363799   T   T   T
 12.3317226074335107  6.0516573784511039  5.9009887411941282   T   T   T
  0.4183157959218229  0.1234579094336395  1.2323408393258313   T   T   T
 -0.7464537298016958  0.2252844917549897  3.4475715692305093   T   T   T
  0.3184322918731812 -0.8387033975067208  5.4897389782809576   T   T   T
  0.0822188342461346  0.6373678833080321  8.9053361755969664   T   T   T
  0.6249293859895662 -0.1147452114489068 12.5414670288266787   T   T   T
  1.1596657295418926  2.9301183145282215 -0.3759468227066777   T   T   T
  0.1385176316943637  4.2271676238735907  3.1580634109276797   T   T   T
 -0.1336325314343288  3.0891465483758265 11.9254806239284026   T   T   T
 -0.5038581754741870  6.8390289804513520 -1.3028432978241751   T   T   T
  0.6406043973964378  6.1372746867300192  0.8692339027560412   T   T   T
  0.4691878495963243  6.4388019619919161  6.1360174525144959   T   T   T
 -0.6173629695607981  5.3463780483898526  8.6121776764712621   T   T   T
 -0.6577981083250459  9.3409221133818825 -0.2397135819584290   T   T   T
  0.7554459262094326  9.0194835343066124  3.2773054649740616   T   T   T
 -0.4103707031697794  8.8514811955812345  5.9187258239149800   T   T   T
  0.6029844626816484  9.1105561413458993  8.3626011300964862   T   T   T
  0.1953504233497452 12.0555390077774440 -0.0800885332537312   T   T   T
  0.5710008952712254 12.4858555798559756  3.0173633655066276   T   T   T
 -0.0680952894226155 11.4048753641111080  5.4790197274265848   T   T   T
  0.6557855854861693 13.7695189333163555  9.8479338145610296   T   T   T
 -0.5823301330266596 11.0799739249879377 11.3918139409691275   T   T   T
  3.6459944762843550 -0.3945279755359699 -0.0873249522261121   T   T   T
  3.1968052734973722  0.1638968073583106  3.3564939431107175   T   T   T
  2.4461366148168611  0.1361432119547632  6.7698824846166783   T   T   T
  3.2624504213247336 -0.5145098053312338  9.4540573808811157   T   T   T
  3.1779440546724245  3.0862591058156985  0.7971963619918039   T   T   T
  1.9390963549796649  2.4915369431324512  3.8009125587870622   T   T   T
  3.1044517698062548  2.5326236191751783  6.0875608502632161   T   T   T
  2.1449724286221632  2.4507107672213477  8.5323669176830954   T   T   T
  3.4616350988460662  6.0244591880583531 -0.5905282663475633   T   T   T
  3.2306191023274553  6.1187662372060059  3.1718414228350715   T   T   T
  3.0658448143281549  5.2347403378230535  5.3987993362610789   T   T   T
  2.1508036394496428  5.8737313550843133 12.3198311739481952   T   T   T
  2.9173717077906161  9.5612139326582710 -0.0603583938940178   T   T   T
  3.3809758753687906  7.6563753202572160  1.4567632999104543   T   T   T
  3.3501225273623896  9.3091362572566574  9.6243106178956150   T   T   T
  3.3115006433975451  8.3106700121842874 12.2418471725366409   T   T   T
  2.5786957001381032 12.4090398651830824  1.0026947640227686   T   T   T
  3.7189723744748067 11.3211882927049938  3.0385304206989665   T   T   T
  2.3449739576537483 12.1618750307701369  5.2127169424158568   T   T   T
  2.8961992885404317 11.5960731200036733  8.4598921223905474   T   T   T
  6.3042348754894775  0.2765533945464465  0.9348055528532949   T   T   T
  5.4416445686362982 -1.1393848652528278  2.7822466636917169   T   T   T
  4.9848599903340309 -1.0453536513075374  6.0964725629464978   T   T   T
  5.8254263285204306  0.4547917896189817  9.2021718194411921   T   T   T
  5.9012939438219103 -0.4832165826115497 12.3298612691124205   T   T   T
  5.9413560594005048  2.7542753463919101 -0.2380686120178551   T   T   T
  5.5465831098326603  3.0167448600851925  3.0079296442064636   T   T   T
  6.0461088899464785  1.7818251363972837  5.3701289378703141   T   T   T
  7.1951433084102012  2.2373610464277158 12.5914658634802112   T   T   T
  6.2226130229289343  6.9150028275488662  2.8035930902876456   T   T   T
  5.6448851927325174  5.4372113792951939  6.2474860956490526   T   T   T
  6.4232956752239527  5.8725759899166361  9.0307855993356867   T   T   T
  5.1885403769499563  9.2928275034081604  2.6125144902712898   T   T   T
  7.1883325158719620  9.0444560168453147  5.3756887550089854   T   T   T
  6.4142126995212019  8.3401178546641859  8.6466100134027766   T   T   T
  6.5091232426282133 11.3107500665583363  3.5412463783017980   T   T   T
  6.1381892921196783 11.5762808125735042  6.1875184252876059   T   T   T
  6.0514288345116229 12.0552127445884061  9.9177989146279995   T   T   T
  8.6063102245813123 -0.1190966505497033  0.2836963311334570   T   T   T
  8.8461074406779030  0.2605063107613479  3.4221408470760748   T   T   T
  8.0644247905677098 -0.1875309023795825  6.9123980357138173   T   T   T
  8.0834963547545691 -0.2285146569121742 10.4361771272282837   T   T   T
  9.4425946006227708  0.2463306958734313 12.4639934746798620   T   T   T
  9.5070592404059440  2.9489164671060513  0.9561159407189259   T   T   T
  8.9867959372760264  2.8073871624514859  3.3246103622692944   T   T   T
  8.4243996305245918  2.8799803350376889  5.9857186163049496   T   T   T
  9.7290333456651776  3.0954356814876505 13.4850214891478526   T   T   T
  7.8440404778981847  6.2093313908651657 -0.2897209092414115   T   T   T
  8.3760171853235974  5.3656719812522837  2.0059158225769558   T   T   T
  9.6475564375174674  6.3027943314230841  4.2548453895966203   T   T   T
  9.4600158171835158  5.4425209673806361 11.4480329504526406   T   T   T
  9.1337173377038940  9.8325178614021080 -0.4528497057513525   T   T   T
 10.2542222003434826  8.8951821081085427  6.8366084789449850   T   T   T
  8.3428098960081680  9.1792260705724527 10.4037159407092830   T   T   T
  9.6230220149622845 12.5758152680752406  0.2048804368615832   T   T   T
  8.0864084768784803 12.8883846636941506  2.2832975748699988   T   T   T
  9.2565437626521394 11.4629977471846320  5.1230472203374520   T   T   T
  9.8676535991375314 11.2967549170741322  8.8510883295178431   T   T   T
 11.9439798271799145  0.0288893254498048 -0.0667362147044679   T   T   T
 11.7656086273072287  1.3687338563083111  1.9574989831123859   T   T   T
 12.0976847934328919  0.0912814326340859  5.8590775276822775   T   T   T
 11.4369665216593841  0.0505522298868080  8.7062832253906244   T   T   T
 13.0957710939317398  3.9462504038089170 -0.1519301690692159   T   T   T
 11.9454500443924267  3.2859087405323706  3.5663450145483186   T   T   T
 11.0704765743399083  2.2798335892807571  6.4092190011255026   T   T   T
 12.1578917209820609  3.4153855914489086  8.6696985558943886   T   T   T
 11.4428702396666182  2.4251887534204712 11.7281582887368767   T   T   T
 10.9672392485126533  6.4631118286605540 -0.4236755393641884   T   T   T
 12.7397043737270597  6.1430710768775709  2.4338716723982832   T   T   T
 11.9612140300170129  5.9582392946790170  9.3958028731441701   T   T   T
 12.5570900677245820  6.1459239535575971 11.8852322907208325   T   T   T
 11.7198948799074216  9.5936753213508155  1.0583834917597839   T   T   T
 11.9716379778139803  9.2760531185572113  4.1631310419555545   T   T   T
 12.8607624933882363 12.3397893371136078  0.9540062843826482   T   T   T
 11.7481285481647397 12.8403420107530426  2.9723005117596046   T   T   T
 11.1554418399260893 12.3712554497599800  6.7647576141576744   T   T   T
 12.6310936395060125 10.8991084239267551  9.0408482371360286   T   T   T
 12.5141266722301321 12.5602648713959635 11.8656031838246214   T   T   T
 -0.3677267413618157  2.9682659690407047  9.0359749099086883   T   T   T
 -0.1008700018547349  6.2190101161642906 11.0107315030147284   T   T   T
  0.6418505486115893  8.7933151972092958 12.3468978415421358   T   T   T
  5.5739572125011145  9.4504929507508262 12.4919185698600472   T   T   T
  5.5135523603209080 11.6717590309606543 -0.3807266668929656   T   T   T
  5.8563463154236128 11.9362151266557373 12.4065857471361056   T   T   T
  7.6468744481260762  8.4161006675892462 13.2205237198799797   T   T   T
 12.6006968968474471  0.5590721607174921 12.4850375661495665   T   T   T
 12.4580088535599298  8.7481354848671238 -2.0824037409551819   T   T   T
 11.0582400845408380  9.5253337096385522 10.2459897824423258   T   T   T
 10.2355673566612673  8.9527809903081224 12.2784703777285831   T   T   T
  5.5608963136905682  5.2539512866065277  0.8487291863542300   T   T   T
  5.6294868602911370  8.0862739316709984 -0.0442193392469392   T   T   T
