Zr Ti V  Cr W 
 1.0000000000000000
    15.4244097105604929   -0.0012107223225386   -0.0042394490092486
    -0.0012099076426666   15.4412294863263000   -0.0024734284807045
    -0.0042424892746054   -0.0024736538270091   15.4407019588637713
 Zr  Ti  V   Cr  W  
   1   3 110   3   7
Direct
  0.4019975039904290  0.4047581787792696  0.1978645723406497
  0.0020556348140974  0.4021967653165907  0.9988297074762875
  0.1984917547217178  0.9977196633041704  0.4002567637988910
  0.7990368387426990  0.6002285260676440  0.2126064735390018
  0.9996906128367069  0.9997405587395671  0.2003039604299352
  0.9974948654647927  0.9996265374805554  0.4000432530901430
  0.9995294065371195  0.0011116574568706  0.6011411893670812
  0.9999697928070582  0.0000427281620643  0.8004178396147891
  0.0002953109310517  0.2003417449433465  0.4008323346592109
  0.0004723724176987  0.1992520564649795  0.6008831003314825
  0.9982159533053957  0.2000106768834280  0.8033208042734868
  0.9989018665038341  0.3973793303106524  0.1999771561859090
  0.9995635980197412  0.3996142998540473  0.3997365967182137
  0.9996647347504374  0.3982235217166475  0.6004288470061169
  0.0004442729012710  0.3996287679581347  0.7973348313147736
  0.9952977746429109  0.6018459759770284  0.0012369581738063
  0.0015809590095728  0.5998973846406632  0.1994906142771769
  0.9983198835492114  0.5989769425743567  0.3996569231152387
  0.9997451407833738  0.6003492025988298  0.6009985332802141
  0.0004351935132118  0.6002058347543090  0.7987405558716999
  0.0006542772836045  0.7998998291506219  0.0010747582426753
  0.0008286127873467  0.8015688265433913  0.1991047675135855
  0.0034437197730637  0.8010014646681736  0.3996241451364301
  0.9996469914423387  0.8014148378280498  0.6007836079002200
  0.0011957442112032  0.8008650055871819  0.7998687535173779
  0.2002918710872269  0.9970887900260876  0.0007511551344338
  0.2004797317655694  0.9987718837292336  0.1993072171576142
  0.1997480372153624  0.9994251420975986  0.6016291810865261
  0.2005668042950662  0.9996211158497114  0.7997071195107990
  0.1967316540163197  0.1997439512261240  0.0001721378058272
  0.2011278968057647  0.1996785111506653  0.2015216444706897
  0.1996003831302210  0.2035917309913307  0.4003477366625905
  0.1999808589684113  0.2002231534778310  0.5999402016782865
  0.2024808562502706  0.2004092224307228  0.7991083464935385
  0.2011244211096418  0.4006929911694113  0.9996209973740372
  0.1958027630660739  0.3991271346847186  0.2013559698377789
  0.1980153390185433  0.4051443332329243  0.4010967932945020
  0.1997671517836093  0.4007490635770366  0.5999027425243256
  0.2009255167611253  0.4001426266959152  0.7981921988115559
  0.1975592830494304  0.5999543083123949  0.0014060653538403
  0.2014275470522637  0.5988046579656389  0.2035718733012734
  0.1993293629782044  0.5991264154705292  0.5971796955367892
  0.1996851832391390  0.6000295999329054  0.8002948668117754
  0.1990969834462311  0.7978454209725369  0.0010541781608929
  0.1999653233310282  0.8003686867338778  0.2052345118854453
  0.1999979430150216  0.8004756952682597  0.5963586603724114
  0.2001502143301855  0.7987562328691310  0.7988717596278520
  0.3987443893087281  0.9983026455804206  0.0003098522456923
  0.4011609816881733  0.9991548029084369  0.1998753459274714
  0.4015281576247433  0.9986531860463630  0.3998582990272050
  0.3996855763774166  0.9999325600952456  0.5997725137348549
  0.3994998814073104  0.9987931258790034  0.8004553071830307
  0.3984105321327582  0.1996067970149086  0.0004777354833247
  0.3999894663944406  0.1970768464539331  0.1996734143765097
  0.3995698486124728  0.2004516293898329  0.3998971983538377
  0.3988795939343186  0.1995709497325787  0.5992468067965651
  0.4040840134631803  0.2000832258684447  0.8003424789498640
  0.3993429622351371  0.4000381304071591  0.9937687733909490
  0.3999951254553838  0.4007113024996291  0.4042211160168981
  0.4002012948052631  0.3998968598596550  0.6008089985419204
  0.4000080577738417  0.4010954917436311  0.7988769663378994
  0.4000002683146391  0.5995556117021618  0.0034910729900300
  0.3956775521300795  0.5991651306687521  0.3961023524047171
  0.4000614104325275  0.6001248507325178  0.5998804018604943
  0.3997964347375056  0.5998400752115843  0.8012014148330300
  0.3995195305134805  0.7992548220987019  0.0001150497216282
  0.4007616252188042  0.7999947951970214  0.1996580911058381
  0.3961277047886037  0.8000444602493090  0.3999830105132554
  0.4000442852329370  0.8000869790896820  0.6001281665404119
  0.3993464462223497  0.7992324923794532  0.7999433904651195
  0.6015773018802111  0.9992020739596847  0.0011479029130028
  0.6003182203432039  0.0001143996243673  0.1999341718402122
  0.6000439800872220  0.9994798891698198  0.3999606589862232
  0.6002403418832232  0.9993433702602368  0.5995969271480209
  0.6000930104560022  0.0024928866670712  0.8005378660745447
  0.5981692192526100  0.2004008320715606  0.9965239137337012
  0.6012202134940279  0.1987480440741384  0.1978615184509305
  0.5997863960872110  0.2006761311092068  0.4014804348424514
  0.5993807849616829  0.2000514541045659  0.6043551114655742
  0.6017184037231493  0.3995135488601038  0.9998314225966871
  0.6054773202262856  0.3971602400214028  0.1988054926258885
  0.5999635080356385  0.3999997103540382  0.3999506682070669
  0.6001233128885759  0.4003558114442573  0.5995620530389175
  0.6023505229120744  0.6001728522296084  0.0003988527685199
  0.5947873624461839  0.5999946257752009  0.2004757986583096
  0.6026789999303568  0.6007938770371374  0.3999262884018865
  0.5979588827559078  0.6001477345557148  0.5999656755588147
  0.5982483062604328  0.6008639569410975  0.7987698961158511
  0.5993573834981121  0.7994241841210117  0.0000585578891340
  0.5983598589641529  0.7996185776017616  0.4001829992136037
  0.5988530245137724  0.8004714527309912  0.5996954144270290
  0.5993635834856043  0.8017067926995111  0.7996745146569846
  0.8000863956668158  0.9933179540479324  0.0014268856748636
  0.7997578507819185  0.9998084619928990  0.1997483841829036
  0.7998530847903582  0.9977042601542283  0.4001645696051130
  0.7997827083848974  0.9990821074761138  0.5987014122020682
  0.8009450041302540  0.9996812970734188  0.8014669867451518
  0.9988666890663066  0.0002639045047046  0.0003336154981295
  0.7998719433407475  0.1990899522863956  0.2043066982118986
  0.8000543285952288  0.2012012695322061  0.4005592174787505
  0.8005330767177768  0.2005642598188487  0.5993438840155608
  0.7962185384564566  0.2017186611412869  0.7973445102977210
  0.7990464499252424  0.4085531515613186  0.9995667355170634
  0.8008256288204817  0.3957569942796314  0.1975916526122602
  0.8006061511052925  0.4055429374604469  0.3999202202167374
  0.7997281760449402  0.4009191828388384  0.5995046727081864
  0.8008289277633609  0.3999861705109298  0.7992111671063535
  0.7995947987348514  0.6000572550841609  0.5991045083914630
  0.7991009852461498  0.6006347517996239  0.7989196971323514
  0.8000236427272885  0.7952229903360528  0.0008262549927082
  0.7998929229083745  0.8008746939524185  0.2010826845911176
  0.8007798554356111  0.7958514147680664  0.3997743529331618
  0.8001013136151733  0.8000802492321613  0.5996266149652052
  0.7998246318495040  0.8000752309157501  0.7979460291126619
  0.0002859304357749  0.1982391077026948  0.2006981285644187
  0.6002659587882914  0.4005605321381105  0.7997188033791517
  0.5995780321317686  0.8008243191654818  0.2001259340077126
  0.0052836385960282  0.1951027670513782  0.9981204703370954
  0.1968020969744968  0.6022706904205132  0.4010577468988988
  0.1990310612123217  0.7908577025824588  0.4006743709316717
  0.3984677994849878  0.6056322025595708  0.1998824913778277
  0.6008780445610632  0.1982035373842979  0.8015053318487944
  0.7970580102270466  0.6012940247951477  0.9938507462162143
  0.8003747121029968  0.6011272794798290  0.4051308134072225
