Zr Ti V  Cr W 
 1.0000000000000000
    15.5633147981762434   -0.0105082892338306    0.0011052113616143
    -0.0105224976463168   15.5390273600018674    0.0056805954645976
     0.0011054290159095    0.0056800010957864   15.5617863503600393
 Zr  Ti  V   Cr  W  
  10   1 106   6   1
Direct
  0.0089237596969317  0.1874901458095322  0.7959011803255063
  0.9983193116595370  0.5984791133998332  0.7992431062409824
  0.1925952435383674  0.0052564034807528  0.8021552961804869
  0.1968831019325374  0.8008050561435073  0.3977969160635945
  0.3972154258045415  0.9986992847450876  0.9974345525894867
  0.3976873592627934  0.7737976969626781  0.0017090867477147
  0.5985440812350982  0.2020500171429333  0.2031219962885960
  0.6103334229104982  0.4098075534841021  0.3989210489309541
  0.6021657776037538  0.8011660944964891  0.6030622673120045
  0.7937029344042822  0.5917502581747897  0.4003967281446483
  0.9992601828029897  0.9945544255278591  0.2022047864790060
  0.9962426672855107  0.9990884527058890  0.0007745576863775
  0.9986136246343598  0.9993141229211597  0.4012887701886331
  0.9990413801203397  0.9979770889379235  0.5979846170362403
  0.9877295271348867  0.9876365326671130  0.7991955974983865
  0.0011725057651523  0.1996545672603358  0.0035170334337840
  0.0018298261542387  0.2016024170775375  0.2008875186953192
  0.0028196882428548  0.1980399711305891  0.3989926495946291
  0.0027322992462817  0.1987409214371630  0.5939543360560705
  0.0014705672436242  0.3987213965163112  0.9999813238408912
  0.0011385580182302  0.4004484985380345  0.2002665182130688
  0.0040575852416387  0.3986649658278367  0.3989913554289238
  0.0022111824021465  0.3989749962961078  0.5994248551607767
  0.0002468775643752  0.3952615435398764  0.7995904691254075
  0.9996869908655170  0.5994696504582601  0.0037199085715112
  0.0007078542482488  0.5995166182507975  0.2005917606828908
  0.0018673847324560  0.5990101384596284  0.3991406207573011
  0.0009470498173216  0.5991185170293345  0.5950041801536535
  0.9993723332730745  0.7979453218929656  0.9999250366189266
  0.9978108877200821  0.7971542919618759  0.1991900580686292
  0.9947127333453115  0.7982449286538117  0.4001377819493968
  0.0004742670408591  0.7986515532220474  0.5999349565657686
  0.9995544314167922  0.7994577615022500  0.8002603927997064
  0.1914540206687174  0.0029188942936853  0.0063343491039399
  0.2013751323687238  0.0021317714005922  0.1992118381957719
  0.1990001373583139  0.0045644053021929  0.3981938835873911
  0.1987757431191043  0.0005312896961693  0.5963488947929222
  0.2009606299806175  0.2019662702473974  0.2007374612394090
  0.2006466117734309  0.2011118324340423  0.3986335578738830
  0.2072117579309420  0.2021223119978008  0.5975166080019625
  0.2097509875474308  0.2086926332895387  0.8009945963299199
  0.1997530117546366  0.4009357684556745  0.9999072808610527
  0.2010648548623842  0.4018677404943232  0.1982272689557094
  0.2005317151435791  0.3998751457863532  0.3988486629389268
  0.1997487945074994  0.4003862127665374  0.5999705946150347
  0.2019929732038735  0.4023381113585130  0.8015435685280341
  0.2005621438406488  0.5993398215791662  0.0005179260630982
  0.2007544234246898  0.5997278806401866  0.1992696537847124
  0.2007298435169837  0.5970711797033869  0.3994337525034538
  0.2021042125153167  0.5989939005418679  0.6001745420422715
  0.1938350808647422  0.8012672915212137  0.9989971536223862
  0.2001866863453864  0.8000788560377134  0.1951060489909456
  0.1983208636849590  0.8011450392008057  0.6035755885712271
  0.2009604365302211  0.7982086016220964  0.8011269741294851
  0.3997536354988158  0.0011562801127287  0.2049224351297282
  0.4002871064578742  0.0009926454732241  0.4010932020863264
  0.3982314753741311  0.0049534554031170  0.5972990594690067
  0.4020440662282976  0.0008617146445273  0.7928127201320765
  0.3998946380007513  0.2047394721339617  0.9992820302577745
  0.3959375207820880  0.2017385210780882  0.2012038822539492
  0.4004060885413093  0.2017831607799511  0.4045739445329591
  0.4026750575756360  0.2013573499915735  0.7954801592166613
  0.4000054430776124  0.4007277448450921  0.9983767147618846
  0.4006879670867402  0.4015796627013744  0.2004859589778707
  0.4002545107865969  0.4010243688722994  0.3994838807374733
  0.4008365670653171  0.3971735896348640  0.5999886444497274
  0.4019058203964490  0.4013734716956562  0.7991539006065153
  0.3994550923118697  0.6009487291433701  0.2007622260540341
  0.3976293579518163  0.6003845333709419  0.4009449005145652
  0.3986991755899472  0.5986935778437863  0.5994578482239681
  0.4013198823279544  0.5994533078816081  0.7986306043305210
  0.3998995626995057  0.8012299053988721  0.2057740933141351
  0.4013303160679312  0.8017346649978302  0.4020107526719993
  0.3990731759608242  0.8009775239909873  0.7960858288804141
  0.6051611999982326  0.9997199594343081  0.0003154333187818
  0.5996871585388101  0.9970261794782530  0.1992759842133298
  0.6004865216158491  0.0006930666163943  0.3996388397854878
  0.6002689230816239  0.0041311102018642  0.5999003492828366
  0.5997594606418867  0.9989027587540606  0.8003851972008257
  0.5995298925786912  0.1995170319237928  0.9965905515076414
  0.6017785083098183  0.1991753234545383  0.4054117975801199
  0.5967927677054115  0.2017831183406063  0.6012044133597492
  0.6008112118274732  0.2000771290609919  0.8003680506629050
  0.6017818351252389  0.3993159483262111  0.9984905876313123
  0.6021690406441255  0.4004218546108797  0.6037769181040146
  0.6005662547120384  0.4011984578466170  0.8013800460473498
  0.6007155314638111  0.6003280429609457  0.9992959708368738
  0.5985442720973794  0.6025340537183745  0.1980351798665172
  0.5902760915859983  0.6112120437890181  0.3995677072522658
  0.5970712156248926  0.5972424489425054  0.6018764912995179
  0.5987538852752636  0.6003891786222521  0.8009564354783633
  0.6044070889881208  0.8004357606920381  0.0011801006054557
  0.6004692689255223  0.8005782225126933  0.1986447948574550
  0.5997617492524822  0.8041408727865248  0.3970651734933441
  0.5986570951270347  0.7999165838237664  0.8064674731119227
  0.8009378417120896  0.0022296207877295  0.0000899382460254
  0.7987103279370458  0.9996506349041886  0.1997915156920781
  0.7996489696181546  0.0002839284891134  0.4002656380503865
  0.7997882388138614  0.0011093277106231  0.5998263664084033
  0.7955818161229509  0.9994403730150060  0.8003875598440781
  0.8015201834922033  0.2003062388194313  0.9998314283332104
  0.8018857155609100  0.1966282632175503  0.4002415862345367
  0.8011499307146057  0.1994604365031543  0.6001463111924443
  0.7987490913398818  0.1988938869290925  0.7984550633726458
  0.8017244951937120  0.3981422419090256  0.9990454444513006
  0.8029811350140472  0.3994832894939037  0.1973433878263404
  0.8121330897106974  0.3891282996497296  0.4001748817989051
  0.8024483237101726  0.3967437072237524  0.6017146177568340
  0.8001379427240538  0.3971140401535582  0.7999526115046947
  0.7993731889672916  0.5963452967639585  0.9992471690276590
  0.7992171395254761  0.6013205585392593  0.1949297018042571
  0.7999685713262790  0.5975892683024286  0.6039302811130379
  0.7950074650190369  0.5985268109806684  0.8011486345507656
  0.7996566475779417  0.7996011840845624  0.2024263197410999
  0.7996194243712150  0.8009829096442733  0.3995613750466344
  0.8043693300019730  0.7987774259844270  0.5983555032783737
  0.7996142096190146  0.7988823846207891  0.8647635936379493
  0.2008921180585352  0.2030584896492773  0.0020172028321708
  0.2044125708814805  0.6003307122954232  0.7998190865682228
  0.4011126704725175  0.5907102696766484  0.0005688232309118
  0.3954577131153368  0.8004268634750041  0.5993777369040472
  0.6008675285393769  0.4057433177858597  0.1936518462295710
  0.8040216746844264  0.1996807002705822  0.2001410554840669
  0.4011765683091509  0.2014953084311223  0.5992227436243263
