Zr Ti V  Cr W 
 1.0000000000000000
    15.4863295998759050    0.0024137293282322    0.0105674120120943
     0.0024156779473548   15.5040449564505511   -0.0174543962439357
     0.0105707746262879   -0.0174578174046017   15.4782021514271442
 Zr  Ti  V   Cr  W  
  10   1 106   6   1
Direct
  0.0007355362223116  0.9710313312534777  0.7584619551743035
  0.0077118412436273  0.2117237019258630  0.6056231511557804
  0.9992663126556379  0.4360215726033931  0.0366280395395984
  0.0018875022689635  0.5755440404372765  0.2221345243918747
  0.9619915646893267  0.7892516113746328  0.1957880824401647
  0.0027172071832282  0.7989677031455639  0.5999493309418000
  0.1918537780662526  0.6259486449894461  0.5943322325717393
  0.3590090675907211  0.8011926128682325  0.1859070339634439
  0.8326093353290615  0.4305887894760586  0.3982417426601005
  0.7507269613305045  0.7924165673040910  0.1990981947027738
  0.1894109582920893  0.3878412778157984  0.6017053776710370
  0.0016547847438634  0.0065048945692737  0.9987600400791974
  0.0035372285686892  0.9989621580848866  0.3953748544871383
  0.0004187129475899  0.0068904787055516  0.5723637277246144
  0.0005407251601661  0.1993172302698591  0.2020748419589355
  0.0005219709992753  0.2011081566866311  0.3982304845152108
  0.9999057486072916  0.2048642984830127  0.8099728271353862
  0.9988667119321144  0.3862934512761827  0.2272780450479052
  0.0201065690304081  0.3997575297513420  0.4101930130334552
  0.9924829298514177  0.4097754720112314  0.6003210002343683
  0.0009954209223397  0.3972071429065430  0.8003394589363726
  0.0061845290659328  0.6257378015727656  0.0151001739553940
  0.0072486376802003  0.6034756464241327  0.4195186862014086
  0.9906897268724177  0.5976847934494782  0.6118680645113866
  0.9989024068714077  0.5914947266303717  0.8119746674280082
  0.0000050147283481  0.8120792669964784  0.9928909157351282
  0.0023943218890039  0.7991941789617862  0.3975404835672027
  0.0021497563731255  0.7832133014199426  0.8060133520703499
  0.1997648031928919  0.9984561454847423  0.1982907710938243
  0.2019113866634886  0.9990396819534877  0.3966205907005482
  0.2015676993109273  0.0041454372132266  0.5974937005816371
  0.2033880302432582  0.9983963448241174  0.8022845064545664
  0.2014264165521280  0.2014407390775824  0.0011156118700973
  0.2006330183430260  0.1993773533070529  0.1997565527815452
  0.2040840754939025  0.1981337727915508  0.3991942659711272
  0.2027650743538157  0.1981762489396931  0.8013601021418397
  0.2030873707426543  0.3998733933052364  0.9995668590537076
  0.1969065352398728  0.3985092040599814  0.1987483985143674
  0.2060526711894895  0.4015305524368190  0.3981148647909457
  0.2002706873275877  0.3983257783502547  0.8025309030447088
  0.2021523362594907  0.5986486981943229  0.0014104613660484
  0.2056236651249601  0.6013566276507308  0.1986539399459619
  0.2030022152741077  0.5993348566679652  0.3915967148257772
  0.2013554359552104  0.5989575646840799  0.8057256718268735
  0.2000951209859009  0.9709432305363086  0.9981747260613987
  0.1716682261252644  0.7965815492326308  0.2001184781797983
  0.1994863097431405  0.7994435578912577  0.3992959949799962
  0.2090337345650272  0.8144065230757699  0.5978151514478460
  0.2005499513755122  0.7986920942756626  0.7949847474071642
  0.4007314530959555  0.9989212965914307  0.9990465269406672
  0.4019906976637450  0.0030556564423228  0.1986626805476386
  0.4002562407838399  0.9984553946167428  0.3990839295488695
  0.4039885142355507  0.9995758596589104  0.5987770937764798
  0.4001770620521262  0.9987586813340275  0.7973798400262330
  0.4012961530813040  0.1997779826633948  0.9987720065748331
  0.4003868307156925  0.1997873024911875  0.2000407023222404
  0.4018123340626318  0.1991589658535068  0.3995994189164142
  0.4046359440245894  0.1983821616555732  0.5997081821569861
  0.4006549900651561  0.3989731641198594  0.9999050879707768
  0.3987218701421659  0.3969882644848300  0.1992437836390289
  0.4007077466663096  0.3987170582848497  0.4011414421284126
  0.4006616701321099  0.3973950565201878  0.6009152388696362
  0.4006673105935854  0.3992705642743307  0.7990045469157357
  0.4022643207563441  0.6002468294117593  0.0001026445213493
  0.4043369215884915  0.5928480205461337  0.2007015407050547
  0.4018156728531940  0.5996012418489526  0.3997441288678717
  0.4011889806411132  0.5963714289405421  0.5987719191453988
  0.4008571231502037  0.5977621288784769  0.7999830400910992
  0.3995288254227704  0.7997944446007923  0.9894868489666504
  0.4005382546294725  0.7982782595942136  0.4010721149821675
  0.4017461340617154  0.7995820599636213  0.5994091005294218
  0.3998511634326407  0.7973038448049767  0.7966258850172453
  0.6002533274824823  0.9985469375759485  0.9992884319607593
  0.6003639963959909  0.9963551670009786  0.1996462780765064
  0.6011578719437438  0.9976148403853801  0.3984543731576012
  0.6012346556038120  0.9991906033615051  0.5974334675628927
  0.6007914707828873  0.9973911131769849  0.7982863483263484
  0.5993152539657702  0.1978987773595508  0.0001622772424976
  0.6012526525414673  0.2002715070805914  0.1990875147973274
  0.6020265653223330  0.1988562605111339  0.5993370813597089
  0.6010691626451746  0.1994151834924814  0.7998983527815510
  0.6002265031733809  0.3987210333420978  0.9990654710112065
  0.6011184293194587  0.4002002981369730  0.1999649999710694
  0.6007473433111282  0.3981384727390787  0.3983963364847800
  0.6009431200267416  0.3990080328772482  0.5982727129649338
  0.6002049349105072  0.3996109817209398  0.7993647445532285
  0.6030551211401978  0.5996921172471856  0.0044782357944524
  0.6052162174294793  0.5987269158893823  0.3961591823035597
  0.6000389772897683  0.5992722394292173  0.5968117981707964
  0.6017091070864060  0.5990823323663648  0.8014126259259744
  0.6002447123237633  0.7998234210602084  0.9986050017856691
  0.5654415806494349  0.7902900519026699  0.2026439589634016
  0.5995568949975688  0.7992857766686614  0.3998299570617074
  0.6007998061373719  0.7988331236112055  0.5992111082636919
  0.6003864207700592  0.7974819066600810  0.7985665292439549
  0.8010765267613345  0.0012636630196647  0.9975677633088248
  0.8006396600149195  0.9980156469178498  0.1987658681382463
  0.8007399972180982  0.0003784635604586  0.3983081254160026
  0.8018965772503884  0.0010766752728058  0.5989469570048880
  0.7982550505739440  0.0002333265897362  0.7990491732481610
  0.7991702437539651  0.2003101243895186  0.9996465937706888
  0.7987658456919771  0.1992540431563611  0.1988759378984259
  0.8007193731222894  0.1969773760442098  0.3991150698240565
  0.7990298733574229  0.2018103252288879  0.5996893802954355
  0.8012917462786799  0.1991198265934497  0.8005509777305554
  0.8026727686087769  0.3976964135799872  0.1946851460412910
  0.7972444508330241  0.3998894345342192  0.6009322870540915
  0.7994995980288002  0.3997596384814400  0.8002985986025547
  0.8048293292415855  0.5998027086323638  0.9995756369668654
  0.7942029748119797  0.5946420044522048  0.2089775510234327
  0.8039247235228966  0.6179517657912379  0.4041685167601508
  0.7967211511374435  0.6009665496027207  0.6002266916501628
  0.8004036147840502  0.5990335246618866  0.8018611285918038
  0.8027361919749784  0.8019537851770897  0.9976755548693893
  0.8064811200970172  0.8059314659677219  0.4027392939943693
  0.7958246360498776  0.8009401216899720  0.6013185517213018
  0.8009011956420926  0.7987025298565474  0.7990381860531948
  0.9992508729431008  0.0025272974577661  0.1977068861262676
  0.0004199571887552  0.2018378565711315  0.0039165712002291
  0.2095132398485584  0.1953431669883256  0.6004389895644241
  0.4024169812533401  0.1990006522590171  0.8000956227078658
  0.6005953952462855  0.1984009829457536  0.3985749930859471
  0.7975459055768407  0.3991375607762759  0.9981117180926701
  0.6015683122002873  0.5976891395467319  0.1993884717383176
