Zr Ti V  Cr W 
 1.0000000000000000
    15.5050440400828347    0.0206650371517037    0.0304858292680132
     0.0207229526236000   15.4632172535306704   -0.0191964718441436
     0.0305150008632079   -0.0191743023753052   15.4329039499575007
 Zr  Ti  V   Cr  W  
   8   5 108   1   2
Direct
  0.0585817772846533  0.5868693151733496  0.9998396345095907
  0.1986344901657299  0.1997595170244492  0.8023606863574750
  0.2017442398490921  0.6026194612993582  0.3811430349690680
  0.1979551706668925  0.6026638834645451  0.8104080541044869
  0.1854959760201210  0.7639655328635000  0.1969909103207192
  0.6013906269260033  0.0022124627652768  0.5987698427760942
  0.5936038000766858  0.7951564876792605  0.2011769388028385
  0.8014903813168318  0.4225343930399939  0.1770093671803072
  0.0059355177406033  0.4025494895502834  0.5986606835490343
  0.3709477092121882  0.6112142405124269  0.2084800548622038
  0.7948563037299720  0.3987693270696280  0.5959987931168665
  0.8312900298191789  0.5980654892117936  0.0065712950691774
  0.7935836104903301  0.7987218517419570  0.8020266180238289
  0.0005240858102450  0.9973611713818065  0.0008422422734899
  0.0008011045389182  0.9974447271517480  0.1998514570290142
  0.0000873362007391  0.9937356815431563  0.3989957462568642
  0.0011222234046657  0.9988698862799081  0.6005130054070298
  0.9983302253821043  0.9967639968834071  0.8004832955912281
  0.9992239620472277  0.1959299806188625  0.0005380446303628
  0.9974851790239101  0.1974685617311207  0.2020929538948976
  0.9980975348402593  0.1978032964369714  0.4004330393217052
  0.9988479293609922  0.1986403867273379  0.5987441939625404
  0.9937185663306182  0.1985892467779918  0.7993711117074876
  0.9914028208534689  0.3911473354516680  0.0007604701263655
  0.0026150211691469  0.3932908917815512  0.2003257977164006
  0.0001993969256431  0.4017549756563046  0.3971919182505842
  0.9975198927963954  0.3994861449233173  0.8020808296580489
  0.9906090855712556  0.5931397757720812  0.2036479271309791
  0.9932703484713566  0.6040349938410799  0.4009345923844973
  0.0002498621306586  0.6012819282349485  0.5998111699111018
  0.9894008969095693  0.6008563186364481  0.7995326477152448
  0.9991284419989869  0.7996489761120209  0.0041085285691957
  0.9896151337238773  0.7987407461003565  0.2053361911635120
  0.0000942205810237  0.7990376334220525  0.5960551069732779
  0.9996923605433338  0.7981169607286227  0.7995196029912279
  0.2000165403876771  0.9994432449783796  0.0022026603780962
  0.2000856992198702  0.9971382691436768  0.1997305286678198
  0.2001969284526735  0.0009212997642425  0.3989121131359849
  0.1987265819984137  0.0028670862110687  0.6002716885146518
  0.1985877084025754  0.9976682119294409  0.8001487920725200
  0.1980168353855541  0.1996748504467261  0.0057388427182004
  0.1986959499211096  0.1950694304220688  0.2015530727001716
  0.1987330676808979  0.1998263340150407  0.4000519540776991
  0.1991619396353966  0.2007777219407081  0.5960420098441518
  0.1990035173930476  0.3888764245960591  0.1989663906432406
  0.2000611993388954  0.3967824237234086  0.3975351395882772
  0.2020076739921379  0.4018651477494484  0.5979962850684518
  0.1985421515087484  0.4001787327856491  0.7983619371662416
  0.2247228934627838  0.5374089018030280  0.0141847386079526
  0.1798669571134087  0.5696327413801747  0.1730466271375960
  0.1992778210194617  0.5992152803288117  0.5984780523783466
  0.1997393914786429  0.8028381226933479  0.9942006343167751
  0.1933231119377014  0.8082744000746619  0.4073391667026347
  0.1989981704446451  0.7983281638304480  0.6012975418995031
  0.2017906917081865  0.8057468393915086  0.7984253368566975
  0.4007747356348013  0.0021766383869808  0.0001788588952234
  0.3984917400536244  0.0021610901023808  0.1997848389448188
  0.3993579508041430  0.0004980244402664  0.3996740654798878
  0.3960140615181579  0.0003314065598878  0.5994728013448207
  0.4003728158397152  0.9953489245257726  0.8008576429480960
  0.3996712102910172  0.2021729521553464  0.0002543637077291
  0.3993624608478743  0.2015219009981738  0.2010327928823057
  0.4004329748626629  0.1997770525688003  0.4005634880997104
  0.3995643106391191  0.2017012614807884  0.6002469321270590
  0.4035032206194746  0.1992423077439211  0.7998060837673979
  0.3995245954880571  0.4033019273598090  0.9993661552326812
  0.3963775833583519  0.4002254349726680  0.1983691336577492
  0.4003119376333464  0.4017610264977794  0.4004716809166818
  0.3987038802560151  0.4015617326064182  0.6003668822760903
  0.3982493844932219  0.4032662492186715  0.8009002303486012
  0.4050455623726906  0.6011756810355473  0.9993753590516208
  0.4066163840128391  0.6016175021051123  0.4043313819421118
  0.3988318727297960  0.6008768856050337  0.6008358583539793
  0.4046706348476740  0.6051305240335187  0.7995601387591916
  0.3997937205592516  0.8051384488788518  0.9933163727016079
  0.3956442053362356  0.8068569142057611  0.1991602083937017
  0.3993702575189355  0.8017674661506068  0.4025100182376731
  0.3978289335364801  0.8000346829045930  0.6049657466438897
  0.6004887369128522  0.0017270749775296  0.0010653186713966
  0.5998442523566736  0.0032719931703087  0.1984379429824767
  0.6007132415260777  0.0006963650160947  0.3951798375224430
  0.5998503751131060  0.0001860216338194  0.8037874279155283
  0.6002135305496364  0.2015375211321438  0.0003794690915109
  0.5993658186399760  0.2030047193635812  0.2006495486691801
  0.6005624171323093  0.2021803771716587  0.3999669221609392
  0.5998058933026786  0.2064116150498400  0.5993265692065129
  0.5995960686805557  0.2019941166230197  0.8000445123904103
  0.6003794510113906  0.4014287492908097  0.9996170774255910
  0.5932382665624113  0.4010081593398649  0.2000131450479250
  0.5993042794728749  0.4009290525343270  0.3989557382712157
  0.5953953758495859  0.4028122959915500  0.6000308434050993
  0.5977911145541176  0.4017689843572071  0.7999488460377657
  0.5946122190829476  0.6007624585060009  0.0030218825116237
  0.6098587856059446  0.5929695078192804  0.1999925152192762
  0.6019310726664850  0.5992019843555025  0.4011492814206575
  0.6023274632373342  0.5993741183326281  0.8021123330159627
  0.6024969843513710  0.7985050639060689  0.9967666389137860
  0.6004641924319083  0.7993522767687127  0.4049711516045586
  0.5994844516436948  0.7965126688312638  0.6012096406586308
  0.5924786448447580  0.7990100176387963  0.8002627637984964
  0.8006449710251737  0.0003836279091357  0.9991852133427397
  0.7992219344268208  0.0036556427815539  0.1989904354897154
  0.8006560518610939  0.0005658619524522  0.3994731060566818
  0.8046942238614031  0.0006704093792584  0.6003701820184740
  0.7995010505135068  0.0009266928829250  0.8004256752830674
  0.7980494264589056  0.1984014019960971  0.9998146723588257
  0.7990704826544966  0.2032885011068368  0.1994920612349275
  0.7999810960919564  0.2008904391632209  0.3989593510781341
  0.7996005515644522  0.1991462282073840  0.5991204905823165
  0.7983505621196668  0.1987904362973750  0.7980863939235614
  0.7985960960274371  0.3938415676707717  0.9850120874487148
  0.8000065855822470  0.4009384973548721  0.3963021361751374
  0.7964713043415723  0.3996575685397444  0.7957025843452765
  0.8007772807460893  0.6136826355226409  0.2066422246365663
  0.7982547271059673  0.6008024390871876  0.4034707343430746
  0.7983270258148568  0.6022135595764510  0.6009454725280930
  0.7968855817282905  0.5976591187086429  0.7976328136363312
  0.8006713370309049  0.8023193204290672  0.0018304267123225
  0.7979992956187808  0.8056459533308949  0.2011755221743360
  0.8049819285860936  0.8012574486328702  0.4020661228102335
  0.7993097538400515  0.8006600511373215  0.5999391838966172
  0.5993944668284015  0.6000387679469313  0.6009267428138521
  0.0022369073675850  0.7974052586388087  0.3982589184737099
  0.3974148512288808  0.7981533617994157  0.7990343121563861
