Zr Ti V  Cr W 
 1.0000000000000000
    15.4149939690695010   -0.0041197707411214    0.0051244012526811
    -0.0041210926464625   15.4234402589122102   -0.0060663359120509
     0.0051270839828618   -0.0060686626181498   15.4040961855710652
 Zr  Ti  V   Cr  W  
   3  13 106   1   1
Direct
  0.9893013170600563  0.7844689513967681  0.7979533140663454
  0.2058493194986920  0.4392658748052947  0.7995451732769445
  0.8124635284180114  0.6060001834848681  0.7938624876782391
  0.9980491766765017  0.3999376776077428  0.4087624574152904
  0.9944880799018693  0.6004223017266842  0.4052696176556575
  0.9883770354598880  0.6098999941905823  0.6236327711817460
  0.9962352446131807  0.8038480570334137  0.4015500943668671
  0.2002801340148789  0.9872496924361936  0.7979262245159855
  0.1982481741557264  0.2026715288330987  0.8024052265040476
  0.2068091353658594  0.6024990593277053  0.4097254804626442
  0.3927840751318274  0.7994344315560110  0.1987470323819962
  0.3994974074502802  0.8063223179121904  0.8024280830718369
  0.6008052584973076  0.7991320574087456  0.9896741709864388
  0.6050033525782681  0.7974760897173462  0.2006258286837411
  0.5991461705497861  0.7922161766957146  0.5994000008044789
  0.7966771466587056  0.9928222742255487  0.9975122725989821
  0.0024793888192030  0.9971705863483495  0.9980001632271129
  0.9989759034589583  0.9995546366605705  0.1991626482900833
  0.9987806742097421  0.0025764266503903  0.3991848890840611
  0.9998502838740368  0.9997361455435401  0.6006254463107571
  0.9965411482704124  0.9971868407405461  0.7991455414406512
  0.9988493256090908  0.1963167243137177  0.9997270392736299
  0.0000199923402263  0.1993841869771761  0.1995053305427274
  0.9990269455740717  0.1977730764954078  0.4010432192128132
  0.9998796853617508  0.1994474376221076  0.6012747243900269
  0.9993120279194337  0.1955766671892856  0.8012676098203332
  0.0023241308153348  0.3955345585719234  0.0019667132353975
  0.0001561056557917  0.3993940797714761  0.2001277168413975
  0.0016762113957127  0.3983784902208480  0.6053399649729013
  0.0015973273098735  0.3926856255527427  0.8023441230115337
  0.0019098858636624  0.5984564774658652  0.0063363979199750
  0.0012497758250787  0.5988585493049875  0.2027311684449878
  0.0192830509836402  0.5829362128108855  0.8166227098810819
  0.0006761838492806  0.7977235335023903  0.0042899189880866
  0.9988562526613769  0.7996005905570385  0.1996652206711116
  0.0006322474400693  0.8043239366795445  0.5928775568111209
  0.2003109237418994  0.9965527253686528  0.0010640104145987
  0.1995203764314418  0.0004133478770048  0.1996324013407855
  0.1998575872191392  0.9990237466556536  0.3999245272522321
  0.1995823191513565  0.9996881293301773  0.5976072644574335
  0.2997647155517775  0.1996464670368346  0.1004569560476165
  0.1972814908756777  0.2005784415545071  0.2022994372167501
  0.2002569952087112  0.1999832973495840  0.3994768468177528
  0.1992233008280291  0.1994385426723339  0.5997406683562555
  0.2023480549201030  0.4033533725626416  0.0057323911430884
  0.1997468037870008  0.4010614845090638  0.2029169082463138
  0.2018318036156240  0.4008239473242883  0.4014283708532356
  0.1999411661515106  0.4024739833166459  0.5957026483154957
  0.2034879757419605  0.6008082877896853  0.0011089345635737
  0.2005436468363500  0.6018165077825620  0.2022731253941548
  0.2025237095544227  0.6019485945509113  0.6054802414845705
  0.2082967188114028  0.6277326859599099  0.8020509318001871
  0.1981791579001665  0.7992643451617344  0.0000610961961932
  0.1946983566556867  0.7988757976570480  0.2029713556512781
  0.1994249653333170  0.8012115777368156  0.4027764539508295
  0.1989003247462649  0.8007407013999475  0.7979605023749642
  0.3986950943448068  0.0012220403064349  0.9995175495580001
  0.3990140967012390  0.0008582057658434  0.1989977727648478
  0.4001463154965104  0.0008881653102211  0.3982683851188838
  0.3994172125974223  0.0000266421569430  0.6002565634705868
  0.4026012080084515  0.0045176815916499  0.7992788336346573
  0.4003583756640474  0.1997973438378647  0.9978750465875479
  0.3999177888129186  0.1996186552498187  0.4018379425932605
  0.3987910908839252  0.2015275140530349  0.6003382272061253
  0.4014355698072737  0.2011287176094266  0.8002808098672805
  0.4008991014180130  0.3978591021648230  0.0009453052193498
  0.4000742117772084  0.4017728207244239  0.2004540157093997
  0.4008476028471655  0.3990150154036193  0.3992587824290488
  0.3990149756050869  0.4001363759559406  0.6015363398070313
  0.4069448733194073  0.4005742224046536  0.8003651179908732
  0.4032953795920191  0.6013209781708179  0.0004580528483651
  0.4009573134452044  0.5985937261895627  0.2002395220569154
  0.4030643162323815  0.6013327714713799  0.4013010338738119
  0.4037577515865312  0.6025995948923872  0.6017839336940010
  0.4024182806376875  0.5994297065681007  0.8018595076434896
  0.3976057049504658  0.8002030082199105  0.0021094134431148
  0.3992369766847984  0.8021077516202811  0.4011639922504162
  0.3954796473032345  0.8007697456856633  0.5981102400016204
  0.5967478674652158  0.0007172590185992  0.9984012388000320
  0.5985760461503166  0.0017427533211217  0.1977576988890756
  0.5981593472897249  0.9999465616689258  0.3994396309827928
  0.5993822258867891  0.0001995021931024  0.5982884940032926
  0.5995116240184478  0.0014486363606939  0.7978276815876286
  0.5997832720676779  0.2002708397518754  0.9991261773828053
  0.6019997556710404  0.2004130536262363  0.1988520228681070
  0.5987282452289674  0.2002529577425624  0.3986768259984300
  0.6006009948808549  0.2017369243305886  0.5997129487096099
  0.6014720126171913  0.2010680793405457  0.7985798153156787
  0.6017062751402387  0.4012829607958397  0.9989611043510432
  0.6000898830793505  0.3999665864395422  0.1992156664725761
  0.5998602954335800  0.3998778438377255  0.3992891823485871
  0.6005780098497274  0.4032092277697309  0.5995169538657424
  0.6047439201042372  0.4015110501632228  0.7997026077060807
  0.6017907687484291  0.5988798827491462  0.9969176623778887
  0.6006947865307386  0.5988890816165421  0.2001878456484538
  0.5979478213857482  0.6008880043659580  0.4036955067809727
  0.5999512682837830  0.6017560545633134  0.7947600373295992
  0.5987433782644394  0.8005076043257265  0.3979333029525082
  0.5985954176560144  0.8004407003223175  0.7960081635796247
  0.7998078747583081  0.9982070817661211  0.1998702466072429
  0.7976506651339180  0.9988167513889623  0.3988485444245492
  0.7989194055698883  0.9989438300022231  0.5971927178853217
  0.7985452243580375  0.0016571150261693  0.7950007087166220
  0.8006548405243814  0.2002966899617867  0.9990283283189543
  0.8002168460273373  0.1998426901574631  0.1994880076928490
  0.7990807160683778  0.1994493592508825  0.3994560874676035
  0.8006070933307454  0.2003966826753918  0.5982286524413962
  0.7994215273143205  0.1992408565366193  0.7982794806003676
  0.8015896089290113  0.4007725757016657  0.9986780814548682
  0.8015049881099346  0.4014111336479078  0.2001569949600816
  0.7978068878707272  0.4002695413254257  0.3989488720379303
  0.8026746766446293  0.4022097863837190  0.5980381422616726
  0.8031000242557050  0.3977204640108394  0.7991512781115357
  0.8015548130504276  0.5990732095520422  0.0024161539665032
  0.7997188061439594  0.6007844286379471  0.1996450255847338
  0.7960976699819953  0.6016637161167039  0.3971803128072071
  0.7911763850888484  0.6014245414756693  0.5909880014017238
  0.8042012951906385  0.7954449273054121  0.9951776367296244
  0.8025360779242829  0.7992093387960777  0.1981908818018937
  0.7964071399777966  0.8011413584293482  0.3980637707974731
  0.8033339079997125  0.7992835900750282  0.5967230297227203
  0.7880786875175209  0.8112211610105610  0.7970851284289034
  0.1979005280607351  0.8010147412119381  0.5993744600112335
  0.5997599321446672  0.5955569484264639  0.6005936408437974
