Zr V  Cr W 
 1.0000000000000000
    15.4863295998759050    0.0024137293282322    0.0105674120120943
     0.0024156779473548   15.5040449564505511   -0.0174543962439357
     0.0105707746262879   -0.0174578174046017   15.4782021514271442
 Zr  V   Cr  W  
  10 107   6   1
Direct
  0.0005134251360193  0.9700559747376281  0.7578577848574526
  0.9978974459964610  0.1986444925609468  0.6095954612388139
  0.0002155846163148  0.4335295546645246  0.0393857974420067
  0.9992355137433985  0.5802209484223777  0.2187972609071263
  0.9605261735355105  0.7951087759106340  0.1930299086133068
  0.9995466161968335  0.7985642579733396  0.5984430571571576
  0.1976038866542226  0.5951370167779071  0.5950580605701908
  0.3583838400310533  0.8034437388545667  0.1991357319041083
  0.8413047544869594  0.4286849318914419  0.4003381977919763
  0.7499379671002725  0.7916835183941928  0.1984299663039895
  0.0007173306677493  0.0062137733547313  0.9992589364625017
  0.0029782256584987  0.9989911343889003  0.3929306456732729
  0.0004582837963380  0.0019442991661984  0.5714415711393757
  0.0008730559835972  0.2005579451690869  0.2017607995222970
  0.0018162777913504  0.2020461123028483  0.4007812571746958
  0.0009850785289562  0.2055167035784332  0.8102318354122786
  0.0060903352251735  0.3877041194711202  0.2321805607293790
  0.0339670345310466  0.4012418429802562  0.4074006488865073
  0.9976868846943534  0.4029074053072103  0.5997971166461395
  0.0005177163548229  0.3980860599654112  0.8030174180498758
  0.0003786841301812  0.6236610172808353  0.0114190876612585
  0.0053778181844524  0.6086545543666010  0.4166871411342930
  0.9934592215701025  0.5972598794660842  0.6083691263093826
  0.9989307772353658  0.5927942600637841  0.8082257221735306
  0.0009562648435113  0.8120662700195787  0.9920101414090193
  0.0018529499300346  0.8013353442479787  0.3949307033747111
  0.0003120826084519  0.7825398789114527  0.8037314580536825
  0.1995882586686341  0.0026200287968070  0.9974450351781098
  0.2002715901424658  0.0020500783478927  0.1982440987033916
  0.2021966036601505  0.9991585698700739  0.3972799210747965
  0.2009824502820405  0.9995542866224169  0.5981149350639844
  0.2029816224405985  0.9996639734897145  0.7997599071479298
  0.2016304664107963  0.2007167932631068  0.0010828162621591
  0.2020214498756005  0.2019204086926472  0.2007941874394902
  0.2012831849848298  0.1954318778191091  0.4008348688615476
  0.2015918115869927  0.1986210075295782  0.8024151362975277
  0.2035798519718366  0.4004090303854646  0.0002610780643393
  0.1996509971221173  0.4007022265503541  0.1965558125628079
  0.2018904535381010  0.3960695104063258  0.5710030568615106
  0.2001797739763087  0.3993780757717150  0.8028789622562603
  0.2002660839301962  0.6023418661133501  0.0006968017333457
  0.2049974111392440  0.6006860419834684  0.1984661443098341
  0.1994529019821586  0.6024163776207944  0.3920066520827564
  0.1996021615037016  0.5998396671817828  0.8046603252618514
  0.1991912425269278  0.8027756051788010  0.9995639098537660
  0.1714033072788725  0.7977898784958086  0.1965969417438905
  0.1990000585287202  0.8003408202896570  0.3972868972359628
  0.2059853704828098  0.8017531426690464  0.5990769476864947
  0.1993016805878253  0.7995212387556369  0.7989582168243284
  0.4014566570535824  0.0005286411008614  0.9982675780432031
  0.4021541834089475  0.0042290627620585  0.1980375390007099
  0.4010627977721284  0.9984147948765025  0.3986632404112058
  0.4023671034315976  0.0002116512192805  0.5984004700832347
  0.4003382652333705  0.9992429457487393  0.7970266281292061
  0.4012889616135824  0.2001653114808769  0.9991924601402378
  0.4014820141714036  0.2007304632781244  0.1999739078487267
  0.3996357057269645  0.2002747437139304  0.3997162519433570
  0.4022845782082744  0.1990791168183940  0.5993916362756302
  0.4010629854124866  0.4000915431323238  0.9998718251355094
  0.3990424407272676  0.3981610556174631  0.2012005930785601
  0.4027261766597339  0.3987988291409461  0.4008399361120335
  0.3997999515493812  0.3989328112701835  0.5996872766718916
  0.4013776462944329  0.3997302675158159  0.7997800348328269
  0.4017673282683406  0.6008074152454408  0.9999934086068324
  0.4029874604190407  0.5943352426915426  0.2000529118842136
  0.3991237041166352  0.5991732014078390  0.4003063083352521
  0.4050567916165186  0.5987139702587743  0.5995839923890792
  0.4006077530309325  0.5998253461988576  0.8007348259324700
  0.3991720263697917  0.8011344971320138  0.9946297250418029
  0.4007201833830593  0.7997039983235841  0.4026182795377375
  0.4009152075709004  0.7997588121916652  0.6002578332350840
  0.4001258239691282  0.7986707732398237  0.7986766005713810
  0.6006840333837554  0.9993032159760696  0.9987187515012244
  0.6011449165394852  0.9963318003360720  0.1987731610877682
  0.6007922017781505  0.9978669525180681  0.3978162926019143
  0.6009490986137038  0.9990691078641160  0.5971358891438951
  0.6006204143323983  0.9978271102873290  0.7978234370533435
  0.5997141752372043  0.1986632605299174  0.9998944355817579
  0.6017029818179810  0.2007072671505263  0.1990715063314578
  0.5999447131779617  0.1988064155767489  0.5994003650112595
  0.6005225128404785  0.1995676168886746  0.8001245670758050
  0.6008712495520560  0.3988947910592799  0.9997510499588974
  0.6035693421146565  0.4004218041152608  0.2002266933061901
  0.6034768348397925  0.3995818195421174  0.3987030788531917
  0.6016192901549471  0.3992017764525220  0.5984032932392990
  0.6000833244398194  0.4000726525952861  0.7994825174668048
  0.6019428601090027  0.5999701902287672  0.0038659774311613
  0.6031945500286180  0.5998747873258569  0.3962929900077201
  0.6012403580362992  0.5992006194507941  0.5973145549876004
  0.6019633265130515  0.5997563602068073  0.8019429775720820
  0.6005435891943696  0.8004539615199401  0.9981946309441581
  0.5638519500633443  0.7898715013158703  0.1990695612856451
  0.5993261495665313  0.7995047171744813  0.3988508028622120
  0.6004841619610976  0.7992651279289434  0.5987584834270165
  0.5997208816355333  0.7981299790420003  0.7986249049056622
  0.8014756710413637  0.0014146414609000  0.9970633675332229
  0.8017275074815993  0.9977903560185727  0.1983381379336063
  0.8000531391626118  0.0003520248079104  0.3981876714737016
  0.8018580828989565  0.9998687428652122  0.5989575798847907
  0.7982117284491008  0.9998619811069382  0.7990538840123615
  0.7996114949248349  0.2003501799658739  0.9998345486516272
  0.7997541409577765  0.1998092220441660  0.1993312351905154
  0.7997907760897384  0.1965392118101632  0.3989029627933638
  0.7946247710491010  0.2008932353508310  0.5998571130839954
  0.8001646934300339  0.1989882556690736  0.8014899738517687
  0.8060319538296754  0.3988740572003814  0.1958265851773026
  0.7988213982027934  0.3993807913641553  0.6013769634831014
  0.7999773314840721  0.4000089308333600  0.8008355897475691
  0.8025944823644152  0.6010060995252632  0.0001895700897048
  0.7921280498358720  0.5946751841911577  0.2066147147377251
  0.8020392987393981  0.6157409062964734  0.4025271202485687
  0.7978545458504508  0.5996190286427087  0.6004045430572170
  0.8005336700886342  0.5991940652581395  0.8022004265748538
  0.8019847167558419  0.8023849311618553  0.9971021312687965
  0.8057565767440446  0.8053632972680457  0.4008191299835125
  0.7942592595908179  0.7998892451959301  0.6004391717521578
  0.8003843028243258  0.7987896868808622  0.7987731313926644
  0.0004236650516305  0.0047271995293336  0.1972265622067770
  0.0008083996175547  0.2010541369078384  0.0039266552256920
  0.2047372749269250  0.1996470882736292  0.6013603309065493
  0.4014619927857540  0.1997301245228830  0.7996747734167322
  0.6002098588262638  0.1986069914424069  0.3985972211259164
  0.7981693078661856  0.3996512848495826  0.9985302087336474
  0.6002983278298548  0.5972976265629419  0.1994595864076187
