Zr V  Cr W 
 1.0000000000000000
    15.4863295998759050    0.0024137293282322    0.0105674120120943
     0.0024156779473548   15.5040449564505511   -0.0174543962439357
     0.0105707746262879   -0.0174578174046017   15.4782021514271442
 Zr  V   Cr  W  
  10 107   6   1
Direct
  0.0009104265473228  0.9642896084798342  0.7601713629103377
  0.1606919526347438  0.3757898400170829  0.5976383758606538
  0.9998788451104226  0.4324139157152536  0.0384439399991197
  0.0038066344585947  0.5781852326785684  0.2189890486560667
  0.9606452413683769  0.7923354878632477  0.1931171176062166
  0.0031503337583778  0.7970904809879269  0.5980017599402321
  0.2005324826592640  0.6256641524774768  0.5984944976990533
  0.3587450538195068  0.8024421950032991  0.2005392401109002
  0.8381785206111163  0.4297526236131554  0.3971566710439200
  0.7502153678049223  0.7915407826069598  0.1980743354869929
  0.0008598670646089  0.0052746501004660  0.0016390321363204
  0.0042407402302149  0.9968567052787887  0.3933017027274719
  0.0012331428047961  0.0196629520500537  0.5801937728030565
  0.0009406684963156  0.1986070727995281  0.2030960885344767
  0.0019334083885204  0.1983546356058166  0.4010761976977299
  0.0005939242921094  0.2028060710247798  0.8075332855547575
  0.0006984010225559  0.3859982192083840  0.2308541939946026
  0.0289414045357215  0.3922068639535296  0.4175415150566755
  0.9883541571617827  0.4003319360081001  0.6028813624934147
  0.0007787873245382  0.3946613030602529  0.7991111130448684
  0.0002848923651353  0.6225659777657510  0.0119962837224061
  0.0056447953403003  0.6036949066640295  0.4162767155319678
  0.9946540001960849  0.5936928375326398  0.6088602286411833
  0.9986456654083293  0.5903209818333806  0.8101282268807661
  0.0017358148781745  0.8113623763705741  0.9913044378941793
  0.0021593107850837  0.7997434413818730  0.3964818967559025
  0.0005233821975637  0.7796791150636205  0.8027993994096249
  0.1998085083352537  0.0014589120636166  0.9977547436456694
  0.2006170591263458  0.0004587046611116  0.1988914830926903
  0.2020868996785213  0.9978789955047742  0.3971268208440391
  0.2018012090618485  0.0050095003518020  0.5972296278306486
  0.2027677086103000  0.0003158836255059  0.8006476633541453
  0.2016362109657293  0.2002456761687877  0.0009158677625357
  0.2016525157133073  0.1995627601205620  0.1988224874881826
  0.2029293405050872  0.1965170055590926  0.3986059751167887
  0.1994271606377624  0.1993985258856788  0.8002111176896183
  0.2029096542708441  0.4005655494254717  0.0004194887462692
  0.1988136984978537  0.3986676814273848  0.1970841350262043
  0.2066647318844194  0.4009973295085228  0.3930374124002081
  0.1998817189720072  0.3987568234697359  0.8040550296512436
  0.2006386660363267  0.6022563757771783  0.0009196546312900
  0.2067748141125945  0.6004909172116240  0.1988570245722453
  0.2012518476411251  0.5996169396381826  0.3933225218915171
  0.1998968132699980  0.5981959548596938  0.8045259928040509
  0.1994137341870772  0.8022154488288338  0.9994828885538922
  0.1721191429312832  0.7965919329657709  0.1974159526590576
  0.1987114603683901  0.7987233607426122  0.4000054938947664
  0.2076685506662648  0.8155942071937524  0.5989456189121211
  0.1989724297623288  0.7988541111051033  0.7979713274529439
  0.4014830576307707  0.9998817332220818  0.9987049328171900
  0.4025790147590958  0.0033551822512499  0.1982504580130159
  0.4004419205873773  0.9978860988080359  0.3986655102869612
  0.4029870714949371  0.0011065554518117  0.5983131412839465
  0.4002537851039479  0.9983566511122061  0.7974963119598181
  0.4011309983159319  0.1994222898984324  0.9987964420203882
  0.4010695192883533  0.2000536960196102  0.1999508688376765
  0.4011844524406977  0.1983312578550098  0.3996491545657763
  0.4011879040256551  0.2001068148208121  0.5991185286238311
  0.4002920282195233  0.3996858172442214  0.9996185851257120
  0.4003127781939551  0.3971938283241096  0.1991950703493706
  0.4015078468288519  0.3978106908403837  0.4001128744417460
  0.4028910170233421  0.3990573051520800  0.6000869713092820
  0.4000273959460217  0.3991854817965250  0.7988379022875943
  0.4018806563783230  0.6004255013627869  0.9996872296597863
  0.4039700934068354  0.5934030076014571  0.2002182982140324
  0.4010759475203337  0.6000605986294876  0.4004022170883437
  0.4054290924816231  0.5988198450560970  0.5989066092459669
  0.4003155137158508  0.5993913411946372  0.8001658801379045
  0.3988603907086897  0.8003340636353593  0.9945985657930342
  0.3999025629491264  0.7984151772569729  0.4031210725004812
  0.4005363223966703  0.8004923149609017  0.6006266671736841
  0.4001848215445668  0.7983097830955977  0.7986957482412455
  0.6005131437485787  0.9987185687275787  0.9989999592131343
  0.6009438660273786  0.9961718919860216  0.1989786445920418
  0.6008778675411329  0.9974345860302982  0.3977628510423212
  0.6003586397082343  0.9992544255951702  0.5972616709255095
  0.6006594136851354  0.9975584687998120  0.7984255748566631
  0.5992181553193513  0.1982867599115782  0.9998847867980101
  0.6015243215543336  0.2001446221335786  0.1991738961565609
  0.6001732352967502  0.1991338925126004  0.5994576202819780
  0.5997345329196531  0.1990926207170984  0.8000507751495383
  0.6001263484629122  0.3987785326230699  0.9991243746354316
  0.6024023347403817  0.4001086965373328  0.1997852719935259
  0.6033215834796858  0.3988685934285413  0.3979962026162616
  0.6010487111891466  0.4000001123567738  0.5978855256501441
  0.5991596320928494  0.3998084914596927  0.7997643592893825
  0.6020170721143211  0.5997893110807420  0.0039406472613239
  0.6034107616989384  0.5990783505425074  0.3956868672165503
  0.6018515803589467  0.6004952527339504  0.5970846589752423
  0.6014797878432472  0.5993259830551322  0.8018203532375754
  0.6008179806668450  0.8000579238049068  0.9977448010434851
  0.5643372606891184  0.7903730787205082  0.1988144922217614
  0.5988698764647895  0.7992601125332425  0.3987315364342706
  0.6008657021449744  0.7996631970197290  0.5987159255095368
  0.5997230100000822  0.7976941554438003  0.7980017021631967
  0.8011913809959420  0.0007504650662853  0.9977250195113891
  0.8013221319308875  0.9973636116026889  0.1984579544177928
  0.8008777917895810  0.9991794018027497  0.3984934272389098
  0.8021305242206935  0.0016568330322084  0.5989231026147418
  0.7988065438862033  0.9994072512612449  0.7997167132155979
  0.7992307435223198  0.1998515017892704  0.9997517006128517
  0.7995346367603965  0.1992072791690135  0.1992375789478277
  0.8017401552222357  0.1954464188947620  0.4003273982889280
  0.7955315424847705  0.2013116633378439  0.6003181768381589
  0.8020184486643029  0.1991240284977789  0.8002161612976885
  0.8042379229553922  0.3974222966364779  0.1943932922033573
  0.7961366806551329  0.3990777336334804  0.6007531315093573
  0.7986920221023134  0.3997826851141268  0.8010732056978395
  0.8029553497728402  0.6006126377286882  0.9999910141803759
  0.7939407662161126  0.5943874615905641  0.2072426418614021
  0.8019072392916844  0.6165709829212195  0.4036113748061130
  0.7983420358482101  0.6015017699456119  0.6009729148820511
  0.8001340712803570  0.5989692557663715  0.8023207368139160
  0.8024895599185066  0.8018989084150767  0.9966987763296107
  0.8065116560175813  0.8052069461567138  0.4009151140960901
  0.7963568935712084  0.8015644295153413  0.6002389407892744
  0.8011677808581420  0.7985996338861817  0.7983810218371613
  0.0002196258488616  0.0026510186272966  0.1978939392159922
  0.0003842837241635  0.2001935317165705  0.0030841751328721
  0.2012750462495834  0.2011458077612201  0.6006166091147177
  0.4001560558458913  0.1991545047172304  0.7992648322278634
  0.6006805978480898  0.1983636360720968  0.3986384395337197
  0.7973745876709198  0.3992548798623366  0.9983293522670054
  0.6013522469430518  0.5974699892665841  0.1990659219207666
