Zr Ti V  Cr W 
 1.0000000000000000
    15.4244097105604929   -0.0012107223225386   -0.0042394490092486
    -0.0012099076426666   15.4412294863263000   -0.0024734284807045
    -0.0042424892746054   -0.0024736538270091   15.4407019588637713
 Zr  Ti  V   Cr  W  
   1   3 110   3   7
Direct
  0.4029143717583749  0.4045229358090708  0.1973780041251835
  0.9998592479834141  0.3907788261702185  0.0001411389089905
  0.1991078355326897  0.9982584154238656  0.3991635625902887
  0.7988594186280344  0.5998614493567457  0.2113785696250155
  0.9990315023176770  0.0018007623647660  0.0004636938263354
  0.0009307752628974  0.9992483192454841  0.2008832903987322
  0.9971386479140532  0.0002188443356004  0.3996276242427534
  0.9992843074884052  0.0010613832865873  0.6007954710076920
  0.9996221019286879  0.9999885419931465  0.8000821137163028
  0.9995353892563623  0.2004459850266907  0.4000548265778733
  0.9999196706191327  0.1989769359182096  0.6012038700911067
  0.9994286324803557  0.1996300565599908  0.8025871476147286
  0.9991077317576206  0.3980564035575090  0.2015823933235416
  0.9991862001476673  0.3992112575503516  0.4003507493711974
  0.9994082428300691  0.3977904406683193  0.6006405278796383
  0.0001192471745912  0.3990511683594010  0.7972589923379776
  0.9954156009167513  0.6004325154262222  0.0018253532744142
  0.0034066464344560  0.6003015972214231  0.1993041069236386
  0.9985814067562975  0.5995154146285941  0.3993910216795508
  0.9990393514495399  0.5999370318079146  0.6015542719045790
  0.0004500032191037  0.5992491535657641  0.7998956664442719
  0.0009143851685049  0.8007007973292961  0.0013207134000637
  0.0029821849476712  0.8010689375653458  0.3997026556198219
  0.9989118857224091  0.8011848552618744  0.6014517787391109
  0.0004008881515529  0.8008816679807027  0.7999560153248618
  0.1996807057704287  0.9981665717584161  0.0011979552521331
  0.2000212713101442  0.0019023515438742  0.1993053298301664
  0.1997447014419615  0.0002252905436670  0.6020243200435090
  0.2005824872948382  0.0002504211671589  0.7995994401342773
  0.1958130282801940  0.2008427246038394  0.9996744951388240
  0.2009453785176045  0.2004350772392904  0.2004557879558166
  0.1991743447456265  0.2040696575180883  0.3995449853874289
  0.1998587421590694  0.2004139961193395  0.5997825116901044
  0.2020876882929100  0.2006224664214511  0.7992844696100095
  0.2009659454627462  0.4005308060881202  0.9990857454878456
  0.1957735261261271  0.3985708574256920  0.2004154344112241
  0.1983992565450077  0.4044147051321848  0.4013266429704397
  0.1997193983503897  0.4001111119573849  0.6002356808316655
  0.2004976484974149  0.4009173731161388  0.7987576490809377
  0.1974048479651939  0.6006491697947574  0.0020057484373048
  0.2016836854138777  0.5952802133067702  0.2038652018499882
  0.1990486318281209  0.5985416254340630  0.5965773469280605
  0.1995862845339710  0.5995826226085025  0.7996324569372083
  0.1988778910654796  0.7989739795598912  0.9983435624461402
  0.0326716078188484  0.8016507714573178  0.2000641301406024
  0.1998639881918627  0.7999887461209777  0.5969618811458952
  0.1999939572136588  0.7987724790381999  0.7987310170445874
  0.3994612287690487  0.9993684944764015  0.0003847513074682
  0.3996570748194991  0.9984902979053621  0.2000808437855405
  0.4021414892559141  0.9992075299997768  0.3998456871076531
  0.3998417694314733  0.0001051531192439  0.5999632710097689
  0.3992744142335862  0.9992882284799134  0.8006290134264100
  0.3986830728600286  0.1998504220229305  0.0004195931974975
  0.4005849456241307  0.1972441310594444  0.1990415249127626
  0.4000739403495850  0.2004028027093322  0.3998167089218833
  0.3993332188200918  0.1995491923571208  0.5993631459883988
  0.4038453688617439  0.2004478379035688  0.8005125529833079
  0.4001534680567060  0.3999710152043711  0.9934856147655344
  0.4008269570982446  0.4001708633508312  0.4041902607470218
  0.4003063960238450  0.3997016939238159  0.6008859655605178
  0.3999066170134034  0.4006271668862590  0.7986915061382254
  0.4005376845597816  0.5998565236490548  0.0028999830770289
  0.3956265249680072  0.5993558880297831  0.3964153053208347
  0.4004184416180958  0.5999739271911432  0.5999567280664838
  0.3998217940709559  0.5997500922027162  0.8014121238530939
  0.3995094089837291  0.7999541566396845  0.0002207645441208
  0.4016150080896972  0.8002687325882418  0.1995324976661461
  0.3972981652625072  0.8003048511508728  0.3999380635878575
  0.4007493189831430  0.8001513309681149  0.6006629188340969
  0.3998532082101020  0.7996762793545490  0.7997583285224210
  0.6010162014270735  0.9993120776622251  0.0009606036682812
  0.6001334276287711  0.0005527350698382  0.2000342943572400
  0.6004657914211905  0.9999847162086607  0.4002134353925172
  0.6002762492202259  0.9996977544459460  0.5993916020780732
  0.5997623770493432  0.0026140932425388  0.8001635906566431
  0.6019058877246919  0.2008752330906582  0.9960779505759513
  0.6003316176726273  0.1990594308287331  0.1985311058014919
  0.6008292735400135  0.2009050231047117  0.4005468348699372
  0.5998483559947453  0.2000781169016574  0.6041245191527342
  0.6010315322198395  0.3997001061515766  0.0001584348580325
  0.6057726428291166  0.3972742906640042  0.1992703745965415
  0.6004218146268588  0.3998952094932205  0.4002178124574943
  0.6000929287240149  0.3998819879233177  0.5994589611613651
  0.6037605744759929  0.5995916215242115  0.0001244981225672
  0.5947950927677941  0.6001855961693743  0.2001788285224168
  0.6030059974107067  0.6004880139547291  0.4000497828264951
  0.5984847904801618  0.5997306936836473  0.6002898362139105
  0.5985198106008810  0.6007906455587169  0.7989820042228738
  0.6006033771997303  0.8000044333206324  0.9997212207134094
  0.5994288994041177  0.7997723000863228  0.4003318673198874
  0.5993798594721614  0.8006936292183831  0.6001468719488048
  0.5993685066940115  0.8015121954200056  0.7998273227223017
  0.8000282126222691  0.9975768963204680  0.0011722009938287
  0.7994070103677745  0.9996946761058902  0.2006248636368677
  0.7997734418013062  0.9989451964659294  0.3998607357768306
  0.7998162014967133  0.9995076811864100  0.5990276884762775
  0.8001845894223651  0.9986219205237953  0.8003327830639998
  0.8047278757537341  0.2021619484077665  0.0007339886008270
  0.7991821699790363  0.1998166037064812  0.2004137162195328
  0.8001013753561564  0.2017857673034776  0.3997719558464656
  0.8006509202269885  0.2005608606776252  0.5995087421028134
  0.7956365094382909  0.2011040353236862  0.7996985182954696
  0.7984572511194890  0.4052652534008503  0.0002730138370674
  0.8011972021611478  0.3982700736898481  0.1999309849167550
  0.8006140459660410  0.4048618148733410  0.4001604397366004
  0.7996468152517344  0.4000950173509080  0.6000030813465610
  0.8004483494733561  0.4007699287823456  0.7982218793424776
  0.7996202459162249  0.5996589486134500  0.5990620414402090
  0.7990698078452643  0.5997034136652637  0.7998174505518929
  0.8003059444739724  0.7951792637274234  0.0006683167408480
  0.7997413040832266  0.8016919389575271  0.2005032622432178
  0.8006918536078366  0.7957204588743081  0.3999600504416935
  0.7997839778610736  0.7999860071722943  0.5999241881353946
  0.7996394953652172  0.7998873242294281  0.7984828967493194
  0.9996138535276282  0.1987124313495337  0.2000662486846541
  0.5998970071859138  0.4002862878608286  0.7996352171430349
  0.5997620787065808  0.8012059580779455  0.1999457945779364
  0.9997048212370468  0.1958373935080173  0.9974684138704797
  0.1968506843946649  0.6007114076342304  0.3994660901277085
  0.1991645497462818  0.7926365331380697  0.4061153865657123
  0.3977890189741552  0.6061993508958806  0.1997543567543325
  0.6002081882876182  0.1974372420419861  0.8008197550737232
  0.7986893246622940  0.5998465376503458  0.9942557927500576
  0.8007521187399474  0.6006156750771027  0.4047303888107765
