Ti V  Cr W 
 1.0000000000000000
    15.4171836946855763   -0.0006458025225840    0.0021743795697675
    -0.0006464432342440   15.4108214600062574    0.0048957167363750
     0.0021730867805691    0.0048939939426410   15.4267125679285311
 Ti  V   Cr  W  
  13 101   9   1
Direct
  0.0010628854170498  0.4029470262733476  0.4021753665713872
  0.1978860612793525  0.1977278273071277  0.8035166249832061
  0.2010352859688953  0.6079055556648555  0.0051552912652835
  0.2001697540107484  0.5986611737096618  0.7914557442559488
  0.4009920279665316  0.9950486954088764  0.5987943509791789
  0.3995237509821432  0.2062431821913651  0.6017952850038287
  0.4023944259985743  0.6027807855463747  0.4007967512946150
  0.5940621501823787  0.9986652037793271  0.9961448396578902
  0.5950279104572992  0.4001489622271568  0.4033990871403402
  0.5905439975911835  0.7979327072722153  0.4014803229593535
  0.8062374006682362  0.3990363369180292  0.9932337295211096
  0.7961248368599814  0.5958362451723914  0.8015129343878770
  0.8039683137268632  0.8016452611625554  0.4027772213258031
  0.0000093338642844  0.9990363836103318  0.0002086866067490
  0.9996971494916274  0.0006241488271175  0.1996230967844479
  0.9999594846998526  0.9987549301034639  0.4009578987616814
  0.0003180351926728  0.0020620610215014  0.8003933310842233
  0.9985321235590423  0.2003322797176211  0.2011559436699261
  0.9998418344318527  0.1981271486136243  0.3997048663655480
  0.9992112545201792  0.2008384507836374  0.6000548198792760
  0.9989554570005992  0.2003150892805328  0.7981034915802213
  0.0041917703884008  0.4027748107246929  0.9987557162590228
  0.0004013791674413  0.3991621182214130  0.1951189831550695
  0.0013808359340131  0.3987912937808931  0.8007249112649280
  0.9977108590706092  0.6000674409152841  0.9999209154573792
  0.9980268991192452  0.5985381788355925  0.2014924750366451
  0.9992132464849702  0.6015984060923819  0.3999743973075438
  0.9980813954420876  0.5991028445238550  0.5994146089974746
  0.9994037871324125  0.5992535986311966  0.7993375986406147
  0.0028957582854019  0.7998033877785520  0.9995529603030473
  0.9983936197876937  0.7985030260000464  0.2011263893570938
  0.0030913850322081  0.7993959902290860  0.4011188514039529
  0.0012666441469278  0.7987329605088025  0.6021839048844583
  0.9996560697667443  0.7986709939571643  0.7998438985595333
  0.1992135696741452  0.9979089443247182  0.0006196077168853
  0.2005625287079623  0.9991237847718797  0.2013578580277984
  0.2000144467097709  0.9992636966953885  0.3998243561491818
  0.1984228592454151  0.9990154030783110  0.5999888936385654
  0.2011996301153673  0.9977331635622813  0.7990443541432215
  0.2030225254413042  0.1986947028010229  0.0016823130753549
  0.1989837788190759  0.1994330046296996  0.1988108128751765
  0.1995284288530077  0.1987964982275364  0.3998433826116090
  0.1982043489162528  0.1999250730087124  0.5978298896206006
  0.2004913645105695  0.3981349323265195  0.9997737278047357
  0.2003789273734505  0.3992126458454267  0.2002849536983185
  0.2019200723245848  0.3994166400443990  0.3998326309723316
  0.1989554807364836  0.4000979271982703  0.5997920393771581
  0.2013739141901486  0.4006576057154697  0.7995512774997189
  0.2003347125411722  0.5989605611469887  0.2042106768178866
  0.1982929537639637  0.5997314533660033  0.4000394893240866
  0.1996888348742147  0.5996143023101258  0.5956672348199226
  0.2010360278008328  0.7989851273049462  0.1971873932298370
  0.2001382944202720  0.8001621489158501  0.4003548887475601
  0.1999746705750823  0.7983852125319848  0.6017499040371949
  0.2017597271789580  0.8007333471229041  0.8037018110628129
  0.3992852163314188  0.9989896027606111  0.0008304807413064
  0.4013232141558715  0.9992882371527241  0.2002039025184541
  0.3997018044503124  0.9999380991901944  0.3991137601766308
  0.4017496496435234  0.9987863893143967  0.8011743139734386
  0.3997359904696973  0.1998995824503300  0.0014134379473109
  0.4011246427838834  0.1998923419268563  0.1999378430429928
  0.4001221306901003  0.1992521070937681  0.3977864781644152
  0.4027944331200753  0.1997379171517991  0.8021280325401710
  0.3988340736420575  0.4008337013216262  0.9986277783062345
  0.4008439525213536  0.4004837609757196  0.1995749422374885
  0.3975128662995688  0.3986071074880773  0.4007246620671598
  0.3994380372645224  0.4037305579544070  0.6010576717335580
  0.3995832857933715  0.4000828830909613  0.8005233212213364
  0.4023239578897913  0.5992709429335203  0.0000700095244982
  0.4019015744320331  0.5993160235529994  0.1987533138083372
  0.4005246335061575  0.6001151555553107  0.6017323247376494
  0.4029854243781553  0.6003104802668235  0.8001832057900181
  0.4013855690973110  0.7988167557022532  0.2012941325209768
  0.3957279166118642  0.8016120167791225  0.4006806225574946
  0.3992669950488251  0.7967434660318773  0.6020542217913130
  0.5999856167874642  0.0007350944372464  0.4003242066285863
  0.6027758627942198  0.9988644387606248  0.5987423555443140
  0.6010248611972643  0.0002754312447497  0.7958397309914883
  0.5990363060689630  0.2014945081520876  0.9994282282822895
  0.6006429108444927  0.1996741879183924  0.1999987866389691
  0.5990955018033467  0.1983644038066125  0.4000164592642451
  0.6024356201634281  0.2004583152119952  0.5996606052566884
  0.6004628581255166  0.1997437351691301  0.7992457497736346
  0.5975149831726273  0.4006804332775495  0.9992388851207029
  0.5994320995608359  0.4006534596460877  0.6022083225221269
  0.5996374945125515  0.3998102007352144  0.7989516217137445
  0.6012981017635880  0.5999410263174638  0.9997810979159540
  0.6011176266281448  0.5987402433213214  0.2012141134269412
  0.6015910306112152  0.6001827153198164  0.5981202259702748
  0.5987596522103052  0.5994502228613675  0.7993365001644716
  0.5997235096510333  0.7979393698832219  0.0000319582504862
  0.6001785999191013  0.8002601498719453  0.1983364348231028
  0.5992885011009270  0.7991130217596417  0.6024879711066605
  0.5992931581775043  0.7997860525929794  0.8005448323359048
  0.8032818169158010  0.0003439430622868  0.0008875205186052
  0.7996507468572011  0.0002177114026323  0.3999090853982665
  0.8008938941081627  0.9994887161050925  0.5991765348927079
  0.8003700266207481  0.9995290231089181  0.7997198520965071
  0.7956317264105111  0.1976467869163633  0.0008579924521691
  0.7997251119080864  0.2001482136349053  0.1982588600623871
  0.7995695203686239  0.1998712817487464  0.3993791504391255
  0.8004188989386800  0.1995039394278758  0.5989988414318659
  0.8010462979813379  0.1989726715238697  0.8006747109021135
  0.7983583745009696  0.4001945333723531  0.2002406272011981
  0.7990190957379782  0.3993137346420157  0.3987140030625843
  0.8007233698392600  0.4002702077654194  0.5990968140709567
  0.7995178963800317  0.3962226058860732  0.7970347330348875
  0.7999050485872177  0.6021127595949241  0.0038820596745364
  0.7988655606366933  0.5980108075980796  0.3983934759744492
  0.8000043109966231  0.5999859810512891  0.5967464701963131
  0.8009569268139209  0.8005619836178626  0.0002074945961567
  0.7988408323315934  0.7991025454012702  0.1996326732259318
  0.8003658294357552  0.7986054373075537  0.6030026290886695
  0.7997973503444407  0.8019742809495656  0.8012833988140010
  0.9997479973674046  0.9988353736805500  0.6001966574855228
  0.0000646789486343  0.4004148121304496  0.6026703326528333
  0.3995205880981728  0.7991290791265524  0.9998951123404130
  0.4004298027051493  0.7988109055778370  0.8015496135771265
  0.6010340325749282  0.9995573389183767  0.2021902581246937
  0.5995220500353468  0.3994146968230092  0.1972244130553858
  0.6021193146410552  0.5995798928689717  0.3996219727625346
  0.7996203945042357  0.9997937976903362  0.2005387115200626
  0.7995047953811548  0.5994299200604981  0.2001530488347135
  0.1978204111786539  0.8021164903549938  0.0009277147677496
