Zr Ti V  Cr W 
 1.0000000000000000
    15.4219977637485020   -0.0153525296692176    0.0018800521315798
    -0.0153399539639544   15.4042384266248558    0.0149563524432868
     0.0018828811446291    0.0149768248118706   15.4308175709018371
 Zr  Ti  V   Cr  W  
   2   1 100  10  11
Direct
  0.5995015341840096  0.9875153036526784  0.7906835399963721
  0.8062426113169510  0.4056045000464586  0.2021437991802721
  0.5973396462907570  0.4035850768788594  0.1971297990675113
  0.0010218424633076  0.0013711860609458  0.0002410303125100
  0.0005111807761804  0.0000551489693677  0.6007100497642511
  0.0007170346269960  0.0000664204231439  0.7999040824324194
  0.0054598853228330  0.1999863935359246  0.0008958942525683
  0.0012942324066575  0.2026122159824485  0.2006848372941564
  0.9969569674445378  0.1993786576921453  0.3998925219505619
  0.0014130761008850  0.1996344359501051  0.6006163754467728
  0.9987172411396847  0.3984806845853598  0.0040404656802007
  0.0008743562128413  0.3997357260259479  0.3980477571855390
  0.0009098375194571  0.3998038752067795  0.5993564739311481
  0.9994067565931786  0.3992827058942585  0.7992402646496529
  0.0024327961790249  0.6002805466009631  0.0011905145412093
  0.0012894452859385  0.5988130030471509  0.2003281991464867
  0.9998015681117094  0.5993404075393929  0.3995113585231476
  0.9989056636204440  0.5986892165103253  0.5989840774006284
  0.9995964385335615  0.5992838232004571  0.8009902070065489
  0.9989317429587655  0.8014830729941710  0.0004822745812893
  0.0018088846323919  0.7993572643157341  0.2001391713876594
  0.9993209553395448  0.7995835096015766  0.3990399884919513
  0.0026494710692679  0.8002922579168397  0.5995108836258001
  0.9978581250648280  0.8004354635758296  0.8006638185436160
  0.1984748439019342  0.0068348223525822  0.9996213555499013
  0.2024864049250527  0.9988574031656943  0.1996593182951439
  0.2006800837614189  0.0011689411543095  0.4001753522488848
  0.2008402970425693  0.9969513914102807  0.6004239989682064
  0.1992017198220425  0.9987294172462596  0.8002395233648285
  0.2000756223065948  0.1996006914022762  0.4009978468846132
  0.2003966287039452  0.1987959658173867  0.5998980364276081
  0.2006521183758194  0.3971551803473882  0.9994276611778340
  0.1996514625957300  0.4006479562531342  0.2023716964360004
  0.1999798981364209  0.3992850641599868  0.4017998841136558
  0.1998260946916987  0.4050458764086164  0.7980178499859782
  0.2043648318936356  0.6018561379903826  0.1958444438041992
  0.1994894947907349  0.5987180335356117  0.4018093762396939
  0.2010606119277726  0.6023833959081020  0.6046080968409329
  0.2674865540200603  0.8673914390432759  0.9990933250819252
  0.1992241090965776  0.8010713657152803  0.2023752861026623
  0.1997580341101589  0.7996469461370023  0.4039075916061885
  0.1998540853935302  0.7961894874603934  0.7951225230893145
  0.4000748862756264  0.9986794393121859  0.2024082158178107
  0.4014530130440367  0.0017524852689663  0.3979003205296970
  0.4034562177514421  0.0011585424004886  0.5984896240301361
  0.3935124135748716  0.0016485110741609  0.7976578488811010
  0.4004768475736945  0.2036493071647623  0.0005811840184333
  0.4022817114422294  0.2010614201767750  0.2014231571578550
  0.4023328334668847  0.2018062199489813  0.3991725998325822
  0.3996744417566646  0.2010632853350704  0.5989850813553963
  0.4010055024833944  0.2006514535903499  0.7994771429522152
  0.4001463692582629  0.4001379595173601  0.9993216042417358
  0.3970088781757422  0.4066474416017366  0.2024397719330551
  0.4005342106152322  0.3995852723437687  0.4003234760130819
  0.4001010161422194  0.3996534298864355  0.5988234855100336
  0.3995061774505492  0.4000206110689335  0.7973575174520035
  0.3964696429068376  0.6004888147381681  0.0026924782265045
  0.4011249224033314  0.8010184851103882  0.9991652523893018
  0.4003139269123981  0.7977363599288145  0.1989486354483077
  0.4017660461316537  0.8004821654369947  0.3998692621260873
  0.3959929877950427  0.7993751980482072  0.5971180392725763
  0.4014069085536581  0.8024413232143958  0.8008806416592917
  0.6041857299369384  0.0050645201936479  0.0012434626361082
  0.5990447978599146  0.9982421340032779  0.1989752379406314
  0.6012340704705060  0.9997496782616994  0.3999503857432863
  0.6002196082231722  0.1988690943393911  0.1947463904443956
  0.6052052406642384  0.2008649942987403  0.3976803459287327
  0.5999163394932727  0.1956323495967329  0.6039035169007415
  0.6009866949670487  0.2024921592783148  0.8038148472002274
  0.5997357237522283  0.3961590383397358  0.9961243248154604
  0.6005739076782424  0.4005248962053329  0.4033200588160647
  0.5994680339779853  0.3998189773660560  0.6005024174838158
  0.5998972818746079  0.4058662524742205  0.7976322793414734
  0.5991191163222792  0.5973493147258184  0.9958320696473080
  0.5946849575797125  0.6049275466703684  0.1971960569225883
  0.6011066737820107  0.6000801826200294  0.4001642195635064
  0.5994709296335589  0.5997640371441436  0.6023194707212610
  0.5992145291115506  0.8042862923677465  0.9949282858249746
  0.6008223727776677  0.8015061503404382  0.1987706493600809
  0.6016571073825310  0.7996782683160782  0.4005930568660586
  0.5983050227683123  0.8019559464580250  0.6017498573904552
  0.8026623401372952  0.0015297193240915  0.0007146044384270
  0.8023658819471160  0.9988832553672603  0.2010647863638446
  0.8014112181440894  0.0033906574624256  0.3993693228578789
  0.7974728114191383  0.9996925751028896  0.5999113539310942
  0.8067328470586332  0.0001930034663618  0.7993636507461988
  0.7954882770182315  0.2002170742835306  0.0007227534729496
  0.8011497016381344  0.1964214617853740  0.2041836358599701
  0.8007330322994073  0.1999671581999892  0.5967400961670521
  0.8007687876755080  0.2003219702157439  0.7993857916353236
  0.8014696245608114  0.3990780405946192  0.9965781600325665
  0.8000631845308007  0.3954844661538734  0.4065826515945633
  0.8006326784708804  0.3988221558274721  0.6016730289933502
  0.7999527944151877  0.6003217012625546  0.0001425994980947
  0.7978867491939960  0.6072980856994473  0.1994757067747579
  0.7988347214888112  0.5988159277839501  0.3998351524821367
  0.8004511844582786  0.5996309784712239  0.5988126310141885
  0.8003037367388701  0.5991683640433114  0.7998913742777383
  0.8005779732064056  0.8004650807624581  0.0003228114814571
  0.8004534366376396  0.8023932384990236  0.1999320868657575
  0.8007923958328416  0.8001728887933868  0.4004355367724244
  0.8027488315466099  0.7992672112232652  0.5983746926179779
  0.7988611659570374  0.7995956523914572  0.7993121960288402
  0.0022758976899382  0.0002992033135364  0.2006141816454320
  0.0008219080752969  0.0000669998663416  0.3998442930837203
  0.0006380136641517  0.2007129656427658  0.8004625247259263
  0.2016616292470719  0.2002004270242558  0.2013453340051436
  0.2001238134775761  0.2018098555308498  0.7996006786523941
  0.2003986409862004  0.4002977423987762  0.5999136755438619
  0.4003990160879585  0.5999333832463009  0.3994497479486603
  0.4004598349138236  0.6000563329117280  0.5993885011667716
  0.3992099311897035  0.6003488518226513  0.7997963984599884
  0.8014703678739383  0.3997808698971408  0.7988920537277593
  0.0071134542399417  0.4025256715494180  0.2016815419168169
  0.2039148512195636  0.2012034806827887  0.0007703638577350
  0.1995958522871318  0.5958670399334082  0.9970902810820653
  0.1947470725200530  0.6018356771125016  0.8050478543289802
  0.2006278671570067  0.8002254574717451  0.6004506833774383
  0.3988173970321950  0.6022778802722187  0.1972373472317729
  0.5997740878542188  0.9985902393087895  0.5924621086546832
  0.5982400147145661  0.1991662545251834  0.9979452221506583
  0.6030581411145792  0.6026933711845566  0.8000300760081083
  0.6004778538145678  0.7879676055574488  0.7983342556050564
  0.8001720762878674  0.1998175405559327  0.4000633349478795
