Zr Ti V  W 
 1.0000000000000000
    15.3251724423404525    0.0070128769391973   -0.0004714545103314
     0.0070165878469139   15.3328247917111025   -0.0066220456422159
    -0.0004713462084994   -0.0066216079972265   15.3468382774047818
 Zr  Ti  V   W  
   2   2 106  14
Direct
  0.2361412631035755  0.6333125027468156  0.0017525909769445
  0.4021679533533888  0.7995784410456498  0.0017994653741118
  0.0366908596807743  0.0027221805057986  0.6053854856320967
  0.7943384337989449  0.4067587924621881  0.2050512773251641
  0.9995790045943170  0.0071566295863229  0.0038855371317098
  0.0011569766187272  0.9983203914853028  0.8034820553094589
  0.0001260253038900  0.2042459269410122  0.9995979163210380
  0.9976231899678961  0.1976973458932809  0.1983127833108333
  0.0006214312052815  0.1974292886401795  0.3991921853769997
  0.0011192999232189  0.2024502939346621  0.5988052311276951
  0.9989035125454753  0.1975822968056423  0.7980089835162115
  0.9979809725842009  0.3999197110541517  0.1961534442809030
  0.9980633123256520  0.3996479438391806  0.3966467055954652
  0.9942966386094587  0.3992220903368104  0.6019882228893398
  0.9980882096646555  0.4000104562868042  0.8032834511548920
  0.0021251997947394  0.5922927485751298  0.0026941246268829
  0.0033645301432221  0.5998979376658470  0.2012847499512311
  0.0031309757406832  0.5999901539412670  0.3981049054671240
  0.0006159813713008  0.5968513367743490  0.5963712293077869
  0.0011414209616694  0.5991664151100320  0.8009838132210897
  0.9993460832949005  0.7946129425725952  0.0002176335366286
  0.9951193625879330  0.7997089364041198  0.1976374148662115
  0.9986994327797931  0.8027029850244650  0.4010936082131077
  0.9990958036114571  0.7969889884306365  0.6004445524945907
  0.9980418179535441  0.7977888326990836  0.8023798090281227
  0.1991076529803575  0.0088227969127068  0.0007659639761430
  0.1967301866700716  0.9982281704359712  0.1984464421450546
  0.1959649720382058  0.0016007536383597  0.4317215756167278
  0.2013697486002347  0.9949936117202385  0.8034998529716830
  0.2011132687825612  0.2030615233385475  0.9978448394907716
  0.2014468608082403  0.1994673623917709  0.2064449841766048
  0.2040376458548917  0.2054093786099379  0.5976621433581542
  0.2012603713796222  0.1968454886718317  0.7963983179185474
  0.1938750046811176  0.3983278153881598  0.9983466853002031
  0.1972860283266716  0.4009162474588044  0.1990469402479737
  0.1961241213866912  0.3960326013649551  0.4009273575219915
  0.1972696778661027  0.4010296640869691  0.6027370299837037
  0.1981055311790126  0.4051985968947823  0.8003612372419689
  0.2039039311908687  0.6005668615105340  0.2050707439946346
  0.2028912902283730  0.6014016819830462  0.4003969949914910
  0.2014897162244847  0.5992078310881430  0.5996152160725380
  0.2001521406155103  0.6070526379518015  0.7956258156242528
  0.1907556125870411  0.8194167995055879  0.9922572154006036
  0.1967663169873013  0.7990707883319116  0.1939049435073056
  0.1986646098836556  0.8022058152857940  0.4056321797343623
  0.1991144880779677  0.7979584159670283  0.6057839851099673
  0.3998291305764030  0.0060680047963684  0.0031200539499947
  0.3981593814376801  0.9960344319837355  0.2007551959697109
  0.3957568629891563  0.9973088038702321  0.3987660205522860
  0.3992767112727776  0.0034781390125218  0.5971900818217969
  0.3990163390890310  0.9983134323272116  0.7993361532236438
  0.3998190090616414  0.2013293150729180  0.0004303490455215
  0.4000645678531368  0.2016309414673193  0.2015677890301827
  0.3955385845157636  0.2009021856550975  0.4012133925425083
  0.3988610791660639  0.1987603360752540  0.7953996549277973
  0.3964200358165481  0.3974932049341282  0.9996014944627843
  0.3987166511113659  0.4039602936851487  0.1979604542423870
  0.3992048069183033  0.4038405197594013  0.3989818743820673
  0.3997398926688954  0.3973815242348124  0.6007829023802147
  0.4016654031798080  0.4019786732646836  0.8012489257076149
  0.4208171190624001  0.5888285386393418  0.0078997927381542
  0.4002474125410286  0.5956765740482799  0.5920379443605354
  0.3986621489065243  0.6004879064311979  0.8063300653704859
  0.4012871423922012  0.7963178677903802  0.2064286142294537
  0.3986293804479840  0.7973188004560394  0.4015985983725500
  0.3993461175932737  0.8006734432405905  0.5992817746063370
  0.3997015573652856  0.7991144107164351  0.7935452195285245
  0.5995989764438194  0.0019177115203481  0.9992632363694928
  0.5995271270083208  0.9985176109473358  0.1998740616576145
  0.5982567416779879  0.9993668775347239  0.3990203631690437
  0.5996596150378508  0.0041366262432273  0.5996730757228091
  0.5987799115923028  0.9928638866219752  0.8011650540714460
  0.5995876013794218  0.1996867777255905  0.9982036376184884
  0.5981886898864246  0.1986716644148384  0.2003285420428507
  0.5981922339850158  0.1990020497826163  0.4028229651374208
  0.5992966281247878  0.2022943669542396  0.7972232965063307
  0.6041826571150972  0.3964830048016099  0.9943923705845649
  0.5987622510760020  0.3989198488665564  0.1985337746109280
  0.6010777410467916  0.3988378641497789  0.3993724052970362
  0.6036028885169336  0.3951406425365555  0.6062038299993926
  0.6064376515664271  0.5967014516117551  0.0012665635688209
  0.5958686176578999  0.6001489711506534  0.2006821596552286
  0.5949798832543576  0.5991808772865578  0.4011449819664608
  0.5978360858256704  0.5984029140169629  0.5996457926418872
  0.5979159689999044  0.6012777464320586  0.8008411732067001
  0.6062727942349138  0.7997193787220858  0.9943914043290351
  0.6031724007695877  0.7999267892919801  0.1973850259819306
  0.6009099067863368  0.8009834906274840  0.4048753490726702
  0.5994965243542469  0.8001466834708900  0.6055853296982189
  0.8012244163281842  0.0016136103958782  0.9995407187666594
  0.8005599975683342  0.9937503843674821  0.1983550515870232
  0.8043970898780559  0.9985387116012846  0.4004825549574462
  0.7977809415376322  0.0008094955531702  0.5975135254263110
  0.8020656032567717  0.9948068239621868  0.7988215638449966
  0.7992996755277134  0.2002303901081987  0.9990898376335440
  0.7964650462154892  0.1969463810798833  0.2015218235932829
  0.7987256655148707  0.1998553027200560  0.3998562052087178
  0.7969562110187858  0.2005445350472613  0.5984827300400610
  0.7987780837667993  0.1958634801626714  0.7981062438763062
  0.8029339104725620  0.3995022969910223  0.9961943165788077
  0.7998515727203799  0.4007697209978833  0.4059644562940902
  0.7958915433755163  0.4030731378200897  0.7965082787741439
  0.8034069001221181  0.5983149667844611  0.0025348146869397
  0.7969600650936033  0.6063850033191068  0.2018405939048890
  0.7994123366782198  0.6004123462814508  0.3990729553818046
  0.7998142370028429  0.5961350264166702  0.5972806064057555
  0.8001007201982331  0.6053583977479692  0.7983718301934392
  0.8021560883495763  0.7999027802882622  0.9980191459094703
  0.7981781931962951  0.7981053480595761  0.3980230065519430
  0.8008688149607462  0.8005108388498059  0.6030772610257517
  0.9990977804625868  0.9971009903569846  0.1962710292868552
  0.9987838459746772  0.0011469013280846  0.3851689308781517
  0.9984480495134590  0.3984363450418120  0.9996436698044198
  0.1990596618768031  0.1998930154850827  0.4038581432899134
  0.2012262862559725  0.7998587229768778  0.8013716506250598
  0.4018937783128887  0.1998721915709743  0.5975635790639762
  0.3977939997772750  0.6022890285751882  0.1985149759213663
  0.3991154342071555  0.5994176644675786  0.3961639401774789
  0.5957745264942540  0.2001691154382950  0.6003973643963190
  0.5991593711302657  0.4035067758567842  0.8009616795932946
  0.6001324366072378  0.7973002991914356  0.8007285144824838
  0.7986703321906986  0.3992897820015438  0.6015411937658633
  0.7983663676360221  0.7986640131876651  0.1982395509606151
  0.7982147246582935  0.7988289245981760  0.8002878213061888
