Zr Ti V  Cr
 1.0000000000000000
    15.5054759955686290   -0.0026938295988576    0.0222345561511436
    -0.0026911951043345   15.4937529874400166   -0.0133710719798359
     0.0222461462953622   -0.0133733789628594   15.4975574155639322
 Zr  Ti  V   Cr 
   5   5 111   3
Direct
  0.0112176524095307  0.6126274387011286  0.1985281571636878
  0.3985626884296746  0.4008826346545532  0.6004925973157915
  0.5999341343503104  0.2003039806427226  0.2232123876141091
  0.6103160843593657  0.7995095423309573  0.9913817596243736
  0.7930231202493121  0.7982254846598150  0.8096627814337825
  0.9958873944939427  0.7875761434641331  0.3832002539675794
  0.1862837082323063  0.6003823824582941  0.0163627846337444
  0.2031796544273343  0.7975406374899777  0.3970359157036648
  0.5984762342030194  0.2020565319618672  0.7995139558020655
  0.8195093262634738  0.8049426772454848  0.0181247661665206
  0.9993750754968055  0.0010210661790888  0.9967419168468252
  0.0017274416629189  0.0024068220315785  0.1983533436401296
  0.9993926668661832  0.9993707995730249  0.3978743433142768
  0.9982735281688980  0.9981258273569980  0.5975735342736976
  0.9986978343260651  0.9987066883006708  0.7983787318382191
  0.0007300368761835  0.1999624137165668  0.9986211176322273
  0.0018805911257271  0.2007006141226740  0.1982233637329913
  0.9996039390077440  0.1991037494850079  0.4002038364872751
  0.9999968711323486  0.1983366275544010  0.5993788717374489
  0.9991281681720722  0.1999620574482364  0.7983946159504844
  0.9992869895719629  0.4001959689351965  0.9982591429254868
  0.0009257881847069  0.4010253633044806  0.1995118318221564
  0.9998665543651800  0.3983541948401479  0.3987728574307507
  0.9976425672038982  0.3985082949177763  0.6008752879327253
  0.9995121836843686  0.4008568648837914  0.8002463651291422
  0.9926959373922773  0.6009611166079282  0.9931279958094972
  0.0004919106160513  0.5937597195362293  0.4053060809487280
  0.9985940161618534  0.6003168866798753  0.6006405779443998
  0.9978336758556977  0.6003989155975978  0.7983510859944692
  0.0090083289059912  0.8009703805875539  0.9958642571013445
  0.0039337448986051  0.8104966897416860  0.1927694157471919
  0.9993318065034743  0.7990788151089899  0.5996100199818156
  0.0019178494302357  0.7997508458744571  0.7980673568970865
  0.1997554846299304  0.0007489954001658  0.9989558150436390
  0.2005441516621225  0.9993362846039342  0.1987883433434172
  0.1991750133511345  0.0000283178992522  0.3987584986879414
  0.1985242703014179  0.9989157144643347  0.5992274738479868
  0.1987561588514471  0.0000469194458355  0.7990623376481658
  0.1990416382952926  0.2003523586529919  0.9997469062874672
  0.1996274449587163  0.1996193496571234  0.1998670009648325
  0.2000350373093283  0.1998140984893090  0.3992803617746142
  0.1982864016426450  0.1985633968210034  0.5997638308366783
  0.1988092284344935  0.2001764561268403  0.7994821463435097
  0.1990820640873790  0.3986316408424048  0.0010811036019528
  0.2007143482227527  0.4010793131492740  0.2000732579250142
  0.1993370970961343  0.3985291392438257  0.3994483584277757
  0.1944986158026678  0.3993331703804116  0.5997092153885983
  0.1979405981526460  0.4013070235230644  0.8016026776470395
  0.2112139087661754  0.5992756722685665  0.2083636429121593
  0.2012181612812509  0.5964468805491292  0.4032073549432476
  0.1983334225699420  0.6004441801003035  0.6011101789473534
  0.1980147434600692  0.5999274239730443  0.8001280263349255
  0.2026783058900667  0.8023047643319746  0.9990058148995473
  0.2031169278267184  0.7995079861431986  0.1966524689866797
  0.1983446490825075  0.8001718902064899  0.5990170095075545
  0.1999304901073066  0.7989178423526337  0.7995572069307303
  0.4007660495422827  0.0006199593996232  0.9982218238563476
  0.4000034494351209  0.9980812512899129  0.1973914018898248
  0.4008250259901562  0.9992883710366710  0.3986164299052576
  0.3988549173898021  0.9983449247770265  0.5981698730400007
  0.3986964097057135  0.9999050355542537  0.7989083877900177
  0.3991288694336401  0.2000807785265799  0.9996271531083838
  0.3959872629116492  0.1991887807553105  0.1982760450407664
  0.3987320369274916  0.1990185102339600  0.3979280290400419
  0.3991249440030421  0.1953182764711473  0.5981626686842426
  0.3960907097401766  0.1998929640183401  0.7998814664169093
  0.3993777733088334  0.4007624096357358  0.9999642165403175
  0.3996352096098644  0.4012082859220661  0.1971089933225539
  0.4001280554057044  0.3996094911190533  0.3959184466166052
  0.3979863337401470  0.4007072479603211  0.8047150715758566
  0.4017749345588304  0.6006735222203993  0.0016103724773027
  0.4041140593391336  0.6011229814402346  0.1999605600955766
  0.4013787497379724  0.5999880316491647  0.3993433990706545
  0.3993884433241508  0.6048493823738819  0.5998398051069110
  0.3961592565691194  0.6009033695059102  0.8031923627484269
  0.3991768180007680  0.7998428695035538  0.9984413288586778
  0.4019340683261968  0.7995937986848642  0.1976820684239244
  0.4019189751126183  0.7993524827259211  0.3979726186727487
  0.3987585859334678  0.8010345824096161  0.5984320094425019
  0.3958185088308872  0.8002471648226345  0.7984245723914649
  0.6002541870813557  0.0049371736353193  0.9978212224986024
  0.6009235731390575  0.9950605923209092  0.1980256434757575
  0.6004390095503257  0.9980531841681540  0.3978856871342725
  0.5977133782764574  0.9997904120236252  0.7963613738900698
  0.5993884191359888  0.2014604499321642  0.0035594730308668
  0.6992891898901789  0.1989239778507208  0.5007219632164989
  0.5972559897718612  0.1987458693134967  0.5967770927995183
  0.6009242165900950  0.4000146607165151  0.0003143669122350
  0.6002989533212102  0.4039864549501918  0.1993224504469217
  0.6005866280776927  0.4004873003173560  0.3981340597173780
  0.6041286469736132  0.3982902639588626  0.5980532643160589
  0.5986493154408949  0.4025148394914227  0.7995404763823986
  0.5998581627592345  0.5960383803038000  0.9984398017166608
  0.6001216374412438  0.5987899323709865  0.4004852999182053
  0.5994845320547983  0.6006452317041324  0.5994977147338560
  0.5969175953755901  0.5991566715928227  0.7977100345386789
  0.6004514348874588  0.7990439058274559  0.1997969871041933
  0.5987398074192821  0.7995844446757432  0.5955999150191538
  0.5895634296455147  0.7998652341511382  0.7890962297757811
  0.8007180898330404  0.0046351985269525  0.9991924470364361
  0.8005086391203724  0.9982353514644845  0.1980244084199337
  0.7996734090825728  0.9998030256571899  0.4003252520946651
  0.7990710589662038  0.9973544508735775  0.5987775047696563
  0.7979660160966113  0.0054400195121557  0.7972770445040280
  0.8008909539571174  0.2018489899083327  0.0006826293706470
  0.8042427490823933  0.1990295939910249  0.1995404779569258
  0.8012111101261326  0.1997078336014818  0.3970467596145886
  0.8006633093137793  0.2012896900573994  0.8004134596216014
  0.8001014875138780  0.3996130866191551  0.0001091964464641
  0.8022153557907651  0.4019652801736559  0.1985175542860917
  0.8001492248256165  0.3988941937033185  0.3998586317268032
  0.8003469648832242  0.4003433250405858  0.5997005582157621
  0.7991300366733430  0.3987515155141465  0.7995617669458930
  0.7988037940285589  0.5980330767478741  0.0022266456820161
  0.7998335076577407  0.6006080745321312  0.2000372562085719
  0.7996134746183573  0.5982608438382028  0.4000559462041129
  0.7990721898927540  0.6006692912962575  0.5998105656466934
  0.7972671748554819  0.5952510755493681  0.7996837204455678
  0.8026451218436398  0.7996905543434438  0.2072412456779305
  0.7982129715988689  0.7981828281736288  0.3997635841153466
  0.7994089273325033  0.8002794443544939  0.5979059848115262
  0.5993178519033691  0.9988382500588566  0.5966993710710017
  0.6018183388443311  0.6012972134626617  0.1997666797723383
  0.6000901128949244  0.7988454928536942  0.3982458848462614
