Zr Ti V  Cr W 
 1.0000000000000000
    15.4486336428758069    0.0121581116209415   -0.0069918741920984
     0.0121590392488944   15.4505015656762907   -0.0015177914306970
    -0.0069892847668974   -0.0015156966616515   15.4491826341844032
 Zr  Ti  V   Cr  W  
   5   8 106   4   1
Direct
  0.0009208709213070  0.9634944229042970  0.9966429504249252
  0.0021757079447632  0.1804488800000589  0.9630827560022459
  0.0119733649042789  0.3829847658829775  0.6028590395093446
  0.6047673754271098  0.4197810707964217  0.3895078709760442
  0.7839212378290354  0.7829364660636842  0.2012077538301399
  0.1932444559929932  0.2069764387812874  0.5931741839702351
  0.1928886580795540  0.2034383447913670  0.8064045629984238
  0.4067453075314141  0.6042722567033100  0.5942291669209885
  0.5984758899251362  0.0047087638950737  0.3982400048903338
  0.6132166025559675  0.6007990695555945  0.2151376853983534
  0.5904816911580463  0.6211073703031286  0.4177844802496849
  0.6051955025122565  0.8045491925468020  0.8033199317476242
  0.8083294029718867  0.1984033220128367  0.8053894573781842
  0.9993278237166646  0.9988804612964854  0.2004938597522220
  0.0003619440806587  0.9979889269855022  0.3999845144936029
  0.9979670914399585  0.9938504512604788  0.5983286280331397
  0.9996308240652330  0.0045576210677598  0.7939119260363963
  0.0001935311221906  0.1986897733043744  0.1991020514419465
  0.0001760337025387  0.1985357631289540  0.3968987633323326
  0.9910688922742468  0.1859865939336194  0.5918861391039565
  0.9996570990435029  0.2061658036456042  0.7671059637655441
  0.0016502199257948  0.3960775443020033  0.0001896475602914
  0.0032743579364237  0.3954376465992774  0.1973428692753524
  0.0035699812058845  0.4010158736951304  0.3958675687158918
  0.0022379092923477  0.4018055926196973  0.8049361697303477
  0.0015667180019038  0.5922888279001604  0.9991775029314732
  0.0020045572718144  0.5973960206038896  0.2017968818672991
  0.0012759791849983  0.5989764630103152  0.4013993706617282
  0.0010949815293906  0.5986087293580817  0.6007407047094020
  0.0023412442764756  0.5998663590279762  0.7985394908071373
  0.9994415345447837  0.7768960288255043  0.0016009894931144
  0.9986206160177437  0.7978019440351684  0.1988358052890904
  0.0003344567039901  0.7987929173525450  0.3999890117478246
  0.9992828715985315  0.7982414966516610  0.6007756429578470
  0.0020473716460555  0.8000616129998326  0.8023600116136730
  0.2030785232187608  0.0032533111982844  0.9999575371744855
  0.1991283135355232  0.0010890856719175  0.1995626147690568
  0.2006226031304369  0.0016687586011709  0.4019513434306006
  0.1960554161806650  0.0000573609170815  0.6002868463009337
  0.2019390582334323  0.0002859294323526  0.7964228875491315
  0.2071714142539291  0.2023368761265622  0.0025914745032356
  0.1999306976123762  0.2012430389408477  0.1994227965396809
  0.2010459793639962  0.2018779086640438  0.3977774920048384
  0.2033442242702959  0.4009838678986911  0.0014615927833805
  0.2016680803762727  0.4012806386553605  0.2003152545538271
  0.2019508824823249  0.4027688860120411  0.3998169880866368
  0.2116035631595445  0.4076021494395369  0.5996645727304654
  0.2025493910417182  0.4053122194059241  0.7992436601232931
  0.2005911199822570  0.6011746376646622  0.0018285304624834
  0.2005199382900421  0.5997852215708533  0.2005166340966626
  0.2046896595753146  0.6024091578942924  0.8005511702928683
  0.1988383797489164  0.8009017894934909  0.0008889127752354
  0.1992574090603317  0.8009533740700819  0.2014066785039926
  0.2001883027978168  0.8011747042444284  0.4005632684855128
  0.1998477462187846  0.8014700240344488  0.8010270244808566
  0.4010950365245488  0.9991214036669255  0.9981288910140372
  0.3983934285015721  0.0019986243485262  0.1991204594349826
  0.3976201294082467  0.0027596544015940  0.3981602712381430
  0.3992971403780732  0.9998568728865359  0.7679964557238542
  0.4028603831430169  0.2011170425531455  0.9991030256424434
  0.4011153816472505  0.2009901405155872  0.1998089710408481
  0.4011103365145535  0.2018599197290209  0.4009516778158990
  0.4005304837232601  0.2045907828547541  0.6000749443105898
  0.4002052886562495  0.2009985920284685  0.7971037333100891
  0.4026366849879505  0.4000396855262821  0.0001608715472742
  0.4024920420851847  0.4011088220875810  0.1990266847413902
  0.3986010462675704  0.4014936824803742  0.3983607792553443
  0.4047412276356468  0.4012011343155341  0.5990383048252584
  0.4012595584823631  0.4068261726089538  0.8003274164539708
  0.4028304405668817  0.6010883295055933  0.0017027838961234
  0.3995529674770891  0.6005350160532488  0.1999712983048089
  0.3977081100370150  0.6025016647011644  0.3968697806206397
  0.4008890463403071  0.8009406417863556  0.0023024693005151
  0.3969718263992434  0.7995773078225833  0.2004091312470804
  0.3986586979098347  0.8036386072452461  0.4023643951420586
  0.4019751465697693  0.8027362683525445  0.6024420896516773
  0.3994257681105056  0.7973608136081231  0.8007925948392646
  0.6005143116439886  0.9996290506432566  0.9992157648030673
  0.5994836871381209  0.0019329909911579  0.1966799505135354
  0.6008004056076005  0.0030409649351990  0.8012248128259519
  0.6000034621278669  0.1994937287937408  0.9991936484398476
  0.5996034995330458  0.2000098099432391  0.2000109699073672
  0.6015258883053638  0.2050826402593866  0.4000091230029680
  0.5994560588650552  0.2003014201481816  0.6009702255640309
  0.5972330312623680  0.2005322923313055  0.8005482347453995
  0.6020860670904126  0.4008695135352530  0.9984740169090919
  0.6025820153642059  0.3961512125456331  0.1911296949678812
  0.6039672836764711  0.3999938058671015  0.6018122021722924
  0.6024564718600124  0.3995052234652483  0.7998899681135424
  0.6028715248912464  0.6004764421209426  0.0023722285523922
  0.6059552176983208  0.6019237380567578  0.6085998453199258
  0.5972790746894694  0.6010293368130574  0.8034992093663273
  0.6012064593123323  0.8000571635943635  0.0059192567769930
  0.5886449927954176  0.8058751261421307  0.2032755622792871
  0.5995253999904082  0.8112432438647649  0.4029288379561762
  0.6021119707023557  0.8051325827128978  0.6021988972247950
  0.7984390701438022  0.9997679937588919  0.0004532608442181
  0.7991270869167570  0.9976003415595796  0.2006071661798613
  0.8020305247263216  0.9991859282707140  0.4003253305105144
  0.7966611194702844  0.9987049173397162  0.6009909137466737
  0.8001631354970008  0.9969251407127208  0.8002315543380790
  0.7957229331777951  0.2000067846691756  0.0032826751266141
  0.8013793048984794  0.1973569083288221  0.2002483345253731
  0.7995245109805479  0.2002711106703256  0.3998748442632545
  0.7963308683977592  0.1987149328039124  0.5963769338621252
  0.8011501960062741  0.3987234000498642  0.0010055721503175
  0.8022212940707376  0.3937699394287347  0.1998246265955659
  0.8092800909043337  0.3987244432862613  0.4008134613958673
  0.7996667108303073  0.3988941486030312  0.5988563784755458
  0.8016225621230257  0.4034192187816176  0.8012867847520792
  0.7999349612083305  0.5985107286385256  0.0010752224254261
  0.8080470217235844  0.5868627592060126  0.2009892463906046
  0.8003471336304540  0.5995567176526306  0.4010411261720871
  0.8022414918110353  0.5984120675418020  0.6012647763241333
  0.8016838180826000  0.5995902682957975  0.8008017831479661
  0.8024437663047153  0.7987510481185164  0.9973503461761486
  0.8011138252508175  0.7997927240304308  0.4050222019206399
  0.8002120256736466  0.7988235776548828  0.6019091512037811
  0.8031482163314504  0.7984682152384186  0.8007191015078053
  0.2000267865537166  0.6024876748417256  0.4008308822443970
  0.2004299869045057  0.6030684472794785  0.5999219749773669
  0.2001389447308667  0.8003597075115357  0.6006978481121749
  0.5981275170484284  0.0026468153913752  0.6041422620546901
  0.4009984976015338  0.6013697853608928  0.8069713169779090
