Zr Ti V  Cr W 
 1.0000000000000000
    15.5250581035635555    0.0249023373092759   -0.0029593452149727
     0.0249075060967649   15.5258599297975692   -0.0072275987838562
    -0.0029689522119990   -0.0072397786097423   15.5108223676839163
 Zr  Ti  V   Cr  W  
   5   2 106  10   1
Direct
  0.9979508814004628  0.2019212306302867  0.7992658508749599
  0.0015702473398002  0.7987595708381963  0.2025828465903233
  0.4074015811624719  0.3872593959350047  0.2009986469899006
  0.5915600981590384  0.2059131985786500  0.2014551712088390
  0.7938418112518503  0.4022063770702043  0.3996325458218891
  0.6166075463821736  0.4162865818207615  0.1825844633329028
  0.5811233526397185  0.3804311101579373  0.3633834970963057
  0.9992615450572372  0.0014654706081393  0.0003719728051199
  0.9982031156990138  0.0050405609679594  0.2010721284849920
  0.9991972965326623  0.0011419988364161  0.4016071247488560
  0.9992183463836980  0.0002575169998880  0.6000894777525941
  0.9997006587940875  0.9969139608400402  0.8003468142167196
  0.9986435538817838  0.2006462491480797  0.0034392313812946
  0.9987401093816998  0.2045998118189902  0.2012561344526253
  0.9995282076992471  0.2000256364316715  0.4006631939444720
  0.9984686276148186  0.2012791004330904  0.5958701297877533
  0.0017080991968912  0.4004816658297533  0.0039937584889334
  0.0037492558086557  0.4005495492402527  0.3968258134954820
  0.0009591682488414  0.4013892732068973  0.5999777901678126
  0.0001547707939227  0.4052765600037175  0.8024783090725159
  0.0002183628738733  0.6004245895682951  0.9999027711410294
  0.0015444799391938  0.5931169493741300  0.2001879902897497
  0.0005900818928495  0.6007249371541337  0.4006086174942008
  0.0002665543985741  0.5997196749067181  0.6005401868734855
  0.0008842948085839  0.6009165109592706  0.8003477498396980
  0.0009958877974627  0.8006506918291674  0.4051962887662481
  0.0001766811439177  0.7995948731126804  0.6010837437627103
  0.0003664450450439  0.7992383562936517  0.7995162680603031
  0.1992730207300728  0.9991169561957801  0.0013317589099520
  0.1934642117163091  0.9985454538535863  0.1998119209555557
  0.2000032566875965  0.9996433485374627  0.4003291665237501
  0.1991246307035248  0.0004944173289547  0.6013351518597977
  0.1994532047758019  0.0002804463048314  0.8010789560944114
  0.1976669967168875  0.1978992767778466  0.2018886684963132
  0.1995034398888027  0.1992595654164081  0.4013409260559178
  0.2001174241378414  0.2003989139548966  0.5999497436996158
  0.2035413907284124  0.2000608920372266  0.8005511547418529
  0.2017238709611343  0.4008219850821436  0.9997851462568519
  0.1970777987560423  0.3985515868000300  0.1995520338030265
  0.2000881342034944  0.3994666971748954  0.4012529868395829
  0.1998025602533746  0.3997684538068896  0.6023748056123071
  0.2002838235096387  0.4003513515695010  0.8013268990639107
  0.2011964890123066  0.6002611363351270  0.0004330476288408
  0.2036002263207995  0.5984888126767930  0.2006083585766993
  0.2010216279314775  0.6009480375602987  0.4005370087622184
  0.2004645857876840  0.5995500624177668  0.6011039318779956
  0.2012278913350067  0.7989137591670085  0.9994671734826612
  0.2060565475008242  0.8007794199806808  0.2000080508426050
  0.2014262207792342  0.7996535149655765  0.4016479897619921
  0.2003571852454776  0.8000025362911599  0.6012829936702989
  0.2005865385265789  0.7997263233857286  0.8006793300188545
  0.3984025405376869  0.0001327470766790  0.9988173475090817
  0.5321294041286584  0.9993613342537795  0.0681862694581180
  0.3983879786947118  0.9992040456611844  0.4035975862405825
  0.3994077905512717  0.0004768807937832  0.6015286901383775
  0.3996440868120035  0.0003740456234085  0.8011722250755969
  0.3995378018411825  0.1998380718246005  0.0021174951782300
  0.3892294596605897  0.1654122994671548  0.1997788795457370
  0.3977155717122046  0.1982914924289658  0.4021558330926879
  0.3989683529991482  0.2005931873353477  0.8010622000797764
  0.3989090381460806  0.3991217504032147  0.9958497349174241
  0.3921849388695017  0.3988461867526438  0.4073303894843471
  0.4006555827154752  0.4006181152557918  0.6015901750392850
  0.4013865525667357  0.5993980314469867  0.2015470774041287
  0.4016217756663781  0.5976406559834806  0.4017877011876034
  0.4009928531024008  0.5990179761030996  0.6003251523984138
  0.4007634781651893  0.6000690969483135  0.8000880505406255
  0.4007717271248695  0.8005052523565076  0.0008458193625280
  0.4015878435862312  0.7966276454740667  0.2002501964007686
  0.4000555627141479  0.8015704417753842  0.4001661849415151
  0.4001055437008269  0.7985538735400194  0.6013213811340318
  0.3999209918350120  0.7990138184516808  0.8000557334971672
  0.6034996124855403  0.9979111223883986  0.2026344859916749
  0.5975069004477723  0.9974204442056422  0.4002043420518377
  0.5996980023485762  0.0004975939306107  0.6013527729999869
  0.5991497337615292  0.0005607650309321  0.7991283137247647
  0.5981239293778987  0.2030520204059563  0.9961914259793823
  0.5977541927283305  0.1900543065461883  0.4072011643244933
  0.5990415469182646  0.2015937808049198  0.6007786533103717
  0.5969189117338070  0.1999621898193845  0.8000882644168426
  0.5998490148077461  0.4020689311457256  0.9927002532478436
  0.5994625451523869  0.4007845983398643  0.6039511045476550
  0.5998098512549821  0.4024050979970053  0.7984286177543258
  0.6001645909699628  0.6011762056107680  0.0005875930541377
  0.6014438118368192  0.6051137881680556  0.2000625688061884
  0.6012274251322552  0.6072016563107139  0.4003557740858351
  0.5996876988341988  0.6013438742309113  0.8004159941777305
  0.5989699462906758  0.7997873367588696  0.0002010420962787
  0.5989684623787245  0.8016462787327985  0.4010009019710975
  0.6002070179581471  0.8008283880228001  0.6008315602917446
  0.5995844031100330  0.8009852999355479  0.8019081649090398
  0.7999543441270596  0.0013384745833604  0.0002122564432964
  0.7985369976648005  0.0021786625209679  0.1998081363427331
  0.8003337266847240  0.9994232398971059  0.4007062531228503
  0.7995717360569048  0.0010296996031141  0.6009483362892747
  0.7986327610104540  0.9998492779052133  0.8014993559769671
  0.7961813850858537  0.2002566505325863  0.0011041050868335
  0.8011358337094923  0.2000946071290672  0.1999404740242620
  0.7973929751000842  0.1956761173470818  0.4006482602075546
  0.7985504408789283  0.2013265442231936  0.6002512443236674
  0.7937639977634843  0.2015353626663857  0.8003556920599305
  0.8012597657327437  0.4014596592577052  0.9982495224827003
  0.7999286418390408  0.4005766392261711  0.6029058561269077
  0.8001823972965471  0.4020662731909465  0.8011886631143924
  0.8009577440036770  0.6031835339454947  0.9982452187317811
  0.8003042153876043  0.6066589196459995  0.4013781119146676
  0.8003210327623649  0.6008046060391606  0.6012176928720232
  0.7992220019888483  0.6011342708714985  0.8001048529733973
  0.7991298999147437  0.8015390789018857  0.0003105284829452
  0.7979180377118921  0.8016910014453649  0.1995075033388067
  0.7997581296598661  0.8021092171658070  0.4000743074910012
  0.7993669650191442  0.8006846889184226  0.6010852923123103
  0.7997513929411544  0.8005093308590473  0.7999264688393011
  0.0006814092266880  0.8002364698984574  0.9968180167233137
  0.1992495261167684  0.1998228360979568  0.0007361178657352
  0.2008325678668464  0.6003204719256688  0.8010376911833221
  0.3998379589932638  0.2007484964985899  0.6019946494897005
  0.3995764807139773  0.4004498099348545  0.8000037781517660
  0.4004476733268390  0.5985820126957546  0.0007292406353435
  0.6001150016453346  0.6006698139504461  0.6001722014295762
  0.6007705044105289  0.8010641911020620  0.1997209701278388
  0.8071801106409245  0.4021733431190482  0.1943727588504100
  0.8013418071357109  0.6027249494558080  0.1993967443926381
  0.0017473061229389  0.3988711097751685  0.2003486448778451
