Zr Ti V  W 
 1.0000000000000000
    15.3251724423404525    0.0070128769391973   -0.0004714545103314
     0.0070165878469139   15.3328247917111025   -0.0066220456422159
    -0.0004713462084994   -0.0066216079972265   15.3468382774047818
 Zr  Ti  V   W  
   2   2 106  14
Direct
  0.2294341609490892  0.6358640499072835  0.9994636044650363
  0.3995965322934799  0.7993228528593315  0.0020490047715018
  0.9960791198018702  0.0058399033699439  0.5981136242686922
  0.7978091379263843  0.4019347673527999  0.2044822779160657
  0.9983352497074710  0.0088441348425884  0.0043952199581115
  0.9989720538380036  0.9983199444728093  0.8031459621619884
  0.9996897676133448  0.2039372478513529  0.0310442894853927
  0.0038626986817378  0.1963096206063611  0.4029226187455853
  0.9996049594778168  0.2030630731703493  0.5990675952422241
  0.0005421410310655  0.1980951484609810  0.7976608515597648
  0.9989534477943115  0.4043310359489678  0.1960886142297158
  0.9989990665068292  0.3983651737874813  0.3959260865081258
  0.9949771828743267  0.3995949306850443  0.6027023101828312
  0.9981354256943095  0.4008472103553075  0.8032678766208741
  0.0084535233525860  0.5945945173763303  0.0020819475498992
  0.0042152021550175  0.6021110289780002  0.2019268774525019
  0.0034772051728532  0.6010062270302611  0.3987650420751934
  0.0012335604556104  0.5979527593766755  0.5959493119349570
  0.0016384867318129  0.6002381954957471  0.7996533351297141
  0.9997202987242300  0.7966609621956113  0.9995841243081285
  0.9951402584458749  0.8016824361398249  0.1976578674377792
  0.0010017174544925  0.8038897546683056  0.4013585010850843
  0.9987557638390528  0.7981397856772481  0.6015354897847746
  0.9983017310918286  0.7988052677776102  0.8016609763610943
  0.1981371918912188  0.0089836072603804  0.9992622230720561
  0.1977413139955457  0.9990598041981278  0.1984168139366644
  0.1961744871185029  0.0009264277555992  0.3991981854042995
  0.2013721773251421  0.9997109520844200  0.5998840573457743
  0.1985348581975538  0.9938365223087757  0.7983028491834000
  0.2013320959982220  0.2012248653654551  0.9988940526603981
  0.2053044629782691  0.1997338308061310  0.2037452573323307
  0.2043144470403690  0.2005097443178065  0.5963286471185747
  0.2004551624030016  0.1966593897087756  0.7960852211716130
  0.1960630453413283  0.3958475644976051  0.9974243370361922
  0.1972962560761639  0.4004776215472544  0.1982851635077107
  0.1967068612894634  0.3966419485724963  0.4010718927202035
  0.1972147745038949  0.4001097958108641  0.6021197450402762
  0.1992629950995675  0.4035511356132342  0.7996266255050586
  0.2044997377233601  0.6014013123190570  0.2046956562644266
  0.2033418193702480  0.6014848289023770  0.4006334963367928
  0.2017182315899324  0.5993424910374495  0.5992792624545360
  0.2002209799077044  0.6053272001448593  0.7939958037706250
  0.1905094781123498  0.8224024087089341  0.9924581941380847
  0.1989947035208389  0.7991388289460924  0.1922084468951406
  0.1991208088193979  0.8015819074517350  0.4050494932185255
  0.1993904612010815  0.8013618791306247  0.6070213542418996
  0.3992902847622103  0.0059668156498924  0.0018339495588828
  0.3989788484677894  0.9955482758654911  0.2003158096713751
  0.3980361383389530  0.9967321850699198  0.3973606312994465
  0.4002563136744626  0.0035285703333034  0.5966866786286649
  0.3995138424289525  0.9973824562223208  0.8004450362205406
  0.4006159560183041  0.2013258227352825  0.0003122518729999
  0.4007102749992836  0.2020706246696711  0.2014390364106910
  0.3956661028518486  0.2004475067620634  0.4014745636511851
  0.3983136850662869  0.1984411364529756  0.7952029154488928
  0.3970879366837895  0.3977091037762727  0.9993035625931069
  0.3999165586061465  0.4049757149732283  0.1982371022849244
  0.3994324431387280  0.4038052398284041  0.3994938938981532
  0.4000130834566989  0.3974080405280456  0.6010018214671183
  0.4021989085220611  0.4023063933399658  0.8008047317450979
  0.4171287939304484  0.5889159390321668  0.0079384727746166
  0.4000695550784393  0.5963579791705004  0.5916941132628365
  0.3981117917687569  0.6003079130252522  0.8069448884859957
  0.4023474613052057  0.7964255720106590  0.2065649559225617
  0.3988185055264781  0.7968540574924569  0.4018379596747075
  0.4011261465535160  0.7988937358350492  0.5995916617435946
  0.3996855925005949  0.7985593151227377  0.7938086234608047
  0.5988720522643175  0.0014511537211723  0.9994673164679730
  0.5989346424977752  0.9981257810525470  0.1997406470494269
  0.5999206539071533  0.9990234748274928  0.3997074710915425
  0.5998088671989138  0.0037414895654606  0.6001673532484258
  0.5986712768788128  0.9925952211409887  0.8008632772635751
  0.5996048715053067  0.1994737787720904  0.9976392924944116
  0.5983438900549408  0.1982407510317652  0.2010717283934852
  0.5981220812392569  0.1985874687845180  0.4036553381685123
  0.5986837781578414  0.2022385802855959  0.7971072264282597
  0.6047724875867467  0.3970038386037659  0.9941949757219900
  0.5992936294074885  0.3987551910372318  0.1988980061894617
  0.6012649973425559  0.3984458827903418  0.4003919415039481
  0.6042685339759787  0.3955937445229503  0.6063326694714402
  0.6064095808393295  0.5969846255908149  0.0012388872202072
  0.5959551199484436  0.6002808648911057  0.2005133334311509
  0.5958360066728529  0.5989778634537261  0.4013998238337792
  0.5978147029050289  0.5977045117953064  0.5999128727264714
  0.5977213964591995  0.6011326428066777  0.8006948046913137
  0.6049662672691788  0.7997100418437787  0.9947272534062799
  0.6031297759089965  0.7998306319549329  0.1978709208067462
  0.6012579850759385  0.8006705989256881  0.4053428442814972
  0.6000030619091722  0.8002603905458477  0.6057267286811565
  0.8004076715766216  0.0016732646608300  0.0003374309235793
  0.8003485895747218  0.9941216692235357  0.1990302341877880
  0.8044979881838621  0.9977462695651816  0.4002707072334154
  0.7977247663247260  0.0004819858443646  0.5984209954212751
  0.8001927827548926  0.9939163929165830  0.8007338706310597
  0.8003763790070435  0.1999074526170869  0.0006873534597787
  0.7948046573673666  0.1971024222859521  0.2010645446359398
  0.8014863262072283  0.1990551260264418  0.3982374804404339
  0.7951976517144043  0.2020138065408126  0.5986254236941796
  0.7989007077449063  0.1958853337380358  0.7984225771926473
  0.8042793454654724  0.3997691664576981  0.9963179508995316
  0.8008368445192652  0.4005989666090368  0.4055143844139790
  0.7962401638169969  0.4027317485818647  0.7967012829611634
  0.8045282413922349  0.5987666920678557  0.0022772834067981
  0.7977846870940007  0.6059429520989436  0.2014327764850019
  0.8004767033578136  0.6006554377769061  0.3993049046034152
  0.8000176443163753  0.5958974177361166  0.5974141064195800
  0.8008434588175477  0.6050242276530426  0.7990140486355233
  0.8022876781818657  0.7999657754736682  0.9984694556626589
  0.7990343744130016  0.7983273889269872  0.3985851642896009
  0.7996041801514016  0.7980283673597444  0.6049322411698498
  0.9995812370924581  0.9942603133701665  0.2002777592071938
  0.0007745677090192  0.0014481515398465  0.3917967785288841
  0.0003270515604237  0.4007760586377723  0.9999445966485182
  0.2000648284715635  0.2001486022030071  0.3995024043450962
  0.2030637599211441  0.7971337520563460  0.8048210527763323
  0.4024490177362767  0.2005471583783030  0.5974157288210786
  0.3977677660892916  0.6027646530245511  0.1987865151917920
  0.3998452826952485  0.5991396216267570  0.3959092444743793
  0.5962916968839550  0.1999104153530075  0.6006030793411515
  0.5994719526607361  0.4033170643727682  0.8007073365353936
  0.5996459003044255  0.7970273039268005  0.8011094698125617
  0.7994068661112714  0.3990827317994438  0.6011741488228218
  0.7983692455671412  0.7983823118437131  0.1985198578314885
  0.7974022110110539  0.7982415083544363  0.8013070126576333
