Zr Ti V  Cr W 
 1.0000000000000000
    14.8138559318412142   -0.0848084636481176    0.0993935257865870
    -0.0849761733959416   14.9227740043205568   -0.0574560876277225
     0.0994210470861585   -0.0573542844679340   14.8933332382251109
 Zr  Ti  V   Cr  W  
   3   5 104   8   4
Selective dynamics
Cartesian
 -0.4400523864462732  2.9068078316554447  9.2609785705585335   F   F   F
 15.0827595558097372  6.3298731846007570  8.4259636001166669   F   F   F
  2.9535489372940971 11.2097154037564053  5.2482814621368430   F   F   F
 -0.4925772932003342  5.4512179779631982 11.8296175767225993   F   F   F
  8.5888485531555414 14.6789326093359573  7.8673801220412036   F   F   F
  8.7878380981460289 12.0191463245358197 12.2184018517312314   F   F   F
 11.4633932832267007  2.7520955166655270 12.1275947704608811   F   F   F
 11.6412020695335627  9.8975151159570522 11.9652332644125146   F   F   F
 -0.6692882463388172  0.4392699921309627  3.1536855385086273   F   F   F
 14.7786941686414970  0.2840529338114579  6.7511953706193335   F   F   F
 14.4280662158795998 13.9231888393734771  8.7187497453522287   F   F   F
 14.1961038122813168 15.2011668551966448 11.9810972224321617   F   F   F
 -0.3337515810900526  3.3241229788297377 15.6864731833740922   F   F   F
 15.2119687753872608  2.5072430771583645  2.9873578532442351   F   F   F
 -0.3926809909586696  3.7142326527412495  5.6171872059232300   F   F   F
 15.0739942262514770  1.8971048645939930 13.0239340123015701   F   F   F
  0.5090207552876600  7.1407641866450220  0.2439561385823723   F   F   F
 14.6825759353351515  6.2371629866685812  3.2313976474703519   F   F   F
 -0.6433098944342370  9.1046396535881531  2.0545940678094898   F   F   F
  0.2666578332419229  8.8914680979766985  5.6892906154393525   F   F   F
 14.1803412113554597 10.0347549443245008  9.1645395481098806   F   F   F
 14.7158813219014384  8.2762339744479583 11.6072001967474119   F   F   F
 -0.1574791052795197 11.5715980531185618  3.2020284173345113   F   F   F
 -0.5163174176939191 11.8581704927548888  5.5622094566249034   F   F   F
  0.4816037229676752 11.8927525985494000  7.9488413584739845   F   F   F
 15.7106061961503745 11.9314432169934150 11.9416096161092664   F   F   F
  1.6643741908181395  0.3602740912928745 14.9441662743159220   F   F   F
  2.2896147585282707 -0.4764927932338922  3.7783811257784676   F   F   F
  3.5235885081119447 14.8076384002275088  5.9369918770391266   F   F   F
  2.6997662033923877 15.8750335451328883  9.7798995631423455   F   F   F
  3.2944575306770147  0.1773300701969969 12.1563614136754676   F   F   F
  3.0772312174164003  2.3761140362310651 15.1125102130237519   F   F   F
  2.6709866759018985  3.5116222244527386  3.1412282596433556   F   F   F
  3.0020727790278667  2.5002383967820294  5.8961996000740386   F   F   F
  3.1050883181272066  3.7040500248683896  8.6402988437345165   F   F   F
  2.3568948341198483  2.9571417152043198 11.4400985211827333   F   F   F
  2.8556798914581512  5.3614059899977775  0.9413652326933102   F   F   F
  2.6512677248274295  5.8943185480391342  5.6305600407599874   F   F   F
  3.6553858656192530  5.8402624953934650  9.3962161692545667   F   F   F
  3.0678452414443473  6.6073909640894595 12.2236149879809748   F   F   F
  3.6547155679818863  8.8322803371477256 14.2635005056156832   F   F   F
  2.9245968380351246  8.3209482373508621  3.0243429355221103   F   F   F
  3.4838389536818815  7.7244580938915623  6.6276688102817083   F   F   F
  2.8259243896140851  9.2408610183912234  8.3202154437693370   F   F   F
  2.1802743027537947  8.8388277121778902 10.6835549701319845   F   F   F
  2.9004367166344922 11.8202830040413431 14.0566827126220897   F   F   F
  4.1829599715689811 11.4878008329696559  1.8279966442868631   F   F   F
  3.1171368613404979 12.3274820325217842  8.8379142699949487   F   F   F
  3.7357097214548447 11.1805343188161252 11.3195425230213012   F   F   F
  5.2398888109518547 -0.2857268270193673  0.4546129841596941   F   F   F
  6.0837116858891642 -0.3120248037209483  2.8903745863596320   F   F   F
  7.2567389690680599 -0.9741522058278093  5.4803044920663835   F   F   F
  5.3458208721527356 -0.7255951387845804  9.1788828570530434   F   F   F
  6.2691548644272839 14.9103079334817963 11.5533572727672809   F   F   F
  6.8565467638136308  3.0053408996072379 15.6651748167188138   F   F   F
  5.4321319051276244  2.3019804680728639  3.0977211342687361   F   F   F
  5.5399401747922994  3.3035008086752988  5.7313575057359341   F   F   F
  6.8113907164898126  2.8524453278932862  9.3052873660413233   F   F   F
  5.2134559100128248  3.4839032078149126 11.8237380942077799   F   F   F
  6.2757846094570011  6.2810349254329454 14.3313486911584445   F   F   F
  5.8386308285574060  5.9822299026061412  3.1526996562958116   F   F   F
  6.2131562955651374  5.3397041598669510  6.7352639295540193   F   F   F
  6.4206609110364274  6.4612056784559684  8.6052231530160643   F   F   F
  6.6930189208650379  6.1780846954280983 11.0662003723281117   F   F   F
  5.5465099347417919  8.8125800004361299  0.7119361943793479   F   F   F
  6.8840551059000514  9.1121267985489141  2.7250586946854001   F   F   F
  5.5728437024307924  8.6249944278642374  5.6936288453822685   F   F   F
  6.6773730595297023  8.8036516427028548  7.7764411821397843   F   F   F
  6.6424765606934919  8.9811511978746967 11.9145541189913367   F   F   F
  6.4165713240702669 11.2329235957619602 14.7813170179659963   F   F   F
  6.5673080099835204 11.4639119184331868  5.0206318375876835   F   F   F
  5.5162483094235197 11.8300637801691266  7.9310717857047672   F   F   F
  6.0360773928368081 12.3206196786490025 12.3807850837458862   F   F   F
  8.7045853507970001 14.2699193393217456 14.1717794011187159   F   F   F
  8.7630699959934777  0.5089374632793400  2.7541654323599816   F   F   F
  8.8872613132302583 -0.0480436166355531 11.3723086944191287   F   F   F
  9.2158535044652155  3.0428196980038655  0.3341323556067459   F   F   F
  8.0649352210274348  3.1710687773914130  4.1437372751188839   F   F   F
  8.0963838062224394  2.1258076557002346  6.7036959211511595   F   F   F
  7.7048456816289415  2.9567121263202014 12.9096351583066120   F   F   F
  8.4231391489360288  6.4533330015670165 15.4153795424217321   F   F   F
  8.7381140480864481  5.5700657038785826  4.1526217603433029   F   F   F
  9.3825029739449839  5.5119777998601398  6.4453986825103282   F   F   F
  9.3587015922059358  6.5155732812011369  8.4754761663802789   F   F   F
  8.5338208244491458  4.9885590682108951 11.8700112493422427   F   F   F
  9.8728654066325934  9.9380967976192061  0.3986148798806342   F   F   F
  8.6954163045492603  8.1453962830219258  3.8598766059482581   F   F   F
  9.1059928048624172  9.0391259340017243  5.6942181337314581   F   F   F
  8.6406839324700382  9.2744974807138050  9.6670512714052599   F   F   F
  8.6449152381830707  8.0942046416442874 12.2201030693942396   F   F   F
  9.7063237820906121 11.9300486990511185  3.3955730807325009   F   F   F
  9.2977202073061598 11.4425622003325937  8.4801738740450183   F   F   F
 11.9758362349091367 15.5291459066195454  0.1475509694909040   F   F   F
 11.5585678559818952 -0.8949324518334880  5.8848235752591087   F   F   F
 11.8831823406470694  0.5227612926672706  9.1510243020002235   F   F   F
 11.9425826046573587  3.5709683488454331 -0.4074311849910116   F   F   F
 11.5882145120998725  2.9495288939226687  3.3245593936564761   F   F   F
 11.9109425698337255  2.7790423307949066  6.2696225529042549   F   F   F
 11.7474305852117418  5.9293160226713839  0.9325084326210865   F   F   F
 11.0744805040213770  5.1694072144386887  3.0857650080613390   F   F   F
 12.2298385907591971  6.4672205922860204  6.0036593367176891   F   F   F
 11.5965239004399336  5.0788677458471216  9.2834512525198765   F   F   F
 10.7749040178688578  5.2005861957174337 12.9593783093831991   F   F   F
 11.8187865735154993  8.1835789264842109 14.3723840461467152   F   F   F
 12.0596633828007249  8.8226198061784000  3.1767313251216036   F   F   F
 11.3785473723192059  8.7268439647013913  6.1602559308838449   F   F   F
 12.2968868787066548  8.7088380221425634  8.7927847341612111   F   F   F
 10.8130225561646949 13.4706534521895822 15.0267754059541758   F   F   F
 11.9195163616265098 12.3501589996385661  2.5964073703001418   F   F   F
 12.0760620819872724 11.0665387189112465  6.1008792406711470   F   F   F
 11.1893827673144983 12.5100742478591762  9.4658909688579307   F   F   F
 13.9573349293702851 13.1886833631909433 13.9128143597441571   F   F   F
 -0.2493819077752072  6.0129631546366262  5.4079123334252870   F   F   F
  0.8563695937484864  9.5582635080789267  0.1390521711270536   F   F   F
  0.2256032170455287 11.4988455986122418 14.0993674988498068   F   F   F
  3.4906247658078202  5.9317544621387635  3.0968783476555894   F   F   F
  6.9085604501839324 12.0827888211996743  2.4339267753262042   F   F   F
  9.1799682004549545  2.9670161945575879  9.1173901679486598   F   F   F
  8.7047688995054084 11.9728180073194590  1.0476766013063037   F   F   F
 11.6911357443139430  2.7940449299047136  8.5254396592070112   F   F   F
  9.6209566272535785 15.6118006891790806  5.1683515383522494   F   F   F
  9.3281513519331369 12.4939684016850148  6.0950496562024918   F   F   F
 11.2194172360649294 -0.0714243911874234  2.9778028328066442   F   F   F
 11.1931794588017404 -0.6332179677489594 12.2937156023292040   F   F   F
