Ti V  Cr W 
 1.0000000000000000
    15.3901465190355609   -0.0011250204104957   -0.0011259532101999
    -0.0011247543542261   15.3962745551000300   -0.0010074302771283
    -0.0011269524369024   -0.0010081141208892   15.3968520262370543
 Ti  V   Cr  W  
  15 104   2   3
Direct
  0.9988352540386457  0.0012710296948313  0.9951528384747615
  0.9989072966849036  0.9997810103909356  0.2101914348136802
  0.9962986842728563  0.6014650566663724  0.5997434021920954
  0.2045776786631735  0.1975899057835864  0.7950101947404404
  0.2066677471949416  0.5973540971893194  0.5987811892810528
  0.4128623420722760  0.5984929510282123  0.6040622410730366
  0.5840253363408509  0.0030163835600550  0.5983589077892468
  0.5955943542678455  0.3964302609939445  0.2062331240829774
  0.5990053214463967  0.3958291376901112  0.7972438770595505
  0.5968071119335816  0.6048467893356326  0.7924616890788421
  0.6078815158153815  0.7939269023876291  0.5957322797188673
  0.7909898920127063  0.9999396192071967  0.4068333648005401
  0.7985904257059029  0.2014229608641230  0.4012707585966297
  0.7982932970891999  0.4078315599075534  0.4064455729421311
  0.7919502052142745  0.7960388872336998  0.4078196704261598
  0.0012369782345634  0.0004597658429673  0.4023055195575305
  0.0025480727046244  0.9989227426902514  0.5998404076902678
  0.0004713974264346  0.0002790723703812  0.7986475854588563
  0.9972294196738646  0.2012291373745070  0.1956847999715881
  0.0011732104691708  0.1992712763799467  0.3993613059843367
  0.0004611392982640  0.1990409862231281  0.6015000461747457
  0.9980006447150435  0.1988791680041307  0.8027705651895024
  0.0008056637777878  0.3982386215366180  0.9989839315471640
  0.9991704708033893  0.3997643205528418  0.2022861465124421
  0.0026534779478440  0.3994339400332784  0.4021246152533817
  0.0003661673458364  0.3968254524002910  0.6010784275383405
  0.0014586712101821  0.3997928612906826  0.7992605994055948
  0.9999588924910131  0.5983325476949114  0.0002388262824764
  0.9954421036383146  0.5998525209883855  0.2009400070679671
  0.0001586095734490  0.5999367836792195  0.3985860615583687
  0.0005762390477255  0.5989731589145211  0.8022775697139519
  0.0005873002532015  0.7984423776683157  0.9984777659546882
  0.9985493175936908  0.7989889537987025  0.2026891138475794
  0.0031825347057162  0.8004125928185361  0.4062296802560933
  0.0011449628490512  0.7986341794726531  0.7961915222638207
  0.2018628230888320  0.9999237305556981  0.0005337711017842
  0.2008379157091629  0.9991505106277021  0.1996244101987445
  0.2017421977875096  0.0010339676260716  0.6021547641242679
  0.2029735369688622  0.9963486316847179  0.7991518749036480
  0.1964017289650361  0.1999518968111502  0.0020330993394260
  0.1990710637701422  0.1988515059387258  0.2010152722110158
  0.1997616852781683  0.2010066815659426  0.3985455203571173
  0.2007156794874774  0.1976834413293318  0.5963032276286324
  0.2002030476927170  0.4000990099911391  0.0003096170012962
  0.1993975801299177  0.4008382520596135  0.2011778460579666
  0.2002715465650234  0.3998799232111689  0.4007827781233646
  0.2008840195301192  0.3986253770046767  0.6006611669648108
  0.1999847942597892  0.4027471281461600  0.7994631505020123
  0.1996408817518386  0.5994096623396575  0.0024287742970564
  0.1982255090744995  0.5996889096960459  0.1994689565498251
  0.2018904235726512  0.5994883742631590  0.3972492765061051
  0.1994808050505011  0.7994264725428814  0.0001876657250932
  0.1988678941769594  0.7998937786985815  0.2011196006113642
  0.2003741432009128  0.7976724493446367  0.4000586242619381
  0.1984895699221831  0.8020174797579058  0.5994234101315823
  0.2001074073053609  0.7977967904286936  0.8003941668626698
  0.4006496921279228  0.0005346186263613  0.9993295116432740
  0.3996157531286215  0.9993884987472110  0.2005670030789113
  0.3999929108375888  0.9997638298196044  0.3989637476112207
  0.3018671881673478  0.9996777333666927  0.5011286955001671
  0.4007410994976091  0.9990267551555301  0.8017929645718341
  0.3999211132574585  0.2005503202290431  0.9999965293270298
  0.4009990030864855  0.2001233678006496  0.1991282003338859
  0.3989928955891456  0.1988478949704339  0.3999596570561661
  0.4011379826930079  0.2017062453329732  0.5998678481275598
  0.4027256448272614  0.1988684239203390  0.7996920463710683
  0.3991306371912097  0.3996477999417073  0.9985977799495717
  0.3977540821755212  0.3994532989096217  0.1999042056027691
  0.3984659289955335  0.4005381343866304  0.4015868968060409
  0.4014878758967236  0.3976143198666097  0.6013964869524179
  0.3970523744056522  0.3993501877933396  0.7996069409078522
  0.4010253290259936  0.5987799417433886  0.0007765442658916
  0.4026117617390100  0.5997650460221593  0.1993454249790090
  0.4024339084150110  0.5998715826507122  0.3977926327971141
  0.3974720135157010  0.6002919823081923  0.8025081160459181
  0.3999803894220189  0.7988887719974084  0.9987596460997720
  0.4003245258468797  0.7992857036323766  0.1992022038996335
  0.3976406349876314  0.8000600001336752  0.4010636903129415
  0.3989138565450808  0.8045206153846671  0.6001254711368937
  0.3994465640923572  0.7997561290542540  0.7981813571627674
  0.5996730566721645  0.0005559597092185  0.0001460371299722
  0.6005259175206402  0.9994318724939623  0.1993252264825413
  0.5946667335466130  0.9997676684359487  0.3974682014670673
  0.5990599035656942  0.9984541030661377  0.7995984876841659
  0.6016159185456207  0.1998516446805345  0.9992383883808117
  0.6022746399017007  0.1977692169425501  0.1990703697908556
  0.5993168020636593  0.2013506926938615  0.3982765993395898
  0.6008707813647471  0.2018752497831326  0.5993228174223066
  0.6017777958206564  0.1969230380741996  0.7992616091163427
  0.5991651751273075  0.3988330983111948  0.9980058045368509
  0.5957971402923679  0.4000765096388767  0.4028911077946535
  0.6016363529658622  0.3991084112080784  0.5972537842165631
  0.5997973760025171  0.5993105740253517  0.9997593994323740
  0.6053081048509661  0.6018209810547251  0.1990027895852556
  0.5999253595568138  0.5991947877681230  0.3967445905229291
  0.6064234056738734  0.5964930636049685  0.5947945261358449
  0.5994174850219236  0.8005541672313164  0.9981509011852966
  0.6002067423758768  0.8010127543922051  0.1993959474107599
  0.5955338858617727  0.7994910036797995  0.3979062700983215
  0.6014620900101162  0.8017857687315495  0.7988536362920118
  0.7973050976469759  0.9992975018387170  0.9996392589215797
  0.7981602070095672  0.9993420170995696  0.1997858250907363
  0.8043726728840477  0.9988562111868062  0.6030857831174711
  0.7974510025243858  0.9984303553219723  0.7993773242023100
  0.8034413995760328  0.2000834114248239  0.9995868222456036
  0.8009782531620708  0.1990976152247582  0.6028015272097209
  0.7991841214702674  0.1993111316386199  0.8005330652996528
  0.7985749454717058  0.4006713668280096  0.9991495337543188
  0.8001936781122185  0.4033723370871432  0.1991111560061417
  0.8006027005503825  0.3997695720856008  0.6041698681488603
  0.8013676203850690  0.4012070044266253  0.8000563401647255
  0.7994970527873356  0.5992600877794249  0.0027670683834593
  0.7992301209891841  0.6004686697359966  0.3947948844197048
  0.7995804029203171  0.5991084231417019  0.5993504019917174
  0.8008088016815588  0.5994338915152320  0.8016471039755323
  0.8003763019129363  0.7996364840770753  0.9993056301021347
  0.8001199853150485  0.7962323249199400  0.1986614058078126
  0.8092400999671723  0.7991671275935838  0.6047475995912296
  0.8009378983834055  0.7985370604276162  0.8018906564419798
  0.2000087527978024  0.6000667004307562  0.8047965637326469
  0.7997691902721862  0.2012747931792011  0.1962467784131361
  0.0001627337185603  0.2052158399496917  0.9988006563590307
  0.0035601820818423  0.8033922830692314  0.6020146761875448
  0.8003114772228151  0.5997546277491955  0.1981577205768855
