Zr Ti V  Cr W 
 1.0000000000000000
    15.3990340272275770   -0.0170018773457157   -0.0022529018582575
    -0.0170107766548915   15.3787801482628375    0.0165544931564424
    -0.0022517709109467    0.0165430754876648   15.4057927644380346
 Zr  Ti  V   Cr  W  
   3  13 106   1   1
Direct
  0.2076526082874773  0.2068052745934527  0.4010684999966209
  0.2043827273425222  0.6180839832462847  0.3924760400726708
  0.3873790670290259  0.7967277495894467  0.3892633289504926
  0.0005567212611297  0.9972963422746076  0.8675989918810718
  0.9988285557523875  0.2025875840083165  0.7987046379986683
  0.2022193948766053  0.1978181385061547  0.1876999928252806
  0.2048203890163486  0.5885003857438542  0.1853746897001822
  0.2132900258453134  0.7897457275212527  0.2135632534657586
  0.3838885734387628  0.2037296047412512  0.5904984789244131
  0.6072321160251017  0.0156796371858428  0.5919910769352353
  0.6050849578051198  0.1942436197785425  0.4124293511132184
  0.5847170047180950  0.2047633181861730  0.8089739386108924
  0.7927746434508260  0.1996736419071904  0.1951159692344204
  0.7813971831125185  0.1980039175935385  0.5934787035121857
  0.7954162012706292  0.1994835945642907  0.8002997997944815
  0.7990910754339038  0.7972020297016179  0.1938951066965620
  0.0030177578132893  0.9990902258041922  0.2050148745589185
  0.0005407018625845  0.0010133159569131  0.5920481668374925
  0.9995481736335809  0.2000162874466063  0.0029964124127471
  0.0012012064940960  0.1980695375273041  0.1996332689456868
  0.9970759907994943  0.1979490953473211  0.4001049227901481
  0.9952647909151549  0.1991159072848171  0.5996169421001833
  0.0006741485742001  0.3982438844857616  0.0015486659819959
  0.0014102450884059  0.3973579723125009  0.2031000833446910
  0.0008949131449091  0.3989326686330676  0.4006583840597877
  0.9988840295481576  0.3997710823356634  0.5988741363926486
  0.0004289425422286  0.4037153217381497  0.7998399357714325
  0.0018574678935723  0.5995006153235294  0.0024562521776876
  0.0008586888657807  0.5982001904655746  0.2007702703607666
  0.9965341199619381  0.6011802944162585  0.3992937072057851
  0.0009596492322195  0.6005964745376778  0.5981217550419464
  0.9999939438804371  0.6000072274569723  0.8007983597237424
  0.0029802027884807  0.7979973208512509  0.0035662111932526
  0.0022171583825675  0.7998104685209311  0.2001656871809885
  0.9949151489753321  0.8048843371168772  0.4002313270403959
  0.9996836095457161  0.8016211701711236  0.6033329202517154
  0.0003908689194605  0.7978510668197377  0.8023366734994963
  0.2041662428472401  0.9982122014325442  0.0018424415177996
  0.2024397460093125  0.9986926819456201  0.1999476518948981
  0.1969434727255903  0.0030972241735361  0.4002277044543050
  0.2007347364618132  0.0020831275639526  0.6033765150355626
  0.2018150910163485  0.0006463299763910  0.8011455359833773
  0.1983931353984013  0.1977455156793408  0.9953968488401614
  0.1908923189943917  0.2003256143163585  0.6092656325863333
  0.1995813274201989  0.1993830064626722  0.8015539638392389
  0.2006753051325746  0.3984179463731312  0.9994742887675893
  0.2020239071446442  0.3948045358864492  0.2012590136344601
  0.1991167675273145  0.4079358609452781  0.4004291810659980
  0.1991770135221459  0.4005166648306034  0.6005696929820283
  0.2006360614212500  0.3993381888719648  0.8005856597862985
  0.2010607646161806  0.5990582679965556  0.9939266517302927
  0.2001529940315620  0.6008142596088727  0.6021915312557526
  0.2017680334354067  0.5988046993233992  0.7989142986133715
  0.2009673894264608  0.7998032280233736  0.9987992634505829
  0.1882903338298255  0.8141675755904031  0.4102382761651799
  0.2004101785561171  0.8008660780609713  0.6034950279300936
  0.2008994105367010  0.8012709755373758  0.7992498055028326
  0.4013819445996415  0.9993278131161238  0.0015532633823086
  0.4020000269908436  0.9974925694668439  0.2013113250650941
  0.3995945094451834  0.0049448619340654  0.4001213093633850
  0.4019232912149568  0.0007495696181188  0.7968423971922306
  0.3996009786967131  0.1985559716913616  0.0002339473683769
  0.4026786585786214  0.1981125430031853  0.1985156367523421
  0.4066823210865482  0.1993842317494688  0.3944582587084497
  0.3938925210160039  0.1997332177482802  0.8025741377873762
  0.4009362659718383  0.3984600257251129  0.0011189805523051
  0.4013107598434179  0.3972336236587876  0.2014180948103147
  0.4024142608243252  0.3959346130672876  0.4001300400535605
  0.3989074363422300  0.4022880363232115  0.5992858562917192
  0.4006791097436913  0.3990737155219654  0.7987737881556525
  0.4014507527329342  0.5986410103590447  0.9998425547425893
  0.4058498447995731  0.5959546115494589  0.1988138627858985
  0.4097520086973618  0.5909198461598398  0.3991999714735854
  0.4007151308001408  0.5992101551220137  0.5981957403917706
  0.4014842316404217  0.5996692924575728  0.8000635239109219
  0.4007208063873303  0.7998375305347766  0.9964468631702733
  0.4068854647788298  0.7980679525675837  0.1901999017417345
  0.4006402965144362  0.8013985795039595  0.6005162251599285
  0.4009522168967376  0.7996850006214560  0.7988063996332586
  0.6017183204378838  0.0004680168919113  0.9998196418040152
  0.6016381620445268  0.9994610504660404  0.2018883745183426
  0.6003662244519462  0.9956604931239768  0.3981582495246362
  0.5998284435194163  0.0011977774920512  0.8004359537501275
  0.6002783069988986  0.2003502367847881  0.0050764207518070
  0.5979452946704771  0.1983148566320381  0.2008146031514686
  0.5885153395341428  0.2073985961592979  0.6070938755550424
  0.6016335256867530  0.3999567722638338  0.0008199067237727
  0.6011645027187248  0.3979613324074722  0.2024201625841044
  0.6026280926592755  0.4004933209008963  0.4015236719347472
  0.5992913288576847  0.4025625010424113  0.6012635236526322
  0.6001968927241337  0.4031176967789055  0.8010483652237369
  0.6018017108070640  0.6000207882320914  0.0004955152195382
  0.6033746687018484  0.5993556002417391  0.1999069115311220
  0.6034891902752232  0.5995516452970255  0.3995750047291317
  0.6003691602144060  0.6027024908420352  0.5997793651202658
  0.6005641898180102  0.6008877305925068  0.7997859188726610
  0.6021967873363236  0.8003759476601648  0.9993523001915561
  0.6002618799354488  0.7990662707200561  0.1991840857967171
  0.5997975815155313  0.8001612551057248  0.3992885522335354
  0.5990698637981194  0.8020932252673831  0.5983449813038664
  0.5997736720903678  0.8022047135359109  0.7992140244646555
  0.7997584825826051  0.0010452870717010  0.9998627733392106
  0.8019095916175820  0.9991246814906466  0.1970212500492055
  0.8077785117126678  0.9973771747652205  0.3946113996679961
  0.8044219082068473  0.9973874263610819  0.5996740496883802
  0.7982787287739612  0.9999661916240502  0.7983143809626397
  0.8005947872966790  0.1992174405593222  0.9977522300968340
  0.8015155587090753  0.1990994793660595  0.3967565429959283
  0.8016121216734792  0.3992678401078634  0.9999124369335227
  0.8012158798752719  0.3996344894518010  0.1999811770506429
  0.8012213968702645  0.3981499854369042  0.3998260223806295
  0.7995672538270181  0.4016628048623856  0.5993410430950017
  0.7996008406045978  0.4010158602363290  0.7987645274013422
  0.8019148961642195  0.5994172224136585  0.9985639500784221
  0.8010187948131385  0.5960978741221072  0.1987536319139707
  0.8005713466841743  0.6007953650589362  0.3990587506630263
  0.7999880601429161  0.5997975707433220  0.5996820368811674
  0.7999796123528330  0.6007460116497060  0.7998366092950219
  0.8026122542106654  0.8009972774335907  0.9962418999968584
  0.7985073118968564  0.7999663705762783  0.4017861705215172
  0.7991159947364950  0.7995846150491444  0.6009018327115041
  0.8005133797815865  0.8013452445092167  0.7976138299972541
  0.3983547980996148  0.9982709912952880  0.5975684637642094
  0.0026889251527164  0.0028009986138238  0.3996820445378437
