Zr Ti V  Cr W 
 1.0000000000000000
    15.5189800638460067    0.0053948810984519   -0.0005922212079772
     0.0053614356663930   15.4324842596042995   -0.0034080797093035
    -0.0006771033361387   -0.0034056472556456   15.4238540815599539
 Zr  Ti  V   Cr  W  
   8   9  99   7   1
Direct
  0.0406610994694374  0.1624723438803942  0.0035931730924894
  0.1815347960320564  0.9957181009815395  0.1421305369844453
  0.1958927030855548  0.2068717843550424  0.2288193015945151
  0.1782850632206447  0.8129683425937009  0.9991263934295228
  0.4075249210124298  0.0114303897235966  0.7944526218452144
  0.4286553218690766  0.5654226380266251  0.6013400732070493
  0.5678155235931718  0.1900557305175477  0.7943201925556892
  0.5966778054086844  0.4006368422218049  0.6020373377823428
  0.0061187075104718  0.0032728334437249  0.8168173783787352
  0.0038884189390936  0.2093042004362205  0.7841523689329953
  0.2345560266927141  0.1899921003487001  0.0050957280609110
  0.1924925118993301  0.1977259978283189  0.6120092121624634
  0.4078737432320080  0.8047167410763458  0.6042115767003416
  0.6032117954880597  0.1999491232286093  0.2081000876615821
  0.7948968090053414  0.9965633349108641  0.4029032943213310
  0.7953265656809307  0.2065369262469125  0.4009302776349585
  0.7991800265985186  0.8027223469350525  0.7969111889064988
  0.9546232469484293  0.9856904098074436  0.0078818019309961
  0.9865433803524795  0.0025658975815014  0.2028949088316824
  0.9972784883848214  0.0035398350964395  0.5969637186196517
  0.9953768530059759  0.2004841055640958  0.2049734171176881
  0.0012229212625303  0.2001559316949375  0.4006200941922073
  0.9928980908246591  0.1999878959797608  0.5933131011417163
  0.0006149754860985  0.4011043580125091  0.0008612477779488
  0.0000052875792131  0.3986826076960466  0.1999706870398822
  0.0007669794614404  0.4018019357678368  0.4009955979542815
  0.9986842329317792  0.3986218945744310  0.6005344621605444
  0.0004801534810122  0.4052199337796729  0.8015213155029455
  0.0008800621957236  0.6008848483244712  0.0011507534505620
  0.9984452839982407  0.6025165754572923  0.2005997577425374
  0.9985245428138321  0.6009612439506075  0.4007246108659806
  0.9989263593216735  0.6018556769202957  0.6009482055971138
  0.9998422464401169  0.6028786480229251  0.8011732970002075
  0.9993800010332552  0.8036718046797295  0.2035168236230366
  0.0049381034745517  0.8032812014888169  0.4001108833851162
  0.9975794701527420  0.8047871420190460  0.6014199536928152
  0.2317267166816263  0.0027993826367107  0.9490104416173696
  0.1980792866554603  0.9998966339730738  0.4016119366026623
  0.1977235039614753  0.9966004526213584  0.5969863891687230
  0.2017226633704484  0.9976104803547962  0.7837744179832379
  0.1997163400088318  0.2003386805604790  0.4216679380979502
  0.1925836553577479  0.2046573953250855  0.8068536832007026
  0.1988503832654525  0.4061184434885133  0.2012336906780974
  0.1984602619242874  0.4039623726603562  0.4035123120768741
  0.1976977620807478  0.4031797178274228  0.6034498912117591
  0.1980595977054424  0.4042396672499439  0.8036019041792714
  0.2008535855140270  0.6005562572698847  0.9997322844515274
  0.2005026047813627  0.6000935469905134  0.1990054203589902
  0.2002461303869397  0.6057391424218005  0.4027814326033154
  0.1934403271910202  0.6002857912641901  0.6015607186920293
  0.2013545025152010  0.6022677169271817  0.8004777915713889
  0.2019144322164444  0.7956708374562154  0.2064249548375270
  0.2023741717627471  0.7983667349475393  0.7912016547469481
  0.4175516328517655  0.0007094457135151  0.0032115139174584
  0.4050399974125150  0.0034390284709231  0.1990641237907223
  0.3961064657906431  0.0023561089916739  0.3954080924280238
  0.3987324457961931  0.9995084556005821  0.5913501870806507
  0.4192153714382738  0.2032948977122580  0.9995718707338616
  0.4003760480572385  0.2018573543697586  0.2009849975298275
  0.3951968896544319  0.2009359292201708  0.4008836361091960
  0.3990120270237645  0.1915228731424122  0.6041790522946153
  0.3791986725269608  0.2113960936858604  0.8008098491794822
  0.4006982339884130  0.3990746353397265  0.0022844407916737
  0.3993299463064785  0.3998353675027910  0.1993950103480303
  0.3968410737292217  0.4000200651564040  0.4015501919145035
  0.3883557836869361  0.3779316129335008  0.5990461819656179
  0.3973674067010278  0.4029496194527220  0.8001123743045839
  0.4015167373035670  0.5991721133929773  0.1999629163057345
  0.3988224774668676  0.6013788977710555  0.3986253469016251
  0.3980437510959782  0.6010380385057807  0.8038633563769479
  0.4060175488099931  0.8023051328717627  0.9996798724420785
  0.3948178592177305  0.8022431824017888  0.3988440216258189
  0.3981482787574738  0.7995192952548336  0.8013432814810719
  0.6131283762791938  0.9985098692189964  0.0028300148191192
  0.6003469682711711  0.9974878596131279  0.2034458979364858
  0.5945373587775191  0.0005872102826145  0.4042997694965620
  0.6003271831128018  0.0012477178997230  0.6036830194646691
  0.6130572639289893  0.9912338796988154  0.8046349586289508
  0.6104550200842601  0.1989393517807551  0.0035807401051370
  0.5929014099997888  0.2014376586710716  0.4029761632875967
  0.6003507359699818  0.1957180858219480  0.5940668422906907
  0.5997211108304166  0.4033430829056961  0.2002247803567809
  0.5972832997917933  0.4012951939947542  0.3955976960900496
  0.5984237477525302  0.3998083708367758  0.8063679136192884
  0.6003611909025650  0.5990660343263178  0.0004718663401733
  0.6009646438263092  0.6012989202847804  0.2010805787927042
  0.5987523605972787  0.6032927843689930  0.4018168485117349
  0.6189080687561698  0.6100638883465264  0.5991440808560113
  0.5989428966171102  0.6005291826138250  0.7996124517548158
  0.6013515687575545  0.7988622223496334  0.0017440416179674
  0.5994282954146769  0.7995812318373239  0.2023155282427258
  0.5967281225190184  0.8017927840738533  0.4013408395733484
  0.6057164178971477  0.8041341736655706  0.6004283340279083
  0.5944536856963836  0.7989807314908466  0.7997128083256188
  0.9291825399898372  0.8691252342997300  0.9993795738795042
  0.7926252696643399  0.0034013668953345  0.2063482621957199
  0.8004918549121371  0.0035939773700284  0.6051849409552376
  0.8022589208481168  0.0053127027140478  0.8004894470359361
  0.8041172106475885  0.2038680257039411  0.9997013874560451
  0.8026086523116054  0.2016413582905965  0.1985158708905827
  0.7959397618904949  0.2020568418286935  0.6031010130402074
  0.8055443326153477  0.2018977285460613  0.8015321893563544
  0.8030089252244226  0.3985317414943496  0.0011000596154899
  0.8004229854377060  0.4008331380796090  0.2006409640159917
  0.7988291110282978  0.4033769100127951  0.4010926572535292
  0.8021131190095384  0.3996319160305992  0.6013217051419517
  0.7975731062875633  0.4007518022832545  0.8013891402576899
  0.8000055934290805  0.5991182171478804  0.9996664950886068
  0.8000115561810681  0.6001170005388705  0.2011407075732108
  0.7992400981602411  0.6010610625118785  0.4007033497792934
  0.8064075586128505  0.6001171124875749  0.6016186443635817
  0.7995653599801172  0.5990852760148393  0.8008285600310990
  0.7961874113862036  0.7951728593101620  0.0008890688218286
  0.8003699793226028  0.8014151516225915  0.2004531228332397
  0.8005331482543225  0.7992754303882463  0.4010891851023301
  0.8027274685814921  0.8040421047266780  0.5987295945363980
  0.0002259560616409  0.0018151006563765  0.3991473154450709
  0.0037458594400432  0.8001910579303245  0.7997925876034031
  0.2019452787978006  0.4006429715038684  0.0020945398877394
  0.1968974897053107  0.7989344954086877  0.5967817427017765
  0.4012189089595261  0.6003942238813793  0.0012833525403036
  0.4000463732904188  0.8008466854396405  0.1991835835798329
  0.6014488174565517  0.3999683805215458  0.0015058178510841
  0.2006886095172030  0.8035394374349399  0.3976468190258812
