Zr Ti V  Cr W 
 1.0000000000000000
    15.5633147981762434   -0.0105082892338306    0.0011052113616143
    -0.0105224976463168   15.5390273600018674    0.0056805954645976
     0.0011054290159095    0.0056800010957864   15.5617863503600393
 Zr  Ti  V   Cr  W  
  10   1 106   6   1
Direct
  0.0055041827964298  0.2183276670740855  0.7983028947704257
  0.9994627047528570  0.5722455763757800  0.7998888008616168
  0.1940816935442444  0.0031495004535259  0.8034784121807594
  0.1972319791719174  0.8008010038563667  0.3967759631797954
  0.3973893294868890  0.9978351920161244  0.9978268795376359
  0.3988252663160824  0.7728933307030462  0.0009700699106809
  0.5984841913577624  0.2019855276454058  0.2026947834208139
  0.6106328385316291  0.4098664224152995  0.3985761740821431
  0.6011899646084112  0.8012311095351257  0.6017923572151223
  0.7934069613192154  0.5930339635679854  0.3998833894537018
  0.9995836039141964  0.9945042807861068  0.2029847411634015
  0.9974388819120890  0.0011183727266493  0.9986299237923727
  0.9985597198308318  0.9992533899817648  0.4017207629287138
  0.9990716720757261  0.9989253302451547  0.5990975911447531
  0.9915519134805113  0.0045879522377805  0.7984249272306067
  0.0000002391049290  0.2006426268399907  0.0040460483550802
  0.0014542847281958  0.2016385106426989  0.2011692169150489
  0.0021865489601720  0.1982328301477021  0.3993029860982856
  0.0029394508765832  0.2000050428213715  0.5950658441526946
  0.0006994320893032  0.3993731352221683  0.0009349136137367
  0.0007453200925883  0.4004908534286796  0.2003701094847245
  0.0043135205037014  0.3988198410840166  0.3996970446838118
  0.0016966513714785  0.3989578663603162  0.5998936317621768
  0.0005867661814238  0.5985907592273890  0.0033470285842009
  0.0005460367095751  0.5996202909058554  0.2006709396424296
  0.0016829802674698  0.5990338699414041  0.3992621114153782
  0.0012306199693599  0.5980445297424158  0.5955943462725558
  0.9987377359482106  0.7976901632217336  0.9990909113536107
  0.9983692133296045  0.7973388725419368  0.1997086252038759
  0.9943798297233177  0.7982879522126252  0.4002338076619065
  0.9997585497191718  0.7983016876194734  0.6009430408606281
  0.9989390110366305  0.7892332223694103  0.7996043723246617
  0.1911407962872232  0.0017479946795584  0.0064868578982151
  0.2013018568853271  0.0020163355369591  0.1991550812385088
  0.1990867498785445  0.0041806315387347  0.3982435959891652
  0.1987789400806931  0.9990863997631040  0.5970372221847685
  0.2006004911028295  0.2012641473247145  0.2003574703782486
  0.2002756047387453  0.2011696789931864  0.3991594483468103
  0.2058787306077412  0.1990128440458514  0.5985482062207673
  0.2074066857154387  0.2088309687706620  0.7994698037437326
  0.2006698136175024  0.4008974543166840  0.0009192972470176
  0.2009791432995292  0.4016059478566464  0.1980007440398567
  0.2009311423808743  0.3994081160977682  0.3968594453121108
  0.1016570072301045  0.3974920750480757  0.6985650582508719
  0.2027790926214843  0.4021420112379803  0.8036657546889880
  0.2004590356876606  0.6001651268798045  0.0009222839955863
  0.2007213166009364  0.5999611967398999  0.1991610868119288
  0.2007137394062894  0.5963801862136271  0.3999014985464466
  0.2015787886111888  0.6006769298336349  0.6004939302828028
  0.1941585809311395  0.8012722668774176  0.9986124514468537
  0.1997797413729270  0.7999608272487674  0.1943024021429625
  0.1979008097324272  0.8007973579324875  0.6035008857923074
  0.2001221104106041  0.7967086511605734  0.8011847966690444
  0.3997040863055633  0.0009566348214983  0.2049004323618962
  0.4005136619983647  0.0007842467612142  0.4009300973026192
  0.3985489130817986  0.0045946481228176  0.5972195070557775
  0.4030677939332451  0.0001983401282677  0.7930491416601921
  0.3997189673427653  0.2042368192409544  0.9988876588344265
  0.3958532309017167  0.2016188260948541  0.2010644897035732
  0.4002658668902581  0.2016984410159515  0.4042379068552640
  0.4020289624237416  0.2015201544326327  0.7955989817900129
  0.4004078306435815  0.4001116916905547  0.9988277434989506
  0.4011061587209966  0.4016091458983709  0.2001472015896821
  0.3998916898703556  0.4011721096131586  0.3993868846055548
  0.4036577645933312  0.3967420138916648  0.5994441994605816
  0.4017513081739664  0.4020576794479843  0.7986756269137710
  0.3992905935193222  0.6010472293504769  0.2005351432519968
  0.3977024836718203  0.6004014004789664  0.4006180403240944
  0.3980148728684435  0.5976962597684145  0.5992601156924146
  0.4011782523252798  0.5998307255139587  0.7985588954448450
  0.3998838477160072  0.8012016623216652  0.2052426467846712
  0.4015980377014360  0.8014610944480225  0.4016938770179550
  0.3998818730639787  0.7998478559094865  0.7957437857141839
  0.6044280908245531  0.0007091929482999  0.0003709951645501
  0.5997006658651856  0.9970488651848469  0.1992323055088945
  0.6006429592889042  0.0007407566406938  0.3995500872994520
  0.6005769015139434  0.0039244738923245  0.6001123200518060
  0.6001543708748335  0.9992729329772858  0.8006034758280243
  0.5997460944903826  0.1995014619845331  0.9964740042395126
  0.6015949833811228  0.1990326194570823  0.4049544191828046
  0.5968171319027120  0.2014760232775985  0.6011681130485115
  0.6002945729595752  0.2003409114676595  0.8005240266810673
  0.6020459486997564  0.3998848671286015  0.9984575721980022
  0.6024711379933535  0.4003209286480570  0.6036852549415327
  0.6012002432830175  0.4016434871225099  0.8015627185836267
  0.5997844971699435  0.6002028081873352  0.9991832349133108
  0.5986529102318475  0.6029088618494052  0.1978356606313809
  0.5902936796285813  0.6115069809518969  0.3991234335470180
  0.5975230686695154  0.5975994596229175  0.6016218886036149
  0.5989003630610470  0.6003658343216116  0.8008841420476349
  0.6047096533150625  0.8005880949195302  0.0012766953216972
  0.5998155147839417  0.8005967442369409  0.1985724549304834
  0.6002292816956692  0.8043977764974569  0.3962940229444405
  0.5996033248898910  0.8000553869595686  0.8055268949122143
  0.8012160784443395  0.9998110733618630  0.0002868654274725
  0.7986298465532016  0.9998026048798111  0.2000830881067346
  0.7995927051566397  0.9997936313875680  0.3999202262362204
  0.7999280553877607  0.0002578079762847  0.5998582187118390
  0.7976122515871982  0.9990196069349119  0.7999213601970528
  0.8009210995040060  0.1993388015726591  0.0000037811766687
  0.8017032416278895  0.1966717236255363  0.4000890364383262
  0.8004684586427155  0.1984241891795839  0.6004083141719687
  0.7974902015822459  0.1986287144425319  0.7991215946866009
  0.8009286452252981  0.3985316828988962  0.9994467860004828
  0.8028086419639234  0.3994843236977792  0.1969768507891100
  0.8118564921048409  0.3895929339844807  0.3993585592198333
  0.8016416404664694  0.3966771699489896  0.6013320086014001
  0.7999316294559912  0.3976350185635429  0.8006151151010883
  0.7994053481177528  0.5985247395118880  0.9999927497762537
  0.7990111489944887  0.6004322563207963  0.1959014977178304
  0.8001789590921999  0.5978192563069306  0.6036807183480475
  0.7956078370999748  0.5989632304514837  0.8007498389931207
  0.8017680558037510  0.7999402388171585  0.0002971724342109
  0.7997481947915550  0.7993583208525410  0.1996819271319801
  0.7996009596220508  0.8014298359221840  0.3991390867249190
  0.8040790177783544  0.7993778592900393  0.6002740433237835
  0.8004399975063891  0.7990740672476140  0.8012661380913123
  0.1998713139906944  0.2021694671687767  0.0015604469625246
  0.2039550007703122  0.5994819596912603  0.8000852654595350
  0.4009592010268112  0.5901351610197814  0.0003618235636251
  0.3953730569544307  0.8002754420644297  0.5991831322900929
  0.6009995469812702  0.4058579226931645  0.1934611238857935
  0.8037359767074750  0.1992721156287560  0.1997902945779102
  0.4003696632921753  0.2015161829810123  0.5991054361227696
