Zr Ti V  Cr W 
 1.0000000000000000
    15.4774007178547244   -0.0057270445464663    0.0060485456842571
    -0.0057275938548885   15.4869400142696509   -0.0016006725836938
     0.0060484205712483   -0.0016004018593464   15.4828342852602923
 Zr  Ti  V   Cr  W  
   2   1 107  10   4
Direct
  0.0024470542681996  0.4019719115060999  0.0006131356808670
  0.4014181306120911  0.5966932488731174  0.8025151446259391
  0.7985310847573697  0.1936469461929831  0.6000874255808309
  0.9996128764854971  0.9961199263043703  0.9953583145687365
  0.9995380003800476  0.0005913433952711  0.4011026977249706
  0.9970190410254163  0.9989484350661658  0.5996418558431210
  0.0006742161998048  0.0003024153308991  0.7984840745466575
  0.0006867059785525  0.1923449785499140  0.0028900905159495
  0.9999766375942704  0.2028378208569760  0.2000054169333885
  0.9999210103035435  0.1985872784625518  0.3980428665399829
  0.0034341840359761  0.1999667113270324  0.5992760917241751
  0.0018554288495557  0.1990301663979625  0.8005756222134706
  0.9997316968770804  0.4001291768364130  0.2047247236960526
  0.9996414512604948  0.3999361104969306  0.4021326039557481
  0.0013877905752671  0.4003632440709480  0.5984443631662678
  0.9952892861734896  0.3999460502828130  0.7947778905893422
  0.9998901736264297  0.6082229782302583  0.0000029673898141
  0.0001907920414002  0.5995743574320849  0.2008627203495864
  0.9992041449721517  0.6003385907196115  0.4001608335412087
  0.0005368521151481  0.6014708429261219  0.5989631606441077
  0.0005217931390817  0.6003539260966299  0.7979294275344407
  0.0001741317465225  0.7970260977895997  0.1964220385427702
  0.9999888631464799  0.8023078312945503  0.3964148430011123
  0.0013582654024951  0.7986153933238256  0.6013217639994681
  0.9995284149003545  0.8001951231275322  0.8028033906928225
  0.2003119085394656  0.9996993874443524  0.9994951212847411
  0.2034212166981737  0.0003010666721985  0.1999426733923820
  0.1984376631068850  0.0002351939364182  0.3997933070602636
  0.2006182607461562  0.0006809065124447  0.7977793842939064
  0.2010476236087733  0.1992498475857618  0.0004580473902975
  0.1995813712504770  0.1993565054604282  0.2001023190088050
  0.1999952619427278  0.1996122212671925  0.3996164501195277
  0.1999811140397790  0.1988312315193841  0.6000471746975321
  0.1996166775389468  0.1999725940129502  0.8009615215718556
  0.2057426261992106  0.3999783505981643  0.9992502643429483
  0.2023910201256530  0.4004345974097292  0.2016973532060952
  0.1999534631459197  0.4001153077807379  0.4011579516908894
  0.2048188655009029  0.4004787872229041  0.6007905700339325
  0.1981073109811446  0.3992392140624728  0.7992344250453077
  0.2009494856032696  0.6012131332024534  0.0001662561799098
  0.2007616139855018  0.5984867364149197  0.2002247302351412
  0.1988423557233013  0.6006715455199501  0.3994350827707599
  0.1964043389984792  0.5993501009514454  0.7998493618553616
  0.1975946065816309  0.8006509780398513  0.9989819147627609
  0.2001587251179775  0.8007773268439008  0.2001629242121373
  0.2000013093790160  0.8005067344227578  0.4006650624088166
  0.1998818181224353  0.8001937520876927  0.5997491102305611
  0.4010866842992973  0.0005025749363143  0.9994635438309157
  0.4011671973956059  0.0004189114910884  0.2004293486536379
  0.4010633160502164  0.0006752939644192  0.4016469820003069
  0.4007643518786058  0.0007026174866174  0.5997330303205933
  0.4003609598216389  0.0006626318871374  0.7983152461712899
  0.4005175340449152  0.2000678911870978  0.0004947966657638
  0.4011836409141439  0.2009614619160882  0.2001397796413850
  0.3998305511347232  0.1999456869662760  0.3993479152683634
  0.4000588969920168  0.2027263134431652  0.5998312789251798
  0.4002343451151619  0.1986405098870546  0.8008793933107975
  0.4020835593982221  0.3985562439350102  0.9998600623286741
  0.4008559026823472  0.3999891982210239  0.4042539023425570
  0.4022283824183366  0.3937290951949375  0.7952992866305817
  0.4002023904135896  0.6009270604443550  0.0053513095174376
  0.4001845246076365  0.5995119937619053  0.2019557864555655
  0.3997115972996814  0.6007006220059333  0.3998259287354219
  0.3998922864461549  0.5967364057133145  0.5965408154626627
  0.3990475066628998  0.8017406143140552  0.0009154129059270
  0.4004098489231940  0.8001296393241522  0.2000453791608627
  0.3995442662003191  0.8003609912980325  0.4001151627541992
  0.6007107101084865  0.9993639937326647  0.9992214357483638
  0.6020682280455895  0.0007255639352084  0.2001287612918370
  0.6003141276297705  0.0003873968881207  0.3996408031886644
  0.6028762438640242  0.9991906886366470  0.5996993811107052
  0.6000352986831867  0.0008138941427822  0.8002066775838529
  0.6003858839663693  0.2003836525981876  0.1993648331156928
  0.6008951377696773  0.2004420142195137  0.3983397612192411
  0.5984225734701224  0.1989247629731424  0.5991535426280045
  0.5995566639576327  0.1991043543445568  0.8012301596820129
  0.5983219548315939  0.4008614773262944  0.9998002275457190
  0.6004772766171681  0.3995798660607224  0.2001141056918881
  0.6011923187857616  0.3998179547253762  0.4000217574037036
  0.5962285946363282  0.4007700633119311  0.5998220813320052
  0.6061159372158105  0.3989097487669263  0.8002369846371649
  0.6003773415646996  0.6014574061323293  0.0013391277921168
  0.6004967363237780  0.5995623175119467  0.2002107386071846
  0.6010370342756257  0.6002269405357586  0.3993910048833097
  0.6004527550590877  0.6023051698994197  0.5991956916426242
  0.6050379692648885  0.6014146317520026  0.8001947657535406
  0.6007207300550771  0.8002427332173861  0.9996412389137206
  0.5996742000761945  0.8001918022297912  0.1993979898533906
  0.5993438090261175  0.8004452587152998  0.4000098113726916
  0.5985459247191429  0.7988460085707878  0.6007385788702926
  0.6009268654487063  0.8009820795387541  0.8004111484268085
  0.7994967252544078  0.0008528528136242  0.9984897179831654
  0.8008089738433253  0.0005112116727987  0.4026966048791760
  0.7993846815056423  0.0025302773222931  0.7949469880418013
  0.8004873600097474  0.1970786547651623  0.0016352040321050
  0.8008034054809154  0.2003366755859999  0.1989764711907253
  0.8008362465854733  0.2032645655436341  0.8031104974600448
  0.7955807724732133  0.3998180544162955  0.9947566110111364
  0.7992684188313867  0.4001883294503598  0.1989034539043715
  0.7997789938545532  0.3988713368356552  0.4022187914033922
  0.7986009173156342  0.4011769371611484  0.6039060682880781
  0.7994971774073018  0.6004025284898930  0.0002875439679013
  0.7995602165758967  0.5979673324936852  0.2003809711278347
  0.8005419149357526  0.5999407836872129  0.4003844844396093
  0.7999245737958315  0.6006362811393116  0.5987527432789359
  0.8017238219473043  0.8013588239019435  0.9995121072841945
  0.7997633557623529  0.8005759484182985  0.2011891628429802
  0.7997821945780291  0.8000108378564320  0.3988548105559746
  0.8006189831751775  0.8010995644721466  0.6001339953860545
  0.7996959007044931  0.8000898977898312  0.7998634808157353
  0.2003555760349579  0.9993953445294984  0.5997788067700093
  0.1997714321240477  0.6007943623108474  0.5996616491009186
  0.2002264516640426  0.8004836466494999  0.7990000003519856
  0.4013640202106063  0.3999737939846087  0.2017393830224584
  0.3992680300875440  0.7998056879500000  0.6002049950206736
  0.3998554472567774  0.8029216185456749  0.7998944007292285
  0.6000777929706163  0.1995718350398278  0.0007400330449427
  0.8020706365247087  0.0004064053155862  0.1999107880595725
  0.8001752451710387  0.1998279393642103  0.3970104185480567
  0.8013960753622378  0.6002166061720902  0.7991697037404797
  0.9983997895235833  0.8025922770566319  0.0010689775547210
  0.4009370503575521  0.3993497052026000  0.6005990389938576
  0.7994931716658730  0.9957349356994241  0.6010847515537510
  0.8003513018058873  0.3964990010695095  0.7996471454150007
