Zr V  Cr W 
 1.0000000000000000
    15.4863295998759050    0.0024137293282322    0.0105674120120943
     0.0024156779473548   15.5040449564505511   -0.0174543962439357
     0.0105707746262879   -0.0174578174046017   15.4782021514271442
 Zr  V   Cr  W  
  10 107   6   1
Direct
  0.0004127996387429  0.9677011849069383  0.7582740612195106
  0.9976883784581354  0.1988548061146828  0.6072053550168462
  0.0004375163480772  0.4337630618916397  0.0385247253621019
  0.0038100856714374  0.5777036090051250  0.2207849283035841
  0.9609234637955136  0.7910076272509968  0.1947075753165992
  0.0027170368890845  0.7956443691105687  0.5996728954790184
  0.1962642545700676  0.6006517100022809  0.5996068941744828
  0.3583507186680628  0.8031248552635148  0.1996938758736581
  0.8318154307654074  0.4316043797607328  0.3976561728350377
  0.7502744584439591  0.7916954216493856  0.1988618692942216
  0.0007924127855283  0.0060627333930055  0.9986614379457406
  0.0034989057226120  0.9982152835579067  0.3936673877435971
  0.0012451634163565  0.0010615874268950  0.5716027046406230
  0.0003606167435086  0.1992000358682869  0.2016618446926361
  0.0007354057030084  0.2000969225576249  0.3996664115789691
  0.0021713740275864  0.2068025330367022  0.8091352193316410
  0.9986713747270023  0.3863423735539787  0.2301804770898851
  0.0186839303304191  0.3993984470816578  0.4074181308943573
  0.9994181945606980  0.4021433225739738  0.6009665796964755
  0.9997919024261359  0.3980478700913012  0.8016438512178852
  0.0005219998658963  0.6232340688851955  0.0134580949411276
  0.0050785180158466  0.6051998318920121  0.4177026232564331
  0.9938628754399258  0.5943842978098716  0.6096726215193323
  0.0010544230917211  0.5911966519078201  0.8097604609489152
  0.0013562240885632  0.8114436905499922  0.9931379834298281
  0.0027883091903182  0.7996533304064990  0.3961180100492923
  0.0003123944538756  0.7813463698744166  0.8047252804544921
  0.1994999505368339  0.0027445346535495  0.9980382740943764
  0.1998472601648005  0.0022040206971304  0.1986861576224647
  0.2019719265287981  0.9995217909064772  0.3966992861090289
  0.2014345397933674  0.0010441419773615  0.5970066513572395
  0.2033436741467624  0.9998065928170790  0.7993780815332229
  0.2016666620351595  0.2029152986981095  0.9991415101482022
  0.2007147907328987  0.2005683241741003  0.1991045097904551
  0.2023909466089877  0.1989435446620908  0.3986672328506383
  0.2009803432482359  0.1967227516397237  0.8002719826733375
  0.2029103834971156  0.4014022278427200  0.0009107204509209
  0.1980786977350663  0.3995490433727831  0.1990500285998384
  0.2063880839913139  0.4026774402611510  0.3996648191525822
  0.2021049780228317  0.3976804827056193  0.6322969629488222
  0.2019266391149606  0.6024569916023353  0.0013426627511864
  0.2064757421252531  0.6011432182254012  0.1995306623125497
  0.2010370173282130  0.6009082199908636  0.3938768904265964
  0.2008760516480389  0.6033789290300838  0.8061896571819088
  0.1996253340050143  0.8034565514075915  0.0006561739368747
  0.1713247646069096  0.7976003893365885  0.1978143109223478
  0.1996644036509587  0.8003712483618149  0.3977230780525207
  0.2081767886382987  0.8046751399762370  0.5988821257736454
  0.1997288207250008  0.8006828302819033  0.7994752124721518
  0.4013925225401420  0.0007133839292963  0.9986803575148258
  0.4019405831153961  0.0038073461113133  0.1986687277601474
  0.4002807831614494  0.9991080693628128  0.3991749935799070
  0.4026023455389040  0.0007527675785663  0.5984855301684173
  0.4012842904475480  0.9986025505388469  0.7974453838666725
  0.4010181110225707  0.2001542584248761  0.9988762587414006
  0.4006794587821902  0.2004846149673262  0.1997093523491640
  0.4007546250294600  0.1991165601155319  0.3995954421757663
  0.4025182725834149  0.1997517853875677  0.5992215547756276
  0.3992328515139505  0.3998901307981653  0.9980604739568015
  0.3994509435852857  0.3979083957231233  0.1992050305103313
  0.4014629354752664  0.3993069244847428  0.3999384625453831
  0.3999806731812438  0.3996216536447245  0.6018724336404314
  0.4027762548356574  0.3998661292207863  0.7990642108593603
  0.4023665021688195  0.6009933834627866  0.0000206773325438
  0.4040678248466062  0.5943026725500635  0.2005299192231160
  0.4017544220084164  0.6010883564065760  0.4005552397349001
  0.4049456334828487  0.5991581182556656  0.5992105290251263
  0.4007878754077700  0.5991579618019460  0.8006566486803244
  0.3997963736193166  0.8011398748355372  0.9951046536455865
  0.4005290840947680  0.7996492991182181  0.4031214834037625
  0.4020940962328903  0.8004599816646754  0.6007799433460728
  0.4012494607779153  0.7988953229328729  0.7990357402685802
  0.6006485981652113  0.9992437818243967  0.9986681841280070
  0.6005198300791382  0.9962716301771745  0.1988985241322879
  0.6007557326921928  0.9977325935280682  0.3979968402303617
  0.6012256244549178  0.9993556031911445  0.5971218905172827
  0.6013454678227956  0.9977197716529581  0.7977712022831319
  0.5993043360062567  0.1986539465489229  0.9998020945553923
  0.6010694834838043  0.2000801358513157  0.1988246381109703
  0.6001219992270902  0.1990396173058568  0.5989898180371883
  0.6010962715388364  0.1993363224222190  0.7997043061515015
  0.6007101384918369  0.3990135535276091  0.9991462535498399
  0.6011765727757048  0.4003465903751451  0.1992791030228410
  0.5996569567344032  0.3984282620748367  0.3980259520851561
  0.6015125750019078  0.3995438469078010  0.5973691828617336
  0.6003987507953861  0.4001316419421113  0.7990292003204389
  0.6022983670015153  0.5998108724635425  0.0038300811109997
  0.6050629456247048  0.5994490918618441  0.3955487442281962
  0.6017847764691008  0.5994624275405376  0.5969596341897917
  0.6033980619583801  0.6002374456198470  0.8014208020454274
  0.6011668749418760  0.8005728049521282  0.9984229426970727
  0.5643902918170118  0.7907263272280256  0.1992357465030961
  0.5994566056967936  0.7998114318082322  0.3986219888862140
  0.6014266792906142  0.7993699678038071  0.5984772038232192
  0.6005423047928239  0.7981396093196880  0.7986554615229573
  0.8014302837747246  0.0013088937396359  0.9972266801769265
  0.8008987257572477  0.9974441845342602  0.1983469105343957
  0.8000857122955920  0.0006972175933385  0.3980920837152880
  0.8023735169317385  0.0001247896237077  0.5989614418453869
  0.7988238487004619  0.0001108404382006  0.7988525097780332
  0.7994613944131019  0.2001667983051120  0.9994207742243193
  0.7990113147234249  0.1994146551908723  0.1985949990807779
  0.7995497173095586  0.1967005954058469  0.3985025053199088
  0.7945395973352336  0.2015447729377987  0.5993572626241244
  0.8005406161036099  0.1990446729902152  0.8011808121204206
  0.8020879269610112  0.3976166775406375  0.1953368478379183
  0.7984768832980885  0.4000711093794627  0.6003655482996300
  0.8001868847390299  0.4002440510591819  0.8002473172347632
  0.8033032853112893  0.6006991157823622  0.0004275125714137
  0.7938716861679767  0.5945545720940150  0.2080665533571377
  0.8028965343090615  0.6189144664789149  0.4039381817383625
  0.7988564919159125  0.6000079907899798  0.6007619692739458
  0.8015794009774939  0.5996873744187067  0.8025883578893460
  0.8023482942938855  0.8024123749497457  0.9978688434160162
  0.8066794398045042  0.8064949939402900  0.4015191884913043
  0.7960130226429504  0.8002310332594169  0.6006905528114427
  0.8009649183566420  0.7988123634672915  0.7990235131470669
  0.9995494131806292  0.0027649061240256  0.1973839345709960
  0.0004007300837342  0.2011159564466783  0.0035152489299820
  0.2049650763502286  0.2009673404712991  0.5998769963132990
  0.4017120247523250  0.1996193199949619  0.7995233511997546
  0.5998945655244902  0.1984417212210782  0.3982441115021428
  0.7978179026547141  0.3995342241913923  0.9983812897076427
  0.6013197170144197  0.5981966196447152  0.1989765875761204
