Ti V  Cr W 
 1.0000000000000000
    15.3947628529237015   -0.0004726939770559    0.0021267196503963
    -0.0004726263884090   15.4017912768726095   -0.0008921615345846
     0.0021270963932924   -0.0008941263393480   15.4191178141427301
 Ti  V   Cr  W  
  13 101   9   1
Direct
  0.9922774816151720  0.1917335514754823  0.3999479889009593
  0.9992457890601050  0.4034285602799159  0.4010735130607443
  0.2069069319933461  0.0080350684842789  0.3968954395537700
  0.1976064342444602  0.2000735332590712  0.0072321500028529
  0.1971470161110580  0.1976545446379702  0.7956802452441143
  0.4065458716077325  0.0043246232100896  0.1931551188437168
  0.3910776082665902  0.1961184279596366  0.3994704768045358
  0.3979162421628675  0.8021330507018809  0.3967247821026231
  0.6030954046932072  0.1971341134238653  0.3998814721394230
  0.7611413145202905  0.0075966495374440  0.9893953385694580
  0.8044096301214602  0.0067888898108430  0.4001108718803332
  0.8009093925868501  0.1887375170106729  0.8105820029698436
  0.7989080123446057  0.4000333649517360  0.8018287467356864
  0.0064132032794639  0.0002928760171872  0.9991019876901721
  0.0010069948974423  0.0001097634242657  0.1979405227508976
  0.0028833453344335  0.9972932255184391  0.4005070475631182
  0.0013166006738511  0.0000686545279618  0.6008676082118707
  0.9993619457302244  0.9991516144771422  0.8018835579076248
  0.9974394161233586  0.1986511640087153  0.0014577350227684
  0.0022551173321865  0.1999155773661382  0.1987758372073583
  0.0007668838191640  0.1991222137228467  0.6028757290292628
  0.0000181426443495  0.1982496259400900  0.8007020998037281
  0.0012782114618183  0.3990770325694282  0.9999189477839295
  0.0010907804634548  0.3993006896527423  0.1986259159855039
  0.0005214736553685  0.3981474735762280  0.6032373614884758
  0.0026006489014535  0.3982484266564267  0.8016246821993857
  0.0012491638910579  0.5989180462125102  0.9999931908458695
  0.0011245240803461  0.6012354432813247  0.2000222115245236
  0.0003612632864127  0.6017437913583629  0.4007064822730278
  0.0006333408063757  0.5996450341819101  0.6006593820342280
  0.0007254976547322  0.5996783953048744  0.8011364982630481
  0.9993483420052476  0.8013422640429837  0.0005657558419796
  0.0007922309382193  0.8017996743490357  0.1994378838791911
  0.0014408994889592  0.8009324499936645  0.3999987817695210
  0.0002971137688210  0.8010214129492704  0.6003433617641160
  0.0008401217827172  0.8000694312519611  0.8001102457532363
  0.2024598277394986  0.9983770925599770  0.9998673512327310
  0.2009552767791571  0.0018246582843795  0.1984389991428229
  0.2008543554087205  0.9977864762695455  0.7989246357915685
  0.1946869686627029  0.2039639988574327  0.4003732058347430
  0.2042114814425123  0.3997314597554287  0.0014725427150051
  0.2006069925282978  0.3988958135590888  0.2026225064668221
  0.2020787812996635  0.3996926405641392  0.4004421971154580
  0.2010983762936839  0.3984251888819795  0.5991060928198675
  0.2004900757679628  0.4003372990584009  0.7997865737002250
  0.2002248637334861  0.6002263305126110  0.0018569293734700
  0.2000325240431230  0.5992743171611256  0.2023751075469962
  0.2007806515573944  0.5997043472825018  0.4007872222363253
  0.2003379930529851  0.5988743151600757  0.5991290088273775
  0.1999980348793977  0.6000541552732990  0.7981126777732667
  0.2029425975834093  0.7985360268021311  0.0008128002993784
  0.2004744288409979  0.8008930930742524  0.2005731289107973
  0.2004568397108557  0.7992908896247779  0.4001043279988250
  0.2008944479848513  0.8007598630817742  0.5985361641952014
  0.2002481872469947  0.7995889362539378  0.8008460985986894
  0.4009616788962844  0.0018790592363707  0.9969141629048950
  0.4027402914177743  0.0009617172955008  0.4026295346227708
  0.4038844998842419  0.2026078946528011  0.9986895984540342
  0.3993618195151828  0.2020363880917700  0.1976722597102715
  0.3983355877464738  0.2003436614089537  0.6028915720276187
  0.4005139815688060  0.1987994396388805  0.8004212121498807
  0.4011147746060872  0.3993913198687935  0.1981243159424640
  0.4011311104947772  0.3994068512191996  0.4007761489724816
  0.3999707545208445  0.3981624994602985  0.6019799810516622
  0.3999632548550504  0.3992416278242977  0.8048166828706256
  0.4004432829947758  0.5953536976476039  0.0002681925584354
  0.4005403181228033  0.6004957302947846  0.2019436704934679
  0.4000816982657318  0.5988021810115536  0.6007966239880053
  0.4001518623530959  0.5999223230399938  0.8006166956541193
  0.4010678648853072  0.7995396406657092  0.1971985797080503
  0.4007285983745561  0.7991248301687188  0.8006995870724715
  0.4035970882126010  0.8009146132491110  0.0000678849368980
  0.6049867620650736  0.0014190745670781  0.2046914750512575
  0.5985283564144237  0.9976306861428595  0.4016225239229804
  0.6001380643455831  0.0007752401927406  0.5990969231226264
  0.5989170609937481  0.9986212902251080  0.7934242444978877
  0.6000968672447994  0.2054262343790560  0.0019845861878274
  0.6007832489091488  0.1980163525603640  0.1989222978686427
  0.6004853790399882  0.2000997610559928  0.6020967631868041
  0.5987649412105387  0.1975322683059225  0.8015376101603480
  0.5971738164853174  0.4006534277680403  0.0018054133824006
  0.6007840826460037  0.3998641670527888  0.2032800267075798
  0.5988186763790970  0.3990591852545074  0.6004367203960701
  0.5998197203260689  0.3990605220005693  0.8000578259079476
  0.6013544843434891  0.6006797777044558  0.0013480128945431
  0.6017862651910322  0.6018933051595330  0.2021917538904890
  0.5993167499602999  0.6010658701721001  0.4012076819094191
  0.6000260273311350  0.5999103045367939  0.5999509524278692
  0.6009863121234975  0.6009447690143047  0.7991921343740693
  0.6017696280185322  0.7991833304159520  0.0004216286145939
  0.6015742231274885  0.8034651573140817  0.1988972281729293
  0.6021742777895189  0.7998680728625839  0.3997118985008736
  0.6008605508359309  0.8004331456087241  0.5992763902306524
  0.6003845724981360  0.8014420930262465  0.8014024478133794
  0.8006668750364396  0.0026633968303141  0.1965870391988327
  0.8008181423285355  0.0012249952920658  0.6005396732246816
  0.7986760218669907  0.9947238451631372  0.7964999191681756
  0.7989593642546582  0.2046422357082774  0.0060905534363620
  0.8038401241385623  0.2014784784189207  0.2029262711896060
  0.7983740683350952  0.2058735125370298  0.4007478045255860
  0.8006658753575118  0.2001019239000694  0.5996706175350272
  0.7995643314001238  0.4013037177345269  0.0038574100362938
  0.8004089134327083  0.4002036698214835  0.2022979399356837
  0.7967970698352067  0.4028895093500263  0.4011313719245131
  0.8005951719899779  0.3978568655264484  0.5994310623714734
  0.8017289295596146  0.5998580331248980  0.0015599575692994
  0.8007869768470660  0.6003433664825367  0.2016114797016908
  0.8011924390695522  0.6013716616949454  0.4005135584295191
  0.8004439892586513  0.5988514937557990  0.5994237735922709
  0.8008445218384513  0.6006499771335365  0.7997577511626146
  0.8032100969926264  0.8024785983682782  0.1993164895278378
  0.8003671842117552  0.7998089998912131  0.3993083406963815
  0.8008562548690069  0.8007161932185217  0.5985059689977358
  0.8023836792139589  0.7980367392166456  0.7997971754457017
  0.2007061965747802  0.0004430729808165  0.6013686759272799
  0.1996600630360783  0.2000214971117528  0.2039876454944368
  0.1989087627066152  0.1992808985514236  0.5962943513712191
  0.3998010910265434  0.9996401267760743  0.6007890925323807
  0.3999928054234778  0.9996528269714561  0.7985320961212189
  0.4002736275004121  0.5982818374005545  0.4009291319469080
  0.4005980315586240  0.8001335471376182  0.6020279319573184
  0.5991917130959422  0.4023752957741492  0.4011790374737959
  0.8003679967104285  0.7996002978426437  0.9997621737466775
  0.4006224966956711  0.4006095394082526  0.0015595096714263
