Zr Ti V  Cr W 
 1.0000000000000000
    15.3161674756862691   -0.0038639056753981   -0.0081742366427040
    -0.0038625530149281   15.3180417040563182   -0.0084288121243241
    -0.0081714294601317   -0.0084252347079361   15.3251398317997438
 Zr  Ti  V   Cr  W  
   1   2 101   1  19
Direct
  0.0002330559460539  0.4056898161599924  0.6034614054892705
  0.4070793584857816  0.9898633374943252  0.3979792920741400
  0.3966600851714336  0.7972477171151108  0.6162678745035638
  0.0000083318843849  0.0012956354991609  0.9990242286602219
  0.0000595677021828  0.0006394779534944  0.2008700619094349
  0.9971703438610827  0.0057235102070094  0.3993695975693022
  0.0022181319839954  0.9980479647844810  0.5990496740401086
  0.9994894355645159  0.0018140655672478  0.7994119172070554
  0.9984821895391953  0.2035772803383040  0.9990866408965328
  0.0039270854758766  0.2023026844884343  0.2036298887078177
  0.9976849351687492  0.1978147770689173  0.5949500991239226
  0.9981227576856285  0.2021597378167507  0.7975136374195887
  0.9965963589485949  0.4026126660410424  0.1953643432315877
  0.9978284853443433  0.3975043276986492  0.3954638244760304
  0.9983700582473531  0.4052233583770242  0.8077375794977483
  0.0006476000081843  0.5989290032527215  0.9958519122961706
  0.0059131435171191  0.6001908262242304  0.2018540485717969
  0.0008208057140315  0.5993776190812933  0.4018063287447011
  0.0052807873294833  0.6098079186898822  0.6013884313509508
  0.9967891455061989  0.8005535003946738  0.9984760768208492
  0.0000119930298212  0.8001077414252801  0.1998572441378954
  0.9971632790811038  0.8011654258802969  0.4041765909362358
  0.9951221539205793  0.7955967277180622  0.7975572603578465
  0.1979502941822103  0.0009907253228838  0.0001603698608836
  0.2008244200439223  0.0051766631813244  0.2027067620408486
  0.2002352271397533  0.9998657173602024  0.4031177078137437
  0.1989656322645480  0.0024211682164570  0.7969585770154627
  0.2007851751208668  0.2005067131734125  0.0032727047483279
  0.1979035279473652  0.2002382843335029  0.3959386334119695
  0.2021917056212025  0.1964857910186579  0.5998860479209139
  0.2008248585888111  0.2007644579641909  0.7995049626222355
  0.1937985175729923  0.3997583326741091  0.0000458475381528
  0.2051885520215823  0.4004728892159523  0.1968138018037675
  0.1981043468587685  0.3999038356813834  0.3990903570525022
  0.2056458178541248  0.3974271869623972  0.5996014108925081
  0.2026247139328110  0.3999657692051720  0.8035993935657163
  0.2025100819754209  0.5994126280378984  0.0050327128133243
  0.2042755512198907  0.5999364487992147  0.3968694146669311
  0.2073127599449365  0.6040157573524828  0.5974339704216426
  0.1967941768871661  0.6008179024004422  0.7986672282643710
  0.1999808070139721  0.8033344672157304  0.0007684929221749
  0.1993872216122990  0.7975187991842038  0.1990294089440225
  0.1984439049693282  0.8025256271272496  0.3990597196513962
  0.1937448840287656  0.8061908309672783  0.6008111737717748
  0.2024532764055322  0.8009075003692263  0.8019549878116669
  0.3993228676421324  0.9961221269257674  0.9997325310033092
  0.3996403123996907  0.9981920460259877  0.1977269844736457
  0.3943791506998687  0.0000693345040883  0.6025647364812676
  0.4001226005935067  0.9946711344286735  0.7994501925557266
  0.3993169263296202  0.1939615903401549  0.9992982702656789
  0.3970731484011584  0.2033377522928763  0.1981225492037756
  0.3984090423101297  0.2033276990298813  0.4012980024015519
  0.4018588513332461  0.2008317915378964  0.6000146019323513
  0.4028254488812532  0.2025868292258159  0.8035315115617518
  0.4048860683100293  0.4010629386073862  0.2025815900745248
  0.3996541935257808  0.4036825044504220  0.4007827622866558
  0.4004438343649663  0.4026879540992596  0.6029160580773681
  0.3995167268970400  0.4027161467637864  0.8032019226768295
  0.3997999747363916  0.6060658766651941  0.9991421222894943
  0.4005801442287635  0.5993256751700372  0.2035374862555195
  0.3999616262779084  0.6016486369474959  0.7994670998762053
  0.4000942705988309  0.7996873371975433  0.1942124861618945
  0.3992216526234295  0.7947676423865951  0.3986471458758473
  0.5992164567969017  0.0018138730741792  0.0023401818392171
  0.5977092252005480  0.0037218130294685  0.2058032420049869
  0.5959195874738729  0.0047697784833909  0.5937145805912494
  0.5985160980224857  0.0039989251969893  0.7972599070663635
  0.5977203477698892  0.2005488244217925  0.9973972589346719
  0.5989433510154920  0.2035744917708980  0.2020320612809732
  0.5982203758427493  0.1969424887150727  0.4038452197297203
  0.6053184551938326  0.3988478000166817  0.0035677457479291
  0.6026113469428662  0.3960480322838092  0.3959843557631774
  0.5989819802545678  0.3981301998213771  0.5977058580979550
  0.5995312566197593  0.3972213100071439  0.8059383099219173
  0.5968481874780682  0.5961197335097346  0.0042111424608660
  0.5951801046526503  0.5995699622850339  0.4002937975177893
  0.6012897354626142  0.5962557679546242  0.7935837001875624
  0.6007337116354381  0.8011028344394641  0.0004118494314033
  0.5998332062826376  0.7943666224311784  0.1988979831272631
  0.6006050802702655  0.8027912833845594  0.4007917878336275
  0.6029663755033439  0.7955738388935376  0.6012772456817241
  0.6008375715444408  0.8005100694517997  0.7993272987180475
  0.7990001157680627  0.9968943928822894  0.0010577480154470
  0.7993688761076166  0.9996131222437030  0.1990982266972105
  0.7976732075204063  0.9980014098257234  0.3986225002732539
  0.7993509830411785  0.9992693311838680  0.5991552336454311
  0.7984500336344054  0.9964287648185450  0.7988910202565976
  0.8003005268953755  0.1967102850380544  0.9989765717767223
  0.7987255967157744  0.1990865632334667  0.1978436114136789
  0.7960503309389031  0.1994069741461724  0.6003542518846573
  0.7959724826878137  0.1988456714760510  0.7997321666997957
  0.8031273151859584  0.4009100080926491  0.0002343151886450
  0.7973385309883492  0.4015386089576865  0.1984005559875255
  0.8011784411864948  0.4014527201232661  0.3980208008180801
  0.7947519284716787  0.4021776338737223  0.5997044503236778
  0.7995316349902302  0.4013745155574766  0.8015638404271943
  0.7988361764299552  0.6057783921033493  0.0010182810974887
  0.7947154212563982  0.6025799369784032  0.2014059136268259
  0.7999351324370052  0.6021587271724080  0.4003932200947065
  0.7920406479056701  0.6020073408086859  0.5984187533344927
  0.8016219491881053  0.6038491403856997  0.7992632040441228
  0.7994587487773634  0.8001525674778530  0.1952698039883675
  0.8013392908276432  0.8006395650247727  0.3983910307215184
  0.8013961485928857  0.8020115381205015  0.6050605696157559
  0.8003498945612911  0.1997731283733115  0.3992788987835781
  0.0015941348251678  0.2022793115322214  0.3999409141572920
  0.9982995357519089  0.4014678050124608  0.0005297899917374
  0.0008137579770977  0.5993783222593894  0.7964440730307210
  0.9980512622392933  0.8032180397065002  0.6016839700365989
  0.1988199730404979  0.0016607576508085  0.5988257514406460
  0.2012996462120463  0.2022670676509462  0.1998313125289831
  0.2032372845433804  0.5991807559190119  0.2024666055765063
  0.3992151903715446  0.6009652463052801  0.4037564632074788
  0.4046841079356486  0.5979831084197663  0.5986550038102864
  0.4009695102607951  0.8000606686922636  0.9956142392296634
  0.4014327764600742  0.7985070265408971  0.8082235431219124
  0.6033696974485289  0.9996806768329954  0.4004987301051298
  0.5981988328025309  0.2020964991453024  0.6030216863649236
  0.5993242459430749  0.2001878286952384  0.7968483952979730
  0.6010689146018734  0.4005828655686086  0.2000408318068620
  0.5972892540432176  0.5958409610643223  0.2045457234357746
  0.5951414976091104  0.5969935332464691  0.5964752500275938
  0.7989188103321269  0.8018323985241074  0.9970213856923230
  0.7987720887284698  0.8007913986553403  0.8040827715419439
