Zr V  Cr W 
 1.0000000000000000
    15.4863295998759050    0.0024137293282322    0.0105674120120943
     0.0024156779473548   15.5040449564505511   -0.0174543962439357
     0.0105707746262879   -0.0174578174046017   15.4782021514271442
 Zr  V   Cr  W  
  10 107   6   1
Direct
  0.0005378536936953  0.9695231834576877  0.7580874107881457
  0.9980993211144918  0.1999757286519275  0.6090262064267044
  0.0002496740138682  0.4334424543370602  0.0400246177899323
  0.0021914077898336  0.5793543187307320  0.2198750793357162
  0.9609439069299230  0.7933179918267200  0.1933530338204288
  0.0021749911675246  0.7978710581902654  0.5984123528874846
  0.1986320155860438  0.5880571503876013  0.5974867879952521
  0.3585576965956701  0.8034619073312460  0.1993581071221059
  0.8369937042709357  0.4299672163297535  0.3987854902239367
  0.7503649510491112  0.7915464802459080  0.1981930950895156
  0.0009425692558161  0.0064702726176173  0.9989624070843728
  0.0033767258146580  0.9990096495183144  0.3933056538944105
  0.0008444890925100  0.0024383267116407  0.5711058548858934
  0.0009595290164770  0.1999781869475128  0.2020941089777363
  0.0012168213682737  0.2008616798252882  0.4006945865315161
  0.0007680718929008  0.2050497109103614  0.8098755174295713
  0.0024146256777493  0.3871793629200641  0.2322069524127133
  0.0268879855996605  0.3996570256596025  0.4095663918244691
  0.9941624856169632  0.4034556350101126  0.6000097755595072
  0.0011908756843955  0.3976851283077452  0.8010215522100297
  0.0008855144346747  0.6232685807612283  0.0119854549332992
  0.0060023552687454  0.6075919599672797  0.4175948611437731
  0.9943413459985556  0.5973061550306539  0.6089023711908047
  0.9990862993261233  0.5928207776059621  0.8089685957825624
  0.0012906964304815  0.8122676454865794  0.9924388909206104
  0.0022335746051318  0.8009415400342245  0.3948815205884245
  0.0002683708789693  0.7825009257262598  0.8041347103509212
  0.1996972174662082  0.0025567877216388  0.9973261838521239
  0.2002700062558892  0.0020362720958701  0.1985469114403919
  0.2021608244085341  0.9994434762941353  0.3973099172651811
  0.2011839524015475  0.9988156588067434  0.5977537877726747
  0.2030605671810655  0.0002844818069781  0.7992446716939515
  0.2016866393773502  0.2008719391180232  0.0009416388821527
  0.2015296307151158  0.2009308170243937  0.1997632346693831
  0.2022799084847857  0.1983579941649381  0.4005015152210779
  0.2015067066812802  0.1998439940024724  0.8013323364415587
  0.2034361497723446  0.4007799425576895  0.0005265062272828
  0.1992050633231470  0.4000083646052567  0.1983788729994728
  0.2046717594211053  0.4005236331716329  0.4669631571687284
  0.1996140358391208  0.4001968458932772  0.8037537318465562
  0.2010369249757343  0.6023920488190277  0.0013893656886125
  0.2063462822631821  0.6008532089577243  0.1987251533003849
  0.2006311151060068  0.6021760844086134  0.3929596594673604
  0.2001546594334527  0.6000533289369454  0.8053787276878713
  0.1994646654782531  0.8028233885137754  0.9997025193256855
  0.1715550011333298  0.7974146701838150  0.1968760423256628
  0.1993055902560107  0.8001725380677543  0.3973976682513453
  0.2068544957120040  0.7975466335797942  0.5986934335059436
  0.1994864714859021  0.7996893260588727  0.7989532639474577
  0.4015187108391381  0.0006905396912888  0.9983777748867678
  0.4021615778582689  0.0042342044379766  0.1981608772780253
  0.4006491336546431  0.9989573620520764  0.3987492433929228
  0.4021743587826568  0.0004032454057687  0.5983681231722030
  0.4003511990581056  0.9994172707880158  0.7970453809999136
  0.4013790300018837  0.2002999135564641  0.9989752869535243
  0.4011660612418916  0.2008268707487008  0.1999439165634541
  0.4000690896502028  0.1996300093505622  0.3999098167458784
  0.4019620217695556  0.2002156314371260  0.5991836475325204
  0.4008662905875541  0.4003219560227851  0.9998847134327707
  0.3997631125804764  0.3981303307571704  0.2001519532359943
  0.4016333897986758  0.3989365614154541  0.4012071726990060
  0.4013585248159177  0.3999250849453475  0.6001776484782033
  0.4001949446388617  0.3998390146585583  0.7988682476581859
  0.4023992567262000  0.6009754020029254  0.9999758646011856
  0.4038901102213265  0.5942792266221754  0.2005030989579247
  0.4007199236687732  0.6006892113146964  0.4004345417722187
  0.4056487801803300  0.5992248767568429  0.5994952920876311
  0.4010909753628440  0.6004904048117456  0.8007880153931659
  0.3993741700216784  0.8011477438529355  0.9948388056900191
  0.4008323800793325  0.8001222740302205  0.4025893490859458
  0.4013371923760020  0.8001205757213151  0.6002834554632447
  0.4003036211539642  0.7991683238852795  0.7988236503043714
  0.6007357411508384  0.9993882624909801  0.9986120042167314
  0.6010279508438761  0.9964704213388283  0.1987023824052780
  0.6007750521348777  0.9979024258010261  0.3977786090124748
  0.6008715705997475  0.9991306852365872  0.5970655153635374
  0.6006210281128844  0.9979737810273914  0.7977743453934591
  0.5996420214265210  0.1987138010415207  0.9998702104003717
  0.6015075643988448  0.2005882483283400  0.1989534121379542
  0.6000545190282167  0.1986568019331286  0.5993506445186781
  0.6004127384474646  0.1996954765994067  0.8000481428526349
  0.6007053019052565  0.3990644872143521  0.9992912945517335
  0.6027145715133666  0.4004304303515477  0.1998463473191965
  0.6021737245474439  0.3990924091450683  0.3982892603435528
  0.6011455344983300  0.3995311555501722  0.5982246925760974
  0.5998224723866806  0.4001033700060916  0.7996014314833836
  0.6024744986392889  0.6001176016490708  0.0039463015724732
  0.6040720846441047  0.5994559164503668  0.3958609417538784
  0.6019981546779952  0.5996763500598443  0.5970700867430171
  0.6021598787817406  0.5996747679854337  0.8018488296539227
  0.6008778453791309  0.8005920259693134  0.9980774229261010
  0.5644029955594895  0.7904263272801544  0.1988026963748075
  0.5996738267057075  0.7997365219938463  0.3984381452307892
  0.6009893374894898  0.7993522234898783  0.5985562384788273
  0.5998220178054734  0.7982096169534612  0.7985581536861391
  0.8016200250852196  0.0014607735864200  0.9970274611325931
  0.8015375180551952  0.9977440831456140  0.1981778147690779
  0.8000691776489783  0.0006042865322814  0.3980926784231786
  0.8021830240983859  0.9999898746641640  0.5989190813279067
  0.7981711249923902  0.0000008614944467  0.7988675363319703
  0.7996640718363557  0.2004165143476307  0.9997298725044672
  0.7995396849063804  0.1996509781172273  0.1990457510848511
  0.7994538348847113  0.1966778912173849  0.3986403478141771
  0.7943531338827124  0.2011891968609258  0.5997155101269198
  0.8002091543086195  0.1991355826501100  0.8015146930265866
  0.8046896205757023  0.3982920908920454  0.1950509082789083
  0.7974820658984522  0.4000274892848873  0.6011055369999345
  0.7996882343885842  0.4001276190753857  0.8007734287560235
  0.8032587667987132  0.6009885248968271  0.0002910690888537
  0.7935097560207031  0.5945647729295597  0.2072866570948329
  0.8026993722809486  0.6172648240693550  0.4031254985476712
  0.7983706399034258  0.6001593857271530  0.6003107934199006
  0.8008295381602635  0.5991383431690818  0.8023923312001446
  0.8022932745764527  0.8024863060647488  0.9970520831533979
  0.8060790844164730  0.8059873771965023  0.4008493528961143
  0.7954917332872257  0.8002167941681688  0.6005147717197383
  0.8004116518239648  0.7988289565727220  0.7987203437071595
  0.0002932142049921  0.0039198579037083  0.1972462900938889
  0.0007694105965708  0.2012418008759313  0.0038370035617066
  0.2047699796050232  0.2028182859915770  0.6007215740236372
  0.4012767518620404  0.1999293890139620  0.7994268523164521
  0.5998950655016614  0.1986762081928031  0.3984601254859581
  0.7980991665601783  0.3997130136669896  0.9984059753708082
  0.6012424261001527  0.5977279221476050  0.1991800365619880
