Zr Ti V  Cr W 
 1.0000000000000000
    15.4119853477336850    0.0092002105036784    0.0075686985216924
     0.0091978282521091   15.4168317070722267    0.0033033723005877
     0.0075647771218920    0.0033039266611125   15.4231482065347798
 Zr  Ti  V   Cr  W  
   1   3 110   3   7
Direct
  0.3992938254472921  0.2014756846248371  0.5987885363655504
  0.0036619069752764  0.1976506858850186  0.0013685634021131
  0.1962635428743282  0.3988867788958249  0.1944193614291048
  0.3738527552321380  0.9997586784617615  0.0034175148353031
  0.9990706745627843  0.9991452668158237  0.0000605835748242
  0.0007480179493258  0.9988603587732542  0.1978059266685722
  0.0001350595839944  0.9987180437105134  0.3999222080026720
  0.9982018875928257  0.9994098357848542  0.5988311657079861
  0.0008315646422565  0.9994215670755832  0.8010029581378030
  0.0004578167359954  0.1997797501428380  0.2020846029128136
  0.0046940083200926  0.1991358928877398  0.3990413297813130
  0.9974188954216611  0.2000533026458960  0.6002607964624953
  0.0003737920350144  0.1990539746427081  0.7994587670086098
  0.0004666426840585  0.4013891211572241  0.9991496381735481
  0.9984034118103476  0.4003234334896849  0.1993267392729699
  0.0009056882514866  0.4010566996545164  0.3994387620070429
  0.0024342551524212  0.4011966710655785  0.6011854080878536
  0.0001061348458096  0.3998778215079831  0.8004326528103566
  0.9992467640045655  0.5978951736840886  0.0006984337839804
  0.0006849933778918  0.6010385062237533  0.2003929759024049
  0.0015951314297718  0.6004229091349603  0.3990592595970486
  0.9980467900700074  0.5992728039366861  0.5985364827691496
  0.9989148633637679  0.6004254388119412  0.8008117105614377
  0.0669671596523691  0.8661084790145993  0.0004566680743634
  0.0010288790926596  0.7999329076086545  0.2006603553795221
  0.0030421115762165  0.7997024222181015  0.3995480372563168
  0.9997233553732866  0.7987012409278206  0.5988581064553582
  0.0045119656895121  0.7992054698781147  0.7988918754582490
  0.1994630507425793  0.0010451327590843  0.2008016545918345
  0.2005237526063561  0.0048673566766668  0.4005439389223662
  0.1980881394407445  0.0019726619762660  0.6000059101873887
  0.2001122167785211  0.9975676276477509  0.7967907324272004
  0.2046268989665307  0.2032917000614089  0.0018231959145617
  0.2006347456698712  0.1982063184564355  0.2031580956300787
  0.1945308124947155  0.2040149722490077  0.5962263494304370
  0.1992149744505967  0.1970825006297991  0.8028543074172887
  0.2006254354561340  0.4000469987785369  0.9944370217778388
  0.2004849614289509  0.3953957408737674  0.4061095406270094
  0.1999245254334962  0.3995848102950588  0.7954514666546398
  0.2007515179617524  0.5988934504405150  0.0003946831733914
  0.2000050156669475  0.6012310072640353  0.1997932184415568
  0.2043754790287859  0.5994099824562324  0.3999579885196649
  0.1996141465709727  0.5950594055238593  0.6000931909617453
  0.2009960769859804  0.6037472549646237  0.7992363410119113
  0.2020403952433191  0.7972836361368782  0.9958691939841632
  0.1987677071772326  0.8018941010593290  0.1966680938098284
  0.2036159268301396  0.8021825829796252  0.4015943967036871
  0.1997406928935818  0.7988020596120452  0.6041693657014473
  0.3994758388091544  0.9990622119659188  0.2012926453619268
  0.4010991307702214  0.9953968061581064  0.3990884186620524
  0.4019550763179824  0.9956401366399787  0.5983051828919104
  0.3998121349361639  0.9991099961684384  0.7970834159168979
  0.4031388296498036  0.2029689579484595  0.0022087878476584
  0.4016866024052568  0.2010042237929373  0.1993973546679838
  0.3972510148135199  0.1998155302254903  0.3933395429497733
  0.4009837338741139  0.1988563963887320  0.8047555378151821
  0.3996953296501253  0.4025589999905591  0.0006794629127967
  0.4012486026721906  0.4020905066353211  0.1999359151725606
  0.3999935663683190  0.4056342404971516  0.3978315806261061
  0.3958907538303583  0.4061247421691130  0.6008078340339034
  0.3985078243383591  0.4014448110495316  0.8006363133427965
  0.4017910059997499  0.5992578509484798  0.0023484242912279
  0.4006837326292849  0.6005021454268595  0.2042473312179870
  0.4054719410711111  0.6010970912479696  0.5954916708018098
  0.4006894990955624  0.6007129488089986  0.8003641091777738
  0.4000585499773601  0.7970612223716588  0.0023216828785653
  0.4007869898723061  0.8005565742959820  0.2027729472135081
  0.3996498925245255  0.7988743695361060  0.5956762375296331
  0.3967895913928068  0.7997165291480725  0.7996863624385632
  0.6036297595170855  0.0045788926331052  0.9990939258802745
  0.6008341471657815  0.0008727231547359  0.1988090375959412
  0.5998614115516914  0.0010240954551574  0.4006373124971878
  0.6023587408661948  0.9991087781014025  0.6004256813101917
  0.5996286109603595  0.9997982173928890  0.7997018085465829
  0.6008702444955926  0.2001904278502228  0.1967478051417801
  0.5993673223726306  0.1999799440250259  0.3983586411224488
  0.6010207615072544  0.2000508923059201  0.8040115694357939
  0.6004249353604890  0.3965938047156055  0.9986528323136881
  0.6016880624208959  0.3999100008725107  0.2002014738322274
  0.5996538958365384  0.3984504145653504  0.4007103161782044
  0.6012534784863538  0.4026207685547773  0.6013653932421847
  0.5992661514169062  0.3991834511445951  0.7993931514505989
  0.6000921689893313  0.5979455207237533  0.9993837366344072
  0.6016823313289061  0.5997234552018350  0.1996561140024862
  0.5970263995208359  0.5993130256065093  0.4039904395240055
  0.5998326242533981  0.6001452898396150  0.7972821717740374
  0.5983778946916992  0.8020033139343838  0.9991529037268186
  0.6009996388207367  0.8008606519027754  0.1992080165604092
  0.5965100258534931  0.8017798274788609  0.3995309016796704
  0.6010580318489858  0.7962207121647514  0.6013958557240043
  0.5979298419923961  0.8009700489319214  0.8005451515525001
  0.8017388745518985  0.9987834647870505  0.9996511753118491
  0.8018822351388961  0.9996020280679601  0.2009730321438677
  0.7999763095332779  0.9995740115030731  0.5999867408011978
  0.8014378192826163  0.9989712079033420  0.7985931808500105
  0.7953430791660879  0.2003124860177975  0.0006168748900028
  0.8013843333378484  0.1995342211219366  0.2010971636089248
  0.8008627423311133  0.2002092554917132  0.4000899238519525
  0.8010665831963628  0.2007635923470258  0.5993289573224431
  0.8011996437363536  0.1991173178927197  0.8000287619308027
  0.8006837969682412  0.3990693177112264  0.9996819430463398
  0.8014201280165651  0.4003358204257967  0.2006360268288405
  0.8012771614469867  0.3990603557266302  0.4001361793080140
  0.8021394489842461  0.3993006492922427  0.5997119159732434
  0.7992303411705242  0.5994710726473813  0.0000989135182177
  0.7996221182802148  0.5996139924855727  0.2011058004088293
  0.7993686255390198  0.6000429369465460  0.3995716419129740
  0.7968283029007216  0.5990046874752172  0.5994671982323930
  0.8003798481008543  0.6002165491149154  0.8002828714481858
  0.7991629953744867  0.7987926939789461  0.9997353684438732
  0.8007553682614349  0.8000498604811597  0.1997563459849266
  0.7994960721293567  0.7998461174672656  0.3996131641925935
  0.8002970445520921  0.7993758884450269  0.5993389132579284
  0.8022839313950881  0.8005517160156312  0.8009755392954008
  0.6040679344055140  0.2007108685974314  0.6010239938762942
  0.7998778936405685  0.9999623853883803  0.4000245167544928
  0.8005669853842553  0.3997323333020250  0.7995982169039400
  0.2024055944679967  0.2004513777047654  0.4010168063118702
  0.1993746901932529  0.3990539240454277  0.6016082124737645
  0.2004762989490435  0.8014727065784517  0.8005951343109590
  0.4014995579643142  0.6043920636928048  0.3996056061059829
  0.3983383494181763  0.7980183691639638  0.3987483105240900
  0.5989517078556006  0.2003907979038757  0.0000629531136558
  0.6016146570111459  0.5986443592247457  0.6012456823466844
