Ti V  Cr W 
 1.0000000000000000
    14.9989170845613220    0.0614158811878197    0.1697186789650890
     0.0610850633628091   14.8238160558861356    0.0463611289874104
     0.1696881056885009    0.0465954090899454   14.9999301914350109
 Ti  V   Cr  W  
  12 102   9   1
Selective dynamics
Cartesian
 14.9774620335986253  8.9708500831606592  3.2560618676084814   F   F   F
  3.4700208275267896  2.9708659216185613 14.3409307240190582   F   F   F
  3.4423159331216939  5.7949157961089464  6.3938197028238850   F   F   F
  6.0921540265103236  9.0484210159618446 13.9802243546390610   F   F   F
  6.6452062089801984 11.3081220048089115  7.9093380480361768   F   F   F
  8.8886387158805338 14.3643649271197944  6.8759980288033722   F   F   F
  8.5147239286497687 14.5434209158772365 10.3093749020939764   F   F   F
  9.8899419870789433  2.8412864686737431  8.0067910093014056   F   F   F
  9.2289157425924397  8.7601626828304635  8.3403124793880483   F   F   F
 12.5821338928062012  2.3595233044897532  2.7356606844682050   F   F   F
 12.7131944067092721  6.0757080367698464  3.3576243498212244   F   F   F
 11.1624963990049348  5.9046981013790694  9.1111855023226678   F   F   F
 15.8600442841485449  0.4145148150119915 14.6923026499967051   F   F   F
 -0.1876072024167906 -0.6953446421442165  2.8852874589976003   F   F   F
 15.8699461449879031 15.1770085880562053  6.5387545461004271   F   F   F
 15.2564183769826904  0.7690991476618668  9.6950439340114904   F   F   F
 -0.1359004588717643 -0.5688956370062059 12.6125704185218073   F   F   F
 14.7512107028053663  2.1903829034627975  0.5806417719153344   F   F   F
 15.4891034586801464  2.8700927250097656  4.9128244940244414   F   F   F
 15.6257480705647627  3.0608185139005357 12.0561749864569965   F   F   F
 14.8659238876881261  5.8628504543087887 -0.0987118104080078   F   F   F
  0.3918368255901231  6.0520532096683910  2.5321440039225571   F   F   F
 -0.4006928027218505  6.1668844154264741  6.3760417297102450   F   F   F
 -0.6969043487869205  6.2329280643277896 10.2103978197205940   F   F   F
 -0.8102837357234990  6.6802963319833371 12.6805592391693427   F   F   F
 14.8434450061469363  9.8432880340369788  1.4131057781932994   F   F   F
  0.1242163425958042  8.8293164488391369  8.9785397046592816   F   F   F
 -0.0144334268861318  8.9736900929844658 12.6590635601878816   F   F   F
 14.7429893873836679 11.6336733142252839  0.4794087628884975   F   F   F
 16.1303467399851463 12.7059302070576212  3.5979485657788395   F   F   F
 14.6544361928035887 11.6524228562202694  5.8613442642995617   F   F   F
 14.6426055723248769 12.6937118849215551  9.5304423143782415   F   F   F
 -0.3045472396441856 11.1505013188448157 11.7245701684748873   F   F   F
  2.6615845222763848 14.1145912126691524  0.3303576889973677   F   F   F
  3.1473362964378251 15.9610867869361215  2.6529702261059693   F   F   F
  2.8351196573119153 14.7100809510825457  4.7643454690679174   F   F   F
  2.3203249699419830 13.9012385437489545  9.6589093313815102   F   F   F
  3.3297186891869939 15.1823778412106112 11.6849908636160666   F   F   F
  3.5980017767234242  4.2789438309564112  2.9148814525132476   F   F   F
  4.0223216737589684  2.1127012618181360  6.1623082321310712   F   F   F
  3.3164626970327378  3.3267100804006882  9.4080134581421238   F   F   F
  3.4804114482197250  6.6232653728826092 -0.0797082253787191   F   F   F
  1.5725766754491379  5.6156765202253816  9.5813068559014667   F   F   F
  2.2550749590345340  6.2311505339986635 12.7592965478458691   F   F   F
  2.3674895760935462  8.9065411040386486  0.1262917192551943   F   F   F
  3.6052898021785396  7.9141665264406500  3.2860721562441753   F   F   F
  2.7708152849829086  9.5536963181575345  6.2979135452208439   F   F   F
  2.2688177632874194  7.9040635504220509  8.0879905622774899   F   F   F
  3.6647176488043884  8.7636716182446666 12.7544705945606278   F   F   F
  3.6011654356887601 11.9318334773651209 14.8084643352455938   F   F   F
  2.6449924077801654 11.5079804752032402  2.8163048314238699   F   F   F
  3.4684326540924744 12.4253478248602534  6.2579702237924408   F   F   F
  2.9997221031858419 11.2855527920869232  9.7595234367205208   F   F   F
  2.5892434280673440 11.6309096947683024 12.6649212948071792   F   F   F
  5.7489126592373809  0.0589685412383801 15.3363881044222765   F   F   F
  5.6188457338788167 15.4501643921052434  5.4047732159864825   F   F   F
  5.9696578434754821 15.6289743905888976  9.1574942963326897   F   F   F
  6.4212135501461924  0.7482906940332066 13.1094948115041188   F   F   F
  6.8114693371504593  3.4511045424955458  0.5649504622390400   F   F   F
  5.4947596631004929  2.9735024044925020  2.5028301222286511   F   F   F
  6.5049652180577455  3.2895241572099114  6.1687947948116078   F   F   F
  5.6504704137853725  3.9359862726823751  8.9256010632573037   F   F   F
  6.1365875251659432  3.2091785444176444 11.8208871796308426   F   F   F
  5.5381212924080607  5.5613616266713848  0.8876011576635526   F   F   F
  6.6140917043656344  5.8263983752668285  3.3636391056268757   F   F   F
  6.5573171193559148  6.3545041321324289  8.4019372318607033   F   F   F
  6.9211974811019497  8.7085958957643559  2.3215744664900591   F   F   F
  6.3508828586089558  8.2510752556529496  5.9297562885672486   F   F   F
  4.7159721558081102  7.9991523191461544  9.1911827627464078   F   F   F
  5.9021103864329501  8.2846262679078588 11.4987729187165222   F   F   F
  5.8297843911208380 12.0135966492726975 15.7808848130554438   F   F   F
  6.1697408263559899 10.8455329118409551  2.9768626380156231   F   F   F
  5.1804701773867334 10.6315338208510681  5.4371770278542702   F   F   F
  5.9666711652909985 12.8632501979259146 13.4964125315616386   F   F   F
  8.5143628124317861  0.3115797886103477  0.9958907108802221   F   F   F
  9.4266096606512111 -0.8114219950022893  3.0904712573384061   F   F   F
 10.3549835208821470 15.0056622662400638 12.4881060612558681   F   F   F
  9.1914492680901070  3.0996256337093602  3.4032312708020664   F   F   F
  9.5172073752466950  4.4409379177273820 13.0255800179853534   F   F   F
  8.6408066542211657  6.7634456100996792 14.7098237839214718   F   F   F
  9.1145153134325270  5.6646224566718280  2.3122647523653557   F   F   F
  9.3155190966708918  5.9034740933194891  5.8900641003011431   F   F   F
  8.3405559734136236  4.9444476590575173  9.3069077835162943   F   F   F
  9.6011860931388213  6.3584025273866018 11.2839837597740473   F   F   F
  9.6963671394945337  8.6985036734410794 14.3029822211320656   F   F   F
  9.7609432976276906  7.9036889403355861  2.9027815158087220   F   F   F
  9.8258918160763322  9.2597541957335778  4.8745993794374893   F   F   F
  8.3076955603529381  8.9350935278547503 11.9872302605336607   F   F   F
  9.2927055869934829 12.3383770449685617 -0.2127056775701446   F   F   F
  8.9579576059442374 11.4486427838433151  1.6909567818681532   F   F   F
  9.0964152393029583 11.1281642029842889  5.2797329954110772   F   F   F
  9.6090635567558014 11.2299486147373049  8.9413803146772306   F   F   F
  9.3751678919670969 11.5052796935980464 11.9742478427842265   F   F   F
 12.1388716918226311 -0.4597604708092118  0.5838179234232908   F   F   F
 12.1762805537177474 -0.2480109053250922  5.4305787759157553   F   F   F
 11.8151891230999482  0.2094695500666796  9.0677828228311181   F   F   F
 13.2045928581935161  1.1551760672531790 12.2012998984573677   F   F   F
 11.7717278436129540  3.9385540135001018 15.4781885918848658   F   F   F
 11.9486687566715979  3.4374357411544585  5.9857301683143014   F   F   F
 13.6455627420333503  3.5368195967953864  9.1429585253521921   F   F   F
 11.8512837232737791  3.2563043880946849 11.4615439759161166   F   F   F
 12.1349581995122957  6.3390805115083042  0.4216289510696611   F   F   F
 12.5575759534997307  7.1185903767274334  7.1779568202601354   F   F   F
 11.9951814330619442  5.5703121538498657 12.0517052995884875   F   F   F
 12.5204185844404421  8.7844518831067067 15.5019757603404535   F   F   F
 11.3429201855947532  9.7087240761394558  2.6510695545260177   F   F   F
 12.0237587080133679  8.9049938946440079  5.6993398713931045   F   F   F
 12.8175432095806858  9.3393145542733329  9.1559048583003086   F   F   F
 11.8824418193524970  9.1398991310437570 10.9919831940059840   F   F   F
 12.0471362974600442 10.8767609384658055 14.4193273811210663   F   F   F
 12.2087142457856963 11.6144830975686766  3.1835800913828121   F   F   F
 11.8834685392978425 12.0164188340928000  7.0030631960317047   F   F   F
 11.6234031157343054 12.5268185977774706  9.3573999697132511   F   F   F
 12.6640681173005234 12.2418114221829057 12.6102852464424711   F   F   F
 -0.5880836114697138  2.2519656439697657  7.1170559609207684   F   F   F
  1.2712847082281848  3.2634067438042549  8.2885259082797589   F   F   F
  2.6365430347088186  3.9863501758439908 11.8526974692590503   F   F   F
  2.4500069991608919  6.0752232478468295  3.9648814637174388   F   F   F
  5.9802446174090012  0.6812072747877825  2.7088150960562052   F   F   F
  7.0678693545889573  6.1070607817361848  5.5843605282274957   F   F   F
  9.9522963685514085  2.5158531106393558 15.5272201260756173   F   F   F
  9.3197034766691633  2.1815072844569525  5.7402797983427778   F   F   F
 11.9018696236974701 -0.2474306169628317  3.0280933066389810   F   F   F
 -0.2001013671108582  9.0714069169740714  6.5174932976033455   F   F   F
