Zr Ti V  Cr W 
 1.0000000000000000
    13.0684620354858811   -0.0110335895574531   -4.5714282125584491
    -6.5595371464815502   11.2710471525459539   -4.6162902905983367
     0.0313786509492098   -0.0005022557475526   13.8031773150163382
 Zr  Ti  V   Cr  W  
  30   9  49   9  27
Direct
  0.9952216974589958  0.0011162224516117  0.9883519020737310
  0.0095554788421918  0.0076399321550189  0.2138089465993496
  0.0028188329598999  0.6129707016170759  0.3989207693085693
  0.9874702439268729  0.5981851607270147  0.6032699799743904
  0.2087000979358424  0.0101812348833526  0.0037639153785066
  0.2131293986454622  0.9968200898877584  0.2179080107790033
  0.2030809374386823  0.9958868172651812  0.5990359439956606
  0.2041180225131115  0.2150574877724163  0.2090653386486632
  0.2127079270426536  0.3958242026255113  0.5960665331194246
  0.2117233673625877  0.4066199637745080  0.8163542631800241
  0.1875054663181749  0.5831539496698153  0.0038748151060647
  0.2047242874290958  0.6030480556563317  0.5845845758876052
  0.1755961486717888  0.5918707541344700  0.7874933851290247
  0.2015864577885431  0.8157962161570330  0.7939823212849739
  0.3899345167470090  0.5904816665292028  0.3872254255937607
  0.3813087293015018  0.7862977798634745  0.9984932304103906
  0.6040269909316603  0.9970649422779119  0.1994490628526507
  0.7987283314199605  0.2178798430688604  0.0062842136473904
  0.6090195470750681  0.2090345602419832  0.1998329778989092
  0.5889865803714934  0.1758513158791446  0.8003348345554956
  0.6007856625270063  0.5996059532932476  0.2028290089841391
  0.6031728623435609  0.7974122037586657  0.0022147335535962
  0.5943159572202236  0.8074977335045539  0.5972897425130647
  0.8047440820848734  0.0111068043472032  0.0107262087037468
  0.7949918253662380  0.9876115479418864  0.3865062461422246
  0.7993329908095688  0.9913224108603085  0.5949651839145930
  0.8020692946659042  0.2050764155353252  0.5987618271080675
  0.8068132586227402  0.3947464607661378  0.8148159598366974
  0.7761543739341653  0.5948287775579685  0.5957015068340561
  0.8154720662517263  0.7885231431892209  0.9884514583219027
  0.0169951394870896  0.2072399370230007  0.8088371126738041
  0.9836369465607173  0.7958107654033677  0.8026831458846321
  0.3915085322408927  0.9924388657345146  0.3893886417286120
  0.3898207039311834  0.9822877510495189  0.5769180533143312
  0.3987834357879829  0.2107190185682315  0.6029311368540922
  0.4121916879271925  0.4017616729187690  0.8027620376688928
  0.5880739483168697  0.1957819594341961  0.5890475876655966
  0.5921733150862654  0.5832363194035763  0.7887506682110212
  0.8168601670804266  0.1919040262431024  0.8004893044195828
  0.0027090088187285  0.9961673389947524  0.5998978344457866
  0.0063004971479770  0.2156520940750294  0.0085305984998133
  0.0051707527839604  0.4039819258998740  0.0164478551132073
  0.9992946592316486  0.5990297398454167  0.0154670625576656
  0.9937856136844222  0.5891080008787437  0.1923944557649185
  0.0137325281818320  0.7772129554580063  0.0067350770577255
  0.9997288123067581  0.7864214601556854  0.2044335698528064
  0.9901335865571396  0.7966350820071183  0.3902310602663048
  0.1857063635463295  0.9922853441092979  0.3990086602379568
  0.2046393348024936  0.0150820153480687  0.8018573766710168
  0.2081158990367282  0.2147962892337520  0.9997202743496365
  0.2170594938505552  0.2107126080986582  0.4225144926811966
  0.1937049332539495  0.1921650415106171  0.5978927540135015
  0.2167202270979154  0.3963849152155642  0.0228404593199008
  0.1836325902762976  0.4002545726983561  0.1903354367838221
  0.1853172453393948  0.3918930567571068  0.3799676242215089
  0.1944465087728070  0.5962261874365524  0.2050229635995028
  0.1879609297483580  0.5927566495310662  0.3732250855271154
  0.1812051653781965  0.7902727430159561  0.0042952316610243
  0.1910709621225856  0.7798602252071067  0.1949920811442988
  0.1920039253995792  0.7920970285044456  0.3850575452508879
  0.2319931172681333  0.8166252235829045  0.5969600826386240
  0.4035864359066952  0.0111170214927038  0.8077278947366929
  0.4105359109603669  0.2129194690013882  0.0075621828345396
  0.4150370554159706  0.2146270397022902  0.4087461254423851
  0.4023987667419305  0.4000398244880812  0.0048572734303021
  0.4040706587717313  0.3987813805794606  0.1991983323359353
  0.3944985630632039  0.5964462401236771  0.1901962186929253
  0.4033234890488347  0.6084822514414597  0.8026658684519423
  0.3958390565830606  0.7991568713111326  0.2085989681879089
  0.3905878180509273  0.7981173679403439  0.3904460575473073
  0.3982420142907440  0.8057418021179873  0.6010922853731645
  0.6025742520772585  0.2033091330270266  0.4023959967659643
  0.6006864150639691  0.4002109849153823  0.0021805268711854
  0.5914383248826780  0.3939504151252618  0.3907433268306367
  0.5859592024912614  0.3953737257086890  0.6015806393792758
  0.6023266587669269  0.3971247659955187  0.8028425818404376
  0.6012354023885461  0.5954165252825862  0.4005688979441911
  0.5802010209980477  0.5944711869410878  0.5874518013975421
  0.8189008686731626  0.0100986164556279  0.2140701043539343
  0.8209921808986107  0.2123692197740413  0.2111111264614565
  0.7968401122313279  0.4048343674414638  0.1932704814638701
  0.7977651651533536  0.4037967711626992  0.6001121742178684
  0.8055003705936777  0.6012759597648449  0.2029171047483661
  0.7919819417551782  0.5993856783573331  0.3935338179076562
  0.8050424157427180  0.5920010694017109  0.8082835597078996
  0.8014052434194986  0.7894805743733739  0.4021601889271792
  0.7997642644606758  0.7973898397608008  0.5936916349029947
  0.7806392967111353  0.8049884399667590  0.7790551174457586
  0.0032222895998854  0.2215175318871752  0.2073650573115403
  0.0026748957475626  0.4092186597770792  0.2047976692366843
  0.9931223707064067  0.3884010917082253  0.7907680715792689
  0.9664359084782551  0.5977762647532260  0.8033678148657891
  0.4118738543612245  0.3962650946315023  0.5988884357121043
  0.4178264671779656  0.6033651754276227  0.0212715517179645
  0.5962490464900870  0.2155724978939225  0.0049575052452367
  0.5824298363805663  0.7799232762147142  0.1941203899040607
  0.8031087688900244  0.4174539067420759  0.0220851233644471
  0.0039257737279271  0.9914562519826503  0.4034288411328973
  0.0050624618332221  0.9998108297773624  0.7922242713380930
  0.0023264336539242  0.1981521087853969  0.3979054721423499
  0.0097047775502362  0.1977416813475747  0.6000326062345103
  0.9967084823381359  0.3985316430204018  0.3892175902313012
  0.9931588446067853  0.3870100846402075  0.5907291063028427
  0.9917058901985465  0.8057635462510288  0.5948983546227893
  0.2118758726677135  0.2009345275459361  0.8062000608010164
  0.4074188220355561  0.0085901707839478  0.0004411464458987
  0.4044183148430880  0.0051580401795873  0.1980812997579359
  0.4098984406913022  0.2123632880489818  0.2090216456569997
  0.4057212592352866  0.2077018771247264  0.8104329966674457
  0.4069091469934485  0.4011703370288426  0.4090456572314712
  0.4067591162064169  0.5991595218320004  0.6028799900990803
  0.4079465579669976  0.8061084398875729  0.7990573861534042
  0.5928674763622029  0.0130797907843972  0.9880552436982922
  0.5874614733760832  0.9936437980056211  0.3938026374469554
  0.5921930662934201  0.0032150398368953  0.5844083061112841
  0.6029844552485153  0.4061339160000105  0.1999983882165283
  0.6046194791832462  0.5936831554831841  0.0010369036804364
  0.5866770401161893  0.7879428434373595  0.3813936883149116
  0.5932619500020794  0.7952669926042649  0.7954229008204540
  0.8153366201833659  0.0118416249342951  0.8071810898439712
  0.8038131806957048  0.2087234819446868  0.3979410094506056
  0.7996209101141064  0.4055328443947780  0.3983237722343021
  0.8016832129248360  0.5885054958697588  0.0050263281322536
  0.8024486700451475  0.7903175903188293  0.2001923239416502
