Zr Ti V  Cr W 
 1.0000000000000000
    15.3161674756862691   -0.0038639056753981   -0.0081742366427040
    -0.0038625530149281   15.3180417040563182   -0.0084288121243241
    -0.0081714294601317   -0.0084252347079361   15.3251398317997438
 Zr  Ti  V   Cr  W  
   1   2 101   1  19
Direct
  0.0006509635080219  0.4058242996057442  0.6037960255729631
  0.4065493145480505  0.9894778703045866  0.3966330291756864
  0.3961964547168677  0.7969830402355934  0.6147075172053973
  0.0002648953062598  0.0011464908146210  0.9992828718143165
  0.0002098955838552  0.0008691314534059  0.2007300086512779
  0.9971035073148012  0.0055617478762844  0.3993671347832946
  0.0026362428845368  0.9979550879918970  0.5989572179994641
  0.9996382187679907  0.0020976325217767  0.7994162516114348
  0.9986843184451297  0.2040862861078805  0.9993548245469952
  0.0038387281343135  0.2024546042065497  0.2037904644698178
  0.9974541325187051  0.1977838118533437  0.5949028696700258
  0.9987332376486501  0.2028479776931461  0.7975239347357055
  0.9976089894992418  0.4026826482609480  0.1950357913626493
  0.9980708148308842  0.3974950738774746  0.3957348478151222
  0.9992201818396440  0.4052769599349375  0.8083289384476021
  0.0010244590062880  0.5985601176822294  0.9960503712481225
  0.0054552188957004  0.6001068101793589  0.2018381473509525
  0.0009120620558045  0.5991939161321236  0.4017418221973831
  0.0056318647335268  0.6098835522484026  0.6014187012869773
  0.9963020440258101  0.8006614717981210  0.9987912964247107
  0.0000832309223116  0.7999195463412271  0.1999440677587771
  0.9971945599850927  0.8011615192847868  0.4040250611834626
  0.9953010492545760  0.7952010200485480  0.7976606407535486
  0.1979036083201116  0.0006316894407199  0.0001069766059705
  0.2012725009354941  0.0049298944594272  0.2021186326388716
  0.2006369858312700  0.9998851273208998  0.4030400537086366
  0.1991497780996896  0.0019519919863652  0.7971274152701592
  0.1998719566876805  0.1992186815437475  0.0037904159105000
  0.1976778122234725  0.2002243720244584  0.3963095386406420
  0.2022922022641465  0.1965422797005322  0.5992321579167609
  0.2003975934662408  0.2010764682553787  0.7995991419611220
  0.1963796252900714  0.4001564090063717  0.0012166336206777
  0.2021697999713191  0.4006696002037818  0.1991207406871633
  0.1984727213497177  0.3999743692534428  0.3994808123003871
  0.2058808549782063  0.3976619739773740  0.5997826945777043
  0.2005001125900067  0.3999276071494304  0.8015736637412855
  0.2011915934845439  0.6011618847024763  0.0061674436212749
  0.2043019128742297  0.6000269534777836  0.3974447277469245
  0.2075283696510728  0.6038984434165260  0.5972700342169273
  0.1972544121093956  0.6007584541191896  0.7991578308363856
  0.2006532785234121  0.8028179234486891  0.0011414283744396
  0.1992216227614282  0.7976086878319006  0.1992796433365668
  0.1984052151297940  0.8024924775666773  0.3988755189789691
  0.1936833671565777  0.8061816680560808  0.6006684892321259
  0.2021989838601110  0.8007522833708940  0.8020983624550500
  0.4338809923667989  0.9979043085503062  0.9653855363965327
  0.3994573120339081  0.9987209350540397  0.1970765963921703
  0.3954929574755417  0.9998869793056405  0.6034781911723279
  0.3979539356518373  0.9956191217211274  0.7990514543983552
  0.3989285898136603  0.1996345409989670  0.9990874885174837
  0.3966405724377570  0.2016424130386942  0.1995098228364728
  0.3978399083308949  0.2038457633445419  0.4007658000949171
  0.4017763196932109  0.2010016169661124  0.5996315060780371
  0.4023927193880796  0.1983133723100088  0.8016521013152699
  0.3990775976180996  0.4024903061478313  0.9981446633033026
  0.4039557873149749  0.4019880532728433  0.1984610926182354
  0.3996915341367131  0.4036356856269833  0.4008626665870223
  0.4003459499714579  0.4023969326936477  0.6024004499064172
  0.3991275725050715  0.4025302353942006  0.8028052042707760
  0.4000595867191853  0.6039971681607246  0.9991533671039851
  0.4002179940196346  0.6008515568122826  0.2060608711165270
  0.3995963125952660  0.6026569179031912  0.7978310637371629
  0.3999141539184960  0.7999712591658232  0.1935914741989143
  0.3992114991497674  0.7946586286887616  0.3991161465233274
  0.5993896103644362  0.0013375126703634  0.0073252486242118
  0.5973075469508805  0.0034261307777839  0.2058512896222373
  0.5955072062024989  0.0037338836453760  0.5916077322178579
  0.5991474570042064  0.1983669667992229  0.9978940688878351
  0.5985175691638021  0.2045342975065494  0.2026559648571029
  0.5982070004498099  0.1974067128518554  0.4032919855795957
  0.6011783019533933  0.3998917481972378  0.0038303836985263
  0.6025316354494556  0.3960278986058578  0.3963727912539613
  0.5990850301117308  0.3977835890966342  0.5980864344334564
  0.6010997845898712  0.3970965190293765  0.8033249829975806
  0.5991533210292952  0.5983134322021062  0.0063025910036183
  0.5955384419963573  0.5990476905165678  0.4006736904526159
  0.6014018651431887  0.5960251906410201  0.7935925058853062
  0.6004183353364297  0.8012869669317723  0.9999074796690549
  0.5998186096553688  0.7935114592331394  0.1989306589912258
  0.6004093756700475  0.8022375793555108  0.3998547855597500
  0.6022338142389639  0.7969652607649595  0.6020382544716980
  0.6003353895871064  0.7959502614048412  0.7994726257198114
  0.7978099804626889  0.9973192913678661  0.0001102835630720
  0.7996483995707818  0.9998412147404543  0.1988102525953960
  0.7980119922048475  0.9981902041310612  0.3982440597964750
  0.7969863903579854  0.9993028583563314  0.6008723316524667
  0.8015396263534983  0.9971314651264700  0.7994269760877585
  0.8003415086885201  0.1977455253557279  0.9991549763961726
  0.7991670601674198  0.1997502305744588  0.1980547404078166
  0.7955402846292206  0.1994070980896121  0.6002709830382422
  0.7970590612824761  0.1981135821288107  0.7993766041778080
  0.8029420894275937  0.4006117639465459  0.0000638090472811
  0.7973963289392886  0.4014598933402496  0.1980977472048409
  0.8016924117888079  0.4014728853662988  0.3982775858199844
  0.7954277717717538  0.4020981019498847  0.5999010322772580
  0.8003253230699593  0.4020078226969185  0.8019419261500800
  0.7989627006055658  0.6053322655087228  0.0009982581447704
  0.7952480247094481  0.6020366225389225  0.2015675702515808
  0.8001014006220359  0.6020272203662225  0.4002376044601306
  0.7921186351007381  0.6016967093005431  0.5980212519636195
  0.8025654095456768  0.6040349994974670  0.7991383305972405
  0.7994290267090820  0.7999731607875338  0.1950995567949614
  0.8012743515116274  0.8006850907114483  0.3989951665010635
  0.8012650703825576  0.8016015235856718  0.6044004388225231
  0.8006473232991614  0.1997145917325055  0.3992719882006568
  0.0017561372935397  0.2024113463543898  0.3999314812243979
  0.9981360666921453  0.4016497994418327  0.0004749506380738
  0.0008819327793619  0.5991713623565732  0.7963323787943807
  0.9977390608382376  0.8031953493596717  0.6014378290103695
  0.1988309558736936  0.0016891102220308  0.5985304824757656
  0.2010820594424548  0.2023624789709118  0.2005394689641179
  0.2029804359645031  0.5991811876157691  0.2031596063672055
  0.3991233894304684  0.6005408066104111  0.4042178463926251
  0.4052341669081003  0.5979038717308760  0.5988616078001033
  0.4007158345811650  0.7998162792125478  0.9953532142492995
  0.4017706102073380  0.7986888970413577  0.8080271598344726
  0.6034462478541617  0.9994898675183196  0.4002533090953390
  0.5979576716962417  0.2011204889637114  0.6017773745770492
  0.5997760876594180  0.2036289626339304  0.7963687620579036
  0.6010603388904375  0.4010294032256300  0.2009227111250435
  0.5972802779301539  0.5953193806696198  0.2051602752507080
  0.5955135502420844  0.5963139748068653  0.5959294850836496
  0.7989306292956943  0.8017814312810474  0.9968074554312107
  0.7977574485320628  0.8011244010859642  0.8038495699228498
