Ti V  Cr W 
 1.0000000000000000
    15.3720038313806135    0.0023998420144863    0.0001449001601191
     0.0024007571799185   15.3633006247875361   -0.0006442210894229
     0.0001450310074229   -0.0006449824026597   15.3697544548857330
 Ti  V   Cr  W  
  15 105   1   3
Direct
  0.0054386550429846  0.3924722539213455  0.6015923594240455
  0.9910082552553179  0.8024947543118401  0.2043619190922694
  0.0090364552077835  0.7982877488062576  0.6033769647409697
  0.2009819219596116  0.1998264614199431  0.3935386647058252
  0.1962619372755843  0.2048738414608834  0.6027752769430951
  0.1990775395461619  0.3704039116471495  0.1970132126963397
  0.2015899012743878  0.7972264134163393  0.2007372906227536
  0.4068762044338923  0.9972344889822021  0.8067309046928004
  0.4013856924534958  0.5997689161087224  0.8008299456235396
  0.5933805499578390  0.9962076992029728  0.9947012023600407
  0.7921300606612662  0.1978396446730629  0.7959330078425644
  0.7991599488300211  0.4037426014346849  0.1925217196547175
  0.8018505964524464  0.5937179431071140  0.0027795269404022
  0.8065433952362141  0.7978385099178898  0.3924198616775366
  0.7985469167133988  0.7970534182156014  0.6051361376774070
  0.9993341501277384  0.0009312809667750  0.0012555910855578
  0.9992193673127966  0.0041455941058948  0.2016453165191069
  0.9982344235530546  0.9993879437129507  0.4009964226364969
  0.0003587919273195  0.0004119673896363  0.5994344960073663
  0.9997483796964892  0.9999674098434747  0.7993446150966796
  0.9988176431779481  0.1996776391203011  0.0002637563378470
  0.9953019323719886  0.2009568128476121  0.2012577515609103
  0.9976458005523411  0.1963443673902248  0.5979514282706919
  0.0004386669289587  0.1994222513213808  0.7995425290688646
  0.9964131072471442  0.4009007295766012  0.0002719788813073
  0.0008629156821109  0.3990810678985027  0.2005784455893612
  0.0002050362046073  0.3993032512738344  0.3974158127402966
  0.9999425308566002  0.3986798161596677  0.8016443817221552
  0.0025598789494345  0.6008819207339963  0.0014129010518491
  0.0002755664163186  0.5972183886437521  0.2016508984338311
  0.0001057449567523  0.5991029563930961  0.4010896701310703
  0.0008578972324131  0.5987744434724898  0.5990281433914915
  0.9994760081243022  0.6006373368268054  0.7991315909743728
  0.9994059647856880  0.7998419726668027  0.0002098983471631
  0.0031554325195899  0.7997159558691735  0.4015465408670055
  0.9992197463087945  0.8004206476421741  0.8032175144370861
  0.1974609812936699  0.0007384282384213  0.0015297284804313
  0.1982550630088696  0.0142887676559475  0.2018185664682931
  0.1996087323606434  0.9996809804583603  0.4010686871869525
  0.2005736549470914  0.9985616226487957  0.6009093888941301
  0.1993153384545772  0.0001641345079990  0.8007739468954977
  0.1986249438906496  0.1994302876457769  0.0632342673188630
  0.2009164069013619  0.1993190905260120  0.8002185908498138
  0.1985250003131040  0.3993490319960142  0.9984676496071028
  0.1996247787250271  0.3997081078965564  0.4029099276355811
  0.2038424029323579  0.4039287188496307  0.6014076631451321
  0.2002279878225264  0.4007260897471659  0.8007629295436960
  0.1989494484420747  0.5989362297030892  0.0012726470355362
  0.1989703522380710  0.5997294816962190  0.2015358324092436
  0.1988761483573402  0.5992929547689489  0.3997323324320165
  0.2004524034526863  0.6015504791164327  0.6003188490936806
  0.1974374269166946  0.6001463303510972  0.8000776123661690
  0.1990245254458862  0.8014745007782392  0.9992525693369809
  0.2005863957960129  0.8011459383709337  0.4029261482239558
  0.2050862737257958  0.7999584861893986  0.6019274528177063
  0.2004228685686944  0.7998187780702933  0.8009303364711916
  0.3944806676320952  0.0004527832058349  0.0053470116141717
  0.3981058860995756  0.0021651608437911  0.2017634878082047
  0.4031379732856240  0.9987177941463922  0.4008210226124155
  0.3998707692715405  0.0000982541343131  0.5989230707734482
  0.3993878858208968  0.2005339346595925  0.0006045558456457
  0.4013925079567017  0.2010746455979484  0.1981767916946233
  0.4018745822757079  0.2003497350172778  0.3998413275077241
  0.3997301007225054  0.2003738359998460  0.5993231103870653
  0.4025304313381967  0.2020466385472990  0.8004365610380881
  0.3988920984510778  0.4024510634071063  0.0006093126377722
  0.4022420924199541  0.3992445969878297  0.2002045015963321
  0.4008377033383493  0.4013549633689285  0.3998893732214233
  0.4015557183404421  0.4012270746294897  0.6000763615070909
  0.4008442778662611  0.3991664131993654  0.8008996183576530
  0.3991671125087333  0.6000703439224051  0.0035222547857192
  0.3986631024110718  0.5992509108033134  0.2014104243791344
  0.3999415760892384  0.6005896178577683  0.3996959108462901
  0.4011140169326667  0.6003478325765081  0.5971975308956438
  0.3989167040978162  0.7998425339161340  0.0008005069431971
  0.4003048631308274  0.8014216463486257  0.1996648521320802
  0.3998080199016788  0.7994070974129561  0.3994574824647248
  0.4006709175885560  0.7993063883080285  0.6019713206944136
  0.4014009326951727  0.7998531668772021  0.8014140962151413
  0.5994154949271673  0.9996328464600110  0.2044265117119021
  0.6009413295047022  0.0001366169046610  0.5945351581850986
  0.6051975120137938  0.0045625444956369  0.7937558223871163
  0.5987275860940980  0.2020463333840736  0.9941117743803084
  0.5992971385074927  0.1996924020254680  0.1974435519914599
  0.6002865151683867  0.1971033200254932  0.4008810164153121
  0.6006138593379748  0.2005500859459748  0.6029501196108228
  0.6039538190230240  0.4012654893984849  0.9993466569391546
  0.5979323347095121  0.4009500620054289  0.1998353996541556
  0.6013403802252668  0.3986845425784591  0.4003125631348722
  0.6010089584077816  0.4009527973536062  0.5999249057022442
  0.6010673787249491  0.3975491454768310  0.7991894749373679
  0.5969777144982492  0.6006082605890816  0.9997014270458462
  0.5999355951132352  0.6017201949491608  0.2017110088760012
  0.6020079244364342  0.6020842471568472  0.4001455846495155
  0.6011970215328000  0.6006314589854340  0.5991061552602884
  0.6033878647224283  0.6010038542312149  0.7990630472456244
  0.5994020852693294  0.7977153510870756  0.9985771868276838
  0.5983055334986715  0.8007370950116015  0.1980789905202607
  0.5990685408769514  0.8042613440583903  0.4003815918025064
  0.5992315783124198  0.8007159332836655  0.6005764122924288
  0.6006954372776093  0.8028458103181856  0.7998862711446859
  0.8013150478913827  0.9999149589874964  0.9993939569644048
  0.7984257913029582  0.0002231654590124  0.1985250789137341
  0.7966270110684193  0.0013579037195830  0.3992721974027262
  0.8022153626692538  0.0002377320376144  0.5983639767667327
  0.8014434655950450  0.9972449647398272  0.7991793540858836
  0.7988957146199942  0.2021116219789525  0.0009093811610892
  0.7977111840758878  0.1988764562458980  0.1981938707789975
  0.7990518916972276  0.2016655966574206  0.3977747962367611
  0.8007598539534465  0.2014788353009031  0.5965834116226924
  0.8004312165450401  0.4001708247384801  0.4004814791871001
  0.8005448209532553  0.3995066704742979  0.6004400543614592
  0.8008004911556799  0.4038463240024794  0.8016360769471635
  0.7995116401200062  0.6038801571639018  0.2029859269723480
  0.8015507063120524  0.5972786691982161  0.4002361876076611
  0.8021365813502783  0.5972980392092757  0.5994514234935158
  0.8010393121620564  0.6011521420527088  0.7976223559231816
  0.7986622414424679  0.8003837176522302  0.9991570477102393
  0.7951193089423747  0.8001782463264711  0.1940159490538022
  0.7999033014357024  0.7992833473725084  0.8032130000034302
  0.9957939685545649  0.1995581429816730  0.3996562232717510
  0.6003525556111204  0.0009942442650972  0.3995144156722500
  0.5976528387135607  0.2008854592041243  0.7970518237705330
  0.8005004314492657  0.3980492758022041  0.9957325806531122
