Zr Ti V  Cr
 1.0000000000000000
    15.5054759955686290   -0.0026938295988576    0.0222345561511436
    -0.0026911951043345   15.4937529874400166   -0.0133710719798359
     0.0222461462953622   -0.0133733789628594   15.4975574155639322
 Zr  Ti  V   Cr 
   5   4 112   3
Direct
  0.0109708835453828  0.6129311223759391  0.1986462388644875
  0.3995503976149206  0.4006324860151330  0.6003508176363808
  0.6005755419322516  0.2004091749808120  0.2000367868237025
  0.6102739475919678  0.7995941439656130  0.9900357362347597
  0.7927939198684987  0.7983958433359478  0.8098732272510270
  0.9998992206679204  0.7872092212640387  0.3816234342773788
  0.1864873458806045  0.6004650881445136  0.0150771738000451
  0.5972399370744100  0.2015536231480944  0.7980481566552077
  0.8190751592520091  0.8043519073612283  0.0181783702650740
  0.9988648537263656  0.0013339188376047  0.9970230245283753
  0.0011851296806606  0.0033375123075443  0.1980455468709164
  0.9991854143127564  0.9998528038289601  0.3976778422101561
  0.9982515885057022  0.9979526485634452  0.5977059555480031
  0.9983477016955690  0.9989733969413573  0.7989675088872926
  0.0003796690971021  0.2000107298633024  0.9987091321158420
  0.0013548675398904  0.2011269225500850  0.1984675398378737
  0.0000068787320418  0.1990292018270429  0.3996793388815530
  0.9989932558980884  0.1986475268121239  0.5994869887530562
  0.9996985004795060  0.1998790151958045  0.7991475098785952
  0.9990654590242402  0.4000050673341070  0.9988557135647824
  0.0007660934061369  0.4009410949221487  0.1994354757152962
  0.9996260330193033  0.3980337888241334  0.3989431049837651
  0.9980559370222037  0.3988224208952436  0.6010924865168277
  0.9992330019974542  0.4003861741485796  0.8006781072733755
  0.9926245334731663  0.6006333350460666  0.9934851488836974
  0.0004395216673426  0.5932425770669592  0.4056213815753747
  0.9975837001660125  0.5993569715136807  0.6012434679121306
  0.9974139638468070  0.6000325231298060  0.7990719651897469
  0.0086216868794152  0.8011880608825449  0.9961055716099877
  0.0036539701619816  0.8113743916394316  0.1918906844751738
  0.9985795011077211  0.7988316686926936  0.6000904763093556
  0.0013006119023220  0.7997110955789530  0.7987955891203237
  0.1994286991241646  0.0007270628859818  0.9994554779252418
  0.2003127969039328  0.9995042318351554  0.1996467872844812
  0.1991377097393726  0.9985862602092999  0.3996273535538181
  0.1998926110554490  0.9976724701231069  0.5992839546117358
  0.1984552495430695  0.9998893290779790  0.7992285471782576
  0.1988540363976169  0.2003783147471179  0.0001393492987801
  0.1994210176902576  0.1995481123445369  0.2003343907851003
  0.1996817397753284  0.1997862927371882  0.3997652888384728
  0.1974878913483528  0.1986691703196204  0.5997767803554604
  0.1981502840317031  0.1997557763644498  0.7995019839935429
  0.1988375614082875  0.3984114559151148  0.0014101284478704
  0.2004208437647199  0.4008477757492609  0.2004590249589165
  0.1997319064070320  0.3990672326198640  0.3997208432288269
  0.1943560088750453  0.3990103527741198  0.5998495426559391
  0.1977920039046146  0.4009319478030259  0.8017639159777525
  0.2108365466633172  0.5989019773342551  0.2073972787776012
  0.2011120376531245  0.5984924167996974  0.4034195032579834
  0.1990736323092567  0.6014347333574827  0.6010363786688432
  0.1974503981846027  0.5996917621478315  0.8003042775449143
  0.2020309727249543  0.8021853262882724  0.0002332657112734
  0.2021338165858866  0.8001085611409772  0.1998260202696957
  0.1953103863123904  0.8001193656641767  0.5975555593349786
  0.2002725822487287  0.7989583004744661  0.7986509659570565
  0.4007648319021525  0.0014029296482829  0.9989833571469798
  0.4003583607663839  0.9993695329737529  0.1975956324885997
  0.4006609416887411  0.9975139077011090  0.3998452495891690
  0.3996471396701737  0.9995780445748945  0.5989100739770381
  0.3984492131614674  0.9982928803935806  0.7985056466028827
  0.3984509323842741  0.2000583091281999  0.9992302304699925
  0.3958298420729292  0.1995415808314880  0.1986871247297050
  0.3990282707597906  0.1987500361950513  0.3986861099213602
  0.3986980948259857  0.1954622487178286  0.5999095072863071
  0.3955809855027712  0.2000788549952665  0.8004917963705989
  0.3995566869994528  0.4001024433999644  0.0009268253267845
  0.3999998828948292  0.4005670650448172  0.1981282209214678
  0.4001251774737337  0.3993258757239895  0.3951061580444792
  0.3976521425458877  0.4000954922159574  0.8054979385235926
  0.4021417901474676  0.5997471958369598  0.0019329868008067
  0.4039929008577548  0.6003412298865619  0.1993780089503005
  0.4017184018679453  0.6015834922622305  0.4009963002872422
  0.3999117442487215  0.6044967591022790  0.6015575146993152
  0.3959088082177674  0.6008309027561775  0.8036956822929134
  0.3990448633078073  0.8000025023540296  0.9996460388112874
  0.4020182220067337  0.7995439189382934  0.1972369959554881
  0.4009706997048316  0.7995119204498171  0.3938806697772878
  0.2036533259347763  0.7991091184179496  0.4003901836608384
  0.3947534302778340  0.7993428662828083  0.8023195578546620
  0.6003324705901464  0.0047726254834612  0.9968404238797546
  0.6011097637446363  0.9951755926974519  0.1974738390657273
  0.6000038564076096  0.9985413722815053  0.3987823475392216
  0.5975670456112732  0.9989850789235287  0.7967628196283794
  0.5997715332377432  0.2015185822693154  0.9955687227507035
  0.5994940981090622  0.1991671556965239  0.4035174701535003
  0.6001854353283643  0.1987466934181130  0.5982566480775064
  0.6012574941995996  0.3999977589027672  0.9997996532745218
  0.6004806744962725  0.4045834275581569  0.1995279571521874
  0.6006672459975381  0.4000655559107145  0.3990522014597995
  0.6043036145361322  0.4000748238305536  0.5995215607376526
  0.5987929407166547  0.4024583645158737  0.7995478318466801
  0.6002259212497074  0.5956419063479333  0.9988661650342393
  0.5999197801247383  0.5989107551842142  0.4003721873014886
  0.5992643692962387  0.6022822198020091  0.5996073317652585
  0.5971323957662862  0.5992852109236686  0.7986345060231494
  0.6010117194715623  0.7995563600826857  0.1987637822986956
  0.6038038079926248  0.8001109948667874  0.5944323699835015
  0.5870772457929612  0.7995163707528450  0.7857321580763132
  0.8004494129803791  0.0048051445626926  0.9999746283947157
  0.7999874633049493  0.9989484723094773  0.1990787642619293
  0.7996505098793607  0.9993028126701106  0.3992619538228449
  0.7996239136425043  0.9998842471295756  0.5992587525623543
  0.7977727125443991  0.0047407766498581  0.7987405788810511
  0.8014105435155120  0.2017841073277007  0.9999611578162012
  0.8047841513475589  0.1992748757996365  0.2000842379250560
  0.8002257463821685  0.1996720543417256  0.3998380763359634
  0.7999329569825131  0.1989572148684593  0.5996670831354017
  0.8010958527489762  0.2011072770950569  0.7993286626016374
  0.8000317133771947  0.3992562846233985  0.0010327375531249
  0.8021178708636099  0.4015908368444357  0.1998611403095664
  0.7999090429187624  0.3987626362271814  0.3990596536256286
  0.8003862542247181  0.3987569665259056  0.5998510027374921
  0.7992352743364899  0.3987457507438625  0.8010331621081553
  0.7988769268270263  0.5979035136231274  0.0026297824015231
  0.7997291450913362  0.6007280206078331  0.2003787127676072
  0.7991357000607164  0.5978466160258391  0.4008264967630554
  0.7993803703845591  0.5994093476642846  0.6004304379569414
  0.7970478751497140  0.5947287973087045  0.7997653943089847
  0.8030072867944347  0.8000036635292420  0.2074727321980053
  0.7995980335114512  0.7987071169964493  0.3999409073946217
  0.8006456600012891  0.8006518231429471  0.5977010416623779
  0.5996359886842849  0.9988897583204329  0.5976472289985066
  0.6019018553581569  0.6014296265401455  0.1998179196733230
  0.6004737571396613  0.7988693241887679  0.3975558146467277
