Zr Ti V  Cr W 
 1.0000000000000000
    15.3990340272275770   -0.0170018773457157   -0.0022529018582575
    -0.0170107766548915   15.3787801482628375    0.0165544931564424
    -0.0022517709109467    0.0165430754876648   15.4057927644380346
 Zr  Ti  V   Cr  W  
   3  13 106   1   1
Direct
  0.1891209397532647  0.2017374998097757  0.3717966890610438
  0.2049006764785990  0.6158356523588687  0.3828280246960861
  0.3855644763289318  0.7958784827395520  0.3896320609621505
  0.0024220474438357  0.0000918486362990  0.0026467240423351
  0.9997452446590930  0.1708746162706128  0.7967226493103892
  0.2045244492985963  0.1998050928708446  0.1741924053937088
  0.2034169134321551  0.5891930817413140  0.1830364497569877
  0.2110985854746153  0.7979814155160782  0.2125550244890766
  0.3930580952518479  0.2045908728926053  0.5982494309898913
  0.6101542037164837  0.0157446452358390  0.5929466608588172
  0.6023322379157890  0.1926640271186199  0.4131724519262938
  0.5878125246651497  0.2036011719390971  0.8130250270256644
  0.7928639238039084  0.1996668361681261  0.1958685605813374
  0.7827691916340487  0.1994284469639863  0.5940302594603524
  0.7960461149677648  0.1976486353710119  0.8032750448499260
  0.7989031540288585  0.7976436247706239  0.1951644843559059
  0.0026471268393222  0.9993694113934543  0.2051322482819445
  0.0020078325692217  0.0018650834701653  0.5942312448675493
  0.0007102246297983  0.2007450050143762  0.0045925909330747
  0.0009908851371239  0.2003127892807478  0.2011132680878737
  0.9889200567148752  0.1969597739939651  0.4010972865331852
  0.9977334820168520  0.2005370765407258  0.5973117306009034
  0.0007494871502736  0.3990618089831405  0.0017868929219492
  0.0004207134112882  0.3988805988753135  0.2034146802149606
  0.0015385498538458  0.3984558688094452  0.4019816187367525
  0.9995126407927534  0.3991358539118074  0.6013223120301204
  0.0009999543256398  0.4014510542769785  0.8011957602221369
  0.0018405638571009  0.6005779693449360  0.0029806252378177
  0.0011226757554974  0.5992992271570637  0.2012383109765130
  0.9969608359590325  0.6008930028101123  0.3996516351968746
  0.0015776063215918  0.6015489348334782  0.5978479241811964
  0.0001484783501614  0.6007923349390191  0.8016542645278514
  0.0029003657272992  0.7995398848940717  0.0035676398061977
  0.0020615344260531  0.7998186288780006  0.2023409902549610
  0.9943658653970809  0.8063412228392725  0.4013043379086704
  0.9996623801751365  0.8021913441737099  0.6034603137899623
  0.0004250186227805  0.8014009380297488  0.8018229001935878
  0.2025301662004895  0.9986488268082481  0.0017956006696807
  0.2039566512792850  0.0033306477580506  0.2011402725278149
  0.1979721832883980  0.0013985338331530  0.4009271502351250
  0.2024901960274750  0.0042211093554405  0.5998811586144925
  0.1342521535219884  0.0012780323204046  0.7992704398299220
  0.1993127533416398  0.1993489623201458  0.9867065177702019
  0.1962131248202663  0.2031811651054522  0.5971851292139034
  0.1997319959567011  0.1989673622341892  0.7959144550591456
  0.2004155907107912  0.3984329800978458  0.0001948991786740
  0.2018061906024453  0.3949303459604262  0.2016403833513838
  0.2001218998500984  0.4041302524265322  0.4021023979476578
  0.2001575829674135  0.4023074565910221  0.5995446252810093
  0.1993557295220804  0.3990382073622316  0.8008004206260970
  0.2011478347535988  0.5991324745399980  0.9935138466514311
  0.2009316395721479  0.6020386703657756  0.5997737025561949
  0.2013335283416922  0.6004909692910836  0.7982403159043846
  0.2018428799368896  0.7992381179063072  0.9997974031839272
  0.1871917180921268  0.8126676450008814  0.4095876710700807
  0.2002756473465676  0.8026751530260421  0.6045122070819946
  0.1990137839683180  0.8045463140184929  0.8021937452217314
  0.4010653407799301  0.9995443700090626  0.0019020350713896
  0.4025753072989159  0.9976304155619534  0.2017709953380105
  0.3996483456596259  0.0047024120224110  0.4004573654410774
  0.4023577684810111  0.0007887940482663  0.7979141567258128
  0.3997441481459998  0.1985721620150176  0.0017317858121479
  0.4012922379812069  0.1989091591592812  0.2011509140767692
  0.3982805704414367  0.1988644385091303  0.3987722453548366
  0.3948531149753639  0.1991166451568828  0.8045364060827095
  0.4010641575150873  0.3989519947826948  0.0023374338830791
  0.4021150697346222  0.3979261594654993  0.2025776129709210
  0.4011872426194120  0.3949243082723416  0.4022791830398137
  0.4001665994559263  0.4026385984964453  0.6014894680541428
  0.4005574549510505  0.3996369317610727  0.8007800626994065
  0.4012830736602691  0.5989103815442498  0.0012874549204560
  0.4045731607865835  0.5969406627017806  0.2004267385582021
  0.4098953395588342  0.5905630204490716  0.4003108386871778
  0.4014205495778925  0.5998658319157137  0.5992991355981282
  0.4011433853686995  0.6003846900094858  0.8014902810666372
  0.4003291435941401  0.7996185472969283  0.9977582035203196
  0.4064503220807643  0.7990714524048125  0.1911544054598177
  0.4005508942290232  0.8014213506034956  0.6015991938205215
  0.4003370648588925  0.8010355912236479  0.7996785973672390
  0.6017450252869613  0.0005215622095989  0.0013187565669719
  0.6019399174968354  0.0000302806354062  0.2022848020940556
  0.5995459924448148  0.9954134567480603  0.3984279790478350
  0.6002775485476821  0.0011405136003490  0.8017932417511080
  0.5999077197470125  0.1998380566497693  0.0080219376006535
  0.5971148921135440  0.1985007761087378  0.2028185276852860
  0.5907635390820023  0.2075013612416811  0.6091511191247455
  0.6018487197087279  0.3997337747736457  0.0019632870365894
  0.6011830512923619  0.3979571867258606  0.2036254619845020
  0.6019927881756367  0.3994848148806371  0.4027878574965453
  0.6005108906650862  0.4032732083081192  0.6031304455928913
  0.6009667969689558  0.4025734077845308  0.8027726925181267
  0.6013263608183640  0.5996973651529180  0.0020432978801986
  0.6031176024520919  0.5997625282666751  0.2011136179089832
  0.6035422497868349  0.5991653741760480  0.4005611683543766
  0.6008118178299958  0.6028877919661830  0.6009511403419266
  0.6009704483469902  0.6008393572503387  0.8014422125788184
  0.6016543617424571  0.8004924901906560  0.0010383350394507
  0.5999086951063514  0.7994565846968642  0.2006301667974757
  0.5993665834295465  0.8003160362925098  0.4005760916203043
  0.5992466128579067  0.8022795157583196  0.6000290920524911
  0.5998894107255900  0.8022951552006284  0.8007789561781351
  0.8010095849517819  0.9998086392824174  0.0007693700012138
  0.8011156598597425  0.9998191127264771  0.1990930258408949
  0.8099285468317071  0.9968615518411397  0.3953994507976373
  0.8053348214479658  0.9967116079087134  0.5997207516536853
  0.7982692616646317  0.9995767676622442  0.7985988060555063
  0.8007539761381639  0.2005480008716536  0.9986393847831992
  0.7982135121405594  0.1985849095427298  0.3964623966456798
  0.8018210680534182  0.3991901451896889  0.0013593077053320
  0.8014929118515446  0.3999816667228402  0.2013555236862130
  0.8013586006797679  0.3980437052356814  0.4008972977374402
  0.8002024737496793  0.4017922097898248  0.6005418313524330
  0.8015512822123937  0.3994451386278506  0.7999539963578004
  0.8020675554673373  0.5989055772776510  0.0002422422810842
  0.8010515851001713  0.5965774638293293  0.1997484559900597
  0.8010415649877022  0.6004266726764085  0.3996781829299993
  0.8002020272255823  0.5997619717824783  0.6005676077383598
  0.8006286163841974  0.6007832012965046  0.8009047360958571
  0.8013991064937301  0.7994300480104949  0.9969970509787852
  0.7980265290260224  0.7997558229745616  0.4025997036562804
  0.7994365497387460  0.7992737244899878  0.6023224557078951
  0.8013791487492132  0.8022196642804847  0.8008086673861745
  0.3994917339689477  0.9989286712357734  0.5982819724925462
  0.0049247672955508  0.0041952120054469  0.4001222923740087
