Zr Ti V  Cr W 
 1.0000000000000000
    15.4546529229448950   -0.0040749683285616   -0.0054037382233372
    -0.0040912970430347   15.4638570505567383   -0.0473148360752500
    -0.0053791826064366   -0.0472533129127416   15.4680791581891697
 Zr  Ti  V   Cr  W  
   7   3 108   1   5
Direct
  0.9900716010572190  0.0027988295085779  0.0242546455130177
  0.0156451857954432  0.1892662682188304  0.3950361193310270
  0.2043853138906645  0.9940659223239090  0.6026092588223683
  0.2035707925870350  0.8394279891137694  0.4217200374622147
  0.6053779068131060  0.0049832491961446  0.2051031146812531
  0.6079943111240736  0.1842112589906185  0.3884490913735809
  0.7821657017294127  0.0260208553462757  0.3633903967073110
  0.1993389720802407  0.0335446126068759  0.3835806900834796
  0.6104291173015393  0.3982327793148976  0.5993610642528900
  0.7906584833772586  0.5868142714843083  0.5952457496087226
  0.9677012976630309  0.0042029026342652  0.2183557996457294
  0.0091907683969392  0.9863002469509042  0.4114647879740239
  0.9945313361760439  0.9953360040373211  0.6056919920887049
  0.0009244675613818  0.2047529892274901  0.9965513631100994
  0.9983774689754521  0.2030369596279198  0.1901406725243664
  0.0008792574366230  0.1936638328326599  0.6008162947104190
  0.0007370253701886  0.2025643054415943  0.7973715992221582
  0.9993068699422437  0.4021256241524530  0.9951167355080319
  0.9997733894852232  0.4031717983362408  0.1995785066293438
  0.9992520881098073  0.4017492891939427  0.4001549015954891
  0.0016577648940702  0.3971276893705942  0.6035931533418096
  0.9996525933768643  0.6006370179171543  0.0025185961483118
  0.0004575770599313  0.6023350537564263  0.2021061117500101
  0.0015593618660801  0.6001076889658686  0.4020922040433613
  0.0021856573305693  0.5968996599988797  0.5998456938711004
  0.9995293956471182  0.5951705079496467  0.7997965912932663
  0.9976937476324115  0.7971577579750559  0.0026726787543079
  0.9970056131211271  0.8029699018520051  0.2053852941698789
  0.9950559448178216  0.7965241200688333  0.4052506984801232
  0.9969575012862811  0.7930494597083230  0.6065173874247395
  0.9965905213664779  0.7953784699117978  0.8031300480066500
  0.2010248768022546  0.0018180277251230  0.9992008799394666
  0.1976164407327732  0.0020322084499473  0.1945757309404934
  0.2017122803282610  0.2012919962314510  0.9989085937318675
  0.1986376300115361  0.2041924971735583  0.1985800044432816
  0.2011944446782731  0.2000332547391421  0.5941151728473080
  0.2014512438982885  0.1932810252130348  0.7966537153713352
  0.2010384176451496  0.3999922897165002  0.0001051596986497
  0.1993637532221095  0.4019336403579985  0.1981031581885317
  0.1982931277234238  0.4013512479342187  0.3993222213154336
  0.2014640337204791  0.3968266015865338  0.6013867129798042
  0.1960680708896419  0.3965101747109990  0.8001847404451854
  0.2004843108312891  0.6005818859976557  0.0013729758924144
  0.1992284395455268  0.6030334847043438  0.2034225336389405
  0.2001600459143622  0.5983109324117379  0.4013153055704176
  0.2028813609469889  0.5955697003734062  0.6005923912695317
  0.1999892348926908  0.5993602353618669  0.8031271252979997
  0.1991264310957259  0.8001451755061120  0.0043851380924414
  0.1974183610610890  0.8024866957197059  0.2048761101584376
  0.1985510117348746  0.7881908466411078  0.6145200746167353
  0.1987168730487291  0.8026338264303641  0.8076217296073225
  0.4007126424602026  0.0008049931652065  0.0037371083803259
  0.3971502294369536  0.0016523105578074  0.2013166056350444
  0.3963326458407384  0.9984079511377052  0.3997033623581919
  0.4069178728255658  0.9981393157410468  0.6008958820644708
  0.3974301295644749  0.9990642635820129  0.7988737608814462
  0.4001068269621628  0.2009418528053596  0.9979853065380175
  0.4012454211687663  0.2019316505160699  0.1985426133944665
  0.4004626801609701  0.1991248815425624  0.3988471455901879
  0.4048314999687632  0.1988178520522198  0.5967257303343682
  0.4009899472972110  0.2000963124617532  0.7967580206433883
  0.4004254150708264  0.4006615640152071  0.9986278417150369
  0.3992725481269108  0.4018871835780706  0.2005334563499763
  0.4044412044315674  0.3978155490670774  0.4001392313101882
  0.3996502886111334  0.4009842281913068  0.5992490408802892
  0.4000225938565448  0.3980177923043917  0.7985572362478152
  0.3987552081429026  0.5994003780423572  0.0011055101262025
  0.3981151016921373  0.6002465820360825  0.2030688637924653
  0.3979501144388521  0.5992156122674120  0.4037600097155186
  0.3978907174595087  0.5981814653287363  0.7966936028755899
  0.3991422508180285  0.7996713329298926  0.0026418917287789
  0.3992979778284091  0.8007242870103750  0.2035164805772070
  0.4043556365228775  0.7972184949807396  0.4011408346441283
  0.3993984748012998  0.7918079199419769  0.6001936727030077
  0.4040584245839056  0.7986900034002961  0.8025822857470520
  0.5964488157174368  0.0003015444230781  0.9973023658349424
  0.5881432946348903  0.9825346358566446  0.4108879817004670
  0.6021221022164458  0.9954249309501838  0.6018652570070767
  0.5982419787448707  0.9942880507110032  0.7998838242031983
  0.5991432028989833  0.1999816499124545  0.9937210085165752
  0.5989213942830318  0.2109791576253110  0.1858183535078824
  0.6025583960961176  0.1951889681627033  0.5996672358877260
  0.6006254548866656  0.1980114889356248  0.7965637782964545
  0.6006669266190926  0.4013684522433450  0.9961330654036219
  0.6004911893860113  0.4038947668409058  0.1978659239401466
  0.6016542520124452  0.3972841588631652  0.3957038725231959
  0.6021315446890696  0.4002704189859274  0.8003479773259581
  0.5981732218706106  0.6001622205118137  0.0002068080785185
  0.5977274174329894  0.6008072977250430  0.2000666498739182
  0.5980943972332308  0.5965641078604859  0.4002922365874732
  0.5916801656596432  0.5994885777341262  0.6004035552449929
  0.5987527223953267  0.6026991545652846  0.8008875723570968
  0.5989337060307243  0.8002998869117018  0.9986486468060816
  0.5997815975051990  0.7967914873339511  0.1987676949570011
  0.6011166425581882  0.7930047741699283  0.4036702365929212
  0.6005954968063079  0.7962849643053457  0.6082834467297916
  0.7924179234147292  0.0014296447304908  0.9974893997976523
  0.8012271728211510  0.9959372719401897  0.5943246144926450
  0.7990112193454348  0.0002819518556240  0.7974304655260641
  0.7989295501129164  0.1992793061809256  0.9973364841533086
  0.8010708670850091  0.2103767952984258  0.1954629982774697
  0.8105429884649734  0.2146234421850626  0.3966547331112685
  0.8019453777316291  0.1949503944919884  0.5933570868101872
  0.8003592293366066  0.1977907638607825  0.7972995828105408
  0.7991987385524930  0.4006674453799565  0.9987308651171296
  0.8011359315304699  0.4036732516647033  0.1973163072586437
  0.8010984046668251  0.4041255164384320  0.3985421724510684
  0.8044001876057104  0.3922284292491667  0.5982595335527466
  0.8049020716664196  0.3977767668430696  0.7985234680866319
  0.7982072388065048  0.5999973906904454  0.0006932307119196
  0.7997615154954019  0.6012736670985116  0.1998965312520328
  0.7984617974515443  0.5995198281692355  0.3979143111741828
  0.7992626039818064  0.5982315162504074  0.8010242657285188
  0.7988846849109966  0.8020363204764536  0.0032207988761864
  0.7985515101323666  0.8010192521935782  0.2030867993190102
  0.7989782852926891  0.7958326335829845  0.4050085595809109
  0.7982166361110739  0.7980823999654393  0.6014379059133346
  0.7969880155840051  0.7981879471946549  0.8018728084541543
  0.0003703867543840  0.9979899157581108  0.8028238553862753
  0.0013582280172442  0.3987853322911153  0.7996965245114916
  0.2022593239143334  0.9985136589595650  0.8063470262127288
  0.2119648977012445  0.2136244228102062  0.3984707381087777
  0.3978732735714226  0.5954967114299961  0.5993394668184866
  0.5997558846299543  0.7996979021313516  0.8029441543697111
