Zr Ti V  Cr
 1.0000000000000000
    15.4889002550493640   -0.0195313770937778   -0.0155534076795571
    -0.0195267745976093   15.5102089440028070    0.0059105293967036
    -0.0155475950656657    0.0058984254639578   15.5083315327291498
 Zr  Ti  V   Cr 
   4   5 112   3
Direct
  0.2113543650816954  0.7994320229534598  0.1944204305633933
  0.2164563149116598  0.8008797309125217  0.8009804581337969
  0.3731245282472112  0.9721317987313658  0.8373511930932422
  0.3862238265908923  0.7969538631573564  0.9957004767627700
  0.1995507642564455  0.4029230006880411  0.0011286845657850
  0.2127264233683240  0.8112517925655012  0.5912351314718991
  0.3995011319554699  0.0134412480156170  0.0262390066200639
  0.3875298493523271  0.9910812554368625  0.5998127259805288
  0.8026458628164231  0.7997865031383928  0.2007856986466713
  0.9965083661424476  0.0003728293048662  0.0031191012527186
  0.9986372938070323  0.0008379841983888  0.2004880313503980
  0.9985533293636324  0.9997020788843488  0.3982009975955022
  0.9976126110541752  0.0005465711165955  0.5950684337465287
  0.9983183041838385  0.1998951350762756  0.9989719362853809
  0.9993876245187678  0.2012613974146333  0.1989442877927650
  0.9996226685020607  0.2005473191913529  0.3988359052711637
  0.9985407512912488  0.2007499321707768  0.5997772449014519
  0.9997474819536387  0.2034151195691872  0.7995788433632801
  0.9976936762021956  0.4014544277939511  0.0004690321765577
  0.9991847375670457  0.3995625841227869  0.1998387618680670
  0.9997249636313904  0.4009970391336387  0.3992803411288998
  0.0004925072532531  0.4008841133880382  0.5984639226725789
  0.0001821267966104  0.4011622427628318  0.7995408181654132
  0.9989308089520303  0.6006832035599254  0.9997897198771314
  0.0011742453840556  0.5999692300835466  0.1991200055142169
  0.0008750272996228  0.6006922905974108  0.3993409206761083
  0.0029037584371552  0.6014094146268365  0.5997673646928957
  0.0030302469558482  0.6009387039632301  0.8002245433483141
  0.9947903033688035  0.8009803995656563  0.9985580049774289
  0.0010742298170360  0.7997198572136389  0.2004896430497931
  0.0008622445214934  0.7991906742447370  0.3994541353271663
  0.0021802097730046  0.8015889167875593  0.6006573337944009
  0.0043550482517762  0.7983807564309064  0.7979872861190750
  0.1933931312249892  0.0012675545924883  0.0053379409068465
  0.1992364041311793  0.0033847437600851  0.2014198902722266
  0.1977241330254105  0.0009913131165846  0.3987782256848345
  0.1928526422733381  0.0056702778586103  0.5974240260448715
  0.0928895409582527  0.0026621444754755  0.7998481633554912
  0.1996692758117588  0.1978200185050696  0.9979701587313038
  0.1998634397717998  0.2010219688146733  0.1996088905039747
  0.2000693792291613  0.2003247769064512  0.4000036627486994
  0.2003590834636205  0.2008615929349015  0.6002960555821595
  0.2001668103950154  0.2000395245591876  0.7997364605189581
  0.2001979454953066  0.3992970511637545  0.2014838318055533
  0.1998947647448996  0.3990498050139806  0.3996969157357468
  0.2003712685321662  0.4000882901079413  0.5987633057310822
  0.2002552127745641  0.3990655091920427  0.7981757733321045
  0.1990201013849304  0.6024348563691203  0.9994468617377910
  0.2006789902776225  0.5949516747390767  0.1997214380242359
  0.1998131980773847  0.5998156321281328  0.3996228764617625
  0.2022038591190343  0.5999299680893562  0.6000270966944363
  0.2017909644035639  0.5947493983862974  0.7996874722388367
  0.1858318666339255  0.7996156408073859  0.0003648058965460
  0.2006487043235312  0.7997934265666985  0.3979730046525270
  0.3991358140529043  0.9992760924750711  0.2095369535719688
  0.3988663536318885  0.9985039135644806  0.4003752562455319
  0.3989443526833007  0.2033431056815113  0.9987228128467533
  0.3995797797542265  0.2015360024824785  0.2008957701840363
  0.3997584074852398  0.1988201208353836  0.4002972826275350
  0.3998894422955342  0.1982995511808906  0.6008072255872104
  0.4006324371472840  0.2028976859999685  0.7984233569998325
  0.4016406171928257  0.3988090176488547  0.0006610470090221
  0.4004825095477693  0.3990069620352348  0.2007557431269426
  0.4000193811143661  0.3994264893250613  0.3994574178681941
  0.4010327393870734  0.3983639351900894  0.5982486042966204
  0.4014116841015026  0.3983225623821606  0.7984363318898676
  0.3989917229992276  0.5922508735025301  0.9999918537181616
  0.4002824127936687  0.5981492455963450  0.1990450230977398
  0.3997105254869155  0.5985370733543395  0.3989123743240265
  0.4007933643101441  0.5956880745204340  0.5979711237339838
  0.4012211071491039  0.5927994413314227  0.7997400296615103
  0.4094888301440560  0.7977828064702124  0.2040461924609201
  0.4023294787340130  0.7971088397334870  0.4001715612687662
  0.4093586592570090  0.7924834545760002  0.5947260031189344
  0.4164839641657219  0.7814673024178294  0.7883482474309761
  0.5979690936792883  0.9993743356428237  0.9992935888451595
  0.5989673930837148  0.9997899450866338  0.1988221138460604
  0.5995695268677962  0.9993778440486294  0.3997290103845092
  0.5996242047961718  0.9983384243747168  0.6001911214010928
  0.5999352553187330  0.9987245859887929  0.7994831026154137
  0.5989252683107228  0.1990767413066765  0.9981956987954550
  0.5991847755685200  0.1998775664408711  0.1996038295764845
  0.5990955882838730  0.1983217548035158  0.3994409200456598
  0.5996836507317914  0.1979149307812980  0.5993749644201158
  0.6002410239711192  0.3990771776338971  0.9991680558719083
  0.6000061031422723  0.3989534377758452  0.1988698709005041
  0.6004078202383238  0.3993310931464426  0.3990568583041547
  0.6004485106462653  0.3985792436659132  0.5989937402758994
  0.6015563364645464  0.3989599313253751  0.7996037835473980
  0.5987465610870190  0.6006127482177721  0.9988344613922736
  0.5994636779158149  0.5996287380699863  0.1982360085518957
  0.6005177598100525  0.5999016856194809  0.3985496318007943
  0.6017098284236725  0.5986306580967349  0.5995179318712202
  0.6025928391017861  0.5978825225860608  0.7997106129569210
  0.6006826768132699  0.7993770666040741  0.9982101680615489
  0.6000980610166807  0.8000704535749181  0.1975416074454871
  0.6015413940726074  0.7998971123973460  0.3988843017664557
  0.6050544927955288  0.7990128759654506  0.5978612023383245
  0.6054930061350516  0.7987081628133192  0.7982009748626241
  0.7995142529327971  0.0011871403257822  0.9997827656261926
  0.7981170636622689  0.0030928957756207  0.2001070356356374
  0.7992571909001032  0.0002458452108722  0.3989559810486991
  0.8005764793801635  0.0007798298793897  0.6001545231474048
  0.7995736415790716  0.0009143303617658  0.8001312540575634
  0.7986586517471903  0.2005049297793308  0.1991500785036306
  0.7992279663075581  0.1999281820181141  0.5993909762878883
  0.8009728133967815  0.1997486949495174  0.7997951267662502
  0.7989011384679623  0.3994543444028825  0.9994965917827575
  0.7994530685622629  0.3995075019090906  0.1998072070841274
  0.7999778458016857  0.3996113488924371  0.3992943755923926
  0.8002911124687906  0.3995606834723618  0.5991466828330467
  0.8006536867224743  0.4004806715476916  0.7995851377248175
  0.7997206480328400  0.5998732008271960  0.9995245311491339
  0.7997490782866843  0.5973502057018234  0.1990997218874134
  0.8009346279626325  0.5997435832270711  0.3994336993713699
  0.8017816456009248  0.5996912574380658  0.5994588653017723
  0.8018655827819161  0.5994503894052067  0.7993542614028828
  0.7987899921220692  0.8002785962794230  0.9967260684982585
  0.8002311453589044  0.7996218940993386  0.4014975723956364
  0.8029968641909820  0.7997791188295572  0.5990514384813508
  0.8043889643269078  0.8008935379746125  0.7987104058701260
  0.6001769547678579  0.1987717908617733  0.7992203985035951
  0.7984581621495921  0.2006508403979860  0.9993416588310463
  0.7993181277276924  0.2001349380658701  0.3996798791989763
