Zr Ti V  Cr W 
 1.0000000000000000
    15.4789986277991698   -0.0057363133456787   -0.0416155365588555
    -0.0057723299671727   15.5830275882165825   -0.0125050511144938
    -0.0417577802568669   -0.0125697874571833   15.5260084647108236
 Zr  Ti  V   Cr  W  
  13   4 102   4   1
Direct
  0.9973074285681637  0.4060706465730664  0.4062710844868767
  0.9926557916040984  0.6448837835752506  0.0017504884009860
  0.9638410582351759  0.8682459714217846  0.0129789722767733
  0.0029652844802666  0.7524706811525153  0.6362306710294465
  0.1821331131745861  0.7951719752773325  0.9938954283029262
  0.4112222734926880  0.9861289960859431  0.7852384118550637
  0.4048868418164666  0.3804719756997006  0.7647359963105612
  0.4098805114048594  0.5936214147320253  0.4094406451481088
  0.4046623957382979  0.8043778852795891  0.6043345969131235
  0.5600609386415423  0.1976096735875473  0.7702501244413260
  0.6083787890481663  0.3888306046147543  0.2335701810161094
  0.8163039377938643  0.6030594847969817  0.6200264575711021
  0.8478472763217904  0.7571363412703174  0.8163182864056467
  0.9908711814705183  0.5729813777746172  0.7845445572165037
  0.3915565688473712  0.4097161881761872  0.5674059204351884
  0.5893642409082351  0.4265150068150003  0.4321946204308705
  0.7810100560024855  0.8322417673878547  0.6027636887381547
  0.9981301499294034  0.1113036586805519  0.8935497450407738
  0.9981883393777370  0.0115515788930807  0.5959431652773565
  0.9987167723990038  0.9917040192974712  0.7897156917660265
  0.9977849991266006  0.2013085598339419  0.0004046679204861
  0.9990678147148692  0.1993270279637438  0.1964705074328126
  0.9982080034853258  0.2011618351387217  0.3931408563289290
  0.0005924413428726  0.2025143345368452  0.5913817859405596
  0.9979500994849119  0.4052335173978759  0.9953164297523673
  0.0024772554142951  0.4035896162976519  0.1963118731406620
  0.0010005980842786  0.3938434048951791  0.6072532459663192
  0.9976199034531631  0.3634811416865691  0.8010797538340289
  0.0010071721532163  0.6000429662385309  0.2043190798201593
  0.0023781589672545  0.6095734094120513  0.4017054310737215
  0.0167486722282845  0.5637794012989145  0.5865698741876472
  0.0003722495271823  0.7959438757204551  0.2093371159166701
  0.0015192994069543  0.8056031050441202  0.4042039124606648
  0.0358775164963274  0.8065724273620658  0.8307735477453980
  0.2014233205911874  0.0037234827614074  0.9955338126320777
  0.1978658673267556  0.9980882939584896  0.1957013622839008
  0.1984311680320601  0.0001416800778050  0.3957467314840630
  0.1967059511638249  0.9980592217400962  0.5948499592683981
  0.1981835186871444  0.9962632309577029  0.7943345837185407
  0.1977801152106478  0.2006062093659935  0.9978211040677991
  0.1981524881077647  0.1994377281804294  0.1971998976450963
  0.1992225565282736  0.2006138944441857  0.3962595351406972
  0.1990326350741723  0.1992504535493455  0.5946925119244021
  0.1981273667460351  0.1952517237040969  0.7943591496471123
  0.1982825271327022  0.3991506320126670  0.9950433378715884
  0.1979895280907880  0.3986237507778548  0.1993289383421317
  0.2047770734789474  0.4002265606735796  0.3984127857551573
  0.2023522534194349  0.3958785058308608  0.6011095145964188
  0.1906966359334777  0.3996460773672366  0.7968207713053866
  0.2108266772972358  0.5912621881168516  0.9965269823664465
  0.2016149498172132  0.5975092494788711  0.2014605611172723
  0.2001734801282434  0.6010752921653584  0.3994392123532968
  0.2104273529961112  0.5975181268867049  0.5972443188952431
  0.2013103672116184  0.5954703228578607  0.7965082625830366
  0.1983488768110697  0.7990100068325907  0.2033811098883569
  0.2005296681438312  0.8008429696737647  0.4019449120178037
  0.2025149537235323  0.7973582305288877  0.5952811163381254
  0.2028434741586430  0.7934985098982384  0.7894008580151558
  0.3978082680706289  0.9958221839208697  0.9968583926456270
  0.3989593094314248  0.9983693730738081  0.1953605263217448
  0.3989537327660092  0.9995648806791482  0.3931796279229798
  0.3983424341882001  0.0092218515397414  0.5852273802572893
  0.4001074858454484  0.2022446405923750  0.9947122434515341
  0.3966575285397993  0.1969158197415165  0.1936189888598794
  0.3982863086899386  0.1982334417320320  0.3910139689342432
  0.3975155978014332  0.2034106191456555  0.5873257264972884
  0.3735632549166985  0.1891604267988870  0.8001194013095496
  0.4019582221078548  0.4049229568305711  0.9995023595584079
  0.3988043649940813  0.3973653149824032  0.1960224947377814
  0.4023946072512247  0.3924134860792427  0.3845087992419237
  0.4010050040667725  0.5987939196409116  0.1979563902301449
  0.4054714553149067  0.5989191261468720  0.6130970279531543
  0.3971926987981224  0.7950734985629145  0.0026342400579475
  0.3971672671413291  0.7980817205665870  0.2002398386147367
  0.4016076995579291  0.8024033618781352  0.3968489310450439
  0.3982740734632563  0.7846442639673560  0.8096551336777161
  0.5976403748323569  0.9988484542933243  0.9967209830023429
  0.5990751743350885  0.9950148618022693  0.2001454638651852
  0.5996578360329555  0.0017554892165665  0.3994667149247827
  0.5983208672930646  0.0124365895736538  0.5996555200136794
  0.6103702095154461  0.9913683951912331  0.7997285006557411
  0.5987162154522022  0.1997980676035152  0.0035349158489267
  0.5972439177490437  0.1907701387940616  0.1962819302232192
  0.5971021664183382  0.1984482550807925  0.3913984003521250
  0.5983706148715329  0.2096414283613504  0.5787418104786954
  0.6005042911570913  0.3982059950037269  0.9996030799903997
  0.6013489447222423  0.4047638955451640  0.6144942704894109
  0.6058997364059302  0.4017734272147724  0.8039942879313620
  0.5950454842005906  0.6001673899515658  0.0040995445224262
  0.6010177074155263  0.6008145987167105  0.2080071558211606
  0.6136665413201879  0.6157250652345152  0.4106870666262454
  0.6034557147286699  0.6064951416539418  0.6090385367132211
  0.6054595074106734  0.6005980949673103  0.8042821495250343
  0.5975794561784895  0.8004214130083992  0.0018383088966225
  0.5992963824236939  0.7999232014275793  0.2048757546051583
  0.6009063258045410  0.8063504397507055  0.4050148334355962
  0.6026495265606195  0.8036124711225318  0.6042531736565288
  0.5977741299141609  0.7964354104610309  0.8026271878900597
  0.7950233024127999  0.9993912947179966  0.9961043657682546
  0.7971030694770032  0.0033024377833610  0.1998619405088407
  0.7998557098649771  0.0158953180322674  0.5968239076476229
  0.8014089238847510  0.0082712532361570  0.7959418433964164
  0.7966446835229282  0.1996332117970099  0.9980591803676475
  0.7987887442648886  0.2022324922318892  0.1980622610777807
  0.7991667029262602  0.2054460566009546  0.3950942933003057
  0.7942966134194694  0.2066271049457271  0.5949819947693774
  0.7943049928587155  0.1996842731496113  0.7983609553620803
  0.8007288770054917  0.4001384224762020  0.0031977501108724
  0.8081574145135222  0.4016461009564380  0.2005988281021777
  0.7928240942706517  0.4069058239781502  0.4024057922223386
  0.7977132228977196  0.3977298144075682  0.5989231680438382
  0.8012360123896793  0.3916762437804203  0.8011284799091969
  0.7903869312362302  0.5982348000798853  0.0098546269434019
  0.8007211995115533  0.5986404657501280  0.2049497928067597
  0.8059207214218213  0.6060000751374816  0.4040201785312856
  0.7971895624066410  0.5739776686480135  0.8188868874786841
  0.7835647818692446  0.7988587532479640  0.0131104611894164
  0.7986281917800372  0.7997607173098921  0.2067159501081712
  0.8032491516953889  0.8056669497719885  0.4047105635520616
  0.9976205532144368  0.0005011439334199  0.1978068258578267
  0.9991860696684355  0.0033846385973637  0.3966249134340991
  0.4030445964826683  0.5925327828440725  0.8049907924151328
  0.8004329170763954  0.0058046557810619  0.3971986091585002
  0.4022475984038216  0.6005377721924582  0.0045525124550152
