Ti V  Cr W 
 1.0000000000000000
    15.4171836946855763   -0.0006458025225840    0.0021743795697675
    -0.0006464432342440   15.4108214600062574    0.0048957167363750
     0.0021730867805691    0.0048939939426410   15.4267125679285311
 Ti  V   Cr  W  
  13 101   9   1
Direct
  0.0012387427878373  0.4049560177970669  0.3999628295615983
  0.2073717137937157  0.1981842476395309  0.7931638743405970
  0.2000577493695368  0.6066556341393879  0.0059519953391280
  0.1989547498339590  0.5970881592029902  0.7926835107885066
  0.4021002590311432  0.9955923668886038  0.6010665231291336
  0.3945912508955913  0.2048960943262764  0.6070187331728775
  0.4026351080026231  0.6023342908947188  0.4004277006662366
  0.5964766182018066  0.9995366251086333  0.9942982115373002
  0.5950258844372666  0.3990035506439182  0.4035491648289866
  0.5909179654290251  0.7979147075681327  0.4016112054491878
  0.8022413010740932  0.4057301001864994  0.9906661949662886
  0.7974676774177354  0.5928964601840161  0.8056763526379400
  0.8051574151805279  0.8024130101559314  0.4021506025154619
  0.9999403710907365  0.9999538070375956  0.9990765505262603
  0.9990587417815756  0.9995554084919405  0.1974248527648212
  0.0005481497341034  0.0006925500669452  0.7976447870734191
  0.0018226815561411  0.1999605888960449  0.9982448119067713
  0.9992356451220573  0.1995611141488423  0.2002061810753520
  0.0001811553779892  0.1951806174672896  0.3991677385692233
  0.9989287004271910  0.2004202997020831  0.5994164771998267
  0.9993876503422219  0.1998889523962049  0.7996594742274787
  0.0039029011841609  0.4005318853894941  0.9985731857126795
  0.0002430611127935  0.3998201753047657  0.1961146466857675
  0.0013783662040390  0.3989072570800388  0.8003447450152692
  0.9971678946902025  0.5996736846890415  0.0006827105506572
  0.9978866658198050  0.5982932267794598  0.2009823174484046
  0.9998026403270920  0.6011142430037076  0.4001319983577536
  0.9977417883468481  0.5984565568019090  0.6004903058674852
  0.9993056675278738  0.5988203547411145  0.8002796785596008
  0.0027726641023060  0.7987007254753695  0.9988551603635263
  0.9985770624777068  0.7999800919862434  0.2017232646708240
  0.0025951295049873  0.7969306202307265  0.4011647609664615
  0.0012635598485831  0.7989080257212350  0.6018819405911884
  0.9995529405221537  0.7986211501090652  0.7997789497030890
  0.2003508010460947  0.9972998778739069  0.9997193192508497
  0.1990618272552064  0.9995090630039750  0.2022559721274084
  0.2023403236684155  0.9996344414265126  0.3997854259856848
  0.1645582199202728  0.9986961659381020  0.5660644645150897
  0.2016545406713414  0.9982422862884530  0.7991642340624495
  0.2011874137641098  0.1985622049611852  0.0014685820019513
  0.2006785358147778  0.2001003209318623  0.1998271032704104
  0.1986716675407174  0.1980630084329421  0.3997042009487871
  0.1961834787820953  0.2004213235156805  0.5958032488719106
  0.2006236179753382  0.3991865246700763  0.9998882911679512
  0.2009178025625863  0.3994936017561681  0.2005321978275766
  0.2020517032296589  0.3992645529827303  0.4002262824650099
  0.1984986671600004  0.4004945120378199  0.5997091989796210
  0.2015333425496082  0.4003877635126982  0.7997787434496750
  0.2001325442486996  0.5993541149628375  0.2044288277872223
  0.1989535466780461  0.5997017531022846  0.4004960792698691
  0.1996396628586078  0.5997686903858266  0.5964235416257392
  0.2007950677357465  0.7989209659731328  0.1969363097035923
  0.1989811251233307  0.8020684843158459  0.4008066955231442
  0.1996073595356024  0.7983294281243696  0.6022541618250109
  0.2015698918644573  0.8008200136258137  0.8037652476667553
  0.3989889684687152  0.9996989239081114  0.0011650075628094
  0.4016269873169509  0.9995466544745695  0.1998723362378514
  0.3994401652658111  0.0005457729294858  0.3995701588257758
  0.4022529755018721  0.9985564598270429  0.8023842146076394
  0.4002257545212480  0.2001467830662512  0.0019169385975588
  0.4012528968519850  0.2000635441948000  0.2000218752661697
  0.4000273744708163  0.1999037014872561  0.3986202067500039
  0.4047222449869233  0.1998549349961529  0.8040919023969949
  0.3985888494333636  0.4003537744664256  0.9986290972208329
  0.4012145800095286  0.4009299940029081  0.1991665316749933
  0.3978790956764496  0.3984009087623522  0.4007017547428902
  0.3991244532786908  0.4035429199756869  0.6016346619447078
  0.4000263163589924  0.4000728713180388  0.8014165574170353
  0.4019118104225208  0.5993149152838629  0.0002505547878849
  0.4018729996994149  0.5994480025653348  0.1987500480013289
  0.4006058709649647  0.5998982025235344  0.6021815927675451
  0.4026869382888297  0.6001831332340980  0.8006389705779035
  0.4008362336988094  0.7993201993740904  0.2011958914465982
  0.3956370130363017  0.8013335080513267  0.4007214320075622
  0.3989672278671778  0.7966654078728702  0.6022411938974337
  0.5989942577757486  0.0014666231430896  0.4001752303131212
  0.6017566659342712  0.9996112766091135  0.5993242426252651
  0.6005182869641300  0.0003819531189404  0.7960410840954568
  0.6007376942823970  0.2021849153387620  0.9998561827324641
  0.6011619093818945  0.2002725344448905  0.1993892026302730
  0.5985659664926036  0.1990272501234963  0.4004173987309780
  0.6021603989843463  0.2007346303301052  0.6002037430691326
  0.6013528788266814  0.2001446484916891  0.7999856605443046
  0.5977845585525858  0.4010540454883988  0.9992969597559225
  0.5992933195059854  0.4004659960655001  0.6022235560728656
  0.5991862039364292  0.3995933860340470  0.7988433469155524
  0.6005053667197597  0.6004101936408942  0.0004160619675967
  0.6010661942622900  0.5990282706263927  0.2014678964136817
  0.6017224462684997  0.6002571498828555  0.5987388352693424
  0.5987300248129679  0.5992172787797513  0.8000144731302351
  0.5994843549378673  0.7982004455803433  0.0001869540295583
  0.5998159496776592  0.8006620029965856  0.1981767489428106
  0.5994636908733368  0.7992562834555017  0.6029504483613062
  0.5994061908438574  0.7991801029102648  0.8008148730519787
  0.8017720492924322  0.9997430771417792  0.9999295437882207
  0.7959666989667183  0.9998147991200855  0.3992022121684938
  0.8011261680797027  0.9992629779028671  0.5978359230849201
  0.7997425514980873  0.9990534774438022  0.7991199380356782
  0.7998897497966657  0.1984881099992143  0.0002432265561706
  0.7996427968512151  0.2007036405576064  0.1986764139516037
  0.8015173589802971  0.1986318632068423  0.3991440122117197
  0.8005659342071944  0.1992793453852551  0.5991092234941245
  0.8003263684462645  0.1983521433845076  0.7993134349828135
  0.7985709579540987  0.4006196262455015  0.1996841211124588
  0.7993688835377263  0.3987147177834345  0.3984515650849353
  0.8007773329853237  0.4000038055214847  0.5987719014294931
  0.7992721996081333  0.3955315137487739  0.7961917123776374
  0.7992765567315531  0.6030818739256013  0.0052901691874774
  0.7985739979667098  0.5978636147503965  0.3992640117155272
  0.7999284334563568  0.5993360785388729  0.5981188203898333
  0.8010090149858374  0.8007284500795361  0.0002425809115617
  0.7988461066287059  0.7992836056871446  0.1992465502071769
  0.8004672512125042  0.7983117668694727  0.6038408908058085
  0.7998562829020813  0.8013235724825751  0.8018566340386416
  0.9998596316498755  0.9985089067274604  0.5981796392205609
  0.0000622168212778  0.4001644983562311  0.6025599741818877
  0.3993680285258135  0.7994047346431746  0.0001190272072706
  0.4002293941594887  0.7986307038279207  0.8018051581017834
  0.6007563819404186  0.0001701777998806  0.2018178813187475
  0.5997711539086451  0.3996175197905198  0.1970627481027622
  0.6019868913784362  0.5990406494647526  0.4000278518156432
  0.7992012740527943  0.0001258781857301  0.1997638335364070
  0.7995709614216577  0.6001776912995227  0.2010047501940180
  0.1973308790077219  0.8019316303345280  0.0010295404591572
