Zr Ti V  Cr W 
 1.0000000000000000
    15.4524635291044028    0.0020100171815477   -0.0000388011139955
     0.0020062036343283   15.4601366885832689   -0.0119861939205668
    -0.0000360992720918   -0.0119889160374406   15.4556659787457562
 Zr  Ti  V   Cr  W  
   4   3 106   4   7
Direct
  0.1929144712448534  0.3939996733043934  0.7960344927995144
  0.3933787336740742  0.1822730920599979  0.3989823790284043
  0.5997957623466843  0.4114752263731611  0.0087366069269179
  0.7962056253829727  0.6058247093237006  0.5984778451096758
  0.0016609084839187  0.2010566260976212  0.1910188010818738
  0.3936651856556372  0.8019446362766576  0.8024154207077521
  0.5975451146658939  0.5884278950847105  0.1861104100462383
  0.9999633301440698  0.0001700410850599  0.0006625606526557
  0.9995152179366900  0.9970373911198552  0.2001516156210572
  0.0009541653993946  0.9990691408677237  0.3996443372683070
  0.9987121973378597  0.9997585236389824  0.6008869252639503
  0.9995639733713014  0.0016888654092511  0.8010231551436000
  0.0000717698579702  0.1993228846336216  0.9990735648749655
  0.0002151889593587  0.2003061658904356  0.4030400755011123
  0.9981529991689017  0.1986753691324167  0.6010679395607889
  0.0024109542503179  0.2012727923029287  0.8005508175329510
  0.0001001409197164  0.4011591088244938  0.9978875148447467
  0.9995307053461788  0.4020041471457578  0.1997966112029463
  0.9989511447906337  0.3994181344594944  0.4010756232723939
  0.9980554865911678  0.4014227922425519  0.6040076760331680
  0.0013295627407044  0.6010592195694441  0.0000151548111846
  0.0004561075228628  0.5992599083723138  0.1985022356230048
  0.0023881697498385  0.5989815510947906  0.3990261932388104
  0.0028491661640118  0.6004905712840183  0.5996876239648401
  0.9992766591031694  0.5970025058886552  0.8010696043322854
  0.9996769042518970  0.7994444018624867  0.0000009199714825
  0.0012569660346257  0.7986098734205210  0.2004973881038378
  0.0016227766114749  0.7995163762690011  0.3994368496622017
  0.9978724021375942  0.7998387894258380  0.6000497059056226
  0.2004220545187432  0.0007603776025731  0.0015864410888474
  0.1992843474605283  0.9971142302540721  0.2004799925039648
  0.2006502026463199  0.0041131240040958  0.4013847844902863
  0.1989022520306966  0.9982175331597040  0.6000904244642119
  0.1991103249967832  0.9996100518485763  0.7995737804323290
  0.2052237690572720  0.1989036477722979  0.9963067324194061
  0.2012387448877792  0.2003005855332311  0.2044326893393386
  0.2001211685114947  0.1996656912313317  0.6014187701522367
  0.1992926577871070  0.4014495903381181  0.0047526989316619
  0.1985361806305160  0.4004086432172052  0.2013907753669942
  0.1993657041819592  0.3954363573295882  0.3998017774689888
  0.2007941910803194  0.4021067619190756  0.5949241366562572
  0.2011879247356433  0.6008173909702009  0.0005456703516551
  0.2008157142067769  0.6007107429945603  0.2002327117741782
  0.2003191634022284  0.5994286473379181  0.3993728502237323
  0.2008529996197614  0.6025414577034045  0.5976515232279896
  0.2012611339849400  0.8009888120382526  0.9957988354139229
  0.2001050405939253  0.7996296794824207  0.1982874222486556
  0.1992008461870315  0.8008441017889817  0.6054282782871291
  0.4011252521127289  0.0034442516802321  0.0033512283620451
  0.4005524134240379  0.9992680431995387  0.2026204515321411
  0.4016313444335574  0.9998245757516152  0.5985777266174567
  0.4009552449233225  0.0029795744166241  0.7995188743011600
  0.3999023530498539  0.1997973813814224  0.1924053479667991
  0.4007053022707215  0.2002696739221234  0.6061752619215824
  0.3962762414150273  0.2006159413863329  0.8060625597299529
  0.3945650010426288  0.3956104881676450  0.0011557085555130
  0.4004075679617813  0.3994887784265899  0.2021088942184535
  0.4004671918352292  0.3988718872697788  0.4003508954215293
  0.4008458091968053  0.4004350531025114  0.6003609405953515
  0.4020355868900847  0.4009437469268072  0.8019688965007551
  0.4010892706175473  0.5994697616806258  0.9998309769703644
  0.3979026346824185  0.5985121838455830  0.1985911134018956
  0.3986942318245880  0.5995744162011414  0.3984110426666160
  0.3989402742755154  0.6003425711344439  0.6007218265579536
  0.3999759148486740  0.5974984040433642  0.8006172248405102
  0.4014688432855379  0.8011469739938066  0.0031955564322812
  0.4000028227827983  0.7990087224478657  0.2007257978898347
  0.4001856509215956  0.7985264224504652  0.3992802294415159
  0.4005347561638067  0.8001867878322814  0.5960105997353271
  0.6007979817644690  0.0002359769652997  0.9997434096048921
  0.6009320129315078  0.9979541894020107  0.2009642302517057
  0.5966909467254060  0.0001928133039240  0.4005909615359038
  0.5997343217943516  0.9993514667382057  0.6005518589062535
  0.6003975288765708  0.9997680273503764  0.7997543814304033
  0.5962627488618107  0.1987504202558560  0.9998263758598958
  0.6005888435185713  0.1983919410289920  0.2009029209176487
  0.6014819264666769  0.1992276467086946  0.4020952034856146
  0.5992555088046079  0.1997334265170019  0.6030986141297529
  0.6005712002821378  0.2008173386425265  0.8012725143750449
  0.6009414773633127  0.3937959904378804  0.2107111637705877
  0.6001139478313706  0.3984480226862730  0.4039625639020218
  0.6005944924693687  0.3994478006320298  0.6013691915843846
  0.6018166929139419  0.4002032393404069  0.7986213644089811
  0.5999538140078333  0.6107249468640230  0.9919930506849113
  0.5987202706023345  0.5981181429188358  0.3996804645082080
  0.5928839886850910  0.5999392368602312  0.5993798085446815
  0.5997878838082575  0.6002332038208628  0.7981285455292634
  0.6008201720273219  0.8034808157517095  0.9983796685956564
  0.6012707375301479  0.7998717683168750  0.1984962584781118
  0.5990267897634375  0.7978662358880865  0.3974501671627111
  0.6021781986207623  0.7999978951416057  0.6004036237213899
  0.6006367694328996  0.8002360334846013  0.7995486735300086
  0.7999325996850560  0.9997972543479584  0.0001908148379561
  0.8001269963974298  0.9999473730354952  0.2013558055883954
  0.7992697729620180  0.0004455842349806  0.3993463548255642
  0.7992889792357907  0.9993254485102091  0.5997462090178234
  0.8019323942306150  0.0006594556426117  0.8012455316199576
  0.7979224720664232  0.1997254931029450  0.0006936294724160
  0.7985655181393001  0.1990632591940283  0.2004758955595851
  0.7993371266930192  0.1982165331397963  0.6010903989209159
  0.8033597886909448  0.3983205044550299  0.0013100359447756
  0.8008644500244496  0.3984419921521065  0.2020140069047333
  0.8009512998365985  0.3986562462098858  0.4003987130144807
  0.7990280239340740  0.3972074176552393  0.5991297471135146
  0.8011034028604394  0.3990977190584810  0.8013272889758210
  0.8003400482156839  0.6022755448373185  0.0007284917976118
  0.8017825396560042  0.5991474073170264  0.1982415360943943
  0.7988103317395151  0.5988723103252550  0.3931259110289028
  0.8004251453136223  0.6000056244505845  0.8043317026668347
  0.8011156318127504  0.8012043305547095  0.9995587729275270
  0.7997363677369793  0.7986447859678073  0.2003911877255986
  0.8011817039092523  0.8002937223995327  0.4015099124285540
  0.8017480484357926  0.8002021287062425  0.7976638154637447
  0.0011499752269739  0.8000952842820376  0.8010001803390789
  0.2006422368328528  0.6031289906681113  0.8000039056498590
  0.8000818631203148  0.1987859611239272  0.4008044896231092
  0.8002548211943358  0.1989030988316172  0.8008881610395909
  0.9955331231874733  0.3990166342022808  0.8012152017535189
  0.1943928740689193  0.1991369402965192  0.4023385336561384
  0.1999351658849500  0.1947395744360104  0.8000445373715322
  0.3326386002101765  0.9298395229367800  0.4005280512974652
  0.1997982694335627  0.8044362771353349  0.7997278536863703
  0.4020141833642739  0.2002427892317313  0.0006696306913540
  0.7990621174535032  0.8055952891282609  0.5988531602257936
