Zr Ti V  Cr W 
 1.0000000000000000
    15.4771126092992706   -0.0171409429028663   -0.0108832458615090
    -0.0171377985850307   15.4835452709138899    0.0089453070842751
    -0.0108770206815257    0.0089383803551370   15.5150560916889226
 Zr  Ti  V   Cr  W  
  10   1 106   6   1
Direct
  0.9996983928129449  0.0401622991172227  0.9634692699468851
  0.9989269699754489  0.2019521455945786  0.7873242971548235
  0.9935024294624036  0.3824724750272399  0.6018784442497676
  0.9849609505402751  0.7857729908226443  0.5880673678410110
  0.1668523173791153  0.9964122614613425  0.3703580008051988
  0.3898336560820129  0.9967282918365445  0.4013663420287092
  0.4040254947168517  0.2034112349923945  0.9994950098104346
  0.8109738904254330  0.3970285047351497  0.4190600334356080
  0.7747477928372093  0.4036835853483561  0.6386962174756332
  0.8056242308125493  0.6261552567672276  0.4135558634068823
  0.5968698364719420  0.7988676875770809  0.5992917335472128
  0.9820198479072391  0.9968642831146720  0.3933363877705387
  0.0014939647513867  0.9928504846585452  0.5880248413815644
  0.0022705880239993  0.9911536701937914  0.7794248190595011
  0.0014395860443570  0.2304748546428723  0.0009629789330981
  0.0009475422700656  0.2047954436421620  0.1985834994359071
  0.0036076220736609  0.1935958360979025  0.3939228359434556
  0.0028731632160720  0.1847248337276294  0.5851248661272702
  0.7947650598143970  0.4004746814307160  0.0091263849378434
  0.0125144218041956  0.3974366651632972  0.3925446779318208
  0.0055594840279047  0.4055259208180791  0.8202460213172852
  0.9996516148603156  0.6063864669695026  0.0004406733452624
  0.0009620393359142  0.5958487058729787  0.1999320710627048
  0.0080585858224700  0.5990001083106697  0.4015433936114266
  0.9994819064110380  0.5893006177493190  0.6008067036751356
  0.0026982305628785  0.5992722646584890  0.7998545929349152
  0.0002541779359844  0.8043023553293308  0.0008845861270792
  0.9985018384739363  0.8007963950657252  0.1964267413210042
  0.9978986578522058  0.8000119943137161  0.3903111050667543
  0.9999886903962012  0.7988700039884491  0.7984510698830700
  0.2027848957654874  0.9989031044794690  0.9919040674805286
  0.2024204334334832  0.9987973303513623  0.1802556368000812
  0.2023361089755857  0.9972578929809289  0.6039580052185139
  0.2024000006760916  0.9967532474870766  0.7976359647400058
  0.1970848611278697  0.1989516496684988  0.9972441953756965
  0.2020602021677383  0.1960838121391820  0.1987480844739757
  0.2037130367832065  0.1982673507817515  0.3988439326331226
  0.2022695079656737  0.1952516589850878  0.5968600221810295
  0.2045452679762794  0.3974118406040216  0.9977316943878544
  0.1985512607233663  0.3983727096216372  0.1963627954143247
  0.2042949440641068  0.3979425127123765  0.4012204425505449
  0.2017943936571538  0.3951646033248690  0.6009169639677927
  0.2019013503695759  0.3972162730461091  0.8006028873759116
  0.1987224244378445  0.5969422963171275  0.9993460132641803
  0.2004120071710844  0.5997789675443570  0.1992849470517861
  0.2021394446442819  0.5982158056462239  0.4005014349889294
  0.2015413153574628  0.5982626911433196  0.7995134082399850
  0.1992536610918419  0.7996264345534582  0.9984846509053648
  0.1994819510831407  0.8005745909018026  0.1995971452818975
  0.1962259656696827  0.7939338052866911  0.4007563941583602
  0.1977679581945553  0.7974465989792850  0.5987493181830722
  0.1994587647770173  0.7965826282396824  0.7992060744282524
  0.4027868174629777  0.9971823590911878  0.9960574614430716
  0.4008085886662040  0.9982263625763611  0.6044139899586818
  0.4034132952815858  0.9977214949358807  0.7991893852758228
  0.4009981087879195  0.2003690754713139  0.2036327600339122
  0.4014438278193936  0.2028405595303179  0.4011653751358785
  0.4022024161717528  0.1985202302160890  0.7954296341109778
  0.4005811183949261  0.4055765650725045  0.0017750234088449
  0.3993567432930969  0.4007713225391502  0.2020673693082850
  0.3996891254791120  0.4002742951488489  0.4004757901353216
  0.3971757526688575  0.3989707940469759  0.6020236094944164
  0.4019584617636450  0.3992997809920414  0.8005782325826275
  0.4008020519819291  0.6017539773540499  0.0007478797603902
  0.3993369335087977  0.5996677866630820  0.2016137673802921
  0.3998383947042656  0.5985270050008252  0.6015698606760319
  0.4007978539235890  0.5992794434109778  0.7995972521362428
  0.3997569086183176  0.7986007907020991  0.0002281253829867
  0.3994487384521074  0.7987347648202530  0.2004699944954612
  0.3985662181510033  0.7930606491320540  0.4002490891384648
  0.3967866792907148  0.7970183252299856  0.5999097224630252
  0.4002177765604791  0.7986772024821049  0.7996095168906612
  0.6023452595122063  0.0005142163904117  0.0004262400044314
  0.5988148704081278  0.0008256522557957  0.2002987672209678
  0.5983788646747142  0.0007412360710632  0.4014079514367113
  0.6002735407517664  0.0032566759143744  0.6014050457073972
  0.6023466725854810  0.0005552878563497  0.8007979011646321
  0.6065820346980599  0.2003792338960480  0.0013541692922219
  0.6018006324961165  0.2001190955208661  0.2023275137491917
  0.6009596184788832  0.2014409586799552  0.4025456377145254
  0.6021398720766402  0.2016624233340879  0.6003107569344014
  0.6020562656610441  0.2000827857035523  0.7998204435665621
  0.6008881379298355  0.4016777737638221  0.0040463409987026
  0.6005510747977035  0.4003417045404938  0.2037505613153752
  0.5984705895595673  0.3998610489307972  0.4005393737566409
  0.5870412080635092  0.3990640055024948  0.5993754891016138
  0.5991958035492075  0.3997270030090572  0.8053356238851596
  0.6006783972092600  0.6014968733282562  0.0024529240944112
  0.6005707554823736  0.5996517821898115  0.2032077556201285
  0.5993869938727342  0.5994525951420460  0.4031047102897213
  0.6002668700413710  0.5960278586225002  0.6018489048629869
  0.6003423017304722  0.5996121120806336  0.8025315678934529
  0.6003489351373473  0.8005429938801225  0.0024028150878742
  0.5993949716714972  0.8006412845572046  0.2012622072246826
  0.5977149861014297  0.7989755602922896  0.3984577364586032
  0.6011622719528630  0.7991744345008376  0.8037384184820042
  0.8000825501553986  0.0014080645206034  0.0028207583853943
  0.7997219032668893  0.0010788514701256  0.1987784936057426
  0.7944384828438846  0.0014968512824232  0.4003381899128986
  0.8004306530232860  0.9996733959830810  0.6032773009596200
  0.8029781485960237  0.9997175252641534  0.8011013685763495
  0.8036429476598799  0.2009054430020160  0.0013328953344564
  0.8009883055803708  0.2000654161367620  0.2030632839251199
  0.7998548665045427  0.1937389263203512  0.4012217592999254
  0.8026309389647522  0.1973577915774962  0.6002781169085974
  0.7967561688942080  0.2016094759297178  0.7988938756281191
  0.8024823143159457  0.4000327856832169  0.2030553197082269
  0.8069428586459675  0.4009256195912229  0.8246689700086867
  0.8013141632461420  0.6007142677701367  0.0027325580261195
  0.8006157192436213  0.6017524556614411  0.2046345296457403
  0.8001488394698731  0.6068028952753313  0.6133457423710578
  0.8014546151988795  0.6006780816918114  0.8046120173724314
  0.8005069255251251  0.8033320475558166  0.0019059515120730
  0.7997298721808147  0.8013402429064063  0.2012355235027176
  0.7957854602261585  0.8139363701318519  0.3995148606917747
  0.7882814594238426  0.8040748977496317  0.6045570020864132
  0.8004136224540582  0.8007520007663581  0.8043810354580843
  0.9995571574291326  0.0025631456003734  0.1962683044586223
  0.2056689222087232  0.1970792373311274  0.7967075935844798
  0.1991213998409499  0.5948982850086891  0.6004860113278910
  0.4003143528044795  0.9991244765908135  0.1945329760194588
  0.4018288273728480  0.1985357066376212  0.5995715653891802
  0.3994226047491883  0.5979031406503444  0.4020288475578664
  0.9991173632990901  0.3991846962335102  0.2074722564354110
