Zr Ti V  Cr W 
 1.0000000000000000
    14.7430866716654041    0.0059371996688940   -0.1347826974948736
     0.0059275802627716   14.7318826272210259    0.0042013818854310
    -0.1343446541253322    0.0042830101821229   14.5746133696384526
 Zr  Ti  V   Cr  W  
   2   4 112   2   4
Selective dynamics
Cartesian
 14.6042957008963388  3.1614856977172270 11.8176916933746785   F   F   F
  6.7090319137580927 10.8349759686976537 11.8243793487369864   F   F   F
  0.4043587330540164 14.0940337197313674 11.3148178660365151   F   F   F
 14.6626253739698793  2.9463913965129871  2.6043562687173032   F   F   F
  3.0959576858222757  8.8136239203359246 14.5856696614013526   F   F   F
  6.1920581238742853  2.9663599760821047 14.8153551724889603   F   F   F
 -0.2642801893190826 15.1132821000870816 14.4690320816739728   F   F   F
 14.3029436478745033 14.8586772391550088  2.8069122071501793   F   F   F
  0.4561415628224058 11.3857575100341979  5.6019168112160243   F   F   F
 14.3679617530619925  0.7478587122279551  8.9497822858782854   F   F   F
 -0.6193156029252490  4.0545366110905228 14.6631081873320195   F   F   F
 -1.0722707833011227  3.6903563181000814  6.1200640444189762   F   F   F
 14.6166051336285072  3.2450718487453853  8.2214426761892732   F   F   F
 -0.1670514907824222  6.0792675741939943 14.4090594869242103   F   F   F
 -0.0238282342293367  5.5992592157835510  2.8176721458657186   F   F   F
  0.5009441215458876  5.8433152941980326  5.3776104715455553   F   F   F
 14.5004135157170193  5.5475627937728271  9.0598770099491333   F   F   F
 14.2175312957022637  6.9420665301265290 11.0492972030467360   F   F   F
 14.4630467751894596  9.4891478310986521 14.9381193557492207   F   F   F
 15.2514319686279975  8.5285045455445605  2.4737499160507648   F   F   F
 14.2184243262068648  8.4150068409587693  6.3310246363909801   F   F   F
  1.1661376107113492  8.9186752105155680  8.1109225350904222   F   F   F
  0.6338768652062006  8.9854786975906524 11.7601412207985128   F   F   F
  0.2301167428759970 11.5020687315162942 13.8876673056893161   F   F   F
 14.3175072224339406 12.5228979403893899  2.3850947939771410   F   F   F
  0.1065237207800140 11.6895380097023676  8.3316365385408240   F   F   F
  0.0662953136732185 11.0697281350738930 10.7204034627921132   F   F   F
  3.4966670524969565  0.1492986538829231 15.0217595609470251   F   F   F
  2.2183331247919078 15.1459322054268313  2.7456051899247149   F   F   F
  2.6103639133961725 -0.4729998824454507  5.0808721741040435   F   F   F
  2.8173691271767378 -0.9383348896549759  9.4568257367071631   F   F   F
  2.6176546047438132  0.5913641915441771 12.1697781359901374   F   F   F
  2.3596254103112320  3.3750892389143923 14.6562591383991148   F   F   F
  3.6523584781411809  3.1154853504559630  2.9099557306417276   F   F   F
  2.5622060060260590  2.4714173048936408  5.6279138865870744   F   F   F
  2.5002307980343326  3.0513006261481492  9.3666596954403811   F   F   F
  3.6967301300152515  3.8423611490720457 11.9754747847003724   F   F   F
  3.3700272463179402  5.3030054634450190  0.9286442574736740   F   F   F
  2.4328618236134125  5.5991076657477423  3.6123841941341501   F   F   F
  3.3564073327291823  6.5124365024714042  5.9694788070394553   F   F   F
  3.0952651441775947  5.2789816069936810  8.2450083506590399   F   F   F
  2.3743624007738218  5.7811400979414982 11.8538710029656560   F   F   F
  4.1522990595393958  8.4358158450372436  2.7951259134989157   F   F   F
  2.7735594786226505  8.5507771978436722  4.8055471318832721   F   F   F
  3.5298294886606119  7.4646040171562413  8.7153804292087855   F   F   F
  3.5244996535577386  9.1053772823768728 10.8669422303468561   F   F   F
  2.4706056724262506 12.5426144935544599 -0.1064205594880742   F   F   F
  2.5143378632423654 11.6162376319228926  2.2099993652617993   F   F   F
  2.6826898499462355 11.5013870203673463  4.5529558606353575   F   F   F
  2.7709246912753422 11.9687963682323844  7.0446440255131835   F   F   F
  3.1150165438946495 11.7167407686762264 12.3937047965281888   F   F   F
  6.6318549869996168 14.6329368141072926  2.4629333802473043   F   F   F
  4.8182883254252182 -0.3451792271530583  3.9898197595293792   F   F   F
  5.3577111345246200 13.9073012822231394  9.9454587584584431   F   F   F
  6.0099001841659137 14.0055138114506796 12.5583523388420293   F   F   F
  6.0336224181598466  3.4218809945718438  4.0137816702844580   F   F   F
  4.3801725508194025  1.0214044129734774  6.6055985042629777   F   F   F
  6.0217217638682508  3.0917407792666758  7.8995959237032762   F   F   F
  5.9434837201704394  2.8461374308101144 11.0012536506787839   F   F   F
  5.2138895390485018  6.6464446981943555 -0.2575410737223790   F   F   F
  6.0366994615356093  6.8836213659992183  5.4021451059530543   F   F   F
  5.7647163088096418  5.9623966848920409  8.0221835510226853   F   F   F
  6.0029156337497129  5.4043483047773302 11.9068534146874718   F   F   F
  5.9096587145647179  9.4356481521413293 14.3218768194433768   F   F   F
  6.3687277185914120  8.4275170330166524  2.0353185643477141   F   F   F
  6.3708823299494703  8.9675826617437444  5.7334287019536800   F   F   F
  6.5870252711619148  8.0036033666209825  9.2501556914715231   F   F   F
  5.6743797915707406  8.0607270559168640 12.1795884815192554   F   F   F
  5.4310527434872640 11.5794291503111477 15.2376035767355269   F   F   F
  6.4824418967376918 11.4420925709417372  2.8889807503593139   F   F   F
  5.1078830850866419 11.4953733612078963  4.7979461618301302   F   F   F
  5.4119957923367599 11.4096278304103826  8.4396000647193929   F   F   F
 10.2278481863416282 15.6225394254111034  0.5014758292591988   F   F   F
  8.0423651867011454 15.2633507519500426  5.6090870776426751   F   F   F
  9.6289261349936890 15.0412656862254615  8.2917444080271192   F   F   F
  8.5272718557651075 14.1300561942401650 11.6446162563398854   F   F   F
  9.0805667342136580  3.3832657823913532 14.5134157664936687   F   F   F
  9.3749119200927336  2.2196445609315885  2.4918250944854123   F   F   F
  9.1886617597986877  3.2423378176412796  6.2713444931358859   F   F   F
  8.4998666052963685  2.0605218167151631 11.9731882674569494   F   F   F
  8.6563452504170062  5.7362956630541699  1.1370939794263821   F   F   F
  7.9620252984744884  5.7074136270318307  3.5006948562545537   F   F   F
  9.5878226145776413  6.3828406031555351  5.4936125818064694   F   F   F
  8.3342770288769632  4.9821451199696680  7.8104646499115757   F   F   F
  8.3502296182855105  5.5858853210819737 11.4260726668400014   F   F   F
  8.8413099316358768 10.2602884122733062 14.7466756837357309   F   F   F
  9.2960536362342907  8.5666931972972939  3.6241254805465855   F   F   F
  9.1886595939582367  8.5365418655069121  6.6662690524496799   F   F   F
  7.8172009482088853 10.6413895337110489  8.5334936959503551   F   F   F
  9.2033704584824676  8.1272025675907642 11.9811193695970459   F   F   F
  8.4809738909183991 12.2821825665718780 14.8602764586883787   F   F   F
  8.6454097953964908 10.8813368707023326  3.7697884048540695   F   F   F
  7.7419025692246652 13.1398204633351057  5.5840972637727218   F   F   F
  7.7029768965384351 13.1729478312630484  9.0016887813186877   F   F   F
 10.1145771631186658 11.9438167612817345 11.5825281266937541   F   F   F
 11.4184955649123925 13.3671182004654252  0.1658130985779613   F   F   F
 11.8983503538450108  0.5647197647306237  2.4041333495025707   F   F   F
 10.9093790711632508 13.3838053947444617  5.0785722647664988   F   F   F
 11.9994826480175067 14.2954337908622247  8.3291709595125845   F   F   F
 11.9050810781235814 15.3661424157158013 11.8519444428905594   F   F   F
 12.2053449479599756  3.2931876162389084 -0.1832148137951912   F   F   F
 11.2229222112309017  4.1623897636054172  3.2367409634113589   F   F   F
 11.2827507812716519  2.2544050180773008  5.6477379685771103   F   F   F
 11.7218979577484479  3.2342222526614353  9.2303580515881745   F   F   F
 10.8498078470936665  2.6375714347211101 11.0658292837652628   F   F   F
 10.8881947968529804  6.8217551087630603 15.1489981412162411   F   F   F
 12.3244073247968924  6.1809040499525780  2.5844315728354910   F   F   F
 11.7123170120858298  5.7723346627766254  6.4919092271036067   F   F   F
 11.1365775721977442  6.8455855744357947  9.1934717452295693   F   F   F
 12.5163645472712570  8.9683949242932304 -0.8467388978561178   F   F   F
 11.8901047201885230  9.7037794820809928  2.7573721558611926   F   F   F
 11.3361602364779408  9.2650341910011083  5.6800596072573821   F   F   F
 10.2638822417625164  9.4822939262622903  8.7358650661204447   F   F   F
 11.7891353734660100  8.7038793888851611 10.8341083590652776   F   F   F
 12.0705915877481580 11.1719672025762566 14.5409121044954812   F   F   F
 12.3522716014416201 11.3940651808232385  5.3310187743352619   F   F   F
 11.1210132551933540 11.7133379605765562  8.1216846641165095   F   F   F
 12.5541289903008817 11.6754797043181586 11.3650210522165160   F   F   F
  5.8175661619140184  0.4569066771180552  0.1164628841765057   F   F   F
 12.0618688098749605  5.9200576404926801 11.7584527904608809   F   F   F
  5.4802486873989498  5.5060421309644374  2.4821386497354143   F   F   F
  9.2070050607071288 13.9355481428669670  2.9627915426637084   F   F   F
  8.3909417042796051  2.8488262605130910  9.3256618439981889   F   F   F
 11.1981089985243560 12.1879523037918496  2.6095301773264632   F   F   F
