Zr Ti V  Cr W 
 1.0000000000000000
    15.3960504026614231   -0.0029059402776773    0.0109527228615838
    -0.0029019596058232   15.4211892961187402   -0.0178703021294289
     0.0109643357546517   -0.0178836246684765   15.3929296075496413
 Zr  Ti  V   Cr  W  
   3  13 106   1   1
Direct
  0.3846819219503304  0.4147753383303732  0.8012658958834856
  0.7999153109287450  0.9696137944569925  0.2318945420531499
  0.8069800263495678  0.2086004741973589  0.7955390765144895
  0.9840774100599844  0.3907167349409769  0.7971179286371578
  0.0066181902583231  0.6043296957298359  0.9887860584810195
  0.0006465108566565  0.6358831047680691  0.1971251957056188
  0.0097079842260259  0.7935460064365562  0.3895086350056899
  0.2081575751219490  0.9997146021076955  0.9985519136117323
  0.2012073069396954  0.5858208196556064  0.8080416476521198
  0.1876491873418688  0.7943485961527652  0.2049575344715824
  0.3943788654536791  0.0037498080129023  0.8083305170067899
  0.5944823681292334  0.6008498075282874  0.9991419641585654
  0.8015151397831224  0.9951508178824051  0.4554054654309240
  0.8011271802565340  0.1889666333580789  0.1934866161830412
  0.8005093845553317  0.2050468720657716  0.5902860289622026
  0.7974476598123461  0.7736601587584632  0.1943663029990258
  0.0002490972834980  0.0027738258886030  0.9981487415258169
  0.0030165205605410  0.0066591089800225  0.1959256326940973
  0.9995117268784380  0.0021058148118840  0.3947446425284532
  0.0055410522425676  0.9989168693769618  0.5975023675680430
  0.9968406620258340  0.9992539291569540  0.7952954731517137
  0.0025844559699753  0.2010444714262440  0.9961100416735109
  0.0035726621787069  0.2005540011564000  0.1964074540815782
  0.0002574266548917  0.1989642085118931  0.3966303830223424
  0.0050337084671099  0.1991059177616112  0.5980525388092334
  0.0072571705700037  0.1935053766668606  0.7984790858623967
  0.9986598860707053  0.4004040121603695  0.0021701039280911
  0.9987796585125319  0.3962625783317676  0.1993418122832310
  0.9998791850150632  0.3996327203569097  0.3976701138731582
  0.9991269578743375  0.3985264112356266  0.5964957454349784
  0.0005242658866971  0.5971086152030306  0.4021291748279440
  0.0018789179092655  0.5996391461022789  0.5999354790557571
  0.9968597631454412  0.6011521895558932  0.7964263458857257
  0.0009491119873611  0.8068088814548844  0.9943048137262355
  0.9908654564201819  0.8162198021139410  0.1910126814804194
  0.0006967500989274  0.8013503799071215  0.5995061295923878
  0.0007418168021460  0.7998148223511627  0.7978584371914211
  0.2009254882733119  0.0014443734087182  0.2025805217469585
  0.2004157181898403  0.9990931094148601  0.3994300798636525
  0.2008052992635699  0.9991128693715957  0.5981597065798538
  0.1960391317006205  0.9987544485193912  0.7977549694181846
  0.2006045409536149  0.2044425044870607  0.9989262017302183
  0.2011268391030792  0.2009836753118956  0.1988392727436249
  0.2005162527071788  0.2003267370377250  0.4002379251828395
  0.2020461362715964  0.1998910387707349  0.5990182919843237
  0.2018983343774419  0.1984268405103095  0.7985811734741913
  0.1981050173903475  0.4015917259162708  0.0003430209125284
  0.1975836846204352  0.4020171859287320  0.2002209017092788
  0.1992437108320284  0.3986197262583663  0.3992600466138301
  0.1982659746814568  0.4000713971558233  0.6012185465499469
  0.1864792108327384  0.3926001635886461  0.8006307502724288
  0.2013323819165219  0.6007110994486742  0.0063787951692024
  0.2004921103739101  0.5976716801980665  0.2017214276705318
  0.2018996369225391  0.5956920802539101  0.4025596293838810
  0.2000547731508104  0.5993975245568622  0.6005695709055530
  0.1990052281864319  0.7977530365557777  0.9979149661113512
  0.2047398137066320  0.7996432246830317  0.4045684088307798
  0.2012351004160006  0.7974924317396263  0.6023964841330612
  0.1993347663498541  0.7993402522055356  0.8010163328240189
  0.3985954167065897  0.9990042047233573  0.1984446775031952
  0.3987817098298148  0.0001264423011564  0.5983591341440969
  0.3992563243001397  0.1978115436255123  0.9992660614029389
  0.3991057344356879  0.2014219353774439  0.1998232521726538
  0.3999921527736109  0.1996172544103945  0.3979934571163278
  0.3995886518388173  0.2014712043171039  0.5988715840861670
  0.3998561435451649  0.2035876917088945  0.7996493845841465
  0.3992874459902516  0.4013052884034794  0.0047031383582665
  0.3993588847468614  0.4018049269647549  0.1994304604546774
  0.3995972045385739  0.4009322828350601  0.3983626476287578
  0.3995125721386681  0.4018363393653663  0.5960132435212048
  0.3966304173482250  0.6046603793555506  0.0008029463113429
  0.4005385331874002  0.6032188426719528  0.1997051658593241
  0.4003663632855252  0.6010903529501259  0.3985910815665678
  0.4002390707189798  0.6022486542978827  0.6000025778170414
  0.4036758919569651  0.6126862880364224  0.8020998525669673
  0.3984913199406900  0.8060946533268434  0.0018646906695880
  0.4001346080830853  0.8002310590181153  0.2000344940759229
  0.4007779825853419  0.8002916007518304  0.3987418979241478
  0.4004506895227621  0.8014384477289518  0.6006552363512027
  0.3993515697060987  0.8030368557502194  0.8006223924974254
  0.5992009495670900  0.0030253262587310  0.0003316822088764
  0.5981410233779465  0.0022319741224710  0.2003287909978097
  0.6004712493100397  0.0004089999064020  0.3965371694731740
  0.5952984722420119  0.0016739593295252  0.5990985313232937
  0.6055572100118998  0.0024842033540579  0.7960170149131873
  0.5999107441343123  0.2021226180920639  0.9974444256849087
  0.5977302216709589  0.2001553018825583  0.1975708918205261
  0.6003307436676675  0.1993687196027911  0.3970078152980114
  0.5977260336491748  0.2005255447509220  0.5990583844370015
  0.5980760846611310  0.2023729447371802  0.7983459151038702
  0.5986892058758875  0.3990437514658994  0.9989195225800732
  0.6008622599106462  0.4002137206977696  0.1991806601507180
  0.6000424923786520  0.3995082212186545  0.3987408772243619
  0.5993745410240059  0.3999675977072645  0.5989641986720114
  0.5977866466490732  0.4014682308118883  0.7987872331081822
  0.6008617340972203  0.6018416134956691  0.2011569371308237
  0.5998445479927732  0.6002261048962074  0.3991272981276006
  0.6004496859056232  0.6003197608890342  0.5984092885160200
  0.5999602820997932  0.6018345289518244  0.7974629367868472
  0.6002017202334413  0.8047090150462402  0.9984459624746854
  0.6014925159240031  0.8027486930081451  0.1987715449126896
  0.6000538306567904  0.8003184570022094  0.3998767844648619
  0.6006459604002099  0.8028719715469039  0.6001061099374909
  0.6009576564789924  0.8020077227613104  0.7993793851523329
  0.8006497266745205  0.0024808138496641  0.0031472363495311
  0.8021245510921117  0.7931735098029361  0.6016508393900082
  0.8004648379188172  0.9991088331131877  0.8020581527994534
  0.7995355988626539  0.2007140648104152  0.0018404512209965
  0.8011725160625354  0.2006694137433693  0.3974891281006855
  0.7999055519554442  0.4024436174724649  0.0007465298318271
  0.8009337214936172  0.4017574581980243  0.1987236088478562
  0.7994017546418003  0.3986270363632847  0.3986554987181165
  0.8010824312102964  0.4052685370943208  0.6007050440168740
  0.7927097785184664  0.4109723686799309  0.8018679353439984
  0.8033593014192658  0.6012780160855947  0.0000971053130692
  0.8006215320059080  0.5916344731061861  0.1984522047304764
  0.8016929796491158  0.5963522958585429  0.3997794606680897
  0.8005567174439290  0.5995925536725404  0.5996374886193527
  0.7990310579686946  0.6043353509671411  0.8009676500518397
  0.7994001809055636  0.8016968017134596  0.9967826061515939
  0.7979395201697305  0.7924847296824118  0.4027830887185962
  0.8004305095024080  0.8015673444313434  0.7988916121608052
  0.4002489041817840  0.0002328179750359  0.3988208896787640
  0.4047312374903058  0.0018445759944365  0.0047377795235376
