Zr2 Ta1 Ti3 V111 Cr3 W5
1.0
  -7.5249999999999995    7.5249999999999995    7.5249999999999995
   7.5249999999999995   -7.5249999999999995    7.5249999999999995
   7.5249999999999995    7.5249999999999995   -7.5249999999999995
Zr Ta Ti V Cr W
2 1 3 111 3 5
direct
   0.2057003549701760    0.2039211924079828    0.0019796341461192 Zr
   0.8018657128847232    0.8010122840125358    0.8013505838995292 Zr
   0.7970234939972302    0.9931163295626565    0.9970733250259445 Ta
   0.9988571434492137    0.4010184891378736    0.3987870676270925 Ti
   0.3981491256736510    0.5973611197737354    0.5946316959270701 Ti
   0.9911686195711934    0.9971432836576569    0.7958001848913041 Ti
   0.5998405167805198    0.9974269414834576    0.0005415062194704 V
   0.7995465113783526    0.1984067955495573    0.9990726239182477 V
   0.8001920525070649    0.0000409555177067    0.1958997555225863 V
   0.4073424775972278    0.0058033757364448    0.0016757680905823 V
   0.6054638956792033    0.2055806469893001    0.0006157245611195 V
   0.8010668178462589    0.4015864466312897    0.9995051083872433 V
   0.5931455438894094    0.9963721823749214    0.1964026458443232 V
   0.7966244297338660    0.1965398467328993    0.1964505891538892 V
   0.8011889801839865    0.9986075169123031    0.3996551746044963 V
   0.2007427373364624    0.9992402063634643    0.9992148986211068 V
   0.4008862828597905    0.1991046359267927    0.9968329340472130 V
   0.6016999685841677    0.3972242251886571    0.9970947642604702 V
   0.8029206488098781    0.6074342755645206    0.0060126327855689 V
   0.6015808653822191    0.2009724755360095    0.2023748365046685 V
   0.6008091340940630    0.0043089072052424    0.3986568153648811 V
   0.7983198899516510    0.1982535691808704    0.3933744770715254 V
   0.8005414330644882    0.0009577187196245    0.6010508131023699 V
   0.9990421610238521    0.9980881026163138    0.9982610372951205 V
   0.3989678225004665    0.3955447875278555    0.9980854704951284 V
   0.6017057015515942    0.6001094213918463    0.9998039023449928 V
   0.8000953838538625    0.8051325562585278    0.0060269479663110 V
   0.2013453769212644    0.0081824621564340    0.2014921844636440 V
   0.4037197787112389    0.2067646849709516    0.2084312167566758 V
   0.6019250196816361    0.4022049773441092    0.2011907615536488 V
   0.7986460908398529    0.6062963601623483    0.2035014631837065 V
   0.4018712836817080    0.0014779933022751    0.4004421592852734 V
   0.5941742386642522    0.2005509509370577    0.3991117676952143 V
   0.7966060047700589    0.3956877548381632    0.3954695252114557 V
   0.6017334347284548    0.9999088298666280    0.6003499751777934 V
   0.8009431798785489    0.2025216160772070    0.6054111628834440 V
   0.7988974337230267    0.0033876862574827    0.8006608679442253 V
   0.0079651162635157    0.2063764903314501    0.0060199674048347 V
   0.2068986634416043    0.4026532195019993    0.0022751979853408 V
   0.4010507009307424    0.6010800679461273    0.9960853398358709 V
   0.6001255197918700    0.8008563644674893    0.9994694160203774 V
   0.1993480594174391    0.1949701027214305    0.1967013302162363 V
   0.3984389094584725    0.3994772764718829    0.2000750455319796 V
   0.5976856137421245    0.6021995643371915    0.2006016556542435 V
   0.8040375536163487    0.8019219207702566    0.1960405053347821 V
   0.2055622510694697    0.9997344925121039    0.3999242814967338 V
   0.4002530254827028    0.2016638888655300    0.3978461245379216 V
   0.5999082211033462    0.4004346240252227    0.4016511845987053 V
   0.8042495780918151    0.6014588320723047    0.3997403959196623 V
   0.3994416597463207    0.9997649037898668    0.5985812866323259 V
   0.6035572269195834    0.2001835322685466    0.6051697313168444 V
   0.7945787043926729    0.3991747055236717    0.5974758911261224 V
   0.6007999111052983    0.0048078578000664    0.8006627712632364 V
   0.8027594380501468    0.2018884042389963    0.7999109589327276 V
   0.0017109050594003    0.3956439633069513    0.9957269589510256 V
   0.1984364267312700    0.6039552684242522    0.0027214063407998 V
   0.3956781742026284    0.7970428123962748    0.9988181004778676 V
   0.9961712000033937    0.1921000274437845    0.1926267187590346 V
   0.1992549669549448    0.3958294935637984    0.1981754022669553 V
   0.3987050908130322    0.5998234233248477    0.1998888403509426 V
   0.0007150290459189    0.0017779742497334    0.4045253729622483 V
   0.1967422791439416    0.1975030491305821    0.4000025832136899 V
   0.4006170776131063    0.4031216850526719    0.4036882236707591 V
   0.5991138731082887    0.6027499292384157    0.3953733391626901 V
   0.8038942649985554    0.8036070593761319    0.3999623509317111 V
   0.1994368107311235    0.0006850781962705    0.5958586730944215 V
   0.4069655158334740    0.2075130720047587    0.6039210030111684 V
   0.5933246350277425    0.3929317826239042    0.5980164387506849 V
   0.8021854087022466    0.5997176136591871    0.6045798162340017 V
   0.3982262184124999    0.9978675474970918    0.7977833439398390 V
   0.5992020346541181    0.1994369714454600    0.8008455630477449 V
   0.8037699133913800    0.3979269336751683    0.8011330542433419 V
   0.9997760587570530    0.6014974096567619    0.0009271817690050 V
   0.1991058766041058    0.7983491633786239    0.9965888395780426 V
   0.0013792265492148    0.4018585563819833    0.2075278393452784 V
   0.1993117047816563    0.5962833807694337    0.1975055840327598 V
   0.9958010199250529    0.1959115889193343    0.3945456491116268 V
   0.2018554705231471    0.4018215871620443    0.4007676568366338 V
   0.3925637166652614    0.5984314855990622    0.3959356112435189 V
   0.5968680446462362    0.7948813339673414    0.3959094904153719 V
   0.1944418902899216    0.1971104782028468    0.5985774361026960 V
   0.3951999865496909    0.3956288385812430    0.5989001161060366 V
   0.5953880985719785    0.6000310339036528    0.5980414989049101 V
   0.7969432251310604    0.7978143863666174    0.5955212704912838 V
   0.1955162271177586    0.9955749024499920    0.7915841655702167 V
   0.4060683055411285    0.2007617239873065    0.8071311066256126 V
   0.5989429485044653    0.3926996812282138    0.7979559699539412 V
   0.8007832722148489    0.6023789031415463    0.7997088155611173 V
   0.9962792263561348    0.7989939156229304    0.0005367748531572 V
   0.0006474581781019    0.5940252210017936    0.1944106013748185 V
   0.2006971262062446    0.8028059323718434    0.2025149243733178 V
   0.1996363918111619    0.6008176639996171    0.4016739007948492 V
   0.0033810706060911    0.2030839873126935    0.6044874736143000 V
   0.2023971997513236    0.4024965701601317    0.6019098988689288 V
   0.6034875745811430    0.7991469180034253    0.5979160022358190 V
   0.1987720575584896    0.2011148037262745    0.7997914990742214 V
   0.3984179140649610    0.4031201381228577    0.8036251221262509 V
   0.5992861827961461    0.5984118269989241    0.8022482719660572 V
   0.0002318821358399    0.8015910764003694    0.2004041567191299 V
   0.9994438850222395    0.6004093791638593    0.4016703175092942 V
   0.1991182241354487    0.8033760115793240    0.4049052889519729 V
   0.2039460513021243    0.6021220516733965    0.6059164819488516 V
   0.4003347893702542    0.7995606020440371    0.5969160704485724 V
   0.9979038972339860    0.2006936176690178    0.8001003008402641 V
   0.1987974973505625    0.3953339787083116    0.8045843739963252 V
   0.3978139563780810    0.5926434436382119    0.7990561504675017 V
   0.6040538422125133    0.8014747261295050    0.8003283839659204 V
   0.9986440219868405    0.8014031711775036    0.4028072844819913 V
   0.9994034601703294    0.5994387229693764    0.5978679029679919 V
   0.1944812089447457    0.7924726068397008    0.5931196123819312 V
   0.0009234740101599    0.3936891072562211    0.8017779749022254 V
   0.1921504293339137    0.5965598442847142    0.7934548100617810 V
   0.3997602407527696    0.8037202507892824    0.8017155749239493 V
   0.0052746895341727    0.8074294783307745    0.6015497289281982 V
   0.9979760091392842    0.6008992947550031    0.7937906737744884 V
   0.2001647321269455    0.7988702728631095    0.7986455447019086 V
   0.0032279844435057    0.7998172496199455    0.8020331464808329 V
   0.0050109609839001    0.0071555378156977    0.2043895861380438 Cr
   0.4021354986504816    0.8026195279001871    0.2017239886957899 Cr
   0.3991015319340739    0.7986537222929588    0.3938185532987913 Cr
   0.4035255904775388    0.0028794044697964    0.1954629314473323 W
   0.7991409642820202    0.4010548057034768    0.1996794168516952 W
   0.5993469258649823    0.7986299822986209    0.2016176300778295 W
   0.0001244202179809    0.9987854442686844    0.5977673715539563 W
   0.0003393875623791    0.3986315481414588    0.5969459252439392 W
