Zr V  Cr
 1.0000000000000000
    15.5364267418827353    0.0141760265446098   -0.0034442262972265
     0.0141671620811882   15.5240745923983035    0.0049821264813726
    -0.0034426786392167    0.0049831204927505   15.5354998368454975
 Zr  V   Cr 
   5 117   2
Direct
  0.9507317431693401  0.4090885183605824  0.4007032104747486
  0.1990680156387525  0.5999039605486448  0.5593308789053142
  0.1990501838282887  0.7978662736418317  0.2039633902038319
  0.8010555011467794  0.1988927669106655  0.4002497311398455
  0.8046751983628216  0.5957110599748802  0.4001584419515848
  0.0007648597723204  0.9992879634884991  0.9978735094157891
  0.7983933677655796  0.9991752097297122  0.2007050798785674
  0.0010288243212429  0.0005232172001829  0.4039985806106458
  0.9996878488805018  0.0001129521192684  0.6010571113563362
  0.0007231739830642  0.9997983186102588  0.8003050304853799
  0.0003202494494186  0.1984155038533968  0.0005222201891083
  0.0061723375940068  0.1971584000248275  0.3988743503276044
  0.0007423730798327  0.2002233026253005  0.8008434463332039
  0.9997776351271647  0.4006924552672078  0.9987630312099037
  0.0010012497608213  0.3992530315747237  0.1957745281107063
  0.0004006938353425  0.3999559143052724  0.6050134028122185
  0.9997001570550935  0.4000177871873394  0.7998957924585743
  0.0001092959584130  0.6003575448796884  0.9998248001765598
  0.0019327728018959  0.5991225632985671  0.1985523049524771
  0.0128232729208761  0.6079320072417409  0.4011408030641063
  0.9983042487767569  0.6013096025377134  0.6029131677148296
  0.0022979563675665  0.6005011603340826  0.8009254663897840
  0.0007491489591265  0.8007955221520114  0.0012637453820958
  0.9954260924009551  0.7970614260787001  0.2008874999245734
  0.9999469028875841  0.8043509479715739  0.4011688649548623
  0.9994629170344445  0.8008450800042669  0.6026527111006652
  0.0007696014378415  0.7992484471963517  0.8001191178842785
  0.1994196926813261  0.0004966718735553  0.0011375228266373
  0.2052299876437474  0.0028888304065888  0.2006255789519870
  0.1993341536053992  0.0004691353482325  0.3989303639721578
  0.2009811393477115  0.0016768887505717  0.5998363384971600
  0.2010048364691010  0.0007071107119424  0.7996077917391171
  0.2000206767299820  0.2000863032776846  0.9999936177354439
  0.1993796925672316  0.1999314659480266  0.2000766135255352
  0.1979773031373653  0.2033084479291668  0.3995034901405921
  0.2001587204420442  0.2004627524092065  0.5991672004732682
  0.2002518325210840  0.2002374618721034  0.7997783202642035
  0.2005921419089286  0.3983311676603610  0.9996000995749753
  0.1997371688883476  0.3966082927760917  0.1999570225796002
  0.2064886422266481  0.4044935118830143  0.3993890724862053
  0.1986177962173026  0.3966375855809309  0.5985651859004413
  0.2005079607368656  0.4011537171045174  0.7993122223842515
  0.2016192725957918  0.5989912408703737  0.9992099702033670
  0.2020475776723596  0.5931703954036079  0.1939690538287994
  0.2042484145725870  0.6030212151140141  0.3685405198381254
  0.2014981854990157  0.5994816725078487  0.8035398325991507
  0.2012800498539504  0.8006600039064380  0.9981432804614448
  0.2027121590982676  0.8003642958300576  0.4067797633818916
  0.2010246423333630  0.8044409924851216  0.6028785118747141
  0.2009271920820045  0.7990111165932132  0.7997689330616160
  0.4010681689424154  0.9992961593736850  0.0000309168596839
  0.4022780600248935  0.9996664752650460  0.2001174893053600
  0.3992758415177721  0.9989647857233317  0.4009858634227275
  0.4011733861448484  0.0003514145159405  0.6004961672669460
  0.4005111188194529  0.9993820554798469  0.8006617689460113
  0.4001573665974725  0.1991821300654494  0.9998482607564887
  0.4002416799071920  0.2001791253089538  0.1999778223551435
  0.3971070072674573  0.1987611479165815  0.4003590627175216
  0.3998305661135526  0.1997755481471669  0.6002599094665714
  0.4000139063844197  0.1998688241817425  0.8002884832607144
  0.4000418831764704  0.3999670211368980  0.9992237246935906
  0.4011269734979199  0.3988916159200707  0.1987321706503621
  0.3999860816705597  0.3999515328590773  0.4001157485249475
  0.4006054301249781  0.3992571880574929  0.6024428969752408
  0.3998587328541662  0.4002603747531066  0.7997821952795086
  0.4023771208213234  0.5999095807269091  0.0005274298848576
  0.4034416324320091  0.5977198118115449  0.1987192444580466
  0.3988185324049617  0.6017286267331629  0.3997560153426165
  0.4036626545951246  0.5991385398676603  0.6006098401512104
  0.3998043060034083  0.5999502780932366  0.7994550437314354
  0.4010953619595833  0.7995449798388067  0.9999255725114596
  0.4060354400167742  0.7989441332243087  0.2008105061533591
  0.4018120969931664  0.8006803545194933  0.4018478978709881
  0.4022116140378121  0.7999828344787234  0.6021056467947350
  0.4009676533330698  0.7992405026397105  0.7998914400097608
  0.6004617906049811  0.9989945836961264  0.0001595388556401
  0.6010470156587415  0.9989624662503369  0.2007095931869931
  0.5986765975003180  0.9976519579469858  0.4006365495549122
  0.6010868130308785  0.9992435763172747  0.6001532795630027
  0.6006369505729963  0.9991182003577374  0.8002140669766663
  0.5999568864136074  0.1988714512884716  0.9996772954561566
  0.5990893898793654  0.1993548896802520  0.1999751940540244
  0.5939050966242385  0.1960308130039387  0.4001453601340454
  0.5993496076626204  0.1993136171250743  0.6004879875772939
  0.5996023781651116  0.1993540009923232  0.8002834424425577
  0.6002991459039506  0.3990538422994158  0.9998520313073185
  0.5997542461514409  0.3983239944656418  0.1985914625292778
  0.5916093217079451  0.3996777046072648  0.4002907371131456
  0.5994128844935452  0.3987870955271816  0.6014156846979218
  0.6000502173020402  0.3996021802022692  0.8001452487022725
  0.6004038224141293  0.5992063846014521  0.9997959848413960
  0.6022008983964408  0.5976252660744016  0.2002958268875910
  0.5965576211629163  0.6007756049172457  0.3996986390584520
  0.6013911106553221  0.5984403746155975  0.5995809570734598
  0.6004521683414575  0.5992078402258160  0.8003873850088249
  0.6012926710986417  0.7989350454551702  0.0002616082385126
  0.6020030904365865  0.7980664904766849  0.2007388237892604
  0.6006022152345467  0.7980423239766019  0.4011366073761561
  0.6017006726844115  0.7992024046494699  0.6007225847532213
  0.6007502254760000  0.7986918524816727  0.8002119257315320
  0.8018245758100515  0.9986060385349422  0.0015131441596836
  0.8008451815156852  0.9951764522085055  0.3994764664565472
  0.8003963676731463  0.9999376569279839  0.6011155533251717
  0.8001714710058438  0.9988224650996202  0.8005921483529705
  0.8008062275456063  0.1992650111571051  0.0001258202758174
  0.8009463339249860  0.1970349837426678  0.1951552675363514
  0.7997771796070507  0.1981236631235409  0.6054503594455118
  0.8006475614846243  0.1996853402683370  0.8007559875598375
  0.7994813797166636  0.3988338021656470  0.9992714487404495
  0.7995235717377098  0.3972905328856277  0.1996793725267504
  0.7646697230977779  0.3975139925049267  0.4001846337764058
  0.7995361280370605  0.3975177339276477  0.6002940933861631
  0.7996159556055807  0.3994804754126678  0.8009068657267033
  0.8010080401829809  0.5987323574237432  0.9994260817887172
  0.8014245170481957  0.5985113933451145  0.1950571519614648
  0.8003874882839238  0.5993546675498852  0.6055361956893499
  0.8002523124192692  0.5984533456836808  0.8009501698563661
  0.8004263201678598  0.7993200886299395  0.0001385338909099
  0.7998382478875787  0.7989641216754488  0.2003976056265084
  0.8005210054472264  0.8004443366934192  0.4011512085306365
  0.8004287843441367  0.7987852697569571  0.6006489733876299
  0.8006057040343183  0.7990344499784042  0.8013590639167165
  0.0005979302704586  0.1999247099198790  0.1995280119857095
  0.0008837748641055  0.2000194806012570  0.6018753208333604
