Ti V  Cr W 
 1.0000000000000000
    15.3720038313806135    0.0023998420144863    0.0001449001601191
     0.0024007571799185   15.3633006247875361   -0.0006442210894229
     0.0001450310074229   -0.0006449824026597   15.3697544548857330
 Ti  V   Cr  W  
  15 105   1   3
Direct
  0.0050283900583625  0.3951702609624422  0.6009928236855000
  0.9920139554990597  0.7999589653267974  0.2033847358716622
  0.0086980106230133  0.7991831442204324  0.6022752223168724
  0.2013679333654040  0.2045614387827416  0.3923118746792382
  0.1955078426266495  0.2042779255411405  0.6036542862224117
  0.1983141597821235  0.3952214316307348  0.2034940536483844
  0.2037222836235921  0.7975492661433849  0.2011778549354784
  0.3669734627483718  0.0009130561836230  0.8005609523950036
  0.4014797976587209  0.5975213153389609  0.8014289766282815
  0.6018142898570158  0.9953758390328414  0.9987379063193623
  0.7950816130246355  0.1987666613825729  0.7954991731856024
  0.8002892406824906  0.4039431344130499  0.1936922289078969
  0.8022555382616190  0.5929418349987452  0.0036021124468607
  0.8069249458626251  0.7972916283200999  0.3913216785281916
  0.7985088255100846  0.7965723306367140  0.6040864363158780
  0.0016842717285830  0.0009832815338993  0.9992423242872001
  0.9988014739797039  0.0012176233249230  0.2014313821899534
  0.9980516309559710  0.9999283740554504  0.4002732011539147
  0.0016051204699147  0.0009040868768315  0.5994387586194886
  0.0005415016924912  0.9996779010470485  0.7984593213156462
  0.9997251113871081  0.1995978227038813  0.0002472930741980
  0.9990939984843843  0.1994827323511455  0.2009715340534047
  0.9978752606908958  0.1969912347135938  0.5980424846520720
  0.0030894592685673  0.1981625648849724  0.7999679230764254
  0.9972098407991585  0.3991478995279618  0.0006702648985693
  0.0004362492857757  0.3990815537606618  0.2008957766598959
  0.0003902306363606  0.3981420886792458  0.3977837755649724
  0.9995635672076446  0.3991994133306794  0.8018175717240921
  0.0028371004820997  0.6001354600914899  0.0018481138406268
  0.0000238338050194  0.5974088412561962  0.2015189365933597
  0.9998488795940181  0.5988360944645038  0.4005370860596221
  0.0006772281235837  0.5994798188307993  0.5988829868244364
  0.9986254371401021  0.5999085112568380  0.7994551826552517
  0.0001324388462045  0.7992596185191868  0.9994338193395175
  0.0033007156396256  0.7995050061862815  0.4010750784429480
  0.0015356658795859  0.8013495386336721  0.8024834475175348
  0.1986584726441350  0.9984131047763238  0.0027384645190041
  0.1978268117566354  0.0001702153034772  0.2009265120377057
  0.1992681259457050  0.9986676682171094  0.3989096680063809
  0.1989883671674881  0.9996982808297851  0.5947523051652092
  0.1989396867039940  0.1667990699480950  0.9657155939362786
  0.1999047109502149  0.1973758822400194  0.1977670408751767
  0.2000464137725565  0.2036830446172277  0.8011481369767410
  0.1993119088203815  0.4005590194675932  0.9995896358394026
  0.1994236950920113  0.4027434475949386  0.4053110313087182
  0.2036123759890620  0.4041977406254472  0.6023602064874072
  0.1996219674268990  0.4019249372372495  0.8015518353451245
  0.1995361768712837  0.5993506683132833  0.0014027673348964
  0.1991229605011937  0.5997167623798975  0.2020185841422018
  0.1984373467586352  0.6007324736908850  0.4005292294860761
  0.2004244726866779  0.6021297100963358  0.6003681844867123
  0.1969333487759405  0.6002245710329168  0.7999403134733610
  0.1993784743807466  0.8000526555608918  0.9973863449433106
  0.2007753076939345  0.7998696364488458  0.4032479053052840
  0.2044872944098569  0.8011367745625420  0.6025663080032148
  0.2008062286704038  0.7967013358653227  0.8003339840464645
  0.3958310048479036  0.0005792478561342  0.0042252561139518
  0.3986380583046336  0.0003371809803376  0.2013210384667856
  0.4028384103411862  0.9999488094461455  0.3997086587893636
  0.3973283666955220  0.0009388989354031  0.5975661159220315
  0.4016174584659105  0.2003063003317501  0.0005724724905085
  0.3997734973693921  0.2007323151352132  0.1981542593905924
  0.4021896796263956  0.2010061254753361  0.3996078452521784
  0.4017488854970990  0.2011700760533516  0.5992355277339567
  0.3988346833362938  0.2021018306751654  0.8004662819991522
  0.3993743195905610  0.4008360451413188  0.0010840850869510
  0.4022911175968883  0.3999231530344474  0.2005803849071183
  0.4003467582154012  0.4002883793103398  0.3999818997869600
  0.4013927931014205  0.4014007290099228  0.5998818379601241
  0.4000624006828229  0.3998423911209957  0.8007799958445766
  0.3995105253342994  0.5991887875820279  0.0037063613502011
  0.3995783182650326  0.5995386774648839  0.2011540733262049
  0.3997824273369170  0.5999454382809065  0.3992335211127087
  0.4006929375745640  0.6004907663090276  0.5967765613403198
  0.4013085429459012  0.7995729980902355  0.9999820034317050
  0.4013967319379415  0.7994968517440735  0.1992849351320106
  0.3994928131995576  0.7993921844719483  0.3991502616736693
  0.4020686803995919  0.7996658165882881  0.6014539573425942
  0.4002316771284286  0.8012519242866610  0.8009430868118197
  0.6000027802583586  0.9995029654602903  0.2051680801256288
  0.6003355613648413  0.9995609338372700  0.5956921401008906
  0.6049929837274086  0.0039833659230361  0.7955223378791165
  0.6001759053722805  0.2013726142399263  0.9947329493968287
  0.5996306934954468  0.1997005415108018  0.1980042057335418
  0.6010350838317016  0.1968847435839287  0.4007388208552649
  0.6012772619650144  0.2004957434097253  0.6037021989832750
  0.6048866448238838  0.4011328900224982  0.9998667321100662
  0.5979682088270011  0.4006850737409170  0.2002152294114186
  0.6010622988800577  0.3985343825319052  0.4005543504252527
  0.6012171287512186  0.4009585126494296  0.6000705796237664
  0.6006300510931863  0.3958930603696948  0.7995517021678413
  0.5976684250387165  0.6003898039695730  0.9997064542218230
  0.6002552953611204  0.6012284545254707  0.2018147144434903
  0.6016957121373941  0.6016570019876530  0.4003035643807574
  0.6010046721008091  0.6007394745474032  0.5994078780220892
  0.6029435975376687  0.6005594416219306  0.7991823327646844
  0.6005775324581634  0.7979768549693214  0.9985688362967304
  0.5989492013153123  0.8001791607521275  0.1981832385012296
  0.5992557326700219  0.8043384799959302  0.4000561897794795
  0.5993861721816451  0.8004290398315960  0.6001190843682304
  0.5990058070462139  0.8033613500775342  0.8000027128788826
  0.8038643306862628  0.9998785420818709  0.0004028957598689
  0.7997348876271265  0.0001253683661654  0.1989631119790080
  0.7968351876380368  0.0013540240676586  0.3991049626092396
  0.8029290244021160  0.9998611014378442  0.5974645311041368
  0.8021156904883352  0.9972780459128796  0.7987519091404960
  0.8004351261806352  0.2027479752836752  0.0013706929221413
  0.7989149399355714  0.1988782374139881  0.1986477863079357
  0.7999667052922728  0.2017264632973381  0.3976034509397620
  0.8005451459181737  0.2013752818683881  0.5971274550390540
  0.8006775186200731  0.3999073586137212  0.4007077331040088
  0.8001822139211604  0.3999171865209075  0.6002464199164844
  0.8003410960989422  0.4027100799303869  0.8016742928818391
  0.7994090072217311  0.6035221652415805  0.2034498024409407
  0.8015472988297020  0.5967289817849970  0.4003240168321840
  0.8018510743381433  0.5972149954501201  0.5993513643619285
  0.8004397992642952  0.6006608531610803  0.7979864484950082
  0.7999877495013569  0.7997285767451675  0.9987483917706884
  0.7957648902066865  0.7996182385145443  0.1940357991228653
  0.8007571525400002  0.7982889794620435  0.8026758716399461
  0.9966912179098286  0.1996617447388845  0.3991951785570318
  0.6004676582191438  0.0009351081594273  0.3998528326713609
  0.5931669593306983  0.1981646338780052  0.7984573718919858
  0.8010100112831058  0.3985173571514732  0.9961325697963070
