Zr Ti V  Cr
 1.0000000000000000
    15.3990340272275770   -0.0170018773457157   -0.0022529018582575
    -0.0170107766548915   15.3787801482628375    0.0165544931564424
    -0.0022517709109467    0.0165430754876648   15.4057927644380346
 Zr  Ti  V   Cr 
   3  13 107   1
Direct
  0.1899510917158122  0.2044491103818294  0.3751546345069140
  0.2041118959614261  0.6164674022112754  0.3839827073063876
  0.3831211720106765  0.7945836879010076  0.3905938808434911
  0.0011722027030041  0.0060884443154995  0.9968820195013314
  0.0019537648075725  0.1947019280730205  0.8061813103212842
  0.2043539757585256  0.1992404270099243  0.1768038057445209
  0.2030713186540379  0.5901901839730702  0.1838395756787631
  0.2084045999812678  0.8002602604609652  0.2149593891079650
  0.3930564129213635  0.2029482980123745  0.6015003161312743
  0.6110833283357227  0.0131038795689868  0.5891199987563719
  0.6060415665807486  0.1910036887390056  0.4108736725109590
  0.5914814058818786  0.2017927214274201  0.8102943099039462
  0.8006184443690306  0.1968409734649247  0.1983420541129599
  0.7891519544966558  0.1927023859478602  0.5902661477716611
  0.7984374214615355  0.1979630325660029  0.8013805959189464
  0.8035619103171294  0.8056967471006298  0.2042292208626066
  0.9999774752373981  0.0000266134440435  0.2032251692724955
  0.0012635654957641  0.0012754957707847  0.5993087272214374
  0.0018910239694772  0.9976674437157678  0.7982670925356087
  0.0015423046826162  0.2033323358648212  0.0054679867220362
  0.0044883928568479  0.2006795454006242  0.2020653789161540
  0.9884408417196110  0.1996870645210926  0.4014042044925721
  0.9999412881865256  0.2003412610137997  0.5982394578799920
  0.0006159788643341  0.4003472100375391  0.0021261578125604
  0.0012136139887562  0.4000865421321631  0.2023390639293677
  0.0009148014359223  0.3998406892554274  0.4015326268399947
  0.9996673129457235  0.3989967944886126  0.6014564105988836
  0.0011574621665433  0.4007072150996550  0.8012038608242783
  0.0012950566857581  0.6002682621110697  0.0019291237396448
  0.0007817440210527  0.6002669511542269  0.2005571699390646
  0.9960667271194255  0.6002155212550341  0.3996691556406310
  0.0018921037901291  0.6003289570893370  0.5987436399942423
  0.0005034136916302  0.5996263380104006  0.8018202354443695
  0.0025004810666967  0.7992138352909752  0.0032237156191537
  0.0029464544397825  0.8011440044394111  0.2020783266540274
  0.9893734271796960  0.8054143051711466  0.4023215760751910
  0.0002640591780122  0.8002134162912830  0.6023978566563450
  0.0008464591303119  0.7991849204186439  0.8013180864601200
  0.2023560174860614  0.0001060310232336  0.9998282558413277
  0.2014759965350042  0.0034360950112007  0.2007936458913019
  0.1971204995842362  0.0033158498390617  0.4013188808972615
  0.2030132699055815  0.0034690160638794  0.6003729316396247
  0.2017815473366586  0.0004837739461869  0.7984667269149600
  0.1997307666039660  0.1998264858154607  0.9881845416234711
  0.1967152066338489  0.2010044365283704  0.5962259927190605
  0.2023785648800777  0.1994840009646537  0.7958434651206181
  0.2002817675584703  0.3981128291513614  0.9997428833367150
  0.2019121168917616  0.3955698773256450  0.2010884494282436
  0.2000024286888423  0.4056128927781079  0.4021002737663824
  0.2005403471775954  0.4012237496546212  0.5994559792431756
  0.2004205710077637  0.3993647635642700  0.8002834318804020
  0.2007947067099485  0.5994030019369090  0.9937378304356062
  0.2012375504867452  0.6007504142241890  0.5998172530836828
  0.2013445215899304  0.5996317201589549  0.7983958518132114
  0.2008698554265448  0.7999892126050342  0.0000790121746762
  0.1828127736363765  0.8148959112002302  0.4109398327880195
  0.1993250442752814  0.8013316839212835  0.6034265253065473
  0.2007235551877597  0.8022363001372358  0.8020059565815838
  0.4005970853030635  0.9996825027510281  0.0013619630742234
  0.4002706666256634  0.9975289634626892  0.2002915828644669
  0.3975605723903311  0.0038384677325818  0.3996297862095625
  0.4019223935569926  0.0000181087727811  0.7986763600458848
  0.3994317482973511  0.1987990724258168  0.0013033081885826
  0.4016359391745762  0.1985003296182543  0.2008839215850084
  0.3990359766374013  0.1985432872561126  0.3996813288246735
  0.3968417522594501  0.1993759283075038  0.8044171310088259
  0.4007496591740706  0.3988242490628319  0.0019187862641441
  0.4017565827166570  0.3978033153498533  0.2019877675364080
  0.4002694814198131  0.3950789560752804  0.4016561372867911
  0.4002162463607972  0.4009653741555274  0.6013633741729305
  0.4008348348071787  0.3994705107798805  0.8007274163025228
  0.4006973713576568  0.5989253629887447  0.0007813768030775
  0.4042614199573289  0.5968479318612701  0.1994799898769537
  0.4091108390747466  0.5899025074213420  0.3998697705170176
  0.4011324484403406  0.5986925107406144  0.5995290202380358
  0.4015025634222231  0.5998149733898115  0.8013266497722271
  0.3993802373905886  0.7996948721518531  0.9976634729611283
  0.4045258128800798  0.7990641850427044  0.1911744861613586
  0.4001244907899570  0.8003545379393511  0.6019693192750610
  0.4005311719647551  0.7998865178862903  0.7997105696233087
  0.6007654053082742  0.0005110402717285  0.9994786372818437
  0.6010809825573455  0.9997561491583763  0.2011453004934280
  0.5935704921543541  0.9939557792311411  0.3962495056461906
  0.6011429241456281  0.0004607682542135  0.8003455073634049
  0.6000948141328736  0.2002228749673299  0.0060155048380310
  0.5982535193496419  0.1985490355897812  0.2008352767767335
  0.5943423097958597  0.2053045697045418  0.6077455777992007
  0.6017068751843406  0.3996102713220342  0.0015511387075982
  0.6010765239382844  0.3975380416652303  0.2028042805217728
  0.6014021266744984  0.3985437227368279  0.4023054219995213
  0.6001911685650564  0.4015195419425860  0.6026123787245991
  0.6008626498950216  0.4019671148615314  0.8023492218054208
  0.6014259551516571  0.5997490509546981  0.0013580264816636
  0.6028813506361818  0.5997192248339960  0.2000695794955725
  0.6022959551314363  0.5979480946710254  0.4002926747858254
  0.6007801428233653  0.6020074577433160  0.6010390038315002
  0.6009284088326051  0.6002190448188717  0.8012358458576355
  0.6010556462802098  0.8001656490465737  0.0010381821931142
  0.5987455928807360  0.7992011266066382  0.2003502026868575
  0.5978515516205788  0.7990662960442271  0.4000983295535639
  0.5988898406173174  0.8012677667508890  0.5998714907006779
  0.6003060016541966  0.8017651278952818  0.8004473899843640
  0.7990624209484040  0.0005578010674874  0.0004874515193716
  0.8005253408399943  0.0014161895497862  0.1987269018268353
  0.9995457467096434  0.0048729338940809  0.4002723508734715
  0.8059256310211453  0.9955287167546220  0.6007985866165254
  0.8012484970210245  0.9973475148077376  0.7988598955396442
  0.8015241578441702  0.1995821668628216  0.9986839979053852
  0.8006503078229226  0.1999455618864504  0.3951688227491938
  0.8015435353757295  0.3987091077373850  0.0013295453119764
  0.8019366727769579  0.4000301475034937  0.2010566172143153
  0.8002544412779028  0.3983515432028290  0.4008522523417830
  0.8003462841329919  0.4003358884504904  0.6005627023650402
  0.8011142695207311  0.4002849367095770  0.8001311126870553
  0.8018116983771821  0.5996106432180490  0.0010471116920075
  0.8010069524681829  0.5977375489370649  0.2001116646516373
  0.7995635050396255  0.6004516159076039  0.4003192952756372
  0.8002377439918154  0.5985475768670275  0.6012049735368068
  0.8011949291074266  0.6003331820275718  0.8012971770198447
  0.8017328345093430  0.8008043220345755  0.9990570773558649
  0.7952884109337384  0.7993074982224355  0.4040824610545156
  0.8002308142404847  0.7997431203915403  0.6019337642430944
  0.8006831735770240  0.7997349643541518  0.8017919483987742
  0.3997473595939389  0.9976632916468995  0.5981286199656556
