Zr Ti V  Cr
 1.0000000000000000
    15.4866812533483102   -0.0138389071891856   -0.0042650055420354
    -0.0138393523722023   15.4879634038831639    0.0014184031787679
    -0.0042741725747290    0.0014267905633447   15.4705250654031623
 Zr  Ti  V   Cr 
   5   5 111   3
Direct
  0.9989915797043207  0.5993881300689765  0.9994167062479665
  0.4333245187139542  0.7954851781031241  0.4123163964261758
  0.6022971535271268  0.5997607493735557  0.5946525705785063
  0.7876130400315938  0.9630892563319263  0.6049369676745860
  0.7861774345985052  0.7488681498196983  0.5935445673581480
  0.2030954996076250  0.9996191818788870  0.5956925473839306
  0.5970436662213592  0.8017333816791344  0.2271090346689124
  0.5842293852517210  0.8319757680852814  0.6026376658058542
  0.8019483428020936  0.2067583883342423  0.2071955942169474
  0.7967802822717516  0.3988408160613622  0.3912235948413891
  0.9973836921836793  0.0013782061324959  0.9987389974255607
  0.9995877105156238  0.0002718878860664  0.2003063852168063
  0.9984967173523820  0.0010499009647623  0.3999736910862055
  0.0027857621794848  0.0011142063071907  0.7995296796351906
  0.9989749375389388  0.1990277498069331  0.9995387751468408
  0.0017696358370514  0.1999169021229349  0.2005753685197150
  0.9996953628816603  0.1983999938360877  0.4014688091703546
  0.0002845402161782  0.1981980062247969  0.5997472943461321
  0.9984738764658877  0.1985546670008643  0.7984041736470633
  0.0002240950097494  0.3951921406879524  0.9994828161315664
  0.0007446637076325  0.3997002548008494  0.2000372619528253
  0.0026635567697322  0.3987542421377854  0.3997107826193474
  0.0028355591973195  0.3980774037650970  0.5984369450282280
  0.9999972281384908  0.3999006162126198  0.7984216931859609
  0.0004350879535446  0.6000869312003755  0.2045887450320493
  0.0003935850666485  0.5991759664601676  0.4000184014147614
  0.0011200864757121  0.5995748712505792  0.5974524404380294
  0.0002529341135935  0.6008051147346577  0.7941603181127554
  0.9991710157170262  0.8052316013465286  0.9992599008409807
  0.0002624284999020  0.8005063730637929  0.1995858828972737
  0.0038744496766359  0.8008893978408508  0.3997630598446943
  0.9961051676338660  0.7988788646178195  0.5990863600552775
  0.9981178959756394  0.8019092803674980  0.7984692478855607
  0.2003162727207874  0.0011592320330781  0.0011130501968586
  0.1991105885384415  0.0006782742947302  0.1998522749489859
  0.1997422455682844  0.0001380574232615  0.3972953793741225
  0.1991728345414223  0.0008781577328519  0.8010838853152735
  0.2002142747282197  0.2006653184924507  0.0001277600892871
  0.1999875530389912  0.2011454815567210  0.1999676400452335
  0.1998029427816616  0.2013670941262840  0.3995505692315957
  0.1994486594563484  0.2032835445735383  0.5993221423205664
  0.1997773409097335  0.2022031129403183  0.8003319657888984
  0.2007358241346303  0.4002369521876453  0.9995919736611987
  0.2005753844721455  0.4012192665556734  0.1990271693721596
  0.2009368305053243  0.4007627261505537  0.3985883474790448
  0.2003825728354981  0.4021349899539660  0.5990618681351395
  0.2004262689500764  0.4020281643779367  0.7999868946476493
  0.2045122575246867  0.6012563342585715  0.9993998343013348
  0.2005406346753237  0.6009257585761035  0.2003716393799056
  0.2017385357924319  0.6007850450684081  0.3988326465606362
  0.1995419247758495  0.6009015229079707  0.5977703152475695
  0.2003602013292226  0.6011128338227238  0.7981733992923712
  0.2000899913616828  0.8014574562302518  0.9997336230281332
  0.2002745555116461  0.8001954264132497  0.2003345437065084
  0.2014708868297294  0.8006388186425307  0.4004760682535299
  0.1968479116310131  0.7991890441054453  0.5998239730958425
  0.1985438595538924  0.8003355307747178  0.8004247797390508
  0.4002930464663866  0.0015311899811945  0.0012834848622469
  0.3987497648210709  0.0011267433926039  0.1997637824778249
  0.3989508189589955  0.0049013608321467  0.3988159745040518
  0.3954922948842927  0.0042128830586022  0.5994360865055399
  0.3981306622784039  0.0023215931892543  0.8016766423411014
  0.3991382484063216  0.2017897748380690  0.1999907639609506
  0.4008188917681580  0.2010619568874969  0.4007656874537076
  0.3979752643174247  0.2044006865457057  0.6007017769229668
  0.3996050699948501  0.2024723237623580  0.7996796111437033
  0.4009741247167855  0.4009418972735536  0.9992416219545442
  0.3995048783806974  0.4005828522034794  0.1989797013323484
  0.4016488351913862  0.3999387732753357  0.3994380433617662
  0.3993608709696400  0.4029576494178045  0.5999967475809211
  0.3999480902165844  0.4032579148152973  0.7991890965440627
  0.4015510117088715  0.6016478736243850  0.9994885740131332
  0.3999081554659283  0.6001364294862157  0.1984674229272433
  0.4005977922812424  0.5948596850069214  0.3989581126697781
  0.3962173659702625  0.6030151373033523  0.5974681372938304
  0.4012057265237656  0.6028052764979667  0.7982525075220981
  0.4012729772738948  0.8014347157511720  0.0011834306283072
  0.3980079241370891  0.8007003501450047  0.2002198541073877
  0.3918861140105526  0.8035258633534250  0.6095738998205353
  0.3985248723600496  0.8008613634712779  0.8014616705368017
  0.5995088505672527  0.0013442293896551  0.9998133284966196
  0.5991218987743706  0.0042871874594971  0.2002990815962684
  0.6001049534471332  0.9999309341095576  0.3994230300856151
  0.5909365990779359  0.0168306791195723  0.5988608310632924
  0.5998511439326468  0.2011379397775621  0.0006670201367720
  0.6013020681492043  0.2003185503224195  0.3991807761314015
  0.5978455348290671  0.2045221148520833  0.5985762597708718
  0.5999536023128617  0.2014119428262680  0.8000891916987715
  0.5994333968349357  0.4003807321174864  0.9998538262073132
  0.5993554000021392  0.4001853271572887  0.1991531944716518
  0.5987507800450368  0.3998995412626892  0.3983821704015003
  0.5981172023690632  0.3980536259353842  0.5983249990997380
  0.5999504358885067  0.4018596407321660  0.8005836688522717
  0.5992807923746870  0.6027250936018849  0.0002433547653924
  0.6004574531005731  0.5989162602625423  0.1984983149939334
  0.6017245476908816  0.6008314475978183  0.3923615997519898
  0.5993152817422943  0.6022517008471184  0.7999660872137858
  0.5999257309595863  0.8031470800586443  0.9926902111542713
  0.6255342625372432  0.8023595404409353  0.4199669254656053
  0.5988618837036113  0.8041334854383921  0.7989604598878738
  0.7976740030878254  0.0014009613256631  0.0036987320030712
  0.7983271646026965  0.9980968507220653  0.1998048149669974
  0.7997548723036952  0.9970442670990437  0.3987086910914296
  0.5962927207461867  0.0042738410830396  0.7975485313735333
  0.7992236898708803  0.1998911396736916  0.9980101819183579
  0.7989082018658920  0.1947470945056595  0.4026081293223535
  0.7995540507462416  0.1987905776196141  0.6006942674318239
  0.7990827568218613  0.2022961868580237  0.8002374932631958
  0.7985530615428343  0.4007575792641594  0.9984126768215844
  0.8005404047659713  0.4028294765127994  0.1955469954056670
  0.8020199982555235  0.3937789206573420  0.5999095006052488
  0.7995746628786933  0.4022004379358340  0.8001406953421396
  0.7949131806520144  0.6011510779009398  0.9992030056803435
  0.7995894710256714  0.6001953489420462  0.1978871580417814
  0.8019461187537773  0.5994206775603441  0.3964118999462617
  0.8070865617479925  0.5662678582329254  0.5959418622229238
  0.7997528097930686  0.6014669916900562  0.7972010803863648
  0.7970749050560473  0.8019671890008856  0.9994401037026286
  0.8018930347946294  0.7983984397279358  0.1989931415556910
  0.8099732167522034  0.7989180370138903  0.3942727615442038
  0.8001426300910054  0.8002895789590944  0.7993888951790623
  0.9958238092852020  0.9982553662067015  0.5996505744531180
  0.3998457975739870  0.2011509433903336  0.9996091377541050
  0.5971238514033288  0.2010211497474938  0.2004201029513555
