Zr Ti V  Cr W 
 1.0000000000000000
    15.4149939690695010   -0.0041197707411214    0.0051244012526811
    -0.0041210926464625   15.4234402589122102   -0.0060663359120509
     0.0051270839828618   -0.0060686626181498   15.4040961855710652
 Zr  Ti  V   Cr  W  
   3  13 106   1   1
Direct
  0.9895370463934672  0.7841555018212872  0.7982801892147433
  0.2067393172164776  0.4393224059285111  0.7994788139836390
  0.8130190407154895  0.6058725220591713  0.7938022011276783
  0.9986803996747978  0.3995728615978680  0.4089417717033569
  0.9950502777942410  0.6001846482093416  0.4052590271484520
  0.9889749357576567  0.6099710671088382  0.6236461567637345
  0.9968235347946337  0.8038148609599665  0.4017382551302087
  0.1999561556108534  0.9879960436213654  0.7982713949672496
  0.1970145728371824  0.2033939866241701  0.7980820870254838
  0.2067751250308265  0.6023226560421184  0.4100966873786415
  0.3916538912785697  0.7989976890839867  0.1980342317106536
  0.3984366853376889  0.8071160531204468  0.8024155105095665
  0.6002253388930637  0.7981450246659930  0.9889666108449138
  0.6041117666402689  0.7975376702797293  0.2000797837360998
  0.5987979596158849  0.7926397371049396  0.5994501082952373
  0.7984676111063823  0.9933627198256525  0.9970990018053084
  0.0021462660175884  0.9971327278408099  0.9983233162028181
  0.9991984289970359  0.9988973655282092  0.1994458508552487
  0.9987099983384699  0.0024666288372388  0.3994601344104353
  0.0004019559013522  0.9996398208187429  0.6012707325572151
  0.9966103967025928  0.9968359378949109  0.7998363785264472
  0.0000917671486422  0.1967352810206767  0.9998274681550704
  0.9996779951397803  0.1990471333037970  0.2001416450554864
  0.9993478062468317  0.1975650631431925  0.4011169318674619
  0.9998447663136164  0.1993016742291562  0.6009612661266281
  0.9986697442113215  0.1951231790611719  0.8007546920665303
  0.0014518377633335  0.3962198987515294  0.0023013571472221
  0.0004083267293868  0.3994868773825053  0.2003276274438360
  0.0021032751354297  0.3982953408156609  0.6058768956540957
  0.0027229442167642  0.3916616337238363  0.8031551286139337
  0.0024709617974565  0.5980982310918608  0.0067652444016153
  0.0015262101494737  0.5988137674859314  0.2031741934585511
  0.0202415994217152  0.5820728101301124  0.8169259656158778
  0.0010413377619557  0.7976865302618723  0.0043490043458636
  0.9988107402218368  0.7992293540262387  0.1996925823667662
  0.0005274080840842  0.8042184898746826  0.5932507628943525
  0.2004993619185517  0.9983463462552898  0.0021200674079003
  0.1993603596655013  0.9990279422843914  0.2006832823662886
  0.1999027545409030  0.9991282865178109  0.3999206609725958
  0.1993948338062400  0.9994447987010604  0.5975277944685297
  0.2006280354560807  0.1989276288237537  0.0021487951422059
  0.1975520663019760  0.2001254879863941  0.2016664729889590
  0.1997345717291663  0.2001525186400982  0.3996987546183077
  0.1992207403823287  0.1996100763597035  0.5982530164561995
  0.2021209650911522  0.4006065015832601  0.0051837538740671
  0.1994472181603407  0.4017674214300640  0.2030399684188967
  0.2020008186462787  0.4006769896372132  0.4012331719549166
  0.1998820136333367  0.4029929305062147  0.5956260350561496
  0.2033719836486469  0.6006516404800635  0.0009628182524659
  0.2007669855803264  0.6013823461196460  0.2017379799263012
  0.2026004219288990  0.6019130669625505  0.6060221178818846
  0.2086519822380479  0.6277055685956916  0.8022201594899664
  0.1978892591731936  0.7993044102322840  0.9997341135431169
  0.1945564970191948  0.7988343652005343  0.2026233319081314
  0.1991777280925497  0.8008465414991965  0.4027992087095896
  0.1986925649261829  0.8013368809554017  0.7981592401522907
  0.3992473569013510  0.0007957179942942  0.9992912905212231
  0.4002453009118626  0.0022123276745945  0.1993384903079195
  0.3999213261494410  0.0008484591568680  0.3989557145024049
  0.3988477823791033  0.0004316347198883  0.6004732697160780
  0.4022353278415414  0.0049506786834428  0.7996804358979672
  0.4005850176566344  0.1999723119297965  0.9998643437290206
  0.4005676948568877  0.1997477637693464  0.4005561014855539
  0.3983251761398132  0.2016819713713821  0.6003999658568726
  0.4010747421423417  0.2015256339029506  0.7997576913215773
  0.4006234737763108  0.3986990683679559  0.0004747083090588
  0.4010463741754076  0.4007317157817092  0.2004682211514322
  0.4004351023778846  0.3995258143474848  0.3996214676162013
  0.3986718905952455  0.4002033716299406  0.6015925227030051
  0.4071666632734889  0.4006413764993484  0.8009186213083399
  0.4028682217175356  0.6008990514263725  0.0004510193826438
  0.4004688649142885  0.5987233949651624  0.2002060322840186
  0.4029595469662421  0.6011972093919372  0.4014020230190956
  0.4036535742967268  0.6030777422518967  0.6020170062086937
  0.4024815902989033  0.5998660898154917  0.8016465478627864
  0.3967705696685553  0.8004639600965068  0.0018306474148257
  0.3987558618748985  0.8023035269729418  0.4010333789931225
  0.3950932474987196  0.8009521612418781  0.5982037644620091
  0.5970906098363523  0.0019322823438872  0.9990823052544813
  0.5992221132682236  0.0001804848421855  0.1973117041823730
  0.5982320908818612  0.0010698921727895  0.3983645899269032
  0.5991360216274931  0.0000986139803707  0.5984716939902813
  0.5993961418515782  0.0014279221169090  0.7976007907424508
  0.6002745439750703  0.2001439178566122  0.9971727747842566
  0.4650358667078572  0.2007601318717293  0.1993070028430854
  0.5988683774405641  0.2003637801495150  0.4008878353823775
  0.6003590364372382  0.2019067858444389  0.5999363243866039
  0.6012238347925034  0.2013180740594263  0.7985951740223983
  0.6016203759639593  0.4001583150542780  0.9997856798774821
  0.6003731204683174  0.4020689511087651  0.1991843430515227
  0.5997591403616580  0.3988162611754871  0.3983595968232956
  0.6003538541691311  0.4036870642184967  0.5998345587667910
  0.6050570400652007  0.4019843528279200  0.7993691654537897
  0.6016775549919269  0.5988227624485196  0.9966142738430926
  0.6005859256198023  0.5991602471356556  0.2001089699402815
  0.5980016355070752  0.6011996781691014  0.4039600110402622
  0.6000494636343305  0.6019623549254214  0.7949965353665405
  0.5984823136991647  0.8005742898339389  0.3979365126353411
  0.5983954190893667  0.8007119190980692  0.7960334591462275
  0.7990861001926409  0.9989410725860509  0.1998439607847185
  0.7980097633033836  0.9985937409530414  0.3989965746698606
  0.7990510503069275  0.9990856783361339  0.5971645433201523
  0.7985758051426098  0.0017218154784968  0.7949681625216883
  0.7997313148044273  0.2001991675044703  0.0000157978607222
  0.8017640536051843  0.1993909915956002  0.1990400260828497
  0.7980054258280617  0.1992952178896674  0.3981995405493775
  0.8009068988054698  0.2003488241677870  0.5981339368386414
  0.7997032466372006  0.1991491171367369  0.7980721858684945
  0.8017469384297200  0.4006881940258593  0.9984760093847219
  0.8005308745716144  0.4000188636350083  0.2002060081693974
  0.7981621787903077  0.4002567479011548  0.3990793683035571
  0.8028029652367397  0.4019472438997362  0.5979266584631696
  0.8033815978556745  0.3975094477694462  0.7991099219483111
  0.8017545642837236  0.5991063819721731  0.0023195967561068
  0.8001075647986753  0.6006408167291722  0.1995398735844396
  0.7963263485597923  0.6013858414507546  0.3971991722239099
  0.7913920976447095  0.6014874677216262  0.5910919381842809
  0.8042450247202317  0.7958082267663834  0.9952652412990535
  0.8025232834494676  0.7989881253687824  0.1980239523333238
  0.7965775081006674  0.8009543145933818  0.3980101347380313
  0.8032541141348025  0.7993301761956115  0.5966066359924306
  0.7881785779128038  0.8111419048478157  0.7970475666184494
  0.1977198313330904  0.8009913974594655  0.5995344295162431
  0.5997365135412377  0.5960219258855574  0.6008703312047270
