Ti V  Cr W 
 1.0000000000000000
    15.4539762940606913   -0.0009302546193068   -0.0040609226562242
    -0.0009305541856652   15.4553324993326164   -0.0016432811203864
    -0.0040599645847516   -0.0016432389492442   15.4631351219687598
 Ti  V   Cr  W  
   3 114   3   4
Direct
  0.0053055465141401  0.4035081324911148  0.8111129862224883
  0.1915003550634705  0.4028535692692576  0.9905895993502853
  0.6045116479097770  0.7993752997707756  0.4056606678488736
  0.0001174676479456  0.0003288987884218  0.0020879297026507
  0.0006491416356951  0.0016222364109792  0.2007732932968886
  0.0004197443417415  0.0004688609225133  0.3989579066640107
  0.0012566623687023  0.0009443879798667  0.5992034351327448
  0.0005982582290596  0.0010518315559609  0.8001833723160341
  0.9988280462997570  0.1986354447681022  0.0008496145371941
  0.0003528381273282  0.2028486212705497  0.2007491317175946
  0.0003092225637350  0.1994920962584685  0.4007316290213858
  0.0013116148802108  0.2010451857689691  0.6005196503892511
  0.0006776778468436  0.1982374174260243  0.8001863894266090
  0.9956558985909569  0.3955839680878155  0.0083653898523788
  0.9995204436818306  0.3998511898731380  0.3971764415414901
  0.0010110572651590  0.3992811732661372  0.5974398453253733
  0.9999490572246190  0.5962994617574179  0.2024831608146432
  0.0004458777683386  0.6004853107444191  0.4002226793467304
  0.0006222964761795  0.5986998578477254  0.5993918453710867
  0.0013802059924546  0.6009848439015361  0.7978429363443920
  0.0005892791650732  0.8033212430838907  0.0008109473392813
  0.9999350383558386  0.7971705180427352  0.1984145679679344
  0.0002206427840010  0.8002373914175798  0.4001578565758471
  0.0013754084050095  0.8006230017133907  0.5991864221516006
  0.9959946545751572  0.7990788623835983  0.8020373952950880
  0.2000552862431788  0.0002853371922789  0.9993098833193541
  0.2034372868670655  0.9995798260477641  0.1999244510596540
  0.1992845297774573  0.9994345951153801  0.3995068996504591
  0.2009381996742929  0.9996412060168095  0.5992459587788741
  0.2001653689075446  0.9981554860324617  0.8001073334465728
  0.1997931776880268  0.1983439562950368  0.9978076254488593
  0.2008106210595935  0.2005655686857653  0.1994450790042039
  0.1996182839890579  0.1997054262491819  0.4010498668341584
  0.2042125398416998  0.1999868306295881  0.6002495345773137
  0.2004729039669329  0.1989088487020727  0.7988780233571846
  0.1962244063741242  0.3997835964603885  0.2008668930396355
  0.2007762889950375  0.4009642972289864  0.3995325423708772
  0.2003668685130204  0.4004381922417343  0.5985324185030841
  0.2034553260972978  0.4005416501262685  0.7956519839822700
  0.2029401784774355  0.6014997941791891  0.9987082192903243
  0.2003858696338551  0.6003720909614239  0.1978272841975912
  0.2011566607947071  0.6006323823729237  0.4013353931029726
  0.2014655016373110  0.5996738148995043  0.5998431440251211
  0.1999535512700063  0.6011570211282167  0.7994861769339249
  0.1979735526974560  0.7987178378918124  0.9986747355066020
  0.1992341787830401  0.7991812318629448  0.1996059707763842
  0.1996894445699807  0.7994640271336313  0.4005359235649208
  0.2004366232105225  0.7998396970341699  0.6009636418040480
  0.2000585943478413  0.8001363506488355  0.7991486787983720
  0.3998418207007672  0.9999629181945711  0.0032963741214357
  0.4004464704192127  0.9995073756175649  0.3954796880592686
  0.4005133547706169  0.0033844266135352  0.5985570472867994
  0.4009899588699363  0.9990682706070383  0.8007513170138597
  0.3995826190116515  0.2006998334875906  0.9980988061412257
  0.3998592766800468  0.1969772496645729  0.2003463592264500
  0.4002297263302433  0.2004261703534077  0.4037206805700799
  0.4006081150609939  0.1992317017139969  0.7964544203691303
  0.4008862467715170  0.3993121536434408  0.9996441199513734
  0.3980931043588533  0.3989697480191957  0.1993315309013281
  0.4004397719872072  0.4002316710445135  0.3986665458594481
  0.4009584740680056  0.3962871698845100  0.5986509534872800
  0.4013960040107026  0.4003915421038617  0.7994342984124944
  0.4001861745465820  0.6001068307185319  0.0007253759763755
  0.3999041755915707  0.6001623653166728  0.2002033572289583
  0.4005865764235686  0.6003802299477519  0.3990533721134151
  0.4008713009258159  0.6001595533219539  0.7989666082140429
  0.4004907834144677  0.7998487867081144  0.9987932551337637
  0.4005054093872103  0.8032762320244867  0.2002639688315769
  0.3990792831540851  0.7997617760208974  0.4010505288276451
  0.4006042337414608  0.8010509431998315  0.5999312650418603
  0.4011710952507526  0.8002191958275925  0.7995919505036915
  0.5997321080883875  0.0004853472195167  0.0002356255099083
  0.5960915786167791  0.9994524942392621  0.1997645618180085
  0.6013075564721932  0.0016449797984133  0.3992949475932545
  0.5994632121400659  0.0000750549667046  0.5989737580020558
  0.6004191504940927  0.9996624799008057  0.8011918361787809
  0.6003103206641491  0.2003946766105914  0.9989709150542825
  0.5995237826044684  0.2009507115572693  0.2001686166639206
  0.6011184432337877  0.2007234878170409  0.3998985077040891
  0.5966972699883486  0.2004564945924404  0.6003583113533160
  0.6006568942261222  0.1994669664875144  0.7999767405669462
  0.5992313816959421  0.3991233199854822  0.0006713994657368
  0.6004533355009434  0.3994979596261776  0.1996772668090782
  0.6007623291500174  0.4004065268774198  0.3989615961360089
  0.6006140481249144  0.4002438202510950  0.5996282268939507
  0.6018038298589630  0.4009286549122279  0.7997786110611369
  0.5995431714443881  0.5991741909379344  0.0000027752452469
  0.5998047005683735  0.5980677838397684  0.3995501763903270
  0.5992182641518334  0.5986883105957910  0.5997781180431176
  0.5988000995484768  0.5994474619803614  0.7995620236737603
  0.5996387988046223  0.7993717157546154  0.0000794022233754
  0.6010903473471649  0.7988841904507614  0.1983108143709852
  0.5991882811680290  0.7997665684283803  0.6018058581998350
  0.6046792972558502  0.7992578509164890  0.8003165453412810
  0.7994134015824105  0.0007453854584775  0.0009453601467182
  0.7990766750781797  0.9992441434591333  0.2000999180991660
  0.8001992772188857  0.9998679542858400  0.3997197821593061
  0.7998190915067247  0.0012277174931793  0.5991314187609547
  0.8000902115228695  0.9953528177286746  0.8001087642250435
  0.7991389963049704  0.1989667513127032  0.9986547514181181
  0.7983222064423254  0.1987819775663875  0.1999651499439522
  0.7999863176256521  0.1994567042175783  0.4018738698767984
  0.7995673781043439  0.1995764528298556  0.6010848373192734
  0.8005558888619183  0.1991430024550242  0.7992920111689011
  0.7991891161485083  0.4011714053487029  0.9995860761449540
  0.8025145665269685  0.3999623731460375  0.2008467837490269
  0.7995383451652964  0.4000629041245202  0.4004313576395323
  0.8010287641845451  0.3999634401353272  0.6010824636178737
  0.7999947605346688  0.4004170310156474  0.8005176716287901
  0.7964565281385217  0.5990829650604923  0.0002872394000354
  0.7998655400792538  0.6011500279386295  0.1986565614572238
  0.7989892085954972  0.6010335114134276  0.4012144592992233
  0.7997335403920126  0.5992878051016579  0.5995697248501385
  0.8019638773827852  0.6040048039730069  0.8014628281750108
  0.7999096815281486  0.7999088948875596  0.2007806215567155
  0.8031228951768191  0.8003377378783243  0.4015082737658391
  0.8009059588033702  0.8001166883865872  0.6028514478024153
  0.4003585769248531  0.5990006564044725  0.5993433710496501
  0.5990107043745833  0.5992680232504525  0.1997884815530167
  0.8004398357286331  0.7996923126586670  0.0000455937930059
  0.9990985015213549  0.4004081079309199  0.2021259172901675
  0.3996296946832886  0.0009809730625830  0.1996791743295236
  0.4003498303918919  0.1995589795853075  0.5997053809507050
  0.8008249284608556  0.7999118079916593  0.7970961242763714
