Zr Ti V  Cr W 
 1.0000000000000000
    15.5203045776677033    0.0123623473933798    0.0020430338638102
     0.0123621989531639   15.5305412365208202   -0.0005354779444938
     0.0020440238761689   -0.0005334620644981   15.5220072543039933
 Zr  Ti  V   Cr  W  
   5   2 107   9   1
Direct
  0.0024205035024480  0.8483735667651116  0.6005000003961364
  0.2008013157425408  0.5991328326068243  0.9939138149226701
  0.2004673443703774  0.5962601347070842  0.4042058866930144
  0.3765208500957145  0.2061199299128539  0.8079256011754054
  0.5998116007308507  0.1988574816800132  0.7976497460002563
  0.5967283634540453  0.1970863459255791  0.5889720197538906
  0.6001570323113992  0.5988884512612502  0.1997228215373770
  0.0003295376282699  0.0008622147902843  0.0000800275347227
  0.0008743455101461  0.9991124030506929  0.1998525648014728
  0.0004254920050217  0.9983023977675217  0.3992120266897021
  0.0002109904788510  0.9975728303749107  0.8025201467397548
  0.9998062744194373  0.1999686329991278  0.0007115677811366
  0.0005310883094691  0.2003313329866121  0.1992061419601774
  0.0007966233565484  0.1965980595560161  0.4012678702561175
  0.0007106297084754  0.2046266534761371  0.5984243178787380
  0.9982414306805892  0.1976367526548859  0.7986677494929383
  0.9996462956257947  0.3984271266102881  0.9992263068067859
  0.9982184958369756  0.3988384162807616  0.3989047693919208
  0.0010829315230583  0.4025403216439162  0.6002032046885175
  0.0000424541176919  0.4008739904764121  0.7996607819191768
  0.9963662527207129  0.5985629947782374  0.0006249211007636
  0.0004871951728122  0.5992665479987194  0.1997862468714455
  0.9967091814808278  0.6012304628339985  0.4002295368923094
  0.9995716567092120  0.6114967240058184  0.5992208718932492
  0.9987801906751327  0.6002377154112806  0.7989876043688264
  0.9994969075973527  0.7997931601857561  0.0020580667616845
  0.0006199435344133  0.7993999289645213  0.1995957876046303
  0.0004823542076807  0.8009112838500119  0.3960474010038045
  0.0011419791029381  0.7993040404638017  0.8038792034489396
  0.2019564730415188  0.0005950851321086  0.0000417897965790
  0.2014754247077616  0.9998187908555952  0.1989301540062680
  0.2016748366691250  0.0020202918119001  0.3985678665270402
  0.2001716095351420  0.9999777044291204  0.8001496364240595
  0.2000003100662276  0.1985717162461288  0.9992764879136026
  0.2003072111304315  0.1999725061134813  0.1994811025484667
  0.1991412439645791  0.1979312244958523  0.3986865675317173
  0.1983738569677702  0.1971810231681197  0.5980874561647783
  0.1849088431386123  0.1964798170043009  0.7969265642311254
  0.2016063689633718  0.3942226416055000  0.9988414036133993
  0.1984176352348774  0.3972208669208522  0.1983917185874147
  0.2002503848605676  0.3934996128520825  0.3997088501130995
  0.2003615481409780  0.3985541647655435  0.5998994929490612
  0.2007004162301037  0.3968966264762451  0.7982632387689775
  0.2007058213574121  0.6004355173998819  0.1996596195642465
  0.2004767165903842  0.6000117302160880  0.6035058816219908
  0.1998457634745163  0.5984781452872610  0.7947233371588738
  0.2017415081031318  0.8050455562118638  0.9991012363118048
  0.2002520194510784  0.8015961592025357  0.1992017491381707
  0.2043390212861341  0.7987138312342340  0.6006948045431093
  0.2002286569350770  0.7993189719092180  0.7992837134387425
  0.4025325265777477  0.0010407114379301  0.0009509299619828
  0.4004385228640091  0.0003642363262825  0.2003410692080380
  0.4011303246451525  0.9995231901433987  0.3997721332145630
  0.3982637147411525  0.0003756988450014  0.6009437616515471
  0.3999700067517915  0.9972387456794447  0.8008255709166262
  0.4027493168363014  0.2004689718660570  0.0092280789828987
  0.3993339054045026  0.2020398655132502  0.2018900330202122
  0.4002381482562052  0.2009233871348851  0.3988256856022492
  0.3960244308378233  0.2002510937594416  0.5976544213249170
  0.4029038251719497  0.3992647685391388  0.9997375211352878
  0.4006204930752231  0.4058123700971396  0.2002406524912995
  0.4025443173000012  0.3986663909590747  0.3999448213296324
  0.4004326815935603  0.4020153273736123  0.5994886238826952
  0.4023482903565555  0.4078664971062301  0.8004604446610384
  0.4064726143384911  0.6010671155027082  0.0068311094928684
  0.4060941702967306  0.6010756656586086  0.3946186864443592
  0.4010993590247350  0.6009923678779340  0.5984292980328761
  0.4006538502424298  0.6020035435861661  0.8002797049604148
  0.4023648673474572  0.8009785978464224  0.0005171269719750
  0.4021479391254486  0.8019962222821909  0.3999480265171284
  0.4010849959066964  0.7995096723142197  0.5987069000826932
  0.3999020859964216  0.7989866273862871  0.8004410217269150
  0.6007837082201554  0.0001018284619061  0.0005991199014678
  0.6001595559719772  0.9995774874243526  0.2004662666128578
  0.6006216968443041  0.9988905443220965  0.3999443910978048
  0.5996113681178336  0.9973998991596758  0.5994838478847752
  0.6003531678414827  0.9935042139057360  0.7998880096427533
  0.6005324895526428  0.2002014148919148  0.2011119839666740
  0.6011204580020287  0.1999112824752760  0.3963490388178985
  0.6014541843675647  0.3996307042641657  0.0001181252387998
  0.6006184658042040  0.3973866138511730  0.1997681551934810
  0.6013417040739777  0.3994547479458873  0.4007330955418985
  0.6017386210852300  0.4050288554832696  0.7993929572812664
  0.6020975896231251  0.6000562901684805  0.9974628026144313
  0.6018897381717023  0.6008692439417499  0.4021510919539279
  0.5997539692340307  0.6007590084567069  0.5993643999600921
  0.6006080768411242  0.6010251825238044  0.7994392338818882
  0.6005982923574491  0.8003325108822088  0.0004563440389103
  0.6001880110944868  0.8020585900382362  0.1999491867886443
  0.6007610487499286  0.8001323979878991  0.3991258347247528
  0.6000139751195572  0.7981074032413584  0.7997941829292424
  0.7997778969300255  0.9992538176228175  0.0000223077755419
  0.8002408023293612  0.9995915694920831  0.1997593445292457
  0.8002260172365373  0.0002497759637298  0.4001148441862796
  0.8009350813309545  0.9969163112218743  0.6002685221357767
  0.8001570821000391  0.9990565986222921  0.8006661993678450
  0.8009278450109799  0.1999728711347365  0.0011028824385744
  0.8013511291462134  0.1998830769038664  0.1997998962087085
  0.8014212252874613  0.1997097322608827  0.3985365731508324
  0.8042109469608566  0.1972580279876987  0.5985778553368277
  0.8041795438044926  0.1993862916486363  0.7994911759167278
  0.7999558636348310  0.3998958106480074  0.1995074701740178
  0.7999140924479908  0.3990515581480901  0.4001249379558047
  0.7996655513506753  0.3998416088977580  0.5998423323664214
  0.8002480316055109  0.3994928890339797  0.7999541780724829
  0.8002002741906221  0.5986007421437326  0.0000367565925483
  0.8019738451328821  0.5993757591166793  0.1997941653530838
  0.7998756871972917  0.5985831123283025  0.3999361909245974
  0.8004916505335673  0.6009775057169028  0.5998369014262528
  0.8002329808696107  0.5983612899740297  0.7991744345041970
  0.7993169159192444  0.7996930292773181  0.0005473467505530
  0.8002766001263035  0.7990328178267332  0.2001987116768270
  0.7973008768854618  0.7986088054099140  0.5998549305957116
  0.7995749628935030  0.7968277182259207  0.8011874342856854
  0.9996533418479443  0.3995002453698668  0.1995358946560034
  0.1994271165929477  0.9990470789452436  0.5991883477487552
  0.2017921178364697  0.8033836378203587  0.3996028960667878
  0.4002120011612287  0.7995398769837384  0.2003960494997097
  0.6017615376793084  0.1998536013668964  0.0046038801518984
  0.6003019587533009  0.4032610393978865  0.5990268977502853
  0.5993986590034568  0.7996521052373677  0.5992010761387810
  0.7999723340745379  0.3990427409458803  0.9999038265595221
  0.7996059776129890  0.7992823318822114  0.3995146386224209
  0.3924188102123939  0.5977932455092707  0.2006969316369046
