Zr Ti V  Cr W 
 1.0000000000000000
    12.6684183398854717   -0.0307505724529021   -4.4332041932590505
    -6.3522987228625292   11.0024455963999124   -4.4090858170264262
    -0.0126403058899142    0.0077772339306734   13.2640939031610330
 Zr  Ti  V   Cr  W  
   9  17  87   2   9
Direct
  0.9914725531933164  0.6002254104846643  0.4080091264941020
  0.0066927004911266  0.8118552050594062  0.2062230203293363
  0.1938148647093765  0.9938414787623571  0.5876234955512427
  0.2084433507983176  0.0087346852147137  0.8212272844927123
  0.1994858159496664  0.3970809487929947  0.2003453853883564
  0.1996957431952424  0.5933656988958339  0.9976984583582458
  0.4044310452190223  0.6000915188164389  0.2078552916560440
  0.3928346484874736  0.5941227584557609  0.7989668485027925
  0.6020993010478266  0.1999939913250072  0.9499436433677648
  0.9932337672404002  0.1944544283498422  0.1932002245654810
  0.9934213582287149  0.2024320541195325  0.3996845686428645
  0.9944124565468041  0.3998676014052175  0.5975479444618437
  0.1986421133113524  0.8058263858414838  0.0000762561352314
  0.2122065386491736  0.8099225219074674  0.4130729677250659
  0.4501554433493586  0.0418365533994514  0.6340239076548111
  0.3974086574134424  0.9799344954719649  0.7951313469865524
  0.3927355134374668  0.1741732527037473  0.1690321038324147
  0.3978962530831585  0.2000387863298841  0.3908770576721066
  0.4100959259724103  0.3856355894437978  0.2088286589566775
  0.7630849862339891  0.2000415494989804  0.7915000102815853
  0.6013201072922197  0.4191076729896612  0.0044117043743192
  0.6209822679264003  0.4063444749795610  0.2145430091287273
  0.5987968643354665  0.4013220122074222  0.6042142260155250
  0.6082780720740617  0.8044057219849710  0.0046939561156907
  0.7982765528402945  0.9941349770370673  0.7960821257865469
  0.7974995873714965  0.3949036339657624  0.3987747705237216
  0.9885975638132151  0.9978875825012113  0.9976755057870168
  0.9939966993059910  0.0053271091829331  0.2004192736914006
  0.9935661214418688  0.0014547268804244  0.3993315898506601
  0.9868909402768115  0.9965421242058307  0.5980702183751737
  0.9918447923283293  0.9941752993801724  0.7978919502146168
  0.9928628373803865  0.1931879963715318  0.9887278934714291
  0.9889575821519242  0.1934297425232853  0.7936088658856920
  0.9831766113457819  0.3874248781386918  0.7936528829047351
  0.9952640018859937  0.6021953020893119  0.9974714693839511
  0.9990435029320762  0.6096184309117810  0.6207938739907449
  0.9913188276893227  0.5974872573125757  0.7971082091544031
  0.9895479903903658  0.7950234570451674  0.9827065740745168
  0.9747148795665136  0.8009364869617960  0.4007376764771012
  0.9864931331338525  0.7986259326361435  0.6082939986282002
  0.1686624319563404  0.9905777640758900  0.9991638610554223
  0.1968026498710469  0.9986354507883949  0.1961997839008204
  0.2156402896016818  0.0258570916006304  0.3987414831255087
  0.1875949059032788  0.1941471345973654  0.9940724140669468
  0.1965879434737120  0.1860016342906324  0.1947899425143780
  0.1957947052414843  0.2045028062388897  0.3955894240373506
  0.1939410942270162  0.2051284669262797  0.5954454148518816
  0.1938255503505120  0.2058711322246943  0.7969867791142751
  0.1796561637493899  0.3707471660527089  0.9719300584595224
  0.1949052826645955  0.4027846351115082  0.4116467967711112
  0.1950552073394735  0.3926070101288241  0.5919506599061629
  0.1876786468759335  0.3915825374290206  0.7909219166320210
  0.1991149019137084  0.6164298986065261  0.2159059366339315
  0.1952121396953484  0.5978695191115875  0.6024991473896997
  0.1898775296137893  0.6084944748442486  0.7953296102463966
  0.2166730107451712  0.8065845991689252  0.2094954386542509
  0.1964510525304227  0.7869350129379448  0.6150391625076287
  0.1958026893271836  0.7925803906572700  0.7992572267385818
  0.4057966017504233  0.9957438219618048  0.0051597241655105
  0.4068632152602231  0.0002942251656644  0.2079033621773471
  0.4030044897549385  0.0007029536826446  0.4016232188909907
  0.4111789369550691  0.2304497681289404  0.9990910953345179
  0.3936504119578225  0.2040810640347349  0.5928803885069950
  0.3924443349221212  0.2132813736932412  0.7919017635985141
  0.3880416513061618  0.3982045895373871  0.9884074074698211
  0.4029522412261612  0.4086747224748800  0.4142719752313167
  0.3950364566364760  0.3978811809482035  0.5952825773476704
  0.3918355953560601  0.3883064328856561  0.7902028984486886
  0.4181603305129506  0.6003937701510688  0.0102964081236475
  0.4104676894653301  0.6081227542997784  0.4219590007603308
  0.4044258196545764  0.6012919343031672  0.5982417890048082
  0.4028851189787121  0.8062262753646509  0.0033396050363131
  0.4086491613595287  0.8166828559431775  0.2120910174423293
  0.4084971374122469  0.8088358420572567  0.4079259541357137
  0.4020084290774166  0.7994074733804865  0.6043109694428634
  0.4032825820977305  0.8017959133135365  0.8081170817816623
  0.6018443327696477  0.9990733830757402  0.9990577116755913
  0.6023473786582281  0.0063303037050649  0.4056767256626855
  0.6019234222203691  0.9885854549194726  0.5884470925727131
  0.6060938174503964  0.1929418941712403  0.1984299360735297
  0.6041451645858505  0.2028153670192603  0.4008475975915057
  0.6001328327516140  0.1997557911224287  0.5934665990373187
  0.5947754421218947  0.3997693492700534  0.4014691058700881
  0.5997707176072229  0.3581304106149820  0.7916325422648600
  0.6080151508883053  0.6063408990787723  0.0030049406221799
  0.6122685097022268  0.6085146303003941  0.2048417867226457
  0.6049561361542491  0.6019146723240485  0.4103903128323264
  0.6033467516665688  0.6035580456052065  0.6057207174126131
  0.6104767328527281  0.8090277423824470  0.4115366890637689
  0.5989396193196699  0.7943870105041888  0.5998006830464578
  0.6033047395664592  0.7953254783018341  0.7976246526961515
  0.7924545412656253  0.9883986139745622  0.9974479612058511
  0.8021889229341442  0.0033630308660540  0.2008438585312881
  0.8003966634307049  0.0029622132197364  0.4027475350553210
  0.7962426385702525  0.9986748964108576  0.5952729182997493
  0.8071199646920233  0.1923041102527663  0.0007942330162878
  0.7971091575535219  0.2003361434446479  0.2014626448395526
  0.7888503360853812  0.1955406863173909  0.3978249911212818
  0.7935869099737595  0.1994604236708685  0.5956671842566300
  0.9940246424434301  0.3960741793308615  0.9932095262036275
  0.7982273567835897  0.3897778988182254  0.1874110779314597
  0.7929280063616737  0.3950867305051896  0.5992617749549678
  0.8044411303196082  0.4060603414979108  0.7949715199761846
  0.7965495993567405  0.6001118672259470  0.9928400206564464
  0.8024486785797621  0.6101133730655754  0.2042352878263320
  0.7924631102177511  0.6153710661693631  0.4140665824115597
  0.7968438857255813  0.6023551474985349  0.6069871689622608
  0.7999031622182795  0.5997858609010811  0.7997195474104056
  0.8023939431739591  0.7991895939004529  0.9974629327936281
  0.7985032288393472  0.8076772557555548  0.2038751610243332
  0.7993969732266141  0.8049762477428312  0.4059622501093761
  0.7968946037953607  0.7992402387381410  0.6041054193431307
  0.8001730799419605  0.7949365791570250  0.7997457479085126
  0.9965364724198089  0.3922638301244948  0.3922390231931263
  0.9888525266685352  0.7977700535807640  0.8010645672665518
  0.9918537552684527  0.1953894943873766  0.5997156484533324
  0.9950737817808536  0.4015051510936076  0.2025626712103696
  0.9989664434845320  0.6007157856570607  0.1969260435953530
  0.2072951429085935  0.6047160114132030  0.4096756552729524
  0.6025511112450725  0.0012964084472404  0.2006507644356381
  0.6005481044095242  0.9877988933687094  0.7933799433500480
  0.6049532068940605  0.5948125773465675  0.7989810462062716
  0.6043041831575253  0.8038813946867241  0.2081283382991496
  0.8031007752462147  0.4063816701868521  0.9939461035029440
