Zr Ti V  Cr W 
 1.0000000000000000
    14.9114845697503515   -0.0811222989534016   -0.0157713657363553
    -0.0820324548560525   14.9256831265675611    0.0871223015342308
    -0.0160216324416027    0.0864539293082553   14.9515933703189496
 Zr  Ti  V   Cr  W  
  10   9  91   5   9
Selective dynamics
Cartesian
  3.9786628458017050 -0.1197012119637204  2.5425932807209146   F   F   F
  3.3804909334066999  6.0972420528129065 12.2383160129621569   F   F   F
  3.6470234492791453  9.1596174998192605  6.1658795343556054   F   F   F
  5.6446685702390678  6.5516377118080102  0.4331075996757852   F   F   F
  8.6883343095622383 15.0384130601243324 11.6190333657963247   F   F   F
  8.9360302741229916  6.0757615663592404 14.8896214244555232   F   F   F
  8.8905651179081335  6.7159971053147229  3.4366564716886745   F   F   F
  8.1576269726847510  9.3938446337708186 15.6157235267848158   F   F   F
 11.5605302667317513  2.6548839443108614  5.8114978778959410   F   F   F
 11.5044314925937297  5.4303527257564710 12.0716401864073735   F   F   F
 15.0282348585865915  6.2443606328236090 14.1892966051039302   F   F   F
  0.3195135908754528  9.2165260473948578 12.1649682856686159   F   F   F
 14.6881406514687178 11.5936295558932159  6.8403443295957391   F   F   F
  2.7953959956751904  5.8054805177912190  5.8215616622625106   F   F   F
  3.1186444104151709 12.6685585596439516  5.5323843621697888   F   F   F
  8.8676790907334464 14.4008777761080768  5.7978931087662415   F   F   F
  9.8596832581833525  3.3634989566524900  2.5136557852736297   F   F   F
  7.9801837397225386  3.0754506276346123  5.5906815956088174   F   F   F
 12.1639312681364427  8.3183208862278679 14.4566056092103867   F   F   F
 14.7258467733869995 14.5452392274519102  8.6654106944867895   F   F   F
 15.6640141026720592 -0.1170195340570883 12.1891925449030403   F   F   F
 14.5018462658146348  2.3951205146032652 -0.0457369406757861   F   F   F
 14.3829030946071192  2.1304903472991685  3.1054448529453316   F   F   F
  0.2650671354628490  3.3163022995249092  6.8787959558879468   F   F   F
 -1.0810600817955014  2.9633086148025383 13.0401252047989615   F   F   F
 15.2751682633572532  5.6927125056570080  2.9636113519482903   F   F   F
 -0.8617665569220241  5.4766977627974072  5.3714940044915629   F   F   F
 -0.4606337012519208  6.1288610246722603  7.7596517412810027   F   F   F
 15.0287073072054209  5.6999445280333161 10.6291656084225696   F   F   F
 14.4154819261508944  8.4544987510828822  2.3679605925778064   F   F   F
 -0.0678276389270895  8.3042574553288819  6.3671740487597193   F   F   F
 -0.9561173058706910  9.8117731638046859  8.8747860886060366   F   F   F
 15.1726624440511273 11.1798188806107071  0.0897707198667776   F   F   F
 14.5322937264313126 12.1872894314158824  3.5451722865091706   F   F   F
 15.0753812224825339 12.0010186766505615  9.6392433084145761   F   F   F
 13.6541962884589001 12.7361963295927314 11.9845153782180738   F   F   F
  2.2535863807183283 14.5677831437732799 14.8872483246005398   F   F   F
  1.5609403819840135  0.7571859903232823  6.3525143494730392   F   F   F
  3.4750412363319705  0.3143210429250263  9.6216032269428098   F   F   F
  3.0363263475092430 -0.0969962520841359 12.0722272723050281   F   F   F
  1.1862463374600913  1.5403950261703623 15.5689622607798661   F   F   F
  2.0738482563642240  3.1345343869476303  2.9283887812306353   F   F   F
  2.5416415408978943  2.9618631611799953  5.5933398135209922   F   F   F
  2.9113517974841252  4.0621327954669075  9.2494055812621010   F   F   F
  3.4471747519656102  2.4166989878916043 12.6414637741496794   F   F   F
  2.6009104919030772  4.6227629557024628  0.3714957584005652   F   F   F
  3.1737129776775914  5.4383666487964550  2.5859581477607825   F   F   F
  3.1411162674294757  6.3636906992799069  8.5863846872194358   F   F   F
  2.8182171470222062  8.6899431143010322 -0.4929989195986837   F   F   F
  3.0965161411422035  8.1327164539683388  2.6623223471335633   F   F   F
  3.5238186725048339  9.1401379949587422  9.9937170651227571   F   F   F
  3.8008081901090387 12.2223006035171622  0.3420233783769919   F   F   F
  2.9459415365439079 10.6528104263689407  2.6906295823650783   F   F   F
  2.8339078350670146 11.6832689929641980  8.7664722323810746   F   F   F
  2.7324929982224524 11.8690995480989887 12.4379869182728555   F   F   F
  6.0777414574110100  0.2523730727137799 -0.5323474613821574   F   F   F
  7.1343092235012833 15.8820652084723264  2.7832759848004582   F   F   F
  5.3893174737371119  0.6490835135198540  5.8600733661457314   F   F   F
  6.9968297916282491  1.0168530192003964  8.5138012489625616   F   F   F
  5.5372097003164189 14.3549017935195060 12.6027552118928785   F   F   F
  6.5626864783974703  3.4532007206637703 14.3809027888381795   F   F   F
  4.5801022430514156  3.1358215160167449  1.3940208753385388   F   F   F
  5.8712915988637020  4.1485230448022294  7.0779062809155766   F   F   F
  5.6902849394049335  5.0817441034802329  3.4322241171848287   F   F   F
  6.4580856796043680  6.4360527772902429  6.2548550842137596   F   F   F
  6.2748718594930413  6.0278562595487237 10.0118380125577087   F   F   F
  4.6361732993956846  9.8381313298889452  0.7048982791788482   F   F   F
  5.9469902921682358  8.8240877309147443  3.4677085631619269   F   F   F
  7.4876448943306473  9.1628785241469846  6.1226546483400810   F   F   F
  5.9577823203727762  9.3884027472146094  8.8862602189010236   F   F   F
  6.1878037716303123  8.6555964851966074 12.5527238772970389   F   F   F
  6.5355907021398219 12.2668999000416186  2.2715944886180073   F   F   F
  6.5964982257852753 11.4775464131832372  5.9182060032151629   F   F   F
  5.5357246365021444 12.3648210488203603  8.7141359139559196   F   F   F
  6.2879825789254644 12.1147654534364086 11.3634615733825974   F   F   F
  9.6473449854338913 15.0952875180834969  0.2712102280193339   F   F   F
  9.2548123066922958 -0.1276186962422861  2.8907462226105056   F   F   F
  9.2796908154469300  1.6998268906410241  8.8576206637456156   F   F   F
  8.5240215867401243  2.2500816126016074 -0.5368462961690911   F   F   F
  8.9294975513473336  3.6685188290780135 10.1124071776317539   F   F   F
  9.0051037037146280  3.7199098683499967 12.4432084402999994   F   F   F
  9.3281609497914602  5.3134163523745066  7.0013780401830665   F   F   F
 10.0199656977188241  6.6874078062153259  8.9995894766954780   F   F   F
  9.3797338115435682 10.2918726786204697  3.9089931865810219   F   F   F
  9.7946967694859559  8.1433184208037730  6.7187724493125982   F   F   F
  8.5042184764654163  8.8849456174039112  9.4737116770674596   F   F   F
  9.8741693159206179  8.6625967592693449 12.6410680117229592   F   F   F
  8.4839466733446951 12.7866890510051885 -0.6963997776577916   F   F   F
  8.8836889903367027 12.2755967237015629  2.6986260105715942   F   F   F
  8.1976169782380914 12.4988248484610569  9.0366606355557995   F   F   F
  8.6362346693912855 11.3428367998460065 12.4556666552220143   F   F   F
 11.5687748840765039  0.2670139603525354 -0.8837302157783006   F   F   F
 11.6440547463728947 -0.1792022617062771  3.2725260448691573   F   F   F
 12.7374678868469999 -0.6405917705371067  5.6038163794675899   F   F   F
 10.9610282071576304 15.0373522197733607  8.7641524233776167   F   F   F
 12.6869520409647958 15.2205008397561148 11.7258089836372132   F   F   F
 12.2036668736438934  2.0732241229116544  2.1130788416930444   F   F   F
 12.5211392511056552  3.3128549114696861  9.4332867224580106   F   F   F
 12.3624505782558280  5.2500902711538169  0.5578817759335587   F   F   F
 12.5250144954181231  5.6839987697944228  3.3662168191451767   F   F   F
 11.5891530627982213  6.4401312437982021  6.3084508854429977   F   F   F
 11.9627387699700147  5.1685704386553502  8.5165589724197730   F   F   F
 11.9802979637248423  8.5748883645286558  3.5516753645303636   F   F   F
 10.8055201160092995  9.7146583430927773  9.1321074301661653   F   F   F
 11.8134004267557522  9.7057886120098598 11.9650948474928231   F   F   F
 11.4983240671891611 11.6995728101408041 15.2077777256684747   F   F   F
 12.6039687256182340 10.9442988668661094  2.7319554080608746   F   F   F
 11.5534114392061493 11.6995095085711061  5.4117832161901624   F   F   F
 12.2219596721929964 11.8844695632931252  8.2884879463281731   F   F   F
 11.1098784706347722 12.5636500029683127 11.5558230773254405   F   F   F
 13.9179850548191339 16.0416374075666752  7.0410317018013879   F   F   F
  0.5109947329990921  2.3543697730001956  9.4999340596704016   F   F   F
 14.7734243630231745  8.8230560073163158 14.9351199043034075   F   F   F
  2.7112276715390942  9.6495060444826759 12.1202456690199440   F   F   F
  5.3603279602482683  3.8329102523043685  9.9550292365396853   F   F   F
 14.2066142282196797 -0.6378608007728197 -0.7919100374702276   F   F   F
  6.9639580734690183  2.1855851825868178 11.6596777891832097   F   F   F
  6.6350733240416249  5.0054744591380089 12.3805385642340209   F   F   F
  6.0625394408648487 11.7761065845066071 13.9939442952937068   F   F   F
  8.8946657139263205  6.4635767115180922 11.3820344280611803   F   F   F
  9.5213897595949000 10.8063055544340596  6.9859904989967925   F   F   F
 11.1026486923551815  3.1471611788698590 -0.4528068022154397   F   F   F
 10.8195251322641948  2.0537708384617810 11.7923418786946446   F   F   F
 12.2442941807602228  9.4946835371113405  6.8260514467983073   F   F   F
