Zr Ti V  Cr W 
 1.0000000000000000
    15.3960504026614231   -0.0029059402776773    0.0109527228615838
    -0.0029019596058232   15.4211892961187402   -0.0178703021294289
     0.0109643357546517   -0.0178836246684765   15.3929296075496413
 Zr  Ti  V   Cr  W  
   3  13 106   1   1
Direct
  0.3850451293451829  0.4144023198746829  0.8024566057881204
  0.7913230226844667  0.9653504546549493  0.2100385478073349
  0.8089596855816775  0.2088361984714781  0.7852266442666445
  0.9827320430150209  0.3904739106929448  0.7979527599409741
  0.0058011586784938  0.6054173530558679  0.9902727530149067
  0.0014955720428269  0.6368935855628419  0.2002582517253209
  0.0128897440854756  0.7988062178244332  0.3889607948101712
  0.2080156130969266  0.9996498319040271  0.9981759268798472
  0.2006889740082454  0.5852672137962944  0.8077627880829107
  0.1873759040474259  0.7960160081174064  0.2083150341991170
  0.3976256378020080  0.0030340953256225  0.8083300600131724
  0.5961524092031617  0.6041651022279629  0.0006427260077557
  0.8351188888988230  0.0053395070338662  0.4142827628972972
  0.7975735930806805  0.1922587108320825  0.1897396410202814
  0.7973378921950438  0.1930923079505785  0.5792765671163362
  0.7951379707588576  0.7692764006108105  0.1947120172885020
  0.9991489525403695  0.0034850423015722  0.0001020201284569
  0.9992306426347947  0.0063232181146822  0.1962643042464293
  0.0025080260719166  0.9978740493912596  0.6040790175431754
  0.9988527681180611  0.9991895463834650  0.8021802072509773
  0.0014219822428072  0.2020463919594092  0.9974144389444857
  0.0022791364788957  0.2002147084005738  0.1985315872869024
  0.0018507712436503  0.2042614296843610  0.3985824956556159
  0.0046802043944760  0.1980554278940386  0.5981052944454849
  0.0083437382171678  0.1938686241587572  0.8000524503692940
  0.9982409311629614  0.4010784987306540  0.0031946143438562
  0.9983024025928342  0.3970290854407945  0.2000152414080746
  0.9992634791717110  0.4017466847299502  0.3992637198790446
  0.9991928861895900  0.3991066674123924  0.5981063484212679
  0.0008258058963626  0.6000877941492641  0.4032711288932525
  0.0009066338997368  0.6011777621704810  0.6008893215871449
  0.9965507241158156  0.6012433822533746  0.7975769038577815
  0.0005735767048616  0.8068191481619071  0.9962854987126287
  0.9905815349893501  0.8163339138083058  0.1931399123819738
  0.0019893206281345  0.8010443707970172  0.5993791367401107
  0.0003523015435074  0.7996309449610525  0.7991456101616018
  0.1967525581269348  0.0017832609528109  0.2079134678614617
  0.1258246567577597  0.9975454393488739  0.4007194473123467
  0.2000009120736189  0.9979330373352023  0.5993775708208686
  0.1969768790511254  0.9980767253655690  0.7978006638713060
  0.1997837356322789  0.2037154204963366  0.9996221390913723
  0.2003537710899331  0.2003231946086367  0.1997633760599195
  0.1991507247427649  0.1996789527738180  0.4003427195215740
  0.2017534579026699  0.1976147545394761  0.5987689898305710
  0.2024634165950374  0.1981685681742346  0.7987383754527462
  0.1979183482553552  0.4010422430506016  0.0007948708132051
  0.1971214845209772  0.4014730713977637  0.2008413236766642
  0.1994064033116458  0.3988112436765771  0.4001464823461222
  0.1983033849087884  0.3990241032286742  0.6017030676376834
  0.1865771787090467  0.3922011201744723  0.8011184843221890
  0.2012628331222507  0.6004232447856985  0.0065536875682751
  0.2004477641272635  0.5969627292896712  0.2020356031489571
  0.2028948060137389  0.5951868232256629  0.4036468422386328
  0.1999732159922836  0.5986937959829927  0.6016500248355003
  0.1986922887719016  0.7980758613281316  0.9993291677441111
  0.2072552282131513  0.7966638801471108  0.4066329230363439
  0.2017836495408100  0.7972626204397588  0.6035041252434827
  0.1997104160329196  0.7987421972989991  0.8021399007867180
  0.3949636026823727  0.9985840322382808  0.1994055182961389
  0.3995376437800401  0.9994264802660427  0.5990156824942519
  0.3987644375524489  0.1975682195522605  0.9996324947305419
  0.3983146539674218  0.2011383627835117  0.2001433985267761
  0.3990658669433671  0.1991044645858017  0.3983456279138052
  0.3996648981741088  0.1998769597030292  0.5992485219312756
  0.3996514746329736  0.2035579072653405  0.8000055709376244
  0.3991459998498666  0.4009142023547592  0.0055159041679707
  0.3988029556245888  0.4017010568352430  0.2003229442485558
  0.4001721028030176  0.4003965076387928  0.3992954905949344
  0.3995779879846171  0.4010196617907865  0.5969712781803761
  0.3970550788534625  0.6043858574175456  0.0016302931646299
  0.3998206562401744  0.6028556208499425  0.2005961653093213
  0.4018745193085619  0.6008163789056206  0.3996110048629324
  0.4005414360468335  0.6017702567324233  0.6008817439311055
  0.4035816846287346  0.6119835814546578  0.8028552055497007
  0.3983913577001214  0.8057947080399961  0.0024662206266610
  0.3994970726001214  0.8003206928366802  0.2008079106135142
  0.4015267361383638  0.8004819236777694  0.3993494540205352
  0.4018628993463331  0.8015622949946501  0.6017984083556994
  0.3997792264667205  0.8022710952675667  0.8015114978693592
  0.5979785295292546  0.0033161320602688  0.0008012551879404
  0.5924125281077608  0.0026400250509315  0.2009523120726205
  0.6014926424303294  0.0008454065784751  0.3963242714992664
  0.6015442085952343  0.0008912627176403  0.5985725183870458
  0.6029949237952643  0.0029166511237848  0.8003504865191492
  0.6004833770237900  0.2023582814114223  0.9982240383586085
  0.5960896072111581  0.2004433394217962  0.1988839091174883
  0.6014123510465431  0.1993526138930193  0.3988895599901495
  0.5972752160099051  0.1998907698723835  0.5986029039927349
  0.5975869879711962  0.2026198735497269  0.7982394463683172
  0.5982990955767814  0.3992425917132225  0.0001594289759681
  0.5997036898273712  0.4004621724924479  0.2000841892428619
  0.6013106457260816  0.3995560764530184  0.4001536921951481
  0.5990833766699895  0.4000087344609950  0.6003078913089541
  0.5972315446801009  0.4021296005211895  0.8005097333712915
  0.6002696290353190  0.6012861684310634  0.2021026537072079
  0.6005964957059168  0.6003209564032339  0.3999450355331083
  0.6015014130983607  0.6008525327202383  0.5994537706997030
  0.5996338717598217  0.6019931638789275  0.7980943984434717
  0.5998738472603937  0.8047194441992307  0.9990389296871738
  0.5990861267630421  0.8010180075508947  0.1991763904423576
  0.6015057534824789  0.8020485534091524  0.4007722529556128
  0.6008621941067097  0.8021821060917305  0.5995553464278032
  0.6015708629313311  0.8022035196514974  0.7995401476306521
  0.7989221800646934  0.0038451524619725  0.0007298869669889
  0.8023857492229303  0.9971284964537783  0.6077766169453189
  0.8000729168272931  0.9980420920717126  0.8031526506419155
  0.7994465691244692  0.2020446930615957  0.9962289400583790
  0.8024575327650557  0.2020390541987351  0.3899854857676776
  0.7995181602407566  0.4034272085845700  0.9994831639501847
  0.8004898514349904  0.4020693630632779  0.1983508580153570
  0.8000605340472020  0.4005075522412706  0.3991071922690923
  0.8011051167318074  0.4017044240062574  0.6010497280719792
  0.7916768257355260  0.4108995864081729  0.8018259264719961
  0.8028399469232887  0.6018499312789177  0.9998329414732753
  0.8003974865025629  0.5898807473582536  0.1984301754314403
  0.8018257385074337  0.5986728675533267  0.4007053881440661
  0.8008842655039617  0.5996565687959866  0.6000695146216145
  0.7986144597116529  0.6045498294686739  0.7998661501233322
  0.7991668213506914  0.8025220371022108  0.9979562369315819
  0.7996802720983045  0.7957882733350221  0.4004672100976187
  0.8018317844668428  0.7987040496391742  0.5989641373440547
  0.8009144036862671  0.7998511258648690  0.8005833073771053
  0.3995035293347375  0.9999143806674894  0.4001199834910878
  0.4039640329022003  0.0014790229542554  0.0052587535354155
