Zr Ti V  Cr W 
 1.0000000000000000
    15.4119853477336850    0.0092002105036784    0.0075686985216924
     0.0091978282521091   15.4168317070722267    0.0033033723005877
     0.0075647771218920    0.0033039266611125   15.4231482065347798
 Zr  Ti  V   Cr  W  
   1   3 110   3   7
Direct
  0.3988071406070844  0.2004436315054442  0.5997630341557513
  0.9990151289590404  0.2010753562917689  0.0011558170081300
  0.1952716483958195  0.3980314705882306  0.1942457976708470
  0.3998450623781176  0.9986879931655529  0.8337631163902822
  0.9994500265618291  0.9987092636171936  0.0007348354293037
  0.9992996860725332  0.9988556151235198  0.1998307689070399
  0.0005957411907471  0.9985558852111364  0.3995426027626306
  0.9980677049901276  0.9995014121827097  0.5991342905493595
  0.9992272005663159  0.9998112061409270  0.7997024730957599
  0.0002726857658368  0.1997177028063024  0.2017257569092651
  0.0044004564482380  0.1992102002644608  0.3990403374848068
  0.9970816866627190  0.2000040700713714  0.5998944533273564
  0.9999659557486061  0.1997248733235837  0.7995144850464215
  0.0004285936904989  0.4014246821203705  0.9990801977826287
  0.9982188712304076  0.4004586249700946  0.1991362705350039
  0.0005402479928753  0.4010479371794146  0.3993253450433044
  0.0023476438481488  0.4011880204501084  0.6010646495768943
  0.0000669757450265  0.4005659562074830  0.8004212885701282
  0.9996780166818737  0.5991900429085139  0.0007117642718041
  0.0003011660343918  0.6001323382319779  0.2006801626117483
  0.0013826024029963  0.6004209818428261  0.3989120761312541
  0.9980120956417686  0.5994954715667857  0.5986158903088953
  0.9988141762835090  0.5998738919576044  0.8001517077336968
  0.0002452435747284  0.7986698408891620  0.0005286691373090
  0.0010470065420403  0.7994510939466759  0.1998578597204499
  0.0026818972897975  0.7994470723215273  0.3997188539093215
  0.9997181259394514  0.7988691764317311  0.5985305775941022
  0.0040054495861843  0.7989202317328837  0.8000502839271399
  0.1984682108045822  0.0014631989952285  0.9986893267216913
  0.2004420321053333  0.9999395120703173  0.1968491385651410
  0.2004726520754135  0.0043883447243012  0.4009937665799642
  0.1982718137427198  0.0011334774039740  0.6011825820437351
  0.1978353390523419  0.9970898691318990  0.7995266388917253
  0.2062334704290924  0.1986425284574612  0.0001257953253935
  0.2005269194184759  0.1981162850328801  0.2039472521584353
  0.1939865867016070  0.2032751410512643  0.5965804542153440
  0.1992892399607910  0.1982334854639945  0.8002306016623769
  0.2001540630189957  0.3988568634770999  0.9942857842942672
  0.2000504956476742  0.3951632102489936  0.4063418759534340
  0.1992901633511195  0.3994962813396337  0.7955240700907403
  0.2009691769378588  0.5983481109488122  0.0000742879928421
  0.1995562583278755  0.6010149244237299  0.1993281091288592
  0.2041826130774318  0.5985228342311920  0.4000582397295304
  0.1995626938165762  0.5946062171194272  0.5997688262111892
  0.2003443951299570  0.6030753722521439  0.7992773816065735
  0.2019785487468027  0.8012541034611850  0.9958648548466166
  0.1990252948606574  0.8006154433520989  0.1983581116863627
  0.2031228073497814  0.8020018649101512  0.4013456227908431
  0.1992885329207413  0.7982985364017955  0.6036143620032600
  0.4003859352257205  0.9986724971852506  0.2006819842162720
  0.4007417345847176  0.9947053743403461  0.3983703064906696
  0.4016358515489666  0.9949071950509845  0.5984289879966769
  0.4044505552553597  0.2041717142537867  0.0023202203035556
  0.4005668965283047  0.1992042471872654  0.1984488938899540
  0.3967875694117442  0.1999389895704571  0.3934571101054674
  0.4002808160946228  0.2015642313228461  0.8060464245877527
  0.3997348300466414  0.4023582987104932  0.0008174433829977
  0.4011141834346281  0.4020243499210830  0.2000142382975846
  0.3997045658314679  0.4051969047313009  0.3976610832344399
  0.3955098948846390  0.4057621572049096  0.6004758370839298
  0.3985666030501100  0.4025642375104493  0.8004813518059921
  0.4012864876666636  0.5996783218031637  0.0027242348340536
  0.4008910805700709  0.5998989904866191  0.2043159058301051
  0.4052321014304664  0.6007127937890531  0.5954286968969705
  0.4004841366117856  0.6006571327397848  0.8001127542713602
  0.4003196185061156  0.7966287896929796  0.0018640671971157
  0.3992059421297342  0.8012511815619749  0.2012528658599113
  0.3994183490396404  0.7986419188235294  0.5965480169879204
  0.3948895737739845  0.7977499760391026  0.8007774564743743
  0.6026893724900191  0.0049425148154907  0.9986813891581019
  0.6003494988978748  0.0008168212443697  0.1983757600297544
  0.5999504267424958  0.0009010864566108  0.4008635812311908
  0.6023530007868998  0.9993623627433307  0.6009257256398559
  0.6015311255943813  0.0003065908746216  0.7995361471953543
  0.6009984821300682  0.2001865814710166  0.1972587496498907
  0.5991223512104598  0.1999682756931346  0.3989037374411612
  0.6017094182165519  0.2009207156807793  0.8034417067002061
  0.6006611241417799  0.3973534664391437  0.9984928402810395
  0.6014354712472568  0.3998720795358800  0.2003683495901690
  0.5996607358102468  0.3986517540906180  0.4007483698020359
  0.6011048647986782  0.4027007491463624  0.6012553979151183
  0.5994894692357866  0.4001088899317037  0.7992410596198498
  0.6002432245987918  0.5985421235190590  0.9991614301893936
  0.6014648550438413  0.5998559780935445  0.1997498692269161
  0.5969676475520285  0.5991787315299247  0.4041643137957682
  0.5998948451236708  0.6003006284949500  0.7971619060521512
  0.5975422073827468  0.8028858587737822  0.9990298367549942
  0.6010557043964849  0.8006362849182782  0.1993193267989477
  0.5961305895712961  0.8016627507874401  0.4000982689357114
  0.6006534436164055  0.7962382236012145  0.6015113364632116
  0.5983371294238231  0.8010603902724216  0.8001680828938408
  0.8008060722801766  0.0000763980031336  0.9998837527508241
  0.8013210616940546  0.9996035653538203  0.2006776835454499
  0.8001652850650497  0.9997304577314232  0.5997778448930540
  0.8015257368886933  0.9993076388135466  0.7991310702328152
  0.7949816475287557  0.2007493585337301  0.0004324175295241
  0.8012979386476720  0.1997337420542105  0.2012363870672029
  0.8011492073523327  0.2000641976123696  0.3999220503299544
  0.8008062683850997  0.2007629700446605  0.5994380647590543
  0.8016371362809694  0.1998793627424852  0.7998982777876438
  0.8007326523363107  0.4002142864629924  0.9997101604899130
  0.8012605745411391  0.4003440489444263  0.2004316068526137
  0.8010659623589447  0.3991713073839275  0.3999282173162138
  0.8021207290156488  0.3995237592219094  0.5996939636948773
  0.7988178991188087  0.5995028568174706  0.0001001143267887
  0.7996498216473912  0.5998008398378462  0.2009030420219409
  0.7991315558733099  0.6002163190427900  0.3994552081575828
  0.7966680096853270  0.5992735870326602  0.5992611489049038
  0.8005916624250413  0.6006822006334400  0.8002585483408547
  0.7995949134032949  0.7996965780326706  0.9994606025975494
  0.8001261291841352  0.7999433043267939  0.2001892577593367
  0.7997429825703780  0.7999285132232965  0.3994900314572614
  0.8002060768384734  0.7998203380173317  0.5996379441982010
  0.8019419637485576  0.8005203061583439  0.8004814139170219
  0.6039900497142513  0.2011969542128824  0.6009093586702235
  0.7999280142851407  0.9999987641640855  0.4000243499640882
  0.8006727820378631  0.4002361888085940  0.7995286464892681
  0.2017645780766390  0.1996111392866900  0.4011680634550002
  0.1993468801108590  0.3984208803677472  0.6016614638080980
  0.1994399729579192  0.7994238593242629  0.7989497692730420
  0.4010903007956914  0.6042730957095785  0.3994471614799754
  0.3980851664836038  0.7974126707003171  0.3988259071631091
  0.5997411931047740  0.2010908727011697  0.0001385281300510
  0.6014428186676373  0.5988551477467838  0.6014304227193852
