Zr Ti V  Cr W 
 1.0000000000000000
    12.2882735461728885    0.0000000000000000   -4.3445607757035454
    -6.1441367710433559   10.6419570608175889   -4.3445607757035454
     0.0000000000000000    0.0000000000000000   13.0336823299999995
 Zr  Ti  V   Cr  W  
   8  15  93   5   3
Direct
  0.9944117054505709  0.8007270571527527  0.4281358321664526
  0.1761338618413204  0.9782154850376218  0.7771574943877416
  0.2004686081540120  0.1936548582939563  0.9933575370994630
  0.2010081469306942  0.4003763769035588  0.4085794864194925
  0.1985163624448240  0.6020043706623128  0.1922705037607968
  0.4073417987828913  0.6005765791676917  0.3985191371985758
  0.4033179707199787  0.8071371124374663  0.9868815979717396
  0.5999969596795817  0.1940680927621535  0.2032764380619771
  0.9931330539028584  0.1872323078238740  0.1885305310483932
  0.0041713494989562  0.2062840227757883  0.4085345582581396
  0.0037589681998059  0.4098547812112803  0.5959049071705328
  0.9987445574143707  0.4071080735450917  0.8026061924536158
  0.1962334260432913  0.8080227741570816  0.1952097151982494
  0.4020664820893372  0.9904575800740786  0.7995399051416666
  0.3906573614822110  0.1933703681958590  0.1924713366411741
  0.3984455485303318  0.1977344203337431  0.6021852333266677
  0.4039014439737253  0.4093846381335243  0.6040076880213029
  0.6080542204026167  0.4055509333732696  0.4013672882801966
  0.6064349190378794  0.4009919038540172  0.6071566172094353
  0.6032692096922194  0.6013207750459276  0.1988064113703814
  0.6159640231766240  0.8100728667687743  0.6078284305667133
  0.7963265109284245  0.2013607171474407  0.4040312067031243
  0.8002572907329767  0.6015070459339668  0.0016496322924592
  0.9929762208457897  0.9948555976541350  0.9999311663862358
  0.9953049206126329  0.9929283436458971  0.2020145052471236
  0.9970848069794640  0.0025840766966374  0.4013652781478700
  0.9973678606738562  0.0098134625667027  0.6024746979032984
  0.9809689206423445  0.9924091708794948  0.7938249524178054
  0.9906391429149450  0.1966927153823696  0.9891397437723886
  0.9976188882403615  0.2020563589260536  0.6047341922661649
  0.9978367002648864  0.2003986571509439  0.7954432053804200
  0.9888575701499771  0.3936021240253689  0.9914873588970207
  0.9955397004614810  0.5966926799380218  0.9939487814457791
  0.9910385307151350  0.6021898621894010  0.1951256500891622
  0.9965895047897643  0.5924878194977627  0.3975746797986087
  0.0011815369016779  0.6118959628043029  0.8032894011719640
  0.9958148336958291  0.7979681288779379  0.9997861957137806
  0.9945752834410021  0.8034034875312885  0.2012246460958906
  0.9979492755802805  0.6873558110329957  0.6029363301996941
  0.1839494478818707  0.9748403585734415  0.9947339015782639
  0.1942489444111723  0.0015394590733669  0.1988568422187808
  0.1956360053352317  0.9952433482301191  0.3960779415739316
  0.2099443886582166  0.0125224632523457  0.5978373488645902
  0.1981117633053777  0.1954609858060079  0.2046280946819332
  0.2038059737873542  0.1869481550185045  0.4029943918119340
  0.1954762902449932  0.2026530604656813  0.6011680524501379
  0.1994152728615663  0.2066793259307969  0.7902797333690436
  0.1985611117374798  0.4036353551776725  0.9921782296398333
  0.1906729304601353  0.3821756347435494  0.1834510969961402
  0.2104910359460127  0.4113351969614725  0.6252012226859972
  0.2033165654248454  0.4024434924408974  0.8023789099254073
  0.2040654633374978  0.6127322513692315  0.9937893268083514
  0.1341386660509948  0.6070484993432064  0.6049352476283942
  0.1950866812460620  0.5986735697437531  0.7983469959697344
  0.2052240675037853  0.8075465056043440  0.4064692447170152
  0.1992611468646063  0.8014079410152253  0.6009357037997914
  0.1991538748755441  0.7965043496233621  0.8033728203845635
  0.3913221597171049  0.0086241327312366  0.9962716256601517
  0.3923970636878042  0.9918426715010610  0.1990502920699771
  0.4021011027319411  0.0025065781480710  0.4033721820722289
  0.4052250261358843  0.0013157351770987  0.6019663917995746
  0.3966151914935533  0.1940838549367740  0.3962474154997206
  0.4046384895949109  0.2037607134533895  0.8051545630731866
  0.3991982696821820  0.3965777128382962  0.9948039959424736
  0.4055278704516229  0.4080698829748400  0.2013820116332050
  0.4034818610317516  0.3862665395884635  0.3903751045006646
  0.4033556276862703  0.4011146873890790  0.8040937280417959
  0.4038887110423764  0.5979161669618406  0.9987889492433386
  0.4035068956671384  0.6031114544089498  0.1844345127215166
  0.4153542743792671  0.6216295983819679  0.6226279949117252
  0.4058921815744180  0.6014186016384454  0.8045356690204687
  0.4078437907703136  0.8055046623077788  0.2052837830799387
  0.4125745763031825  0.8187355201638635  0.4075660655167760
  0.4040227672960621  0.8079099819863507  0.6045966029223581
  0.3396047112258138  0.7414566766965722  0.7386140393951213
  0.6072913959797462  0.0046046068317051  0.0022358307401356
  0.6067013709869010  0.9929901399761245  0.2044852717819442
  0.6041087259695717  0.0047256432957451  0.4022500639401885
  0.6051137024379809  0.0072512675616768  0.5994891798918606
  0.5996226184166908  0.2035535667558361  0.9939396743452993
  0.5948716892372808  0.1987721195499400  0.4162006254194855
  0.6051367925388922  0.1999539407042490  0.6095560886052348
  0.6012883446201152  0.4028471919837382  0.9985758387174690
  0.5958179043138179  0.3958571122413218  0.1882730150271310
  0.5994060866870992  0.3988724600840602  0.8060584977901007
  0.5977627182268901  0.5993452215705889  0.9946599316511161
  0.6161098336333871  0.6113742136176917  0.4112648176270424
  0.6062205250966911  0.6034823016717743  0.6057889381355313
  0.6086631412675235  0.6053892654477981  0.8063813607246610
  0.6111172198165490  0.8007461027970174  0.0031055421141190
  0.6059399598102206  0.8056871872762665  0.2007829571793842
  0.6045170549575702  0.8069362437338312  0.3987171755522470
  0.6031196441057521  0.8025855778839572  0.8078336974466385
  0.7946516337388078  0.9925864992563607  0.9944658462051517
  0.8003101712301272  0.0007613981356118  0.2005289374337674
  0.8043195573782465  0.0032849903381863  0.4038647408328369
  0.8003103314259232  0.0037385333903395  0.6006360283079955
  0.8060046880553111  0.0044950274624848  0.8035539745551873
  0.7983145924377871  0.1993508842340432  0.9991324274331734
  0.8062565214073695  0.2045445572455396  0.2007166431880341
  0.7978817107170402  0.2014800535774230  0.6047812479234735
  0.7999887694141408  0.2050150239325488  0.7999597903481980
  0.7954674863502639  0.3953086036204518  0.9953747521616075
  0.7949371178642285  0.3992365943180161  0.1949268996915490
  0.8167871867556755  0.4122692564352313  0.4072731503399940
  0.8048591646041717  0.4064272298373425  0.6054039868222822
  0.7978266947809863  0.4057881512256750  0.8024410048595045
  0.7977062800660976  0.5920653808546515  0.1977359648487914
  0.7923343167556354  0.5926766824096703  0.3963599483697132
  0.8063594225084187  0.6073081391155881  0.6091345344159792
  0.8065225615589232  0.6058284851766857  0.8033225852961707
  0.8018933452280235  0.8040917271292626  0.0027925253377395
  0.7990725223572032  0.8008075601686627  0.2002463793330664
  0.7930951100866180  0.8104053227474977  0.4017690794459144
  0.8197386777240305  0.8030211750831449  0.5998543839676727
  0.8031665739676733  0.8002151636694996  0.8026486791012937
  0.9919705909788340  0.4061247240928303  0.3966222288605468
  0.9943756410943196  0.7974116165366252  0.8018835701086485
  0.1921623377480818  0.8008671720132442  0.9960881259193695
  0.4112587190243396  0.2051745311729413  0.9942571317895875
  0.6001628962642428  0.2034494440912419  0.8005154566534147
  0.9954458572406467  0.3995010335968273  0.1959863421931070
  0.1990656928928485  0.6107159364423285  0.4083900016594882
  0.6072107571513329  0.0054924164583417  0.8006266280167146
