Zr Ti V  Cr
 1.0000000000000000
    15.4866812533483102   -0.0138389071891856   -0.0042650055420354
    -0.0138393523722023   15.4879634038831639    0.0014184031787679
    -0.0042741725747290    0.0014267905633447   15.4705250654031623
 Zr  Ti  V   Cr 
   5   5 111   3
Direct
  0.9989915613648128  0.5993881500605329  0.9994166870073726
  0.4333245341323108  0.7954851374873706  0.4123164220691550
  0.6022971273994513  0.5997607892868726  0.5946525799806680
  0.7876129664949186  0.9630892700360792  0.6049370239981918
  0.7861774323459934  0.7488682179723145  0.5935445332405646
  0.2030954738274684  0.9996191362653417  0.5956925599571207
  0.5970436931482305  0.8017333820942547  0.2271090331129840
  0.5842293725517944  0.8319758134637795  0.6026377266346505
  0.8019483638286209  0.2067583724932031  0.2071955359940549
  0.7967802843037568  0.3988407961603974  0.3912235827925256
  0.9995876928240366  0.0002718700714914  0.2003063933057328
  0.9984967112285522  0.0010498541618793  0.3999736807475519
  0.0027856252890279  0.0011142171845254  0.7995297130562581
  0.9989749415187571  0.1990277381471855  0.9995387947057716
  0.0017696352296279  0.1999168882823149  0.2005753827900512
  0.9996953366018047  0.1984000341549124  0.4014688324126454
  0.0002845043355058  0.1981980206490092  0.5997472671298975
  0.9984739034820561  0.1985547160072404  0.7984041557365790
  0.0002241060120989  0.3951921826073662  0.9994828502382073
  0.0007446596693728  0.3997002359028601  0.2000372664876760
  0.0026635744709445  0.3987542471112311  0.3997107683152657
  0.0028355139587456  0.3980773660372921  0.5984369678661579
  0.9999972221285024  0.3999005984872082  0.7984216933818872
  0.0004350909533433  0.6000869211164730  0.2045886981121690
  0.0003935895369034  0.5991759502832511  0.4000184000745039
  0.0011200996235076  0.5995748701484935  0.5974524329094621
  0.0002529299970400  0.6008051123381730  0.7941603229368781
  0.9991710158812961  0.8052316135491362  0.9992599364770888
  0.0002624464476203  0.8005064177414786  0.1995858880191064
  0.0038744605170822  0.8008893926424138  0.3997630666335930
  0.9961051934865530  0.7988788625393156  0.5990863936018813
  0.9981179244861945  0.8019092558308253  0.7984692285212395
  0.2003162518283045  0.0011592459545949  0.0011130452881241
  0.1991106096305005  0.0006782729406916  0.1998522791352838
  0.1997422312848157  0.0001380931695167  0.3972953904851175
  0.1991728583357331  0.0008781541638571  0.8010838858988205
  0.2002143133044105  0.2006653168371267  0.0001277603689740
  0.1999875209222200  0.2011454627149352  0.1999676577481319
  0.1998029515878431  0.2013670979234412  0.3995505625145777
  0.1994486760347536  0.2032835637977340  0.5993221395568288
  0.1997773171553081  0.2022030905446670  0.8003319571728236
  0.2007358039994915  0.4002369650156709  0.9995919766327158
  0.2005754017437925  0.4012192704042610  0.1990271551897482
  0.2009368221071000  0.4007627003460774  0.3985883609885391
  0.2003825702489415  0.4021349863175210  0.5990618871798407
  0.2004262701768644  0.4020281812280334  0.7999869138162296
  0.2045122352338430  0.6012563265396798  0.9993998485416863
  0.2005406352022799  0.6009257579464322  0.2003716522487867
  0.2017385442471602  0.6007850646580639  0.3988326144097138
  0.1995419274406226  0.6009015309071724  0.5977703167299322
  0.2003602089806963  0.6011128205768348  0.7981733744415681
  0.2000900224186940  0.8014574626549371  0.9997336442820146
  0.2002745361796592  0.8001954424695322  0.2003345515242335
  0.2014708804890558  0.8006387852975105  0.4004760589466980
  0.1968479427671651  0.7991890211056940  0.5998239768652014
  0.1985438334566937  0.8003355778489792  0.8004247912667962
  0.4002930225426867  0.0015311854773376  0.0012834437702861
  0.3987497696742155  0.0011267639272929  0.1997637777628830
  0.3989508127095343  0.0049013118860775  0.3988159599919414
  0.3954923240738507  0.0042128628536951  0.5994360730998486
  0.3981306615528181  0.0023215856023686  0.8016766777333791
  0.3991382450938858  0.2017897824932563  0.1999907529099379
  0.4008188681090000  0.2010619743639742  0.4007656808540569
  0.3979752583875604  0.2044006774411271  0.6007017676304093
  0.3996050982011342  0.2024722882098839  0.7996796316896182
  0.4009741498891069  0.4009419003612308  0.9992416279227896
  0.3995048993594734  0.4005828449802251  0.1989796659080056
  0.4016488252368076  0.3999387739883907  0.3994380416252873
  0.3993608874292081  0.4029576059531544  0.5999967593665301
  0.3999480812452421  0.4032579643122663  0.7991891066869792
  0.4015510234521725  0.6016478900046900  0.9994885560145983
  0.3999081419365687  0.6001364154896555  0.1984674186579005
  0.4005977657362469  0.5948596987385066  0.3989580884390251
  0.3962173490845416  0.6030151489745773  0.5974681395196133
  0.4012057088201806  0.6028052334787594  0.7982525273636402
  0.4012729804996307  0.8014347177117940  0.0011834441062477
  0.3980079086317292  0.8007003477059309  0.2002198646487080
  0.3918861090729693  0.8035258860697151  0.6095738888034666
  0.3985248609964908  0.8008613946834483  0.8014616498556212
  0.5995088158902740  0.0013442457800605  0.9998133826338695
  0.5991219356394133  0.0042871627959207  0.2002990942263131
  0.6001049864353012  0.9999309233102798  0.3994230583693988
  0.5909365857708910  0.0168306785940679  0.5988608791496739
  0.5962928540220939  0.0042738612422701  0.7975485992291502
  0.5998511605745399  0.2011379603318298  0.0006670032905851
  0.6013020604499881  0.2003185490681790  0.3991807664455330
  0.5978455259150615  0.2045220856480318  0.5985762635166485
  0.5999536052182176  0.2014120084186981  0.8000891788658271
  0.5994334244950298  0.4003807475944367  0.9998538140063560
  0.5993553673749662  0.4001853169694936  0.1991531845919695
  0.5987507749819641  0.3998995340987159  0.3983821749691415
  0.5981172208158736  0.3980536174678422  0.5983250240357262
  0.5999504327800504  0.4018596072338797  0.8005836896201849
  0.5992808122220173  0.6027250846368627  0.0002433299781117
  0.6004574694444290  0.5989162890589993  0.1984983221227444
  0.6017245455364988  0.6008314256900789  0.3923616503670068
  0.5993152971350125  0.6022517287396032  0.7999660742308916
  0.5999257372134482  0.8031470704165223  0.9926902231004264
  0.6255342929568510  0.8023595850315554  0.4199669002633519
  0.5988619027554636  0.8041334250171718  0.7989604310058170
  0.7976740440204623  0.0014010174432137  0.0036986346031649
  0.7983271394694201  0.9980968666714040  0.1998047739523105
  0.7997548701828253  0.9970442827103685  0.3987086231539350
  0.9973837722241701  0.0013782067771131  0.9987390464835413
  0.7992236413406557  0.1998911983634432  0.9980102114238392
  0.7989082386699179  0.1947470458849802  0.4026081771831033
  0.7995540416295516  0.1987905047491732  0.6006942790900622
  0.7990827301680544  0.2022960659089004  0.8002375115849428
  0.7985530666919836  0.4007575810972253  0.9984126645261735
  0.8005404141661040  0.4028294721272790  0.1955469784476010
  0.8020200018113474  0.3937788795185002  0.5999094900873809
  0.7995746667186805  0.4022004131418469  0.8001406979505901
  0.7949131711880177  0.6011510733421749  0.9992029802427946
  0.7995894676327907  0.6001953500822379  0.1978871681289117
  0.8019461319512197  0.5994206473590333  0.3964118647906926
  0.8070865605221248  0.5662677693214329  0.5959418033038597
  0.7997527902685588  0.6014669902081480  0.7972010246883925
  0.7970748543240227  0.8019671459019622  0.9994401572892319
  0.8018930680696190  0.7983984643628393  0.1989930814535132
  0.8099732162352055  0.7989180576973676  0.3942726883321488
  0.8001425896270553  0.8002897206382034  0.7993889480885341
  0.9958238052566457  0.9982553598157972  0.5996505939984673
  0.3998457793489080  0.2011509732164908  0.9996090993249381
  0.5971238770129315  0.2010211929808676  0.2004201087440974
