Zr V  Cr W 
 1.0000000000000000
    15.4863295998759050    0.0024137293282322    0.0105674120120943
     0.0024156779473548   15.5040449564505511   -0.0174543962439357
     0.0105707746262879   -0.0174578174046017   15.4782021514271442
 Zr  V   Cr  W  
  10 107   6   1
Direct
  0.0004976034947848  0.9685812675254120  0.7582539213329689
  0.9980156940991616  0.2000598540734219  0.6080701639379172
  0.0003384467065732  0.4335358572279062  0.0396801889579704
  0.0040212365610491  0.5783473829638309  0.2206701462942993
  0.9611028230339241  0.7916775323628653  0.1940241005017458
  0.0034431594444251  0.7967031026451571  0.5989042882162289
  0.1980961627523818  0.5902630276773509  0.5993063214369688
  0.3585444480504739  0.8033343538948253  0.1995813647099258
  0.8331979747823148  0.4311349954774699  0.3977126802411612
  0.7504995475865859  0.7915512415479851  0.1983658562856084
  0.0009726021029277  0.0064098566329269  0.9987234076776683
  0.0035849978403031  0.9986993091859170  0.3936003507225402
  0.0011592409405174  0.0020852420159193  0.5711703082863924
  0.0007545533204418  0.1994350232271928  0.2020545270458720
  0.0007844725329369  0.2000820039271989  0.4002486482932254
  0.0012425900923529  0.2055640426936690  0.8094368709973162
  0.9994470414784810  0.3866346645532074  0.2314069189569158
  0.0207747439194095  0.3989196673001631  0.4095733846276091
  0.9948550095635011  0.4031500019168180  0.6004775607796415
  0.0009005501129207  0.3976698523581011  0.8004721254772335
  0.0009428407289607  0.6230978014029722  0.0128010578452467
  0.0058826352013028  0.6062100709774442  0.4180010539926292
  0.9945028075464850  0.5961559223681687  0.6094237692747846
  0.9999357576686654  0.5921817343435763  0.8095824912927163
  0.0014506801285021  0.8120186136987448  0.9928900277289340
  0.0026077183092454  0.8002687344976326  0.3953564432582570
  0.0002684956171388  0.7820235221114454  0.8045322393112451
  0.1996618942134881  0.0026065900643357  0.9975634794186305
  0.2001002742648231  0.0020978490355652  0.1987237350080211
  0.2020709535559931  0.9995887647086967  0.3970776632788741
  0.2013647882060783  0.9994116009487212  0.5973104742899769
  0.2032053878635311  0.0003415295379239  0.7990919414480687
  0.2017011176270955  0.2017513412920242  0.0001651164365699
  0.2010069670580351  0.2003899832169749  0.1990873636097691
  0.2027230131344488  0.1997626609021308  0.3996344608167142
  0.2012621193457775  0.1990846916465305  0.8004750749918826
  0.2031683623824561  0.4011772215405917  0.0007863631819154
  0.1985761435683266  0.3995470913342283  0.1993765594142850
  0.2064708116023905  0.4031668051135629  0.3984278620851571
  0.2003841174577300  0.3995178086668389  0.7355209321235809
  0.2017011470496400  0.6024380990146218  0.0016477100957488
  0.2069376146575857  0.6010360794544973  0.1991509605014711
  0.2012647612444286  0.6015728213566410  0.3937077548048964
  0.2006642154911876  0.6014690336762658  0.8059904604558943
  0.1996383020694878  0.8030957670052917  0.0001394249589290
  0.1715235840645447  0.7973388745201269  0.1973629899970457
  0.1995713283049061  0.8001847092966174  0.3975721405779684
  0.2077310629741996  0.7987154325026703  0.5986155047408039
  0.1996573275407723  0.8001539626693792  0.7991600622065871
  0.4014930570337620  0.0007644368226629  0.9985428866754168
  0.4020761377408484  0.0040655177776787  0.1984133527818003
  0.4003363278103715  0.9992346718466006  0.3989539446604032
  0.4022684556255794  0.0006196919494830  0.5984021472062760
  0.4007296091437766  0.9991611127040588  0.7972128832949001
  0.4012706897654790  0.2002954923340638  0.9988488063939895
  0.4008450390862063  0.2007285314243816  0.1998380943636291
  0.4005166573712010  0.1991667359112029  0.3998614928388422
  0.4020554995196119  0.2004846988647954  0.5991156149325193
  0.4001342370281395  0.4002413910891217  0.9991601729612877
  0.3999265137236836  0.3980292667994344  0.1993537282087028
  0.4011280933248889  0.3991397995529728  0.4008465832723459
  0.4014308134686628  0.4002006218951638  0.6010517112656193
  0.4007543880553515  0.3998933593405465  0.7985819180687993
  0.4026389262863915  0.6010497892898637  0.9999867720914702
  0.4043222559923527  0.5942661985655837  0.2006939018934857
  0.4017722108254856  0.6014552733141911  0.4005341143320779
  0.4056043169268621  0.5994025359555994  0.5993459067420500
  0.4011630243135790  0.6002234510529811  0.8007567444923077
  0.3996239089214884  0.8011498949343450  0.9950287771315326
  0.4007559403640161  0.8001003943480741  0.4027906306323557
  0.4018087478407980  0.8004010435105191  0.6004922995076403
  0.4007530758774792  0.7992581437624992  0.7989673061832511
  0.6007215670634207  0.9993644888303109  0.9985917772674443
  0.6007779162597373  0.9964463532752694  0.1987525276230859
  0.6007604645004946  0.9978486822050261  0.3978508280638538
  0.6009821809362331  0.9992452833673988  0.5970599159128924
  0.6009110495090435  0.9979308455736431  0.7977534514853746
  0.5994780857341420  0.1987100754491229  0.9998332739898255
  0.6012541650651740  0.2003373958086557  0.1988546648497591
  0.6001254334478681  0.1987500826247718  0.5991864257290497
  0.6006422419268078  0.1996029588128246  0.7998800384829136
  0.6006408574811688  0.3991119922016838  0.9990493759881105
  0.6017574637777858  0.4004003448555014  0.1994673112058569
  0.6006457733052881  0.3986309861581560  0.3980184096363384
  0.6011028484371143  0.3996679837322837  0.5978110484250714
  0.5999486429289071  0.4001269657448218  0.7994201046248374
  0.6026167013962941  0.6000538745429809  0.0039319430444087
  0.6048194428825394  0.5992856382647618  0.3955632434420689
  0.6022159220511161  0.5997810732957417  0.5969281184238937
  0.6027337729598720  0.5998672021506496  0.8016399594432607
  0.6011271596781336  0.8006395633421888  0.9981687476272669
  0.5646183322609564  0.7907682576450167  0.1988691704617880
  0.5997260091578124  0.7998592078473468  0.3983466196403900
  0.6013663444212964  0.7993941594398239  0.5984437266373084
  0.6001505870683895  0.7982134690645361  0.7985703763330572
  0.8016018701785638  0.0014184744979144  0.9970927861900746
  0.8012060053654547  0.9976056145518890  0.1981813238093937
  0.8000822069021705  0.0007423636464526  0.3980544433198131
  0.8023891977114987  0.0000922933675622  0.5989206261121452
  0.7984159730929347  0.0001004052269516  0.7987869866382389
  0.7996040316316625  0.2003431616833260  0.9995643627335440
  0.7992425544126397  0.1994931513759099  0.1987512566409561
  0.7993574113726393  0.1967424446556584  0.3984801648247951
  0.7943190643971656  0.2014498118957129  0.5995155699429714
  0.8003595233780501  0.1991581495785667  0.8013910283340474
  0.8031120098282367  0.3977891390281478  0.1948550133431546
  0.7973442599365702  0.4003036164910103  0.6007009709265458
  0.7997720556905673  0.4002216671657145  0.8005381197509014
  0.8035422879774627  0.6008657313996667  0.0003862460815372
  0.7942072105535450  0.5945165280907024  0.2078673925425980
  0.8030422665088138  0.6185342481423317  0.4036899231435886
  0.7987714183296104  0.6003149705860615  0.6004537639065921
  0.8012478305158075  0.5993356668333085  0.8025475037259415
  0.8024387055916700  0.8024972835799049  0.9973587680122857
  0.8064482296406568  0.8064400558654000  0.4011293762992310
  0.7961932385080787  0.8003535093935636  0.6006153241434522
  0.8006438980368913  0.7988380272072937  0.7988204964089206
  0.9999435134565916  0.0031349405415850  0.1973092390395765
  0.0006063427830426  0.2012665286914672  0.0036724410434226
  0.2048611001743446  0.2033463868706449  0.6001282401863371
  0.4013767646486687  0.1998850672027936  0.7993662834296610
  0.5997689481809519  0.1986101001042716  0.3983188816364487
  0.7979586044755898  0.3996661894037135  0.9983464077604064
  0.6016509817739785  0.5980875193803142  0.1989868370293887
