Zr Ti V  Cr W 
 1.0000000000000000
    15.3185418189025757   -0.0058579337440910    0.0011531853961578
    -0.0058580518235424   15.3152820885503385    0.0003427542276612
     0.0011540796390519    0.0003423374486165   15.3446139054441577
 Zr  Ti  V   Cr  W  
   1   2 101   1  19
Direct
  0.6030859034745415  0.9989864123495220  0.7999503218565143
  0.2009639892276133  0.7911130281519015  0.2096572335989642
  0.3989914104606513  0.7995206205114430  0.6101919938096300
  0.9994716622715464  0.0003133194963052  0.3939820193350984
  0.0009931923827886  0.0014409548475555  0.8059895782518784
  0.0045490713396750  0.1984194591903108  0.9982500629641565
  0.9988418842677940  0.1987181079378045  0.2008378539864291
  0.0003928713895545  0.2031030360701436  0.4012266245950713
  0.0039378876545391  0.2044266739635259  0.6007212257812561
  0.0010178437681621  0.2056595829316561  0.7988586655130987
  0.9999444191967620  0.3985841996427503  0.9940205136727762
  0.0025887204869474  0.3987056910084599  0.2056122350391005
  0.0034852622466418  0.6030227483657224  0.0003945744317401
  0.9963772340914275  0.6008184730864884  0.1987844279743543
  0.0002691279152152  0.5973682428301376  0.3992567551949361
  0.9995188255271898  0.5974733346176608  0.5987535410504693
  0.0005739259018806  0.5984221990295492  0.8004042229630152
  0.0001473085225621  0.8045135482320913  0.9983069897013767
  0.9994178655112154  0.8018455660124031  0.2011123030656445
  0.0023204273895647  0.8009197991224284  0.4022795953515129
  0.9991742318781817  0.7984343351939833  0.6007404341471914
  0.0014649427970054  0.8006073819352533  0.7984396379394313
  0.1957106716554626  0.0027535621141981  0.0028482791061148
  0.1958716371885347  0.0014327254654700  0.2023014346458394
  0.1981651219626734  0.9999915001609969  0.4002178787145585
  0.1941648290362943  0.0032463041171833  0.5997951291010938
  0.1964414749540020  0.0006018481268324  0.8002074726617620
  0.2009445320116954  0.2036226244992337  0.1954076567295166
  0.2034871104142494  0.1996270114505400  0.4056992111288057
  0.2049107649837458  0.2045437939369176  0.8017719059094719
  0.2035094503976249  0.3989117719710191  0.0011693839783995
  0.1988085306502709  0.4001173164061428  0.3945985479280776
  0.1975934516517494  0.3963694023985639  0.6052090656589325
  0.1982552622182066  0.5920581194436242  0.1952813404456417
  0.2005835655956146  0.5999869098790915  0.3983050707253742
  0.1985706068102343  0.5998539292865265  0.5974960191142128
  0.2002686534679485  0.5979919995732335  0.8067036576290433
  0.2056246461759106  0.7987733822890565  0.4054676326149302
  0.1954070434013709  0.8007467858781036  0.6018698677710022
  0.2050664138068274  0.7998140292995766  0.7995691401421732
  0.3966752712817817  0.0001703368730479  0.0014667421060588
  0.3972162105812765  0.0004082115952813  0.1986440683107737
  0.3994763085100728  0.9948916221156231  0.3997507640049467
  0.3977316268510881  0.0014071889095357  0.5996237389828128
  0.3941586975138671  0.0016409297582370  0.8004916958239212
  0.3962466290866654  0.2005390961550192  0.9927780138967810
  0.4000081815859970  0.1985111042757947  0.2000784799580516
  0.4001943324930494  0.1979189002833226  0.4015857141455999
  0.3955023666435311  0.1983294785636269  0.6051691575937722
  0.4008182026848101  0.4002649936892620  0.1948615991294887
  0.4027355617886699  0.4014429777402815  0.4021958935842470
  0.3986819424818012  0.3995939158652956  0.6026569400489106
  0.3946038767543907  0.5990439831483216  0.9992976015908146
  0.3986267977608711  0.6010003705386465  0.1978286685046862
  0.3998314828563468  0.6034890934786556  0.4006149738251246
  0.3985360730674888  0.5970181191357449  0.6001915624901815
  0.3998817023324182  0.6031064078059371  0.7976015721480129
  0.4027002741178010  0.8015688768331108  0.9968025962224396
  0.4023090964830299  0.7990986023317681  0.2001526775640179
  0.6009722538568414  0.9968767395368456  0.0081378899335847
  0.6026052721365662  0.0019972255299718  0.2022901838527207
  0.6003992998424104  0.0003688474250770  0.3972927514330613
  0.6002236843107336  0.0005915411540058  0.5929494730988775
  0.5994666392273992  0.1981018075579457  0.0001928564395306
  0.5996398270121815  0.2036235977566725  0.1996812372048809
  0.5985228453405707  0.2035860315614207  0.4003639347616146
  0.6011027223160401  0.1997863754433655  0.5988724669740871
  0.5952758078204478  0.2053141733267601  0.7992151096787902
  0.5951528961295119  0.4018325563174812  0.0042156811723777
  0.6014347226611785  0.3993347727246691  0.5957699804241583
  0.5973649785580472  0.4023400872962787  0.7993525051258011
  0.6011853743973274  0.6049338951968678  0.0014801903050743
  0.6043736260371070  0.5953640671477914  0.1998680642434526
  0.5994007905868611  0.5958732385237571  0.3988201328851298
  0.6024372521306174  0.5980489941037122  0.5975906802933415
  0.6000114279087427  0.5966567044368724  0.7998085232566575
  0.6003162266540991  0.7988951427750266  0.1953403464621171
  0.5943128292402172  0.7983089690889498  0.3996773677454268
  0.6024660148150671  0.7989047711935168  0.5993845098746856
  0.5956049235069187  0.7927358538206674  0.8038485667182367
  0.8033477248039341  0.0001349067672762  0.0010745078334838
  0.8042461170594775  0.0003882813450560  0.2010539274531047
  0.8008687566100184  0.9993021836271012  0.3988613342206322
  0.8665536446412101  0.0006966908869184  0.5993188843521087
  0.8069201708859275  0.0017750350785621  0.7997864264442972
  0.7985451853279967  0.2005143071270224  0.9984245163807365
  0.7999341912991061  0.2011557198314112  0.1979053934784502
  0.7991465199892795  0.1987753999855165  0.4012179410684068
  0.8020809577601571  0.1965013694723832  0.6014610295716963
  0.7985682758271656  0.2026627720984258  0.7997378473323530
  0.8011190935531203  0.4005008030481070  0.9991430223622604
  0.7980135485816838  0.4031770838622512  0.1988386822949614
  0.8009041696918661  0.4000159268647343  0.4007967694290981
  0.8030075824067519  0.4002759103886966  0.5998431198760380
  0.8030114885927971  0.4017302669302466  0.8000078983019744
  0.8027114869922670  0.6022984614579516  0.0026665237823187
  0.7998666548253993  0.6027358134898879  0.3945832058034042
  0.8002569000191337  0.6026934155651431  0.6002437234179014
  0.8001233695572444  0.5999752019987741  0.8014802763768323
  0.7948195320377620  0.8010130057478644  0.9979960181968156
  0.7992581883832253  0.7959597889511674  0.2011470381848045
  0.7967885440572220  0.8002251203651625  0.4017250073225985
  0.8006896125606677  0.8006101931570138  0.6006004494058040
  0.7989223601975911  0.7992010632641737  0.7989546736095692
  0.2010548155474896  0.8000044277982807  0.9990430199035877
  0.9989489429648263  0.0022148482144393  0.0034185211314229
  0.9999214502714358  0.0000702025468517  0.1976098473264538
  0.0004296829349052  0.4009164834241036  0.4033074315974191
  0.0012299807447692  0.4000745893935883  0.5999229262269522
  0.0046750970919497  0.4026006117523760  0.7958656367457914
  0.2008188346681246  0.1994202418300282  0.9997484060887341
  0.1997926424628087  0.1975969230612894  0.6017520053662536
  0.2001108266748016  0.3972003406517453  0.1991411668023963
  0.2015527602290355  0.4016119508752720  0.8008746750500053
  0.1986151539605953  0.5985396955736355  0.0023993570037317
  0.3999789318100895  0.2036545853579765  0.7990207837898464
  0.4002518823299432  0.4013540103539204  0.9947727649949333
  0.3969005622026515  0.3996887923015834  0.8023937030538977
  0.4008264975096094  0.7995082560279184  0.3952669695933390
  0.4022011170897251  0.8035549038966054  0.8029934774436085
  0.5994972619576746  0.4001170305557759  0.2027118289998571
  0.5992438352991105  0.3995700695851497  0.3974851227116429
  0.5985002014627772  0.8011336147348869  0.9994785050736025
  0.8012975169372443  0.5999791536285027  0.1978730416005485
