Zr Ti V  W 
 1.0000000000000000
    15.3704372863088707    0.0041087699184726    0.0045828320708022
     0.0041071823098185   15.3593176205705255    0.0049868964281650
     0.0045832368054306    0.0049883200619353   15.3853693029952101
 Zr  Ti  V   W  
   1   2 107  14
Direct
  0.7917505866298035  0.4017268914044225  0.8100254547078699
  0.4090020506633430  0.7975567270511121  0.8047588221780733
  0.6131865690920373  0.4012705860894935  0.9887189866623273
  0.0005898198779198  0.9980034773132423  0.0017150495285401
  0.0274795519144214  0.0014071783625775  0.2000826842617744
  0.0012615368774216  0.9969443385232226  0.3991117362385604
  0.9943938942651854  0.0000814532185371  0.6021477059869791
  0.0025744721937631  0.9984875339699586  0.8012455771316884
  0.9998369657417462  0.1991613157013212  0.0010438941379187
  0.0012506610190155  0.2025782371105314  0.2020512304089061
  0.0004781524614956  0.1998119809213906  0.4003609034889806
  0.0026077611363040  0.2008396558344610  0.5991365370033519
  0.9993024198617777  0.2010832789230404  0.8016255568395937
  0.0039667154024090  0.3995217464851806  0.0058976420602452
  0.9986886727984565  0.4013787147311226  0.3969903049052820
  0.9975338479304556  0.4001716675288575  0.6000745172721506
  0.9994859905150755  0.4011287332165872  0.8028630048493672
  0.9984523305193984  0.6053763196748168  0.0002330164817434
  0.0026841584076229  0.5964016526032112  0.2005120489623263
  0.9997623368068778  0.6031575287224965  0.4021004886289289
  0.9993920800518655  0.5996995352378458  0.6014612420844777
  0.0026039700641354  0.6008351012233349  0.8002560116199805
  0.0032939677716483  0.7986142651977948  0.2010754854187940
  0.9989990810113668  0.7996533941649918  0.5946428219853884
  0.9994068782014154  0.7992342339221935  0.8063873966874324
  0.2000419136688978  0.0014824327698632  0.9933857060880472
  0.1982385266652568  0.9991853288626977  0.4061825476728440
  0.1983374662383838  0.0028665840573077  0.6060100932927049
  0.2000729293016154  0.2024231810101247  0.0002741765178039
  0.1999920440552477  0.2007297884560201  0.2007506191388242
  0.2024443048348906  0.1983537974446890  0.4031266120088097
  0.2008777277898492  0.1962148995782650  0.7956581117553641
  0.1963062090413083  0.4047184887875789  0.1954136014976508
  0.1994800711097110  0.4014820480328137  0.4000086651259033
  0.1978104144917912  0.3965034948777099  0.6011705222170920
  0.1978187417792176  0.4042837089134426  0.8046678385469556
  0.2006089413562279  0.5964889505044945  0.9956774524083672
  0.2010622586843009  0.5993033376099464  0.4005155944283827
  0.1996282447168613  0.5988515340726271  0.6048771288876273
  0.1962302728641974  0.8002116883926920  0.0019180652667712
  0.1965165056762438  0.8006879080211347  0.3994749467454041
  0.1994500840621502  0.8001688782567863  0.6004411043469747
  0.1984219377298314  0.7988684426180965  0.7999276174102800
  0.3990184597709364  0.0007367675282900  0.0009149654191473
  0.4040128918559034  0.9961719683732093  0.1993332049446810
  0.3995424717027648  0.0023628499662931  0.3988855408572555
  0.4009853537334169  0.9986458040340516  0.6002001339261411
  0.3972501150826406  0.0005536438016983  0.8003357617977841
  0.4008672391921817  0.2003814282911475  0.0021575524422108
  0.3977556320044078  0.1967297289001046  0.2036508874993398
  0.3963572912740151  0.2003037946586459  0.5950239753558294
  0.3998987414858463  0.2003360435541207  0.7992541251034646
  0.3958417364499382  0.3982551449838563  0.0002965364383129
  0.4023386723483460  0.4009570587974004  0.1981972212234509
  0.4001371376544974  0.3968112124626053  0.3977330948583623
  0.3992863487833724  0.3998099706401935  0.5983724851090018
  0.3965809874215105  0.3992275246821397  0.7997231883599997
  0.4015087075950822  0.5994488684958913  0.9988323994340923
  0.3983707682254562  0.6027382717783790  0.2005892066715322
  0.4004033025231002  0.5987584793392088  0.4010642305767904
  0.3985542307579960  0.5998136890957045  0.5989183411929265
  0.3957784686117028  0.5990463097702573  0.7996059002599509
  0.4018214241409978  0.8009979821890145  0.0072790637547211
  0.4013543275188291  0.8013323246861668  0.3965071675090316
  0.4003350304752898  0.8007642687795602  0.5940726901313771
  0.6009721197773578  0.0005614628111510  0.9972196405911548
  0.6029618562997320  0.0000794716517079  0.1981495181434582
  0.5993979522133914  0.0004844572266791  0.4016581503836258
  0.6018897760134525  0.0008467279425096  0.6025398469994812
  0.5976342561998059  0.9992146969173508  0.8006948419240842
  0.5992348495081853  0.1993972832823646  0.9989377874550783
  0.5982199171647575  0.2027009066007253  0.1988037464909268
  0.5946738443566305  0.2014697083458872  0.4010664711765657
  0.5979753703743698  0.2010329708926387  0.6009373701134587
  0.5967241393833793  0.2013320118660685  0.7997945282647331
  0.6022728962081417  0.4014252691168705  0.1990931564241717
  0.6012199751048425  0.4013169843367490  0.3985665297741867
  0.5998145675603171  0.4006291006259191  0.5991881896177628
  0.5898084487590600  0.4011484461806962  0.7944507674940503
  0.6002769907270351  0.6015004829777345  0.9981859737272630
  0.5982402019273949  0.5986801823032106  0.1977880668213676
  0.5994339332958899  0.5993591296405397  0.4018835534438682
  0.5984957788227084  0.5999983704798989  0.6020042219223007
  0.5954758528978965  0.6009364589648781  0.7998847146021907
  0.6018011943767313  0.7996943470877890  0.9993513052929275
  0.5962703486531863  0.7989962397125873  0.1996587366736584
  0.6034348545660058  0.7986643664975387  0.3993452769315650
  0.5996996839764493  0.7994998253898565  0.5999700204013709
  0.6029410851122232  0.7994968899181070  0.8004231573368911
  0.7993824550451091  0.0004723179415613  0.0039416326591307
  0.7982963899550779  0.9974238270449498  0.4021306286005258
  0.7996184248366650  0.9995845257252034  0.7974644127518360
  0.7997806286865963  0.1999403083833104  0.0011720214639817
  0.7977639003908134  0.1974354122334969  0.2028719653140434
  0.7983140499663693  0.1989942173350964  0.4018335178379409
  0.7992159731992217  0.1965953024130369  0.6003478748743902
  0.7995777221786519  0.1956911697049503  0.8007347395795261
  0.8081675544111872  0.4002560148594353  0.0107156021294597
  0.8040625037773930  0.4003905847453975  0.2046713789875338
  0.7998574806756538  0.4004800082373875  0.4019164880653849
  0.7993438092561349  0.3988366724415161  0.5993676971082287
  0.7996680040665533  0.6015021924893759  0.0011422141041515
  0.7977109870991669  0.6008739846433457  0.2011825484519718
  0.7983593106050398  0.6050514358081861  0.4018181902501349
  0.7986476314571357  0.6001320791486753  0.6028951681217551
  0.7992727533437106  0.6064874816285148  0.7994360486329417
  0.8035742673925387  0.8014878648926796  0.0031384962561147
  0.7979991811287974  0.8034834583058021  0.2050826507078127
  0.7998439685275385  0.8049030038205260  0.5963260757092154
  0.8007035735509243  0.8016255756231696  0.8001050011419317
  0.0005815401092331  0.4014879604919361  0.2017769371045354
  0.9984650170152213  0.8008182373210883  0.0046618080412920
  0.9981788308412536  0.7993525690603446  0.3979851001531383
  0.2001073434013821  0.9981367696887120  0.7999455297643604
  0.1993287664983859  0.2004799892311429  0.6009892379452932
  0.1997792997538144  0.4006009090712667  0.9994486753425039
  0.2022312359340602  0.6020290765068814  0.1980983298469656
  0.2005829936594029  0.6007990986103714  0.7994175442641989
  0.2030555611666600  0.7890272283616463  0.1998864960682155
  0.3986365263350762  0.1994172967877944  0.3986047101867397
  0.3980544368192699  0.8002991536786792  0.2018486421249521
  0.7974150729214183  0.0017402056517795  0.2018955712693749
  0.7984728105176293  0.0008830445274387  0.6013131681977201
  0.8033586199147836  0.8012272442322484  0.3998238010454647
