Zr Ti V  Cr W 
 1.0000000000000000
    15.4774007178547244   -0.0057270445464663    0.0060485456842571
    -0.0057275938548885   15.4869400142696509   -0.0016006725836938
     0.0060484205712483   -0.0016004018593464   15.4828342852602923
 Zr  Ti  V   Cr  W  
   2   1 107  10   4
Direct
  0.0023254854811627  0.4007130150207194  0.0010260640243649
  0.4013018266962678  0.5968937696863397  0.8024699844277393
  0.7986421916014407  0.1929529957717428  0.5993917524542980
  0.9995980337876869  0.0000821385358725  0.2041296623798416
  0.9998036284106612  0.0002625822523095  0.3999830510614377
  0.9968724261778169  0.9994650616432439  0.5989907665668170
  0.0006345028597206  0.9998494039598614  0.7968085875845078
  0.0010713347950483  0.1946898661082289  0.0013188339416552
  0.0001373914710785  0.1985068037862023  0.1996688423526410
  0.0001186823821344  0.2005826081320374  0.3998485680895918
  0.0036455475616326  0.2001163795500605  0.5987537794263089
  0.0018292124300435  0.1979798584054225  0.8008479168790034
  0.9995160411347135  0.3995921171448621  0.2051963320942400
  0.9998560528989699  0.3998653491155126  0.4018472910614593
  0.0013557492676499  0.4004211307538271  0.5984828667349712
  0.9950596806208181  0.4003975055332433  0.7945480449072440
  0.0000860726231189  0.6071284881711505  0.0005105233187650
  0.0000499675572487  0.6001790811938834  0.2011216258631228
  0.9992729563195809  0.6000608238399100  0.3999467086597466
  0.0004626286512999  0.6010154216765140  0.5988294905976840
  0.0005792371291902  0.6010420488089623  0.7982279846241590
  0.0001975083003800  0.8014539056047887  0.1983314049198658
  0.0002800293444185  0.8000836560305279  0.3996794752040111
  0.0015064478240914  0.7985817952870171  0.6000685594112771
  0.9996643610901662  0.8013179448377479  0.8009316815698169
  0.2032747105912838  0.9993795787745838  0.9991405848270308
  0.1993191097971222  0.0000742983559348  0.1990438188096002
  0.2001127912534148  0.0002294713214930  0.4011790266154813
  0.1989379435729693  0.0003776972024638  0.7995839086904062
  0.2011564797706125  0.1987511914806981  0.0002277783493307
  0.2009311714758295  0.2007460419903660  0.2000103958284035
  0.2001953223487349  0.1996711624572050  0.3995582565595677
  0.2001532065667551  0.1987257537074729  0.6002115995520468
  0.1998034873764706  0.1999671099135173  0.8005467372609106
  0.2059335617924695  0.4007275391699326  0.9993190076740892
  0.2019892753123738  0.4002604334491009  0.2017677441751196
  0.2000202868058177  0.4004024881299863  0.4010680181738371
  0.2048714633473600  0.4004509045528798  0.6005588791068306
  0.1980091090998721  0.3991295613139029  0.7991748376183777
  0.2008858628554258  0.6014781403782788  0.0001542804454981
  0.2001250814442226  0.5992549493859218  0.2002556873517172
  0.1991212619806882  0.6004513454228232  0.3993278031519346
  0.1962781170349266  0.5997452866856544  0.7998344888185348
  0.1996363769713554  0.8013066042422812  0.9989733778160794
  0.2006389803296332  0.7998722511506696  0.1995753810607474
  0.2003365594405343  0.8004042583359270  0.4004228331923038
  0.2002928827786901  0.8002121666790297  0.5998468893414464
  0.4013089772297751  0.0009149348040896  0.0001686821612092
  0.4006642938202503  0.0003991843288480  0.2010032743093927
  0.4005190104495254  0.0007218364890073  0.4012815230369391
  0.4007012535295079  0.0006770187663309  0.5996928570009554
  0.4004841116122460  0.0006613972934013  0.7979886305261187
  0.4009132311429711  0.2005776586278855  0.0004452540986449
  0.4007363829964649  0.2005143748588124  0.2002755538327347
  0.4000607062555745  0.1999675270092419  0.3993437846208871
  0.4001574797282202  0.2026776020561392  0.5993936080267547
  0.4001259875728228  0.1985724071986005  0.8007086183272024
  0.4020146238535121  0.3985559624177037  0.0000776492381913
  0.4008247253330786  0.3998376627825008  0.4041382231891919
  0.4023113374376651  0.3938559945732935  0.7951555578246174
  0.4003177633204184  0.6006782758742523  0.0055259937859401
  0.4001748974512315  0.5994830130127176  0.2020565851776271
  0.3997437738094530  0.6006906639004455  0.3996601464833750
  0.3998784637661340  0.5967253768325574  0.5964000649560937
  0.4000682384650641  0.8015150055202855  0.0009399802037373
  0.4001010406908278  0.8005893997911350  0.2004445331327659
  0.3997488589301260  0.8003133491953354  0.4000878969163525
  0.6004711343338153  0.9997433512389491  0.9993431047109522
  0.6008421397365887  0.0008458756683748  0.2004215451619251
  0.6003206972412951  0.0003396634934660  0.3995032457701268
  0.6029938970707871  0.9992735809344755  0.5996535232314766
  0.5998716198458275  0.0007924228116551  0.7997259673981635
  0.6004800539368410  0.2002588194918926  0.1993680311999776
  0.6008939751054495  0.2003823418397673  0.3981927484326159
  0.5983878636417528  0.1988919955768360  0.5987245540416528
  0.5997254440438973  0.1988566445681262  0.8008746560484559
  0.5982637885164432  0.4009556578242022  0.9999558166873145
  0.6005283608224812  0.3995312661200135  0.2002686439555314
  0.6011379111274845  0.3998113467052925  0.3998476023766633
  0.5962449804117146  0.4006915060068699  0.5996628105954478
  0.6060542140381759  0.3989300547747501  0.8001475186815429
  0.6003150907697024  0.6012648282794634  0.0014998099171697
  0.6004751407722605  0.5995702434313606  0.2003588808422576
  0.6010002322240987  0.6002240034389935  0.3992771438210282
  0.6004111878258398  0.6022688780467876  0.5989390110872674
  0.6050004998211181  0.6013826015646954  0.8000256529675200
  0.5998269614958944  0.7999171546526920  0.9996546254290110
  0.5999912457415977  0.8004184230902034  0.1995441279688746
  0.5995186445535149  0.8006255387462212  0.3997792641508277
  0.5986247497892769  0.7988867948193811  0.6005405640263497
  0.6011297392972957  0.8010822743090279  0.8001960994657731
  0.7968736540319004  0.0005772050151878  0.9986837074219296
  0.7999182538013400  0.0007233786126209  0.4032706105445444
  0.8013635079719462  0.0019644601954565  0.7971012737340520
  0.8007720274019648  0.1968686280671308  0.0009121702195098
  0.8002013728884461  0.2007006319001391  0.1988433660931962
  0.8004548409236923  0.2033197643704706  0.8023709200291927
  0.7951269727492103  0.4005152215404318  0.9948060767388990
  0.7996297865889458  0.3998678344507047  0.1989618072101911
  0.7996763154508995  0.3991016271431454  0.4020297262073620
  0.7986847611832087  0.4011377825663682  0.6036337453903383
  0.7995840050240358  0.6006754340026149  0.0004992894010629
  0.8001511162825188  0.5989339932523479  0.2003234137204423
  0.8002451072640131  0.5997329708010151  0.4001496256473438
  0.7999093656839733  0.6007270172021189  0.5986648639290381
  0.8009454754789047  0.8021801530626302  0.9991374765634474
  0.7999789274203565  0.8001199791068641  0.2002615538399403
  0.7998522126462437  0.7995848945339505  0.3990426394400217
  0.8000846760346688  0.8015663258150375  0.6005175125141291
  0.8005212575970057  0.8003105333168150  0.8003778023487594
  0.2003455686373375  0.9993681624228277  0.6001410858034676
  0.1997596224846547  0.6007981421500205  0.5995837102721909
  0.2001333621995836  0.8005776848608207  0.7990341684369580
  0.4012597252564307  0.3999035133360783  0.2018634301789144
  0.3994753993153287  0.7998229166347708  0.5999795729069201
  0.3998608949727906  0.8030541020057097  0.7997204195943385
  0.5996643288018630  0.2000910885118648  0.0005461980704988
  0.8002203144842531  0.0000979637495869  0.2000309167434274
  0.8003937710201150  0.2001663185750746  0.3970596793959475
  0.8013972382305828  0.6005695697586714  0.7992248373065348
  0.9990081720220007  0.8312400444715352  0.9997098693704302
  0.4009441166883836  0.3993039905852385  0.6004383563777156
  0.7996737927231732  0.9959075921750303  0.6005022362430155
  0.8003010272358271  0.3964641637523387  0.7994448595574145
