Zr Ti V  Cr W 
 1.0000000000000000
    15.4219977637485020   -0.0153525296692176    0.0018800521315798
    -0.0153399539639544   15.4042384266248558    0.0149563524432868
     0.0018828811446291    0.0149768248118706   15.4308175709018371
 Zr  Ti  V   Cr  W  
   2   1 100  10  11
Direct
  0.6049894942201415  0.9847395878002654  0.7860868236175771
  0.8060550385979215  0.4052296632946195  0.2026280441909312
  0.5974540210812965  0.4030432585944053  0.1972464122592935
  0.0000190762534913  0.0018385715741203  0.0004003610224813
  0.0003821178008313  0.0003245993562090  0.6008504778482786
  0.0010195241109101  0.0003005295990293  0.7998534262521936
  0.0052731883217810  0.1996998051381418  0.0010217205758427
  0.0012440616696807  0.2027509488116101  0.2008103746495063
  0.9969774801950574  0.1994840351369527  0.4000045455159436
  0.0014946773626283  0.1997808835457012  0.6007418424317860
  0.0003474670026073  0.3990869349684371  0.0033937272083873
  0.0009707913124504  0.3996784976039489  0.3981469244440087
  0.0010665375591498  0.3999846991742663  0.5995814931590889
  0.9997871702349154  0.3997081848209453  0.7993437441587036
  0.0034013073685075  0.6003116752747295  0.0009913972934795
  0.0015729319615061  0.5986632285615163  0.2000931541514744
  0.9996908511017487  0.5994438538993609  0.3995016222930614
  0.9990214256062004  0.5987829263922364  0.5986503752600704
  0.9996414683515326  0.5995073213794118  0.8007658275799039
  0.9988430453350042  0.8022922797605496  0.0001362162586677
  0.0006055391666547  0.7992774836254807  0.2009557582300374
  0.9990391612813785  0.7996412830418748  0.3992172164901629
  0.0022019350123697  0.8005351507586712  0.6000472047126805
  0.9959011817242488  0.8007436907830489  0.8000620924076836
  0.1990088116019602  0.0044862309393355  0.9995625719282923
  0.2020691644415495  0.9988399638563387  0.2006245893610696
  0.2005687896916703  0.0009633737992169  0.4001884867826506
  0.2007955509372349  0.9969890091989086  0.6007225266901763
  0.1995077528278874  0.9989585097148687  0.7994967730651799
  0.1999848310543448  0.1995599364814141  0.4012286591616473
  0.2004672818710128  0.1988890414470663  0.5999546832200091
  0.2007732223158802  0.3904403102517068  0.9998630526304332
  0.1995386490280011  0.4005853164024062  0.2016792523984196
  0.1999508422628146  0.3992522304557820  0.4018724403579482
  0.2001136480178617  0.4051214542207716  0.7990930214431416
  0.2041527757258018  0.6017591918925801  0.1957081350303320
  0.1994211844237555  0.5987269573085359  0.4013071999545341
  0.2009286931205587  0.6025666129037198  0.6049876968544401
  0.1996644279022331  0.8044533323737104  0.9990273034368872
  0.1991863597183313  0.8013295117767250  0.2013721939843555
  0.1990425681165674  0.7996708459763111  0.4043231016613047
  0.2015870162769195  0.7972316472679608  0.7962342425923803
  0.3998738635885201  0.9975335042900451  0.2014742911059369
  0.4010544338831674  0.0018546191025064  0.3977987593426628
  0.4038459950973498  0.0015632098041179  0.5984820599230207
  0.3957525863564638  0.0009892026206678  0.7989913390215287
  0.4006783944031294  0.2020010644906884  0.0009025137882788
  0.4021553785521501  0.2016769964864664  0.2017548483446816
  0.4023909717903703  0.2014576662432808  0.3992694517986546
  0.3996193732963720  0.2009586906044323  0.5993161312211912
  0.4012758728798048  0.2008168565283688  0.7993713376036562
  0.3992004972946378  0.3996173391607075  0.9990000248434620
  0.3967472887147305  0.4066204031108405  0.2026544241458410
  0.4003621130207908  0.3993538095868366  0.4006164147748272
  0.4000825054979131  0.3993843048713754  0.5987621842035850
  0.3994873859345621  0.3998869818225638  0.7972088341713511
  0.3959898479607752  0.5975387747637155  0.0021463412787128
  0.4001062649527202  0.9011092747960783  0.0000082337686920
  0.4000213656563549  0.7972477689153586  0.2020312797981671
  0.4014255653338702  0.8001374101646299  0.4001903223817962
  0.3954364517031572  0.7993689620872417  0.5973537118336139
  0.4032150970272516  0.8033550305425644  0.7981347354447914
  0.6026862078903377  0.0046361096340625  0.9995971555264229
  0.5991403775404793  0.9983576832403583  0.1984071511714575
  0.6010508174954325  0.9996434223119104  0.3986670424402592
  0.6001917932269024  0.1986585642202510  0.1949218687032105
  0.6053415269570830  0.2009747998860568  0.3977122845088583
  0.5999892126964749  0.1953483813290396  0.6041866561421302
  0.6012796552573223  0.2015104930733856  0.8039769175373664
  0.6002542148932578  0.3958342488562228  0.9964907023505647
  0.6005047468417598  0.4003990377800435  0.4034081975084129
  0.5994636516048460  0.3997614457876843  0.6005465505678577
  0.5999583645233888  0.4051957110220532  0.7979421732356804
  0.5980689961719212  0.5980978895202747  0.9960414488287130
  0.5946812836793960  0.6048551700888460  0.1971744346493117
  0.6010326852738618  0.6001239806547285  0.3998271992926731
  0.5995023950093221  0.5994912351632828  0.6021569349312408
  0.6004681734548799  0.8042599807721308  0.9943491989095964
  0.5996774053819800  0.8015174368864436  0.1973919668624100
  0.6015100680611980  0.7995595618783193  0.4007307225874822
  0.5982085617406219  0.8021965629707313  0.6015996249173524
  0.8025471571614675  0.0017057997373078  0.0006260317604845
  0.8018600841083660  0.9988919067352888  0.2009591511162223
  0.8012633140791356  0.0035109913506579  0.3995055450267037
  0.7968973596794025  0.9998650234666473  0.6006405307449741
  0.8079323884294785  0.0009539165167710  0.8000504484312224
  0.7956917432718721  0.2002558017254071  0.0007516614288313
  0.8013296951683581  0.1963812853340995  0.2044043875624584
  0.8009740646835857  0.2003213030766730  0.5969616223209462
  0.8009328235276429  0.2005126815152464  0.7994648158965976
  0.8021579803440145  0.3994515997699727  0.9968709944831115
  0.8000975010572382  0.3956302672544019  0.4068776976632782
  0.8006607193481758  0.3990537775710428  0.6020104815622609
  0.8009519733960581  0.6006083782705827  0.9999143176373082
  0.7979094081638399  0.6072131447626552  0.1992296730301181
  0.7989532429306574  0.5989088827524184  0.3998954714206749
  0.8006022835126507  0.6000744806538689  0.5990597562841912
  0.8004962007298263  0.5995091778527040  0.8001504691393783
  0.8001620548314241  0.8008026221656143  0.0007130140997872
  0.8003122795684994  0.8023884520428071  0.2002165126827734
  0.8002696434460013  0.8005310128675532  0.4007663596979447
  0.8024497939806726  0.7994523600723034  0.5984772696310945
  0.7973682468237948  0.8010322024009422  0.7994580931972998
  0.0019602055880346  0.0002915952492054  0.2008131037590990
  0.0004894525310882  0.0001396895587606  0.4001817405954580
  0.0008460145664888  0.2011551043097375  0.8005619108727265
  0.2015463008605143  0.1994716194225637  0.2017824869251605
  0.2003211984246822  0.2011667091763963  0.7996105969578639
  0.2004934339944290  0.4004623683191319  0.6003937059565853
  0.4002895112326811  0.5996093000615528  0.3997413336666784
  0.4003754745763374  0.5998280690256567  0.5995801326241922
  0.3993683824684344  0.6004281214415726  0.8000311324911504
  0.8018612702219894  0.3998330820693451  0.7991672328034476
  0.0070021231339599  0.4028594339697350  0.2014992794237978
  0.2036624499386836  0.1976021988976822  0.0012164533081298
  0.2002369344454125  0.6080365072450437  0.9970912058569522
  0.1935828514068753  0.6016567838927573  0.8055734842893922
  0.2000257481109292  0.8003588290809193  0.6002910517467680
  0.3986678692581161  0.6021054138080566  0.1957050124478183
  0.5992094279278343  0.9991279682950929  0.5896984237283457
  0.5986123769424255  0.1992625456276252  0.9979961910424977
  0.6043533131918482  0.6013741064996423  0.7998143879356334
  0.5991729355570667  0.7865087125451284  0.7987978189345487
  0.8001818119231340  0.1997108166716368  0.4005020889185437
