Zr V  Cr W 
 1.0000000000000000
    15.4863295998759050    0.0024137293282322    0.0105674120120943
     0.0024156779473548   15.5040449564505511   -0.0174543962439357
     0.0105707746262879   -0.0174578174046017   15.4782021514271442
 Zr  V   Cr  W  
  10 107   6   1
Direct
  0.0005297108411366  0.9697007805510013  0.7580108688112480
  0.9980320294084816  0.1995319832882672  0.6092159580307408
  0.0002383108813504  0.4334714877795484  0.0398116776739571
  0.0012061097743552  0.5796431952946139  0.2195158065261862
  0.9608046624651188  0.7939149198546913  0.1932453254180548
  0.0012988661772944  0.7981021247846234  0.5984225876440422
  0.1982893059421034  0.5904171058510368  0.5966772121868983
  0.3584997444074645  0.8034558511723529  0.1992839820494400
  0.8384307210096102  0.4295397881836497  0.3993030594132832
  0.7502226230661649  0.7915921596286696  0.1982720521610069
  0.0008674897264605  0.0063847728633220  0.9990612502104158
  0.0032438924292715  0.9990034778085096  0.3931806511540313
  0.0007157539937860  0.0022736508631599  0.5712177603037208
  0.0009307046721838  0.2001714396880375  0.2019830058259232
  0.0014166401759659  0.2012564906511416  0.4007234767459093
  0.0008404074382526  0.2052053751330520  0.8099942900904736
  0.0036398621935574  0.3873542817704161  0.2321981551849352
  0.0292476685767892  0.4001852980998204  0.4088444775118152
  0.9953372853094266  0.4032728917758118  0.5999388892550513
  0.0009664892412047  0.3978187721936338  0.8016868408233117
  0.0007165709998436  0.6233993929344306  0.0117966658426190
  0.0057941762406477  0.6079461581003869  0.4172922878072798
  0.9940473045224046  0.5972907298424639  0.6087246228969972
  0.9990344586292041  0.5928119384252362  0.8087209712462186
  0.0011792192348248  0.8122005203309125  0.9922959744167468
  0.0021066997134329  0.8010728081054758  0.3948979148505201
  0.0002829414554635  0.7825139101213241  0.8040002929185083
  0.1996608978670169  0.0025778680800281  0.9973658009607859
  0.2002705342180814  0.0020408741798776  0.1984459738613918
  0.2021727508257395  0.9993485074861149  0.3972999185350529
  0.2011167850283785  0.9990618680786345  0.5978741702031113
  0.2030342522675765  0.0000776457012235  0.7994164168452775
  0.2016679150551656  0.2008202238330510  0.0009886980088215
  0.2016935704352774  0.2012606809138116  0.2001068855927521
  0.2019476673181337  0.1973826220496618  0.4006126331012345
  0.2015350749831844  0.1994363318448410  0.8016932697268817
  0.2034840505055086  0.4006563051669478  0.0004380301729683
  0.1993537079228038  0.4002396519202892  0.1977711861872511
  0.2037446574601039  0.3990389255831972  0.5016431237329891
  0.1998026152181834  0.3999239225194232  0.8034621419831242
  0.2007799779605550  0.6023753212504684  0.0011585110368569
  0.2058966585552027  0.6007974866329724  0.1986388169702013
  0.2002383773980574  0.6022561821460071  0.3926419903391590
  0.1999704934568690  0.5999821083518911  0.8051392602125313
  0.1993735244944780  0.8028074607354507  0.9996563161683790
  0.1715044365151774  0.7975397396211462  0.1967830087984054
  0.1992037463469138  0.8002286321417219  0.3973607445795511
  0.2065647873022726  0.7989488032762114  0.5988212715661274
  0.1994248745198765  0.7996332969577941  0.7989549149064147
  0.4014980262439529  0.0006365734944795  0.9983410426055797
  0.4021591130418285  0.0042324905460038  0.1981197645189201
  0.4007870216938048  0.9987765063268851  0.3987205757323505
  0.4022386069989704  0.0003393806769394  0.5983789054758802
  0.4003468877831939  0.9993591624415903  0.7970391300430111
  0.4013490072057833  0.2002550461979350  0.9990476780157621
  0.4012713788850623  0.2007947349251754  0.1999539136585450
  0.3999246283424567  0.1998449208050183  0.3998452951450379
  0.4020695405824619  0.1998367932308820  0.5992529771135570
  0.4009318555291982  0.4002451517259647  0.9998804173336836
  0.3995228886294068  0.3981405723772679  0.2005014998501829
  0.4019976520856952  0.3988906506572847  0.4010847605033485
  0.4008390003937389  0.3995943270536261  0.6000141912094328
  0.4005891785240522  0.3998027656109775  0.7991721767163995
  0.4021886139069135  0.6009194064170973  0.9999817126030679
  0.4035892269538979  0.5942978986452978  0.2003530366000210
  0.4001878504847272  0.6001838746790773  0.4003917972932298
  0.4054514506590595  0.5990545745908200  0.5995248588547805
  0.4009299012522068  0.6002687186074498  0.8007702855729341
  0.3993067888043828  0.8011433282792950  0.9947691121406138
  0.4007949811805748  0.7999828487946751  0.4025989925698764
  0.4011965307743015  0.7999999878780985  0.6002749147205244
  0.4002443554256856  0.7990024736701276  0.7987746337267080
  0.6007185052284775  0.9993599136526766  0.9986475866448956
  0.6010669394090791  0.9964242143379096  0.1987259752994414
  0.6007807686826353  0.9978906013733734  0.3977911702089546
  0.6008974132710664  0.9991101594457635  0.5970889732903233
  0.6006208235193891  0.9979248907807040  0.7977907092800873
  0.5996660726967489  0.1986969542043196  0.9998782854608338
  0.6015727035385569  0.2006279212690688  0.1989927768691221
  0.6000179170781317  0.1987066731476687  0.5993672180162053
  0.6004493299118027  0.1996528566958294  0.8000736175936917
  0.6007606177875230  0.3990079218293280  0.9994445463541215
  0.6029994950471298  0.4004275549394521  0.1999731293148611
  0.6026080946448934  0.3992555459440846  0.3984271998467658
  0.6013034530505358  0.3994213625176221  0.5982842261304980
  0.5999094230710602  0.4000931308691565  0.7995617934778573
  0.6022972857958602  0.6000684645089698  0.0039195268587027
  0.6037795731056091  0.5995955400755301  0.3960049578384923
  0.6017455557974299  0.5995177731901610  0.5971515761578783
  0.6020943613588443  0.5997019653925583  0.8018802122933091
  0.6007664266508772  0.8005460044861890  0.9981164922654534
  0.5642193137274411  0.7902413852920597  0.1988916513450867
  0.5995579343259820  0.7996592537207247  0.3985756977745968
  0.6008209456466924  0.7993231916362336  0.5986236534615571
  0.5997883057488266  0.7981830709829741  0.7985804040926469
  0.8015719070706009  0.0014453962112466  0.9970394299328030
  0.8016008478639967  0.9977595074366002  0.1982312558239207
  0.8000638314868562  0.0005201992908244  0.3981243427733530
  0.8020747103652429  0.9999494973978468  0.5989319141802015
  0.7981846594779604  0.9999545680319439  0.7989296522254340
  0.7996465461991822  0.2003944028870451  0.9997647645535206
  0.7996111702568457  0.1997037260928736  0.1991409124534058
  0.7995661486197203  0.1966316647483110  0.3987278861405726
  0.7944436796048419  0.2010905430242275  0.5997627111126116
  0.8001943340157577  0.1990864736564312  0.8015064533016474
  0.8051370649936935  0.3984860796614907  0.1953094672450398
  0.7979285099998992  0.3998119233113100  0.6011960124943234
  0.7997846000870801  0.4000880563280438  0.8007941490865388
  0.8030373386539471  0.6009943831063058  0.0002572360891374
  0.7930491872924260  0.5946015766834256  0.2070626763091303
  0.8024793477670983  0.6167568514783944  0.4029260391146370
  0.7981986085524340  0.5999792666990049  0.6003420432990061
  0.8007309154697205  0.5991569171987676  0.8023283629917144
  0.8021904219695823  0.8024525144304508  0.9970687658585308
  0.8059715818589968  0.8057793505536832  0.4008392785919137
  0.7950809087217564  0.8001076111774226  0.6004895717305447
  0.8004025354907518  0.7988158666754355  0.7987379396023278
  0.0003366978205383  0.0041889717789168  0.1972397141315183
  0.0007824069368988  0.2011792462199003  0.0038668874497017
  0.2047590780456571  0.2017612200855944  0.6009344929846080
  0.4013384988366115  0.1998629675169357  0.7995094926832120
  0.5999999966098620  0.1986531359426710  0.3985058240326109
  0.7981225469955141  0.3996924373945206  0.9984473864917547
  0.6009277266767199  0.5975844902860507  0.1992732198438649
