Zr Ti V  W 
 1.0000000000000000
    15.3704372863088707    0.0041087699184726    0.0045828320708022
     0.0041071823098185   15.3593176205705255    0.0049868964281650
     0.0045832368054306    0.0049883200619353   15.3853693029952101
 Zr  Ti  V   W  
   2   2 106  14
Direct
  0.1991395125440421  0.9885923210455855  0.1815394279442641
  0.7921041457461788  0.4010668811879462  0.8102952716924645
  0.3842715724671149  0.7998772889731192  0.8040678217698410
  0.6141313571916841  0.3999361309004211  0.9893260540322729
  0.0021096944491628  0.9973406345477286  0.0022464904632342
  0.9921577122451239  0.0032482236890823  0.2016262523145183
  0.9997738197717913  0.9963457880188635  0.4002961105641055
  0.9936352193625253  0.0009697346179940  0.6018446120322978
  0.0018652739164107  0.9992977325003630  0.8005384077021602
  0.0004894863924891  0.1991489711550302  0.0006459430928585
  0.0004981700637982  0.2032192524016877  0.2024406424443486
  0.0010040371675570  0.1999380651811184  0.4006592705102781
  0.0029353082932340  0.2009041793925808  0.5986388457495260
  0.9984849232248242  0.2017110963995451  0.8013082409799532
  0.0048847671414469  0.3985453472300227  0.0063550393389656
  0.9990997437932080  0.4008805166351561  0.3964676385748003
  0.9978223638128867  0.4006453364247631  0.5995896312399158
  0.9989659887753777  0.4011616481055189  0.8030063135066750
  0.9996108728236676  0.6041570815005105  0.0011189423789884
  0.0038315150918777  0.5964074041218287  0.2010477071083203
  0.0001495466865231  0.6028491650479223  0.4020536530055191
  0.9989200717024665  0.5998693016822109  0.6018799844490436
  0.0027024021126363  0.6012175960936242  0.8003628694609929
  0.0066548334112188  0.8023540996873882  0.2022366551330157
  0.0005076448042691  0.8001348756871719  0.5964512210241649
  0.9983401148983283  0.8001504613500616  0.8042394808622458
  0.2005895212610305  0.0024807116820485  0.9843964696779700
  0.1982325302591521  0.0000014965899700  0.4074448466558711
  0.1983934791538839  0.0033074867457026  0.6049262428484670
  0.2009757015632756  0.2018943266075672  0.9987081554225070
  0.2012093987000238  0.2003585289466906  0.2007897479676700
  0.2027660181537730  0.1995791443079599  0.4035982115352506
  0.2007093576541934  0.1991111945029133  0.7948639405622041
  0.1968413451553690  0.4039372251618571  0.1961408174301553
  0.1995207449185987  0.4018932310605988  0.3993033086498423
  0.1980930657970384  0.3965625111763520  0.6013744216408300
  0.1974977277825225  0.4029008938685207  0.8044187844431916
  0.2013634373497051  0.5935018872916219  0.9957060615262524
  0.2011597305653432  0.5986511592797380  0.4076258422368135
  0.1995257407473255  0.5994347213231674  0.6061349967252795
  0.1948333419808247  0.8005482508976886  0.3974988123329025
  0.1993055031646782  0.8015026994957766  0.5973156222635591
  0.1975530568665233  0.7988002648255260  0.8993272489941910
  0.3996349018364692  0.9997753690349510  0.0009764185495300
  0.4056060138011752  0.9966373398131368  0.2003343819077774
  0.3999675422207301  0.0031680053567588  0.3997029570280021
  0.4028923442387771  0.9993882599805631  0.5999614610279834
  0.3982991744963594  0.0020807665836172  0.7998525683520803
  0.4016617796436996  0.2000189173651320  0.0022588585945768
  0.3999942170538802  0.1983110155140145  0.2044342392706024
  0.3963378666812591  0.2003880415111804  0.5948207939662701
  0.4003705223135228  0.2006923197685055  0.7992275080328280
  0.3962032289752628  0.3973680217678352  0.0010366135727156
  0.4028464780265843  0.4008994591258009  0.1986461447241237
  0.3999908347660751  0.3969924711151200  0.3970889751623530
  0.3989474608911144  0.4001892459369632  0.5980831220453690
  0.3971053968477985  0.3995313871535539  0.8001039159698576
  0.4032922509562071  0.5994459144632005  0.9999780464690831
  0.3988950556917644  0.6025770575730182  0.2010823777110854
  0.3999559973782129  0.5992586915726265  0.4008034980760007
  0.4001859664001693  0.6003575444655226  0.5994703091179608
  0.3965507242371500  0.5992551356394141  0.8001250054091474
  0.4033503467566256  0.7999023670165311  0.0067738524491610
  0.4005946470090477  0.8018027582259439  0.3945098917482964
  0.3982218763977927  0.8015392680301768  0.5930136858622126
  0.6013292433004629  0.0001305769202218  0.9976416265422161
  0.6033703862408710  0.9997716366899387  0.1981358746242423
  0.5995373173848337  0.0004236480651623  0.4012011657808214
  0.6025062538626980  0.0011222475542932  0.6023474988649603
  0.5979104532527534  0.9989767151247981  0.8012559452793292
  0.5996920459367228  0.1982806778052023  0.9990550169206937
  0.5989728104298583  0.2021595827282922  0.1987959746059431
  0.5951192552726292  0.2011155860556842  0.4009710470070473
  0.5982058934349789  0.2010251531574014  0.6010177396145755
  0.5969859364565983  0.2015379695006340  0.7998967951964320
  0.6030886012391844  0.4010115610089336  0.1992197946020045
  0.6012070834825499  0.4009838061010043  0.3986911419731682
  0.5999312351028954  0.4005053785844478  0.5993493876424543
  0.5901910631249354  0.4007645627899828  0.7947639890977103
  0.6015798942393282  0.6006732967540009  0.9987956694358869
  0.5989257412602272  0.5986196778480871  0.1984514025129160
  0.5996715135095652  0.5989703319480914  0.4021437923069023
  0.5988430852613521  0.5999226130935080  0.6022086061616460
  0.5959154495041689  0.6012448571758126  0.8003457062112967
  0.6007490807210935  0.7993278883590360  0.9994507601908749
  0.5950202460902094  0.7988426696703549  0.1998323308045730
  0.6020178482546752  0.7985117085159315  0.3993119493426177
  0.5981253766179764  0.7996396317122366  0.6008883807589410
  0.6019876989232171  0.7994971131446561  0.8007677883541865
  0.7998722901961736  0.0001396533922258  0.0047253842153872
  0.7981203015275254  0.9969819481250423  0.4011769737230132
  0.7998779912448819  0.9997009197846279  0.7978051560913025
  0.8004706792576364  0.1991534714437527  0.0012836726031340
  0.7984811232480853  0.1966814284224920  0.2029491495498940
  0.7985110467649325  0.1986401202352408  0.4016519842639618
  0.7992063153426340  0.1966427533111254  0.6000687653604306
  0.7992668341904865  0.1954203541750646  0.8005839697830914
  0.8088032880171755  0.3992076805003139  0.0110573432909069
  0.8046766887460828  0.3999363068599143  0.2047570614878697
  0.8001264507102680  0.4001804578997708  0.4017809140481315
  0.7995180880072732  0.3986268728495710  0.5993047555264300
  0.8001605760634807  0.6002559582389366  0.0014473568731769
  0.7993231604862274  0.6014005101341734  0.2014548266116969
  0.7985082710046755  0.6045882404375191  0.4015771734597095
  0.7986962828423348  0.6002936269652469  0.6030021971646771
  0.7997131591601536  0.6060311677366168  0.8000469120996512
  0.8049753896851599  0.8010035188437687  0.0039146561600421
  0.7965299554202618  0.8039534600225243  0.2050195038660713
  0.7994753238530028  0.8052808723562663  0.5959118841750236
  0.7998651643745635  0.8016273616428015  0.8000156198936977
  0.0009993498778043  0.4012355193196163  0.2019993288336371
  0.9961247203467817  0.7987229213718947  0.0015101769509505
  0.9966104484683178  0.7981175439150173  0.3992718120212960
  0.2001642298559111  0.0032249314857813  0.7976438573403700
  0.1997088471370049  0.2014370199541253  0.6005131245267942
  0.2005290445982041  0.3985580131933967  0.9994966451495972
  0.2031920418951369  0.5994910010898888  0.1916654686858721
  0.2009500285563224  0.5979502262398098  0.8004673771173673
  0.2026409948588458  0.7869760906505539  0.2031168744454660
  0.3992124350133889  0.2001034534204502  0.3991881508191412
  0.3954704785181049  0.8015005922251700  0.2010793458489819
  0.7973998023495281  0.0015244179152182  0.2018730782577626
  0.7984868065125438  0.0009496654691352  0.6007362752628087
  0.8026086997255066  0.8007028158814757  0.3998468178484889
