Zr Ti V  Cr W 
 1.0000000000000000
    12.5620530844357639    0.0042828196081854   -4.4249089714387679
    -6.2863130530316393   10.8637568879687283   -4.4503436415992050
     0.0170934897319561   -0.0014098097823287   13.3232047604993262
 Zr  Ti  V   Cr  W  
  10   9  91   5   9
Direct
  0.0036581301300366  0.0131414921396736  0.2031060855679059
  0.0371825455740440  0.2306709202364436  0.8315682436269993
  0.1971540211790620  0.3938403117573024  0.3926959752748862
  0.3694841975446342  0.9923714959680038  0.5818483392003054
  0.3991464216550039  0.9952615221834517  0.8027621415958618
  0.4005273260053420  0.6011722127166760  0.3624892144744389
  0.5931503302743781  0.9925308280598161  0.0071645530489073
  0.5993188054061261  0.0002394355045321  0.6007911313589286
  0.6019374363612767  0.4115640091260392  0.2033613275706424
  0.8031699243619896  0.8116322603036368  0.8084113079966467
  0.9892014080311761  0.5909038668527224  0.1940551551518256
  0.9992788122580999  0.8003066339380900  0.1989540819412037
  0.9963921097060527  0.8000861909059968  0.4037813983427682
  0.4021260867214480  0.2007801542364297  0.2011149575877396
  0.6077971572087921  0.2220276944579144  0.0257457856681984
  0.6018780553813463  0.2074408910769784  0.8068226859831119
  0.5480056952439633  0.6085568855982819  0.1959850773948964
  0.8105950402563047  0.2071501124773804  0.2129147314493077
  0.7900004428247990  0.6014206385602523  0.9975478809556710
  0.0235785269940587  0.0122572120814524  0.0052071722441097
  0.0015416474706924  0.0099885851510514  0.4109262335081195
  0.0054535507344386  0.0053985095584745  0.6029992924115548
  0.0131159670785948  0.0002050577428749  0.8064304127160945
  0.9981372452659231  0.1964825100426108  0.0112377978917233
  0.0006672943190980  0.2057583702379669  0.4067507577743027
  0.0081564985874564  0.2107755121596241  0.6005322609651642
  0.0007663540603706  0.4081201211424006  0.0082134751542069
  0.9989247212472706  0.4059408098187061  0.4113320767963572
  0.0031539153147599  0.4008009773445378  0.6034051277951582
  0.0053418944170675  0.4106278904265979  0.8010401289786387
  0.0019282990633452  0.6033319218966892  0.9997302628466903
  0.9965073643396879  0.5966161134675423  0.4064950157402865
  0.9996861538444307  0.5971610389839885  0.6017149411303760
  0.0038030449931187  0.8003108471777434  0.9979397977198232
  0.0001556761696844  0.7992665481897084  0.6068911473934185
  0.0095491133395526  0.8005228567730935  0.8012647543739635
  0.2006722359193009  0.9941504816004867  0.9986125879664107
  0.2064762998963518  0.9955153583317524  0.2001233586724561
  0.1981091763820010  0.0057868996710172  0.3998954012047762
  0.1854248504924175  0.0067791096971946  0.6036790478645552
  0.1949930525574968  0.9969532605768523  0.8008238928812853
  0.2132727144113314  0.2037200929962315  0.0092836252681289
  0.2059132091457357  0.2013713038450422  0.2005052927766041
  0.2153609799733609  0.2062841744319884  0.4170672191048885
  0.1996036887890307  0.2070160669013787  0.6006675113864114
  0.2145678162941226  0.2027954981036524  0.7970051405196679
  0.1765163724022415  0.3843317662272359  0.1703469790066980
  0.1993451998967941  0.4001821796653681  0.6045020834646041
  0.2062178481083900  0.4092010618226051  0.8014968440946824
  0.1984977054330432  0.6006491360598974  0.9948228526616111
  0.1942032199872734  0.6023816601614344  0.1919805601857275
  0.1986831185623550  0.5967129301361875  0.5982277749823610
  0.1991594314727945  0.5966058680577442  0.7968774214046228
  0.1996033682904875  0.7921222751446961  0.9984266371114388
  0.1972338163200442  0.7935890175152831  0.1924661870269685
  0.1893685725390298  0.7876435681693704  0.3837925951160782
  0.1863274117894783  0.7861501058142968  0.5923314673428275
  0.1995436689010273  0.7947895216090077  0.7987988697040598
  0.3888665426267846  0.9947504493769126  0.0102186268908817
  0.3966655970832720  0.9980844997744390  0.3895707470325816
  0.3882474136102585  0.1961578629368541  0.9922890237651789
  0.3994405532551233  0.1968990071620371  0.4036712134792133
  0.4013421542821390  0.2188841409634703  0.6023590398313940
  0.3970838807763596  0.2130004403191362  0.8024739966743970
  0.3939641342264840  0.3969925109960062  0.9873619896886306
  0.3892662903237516  0.3972684661373637  0.1954734819962908
  0.4074714152495295  0.3915499045258196  0.3996744588746921
  0.3962310202561499  0.4040317432194138  0.7922792657847861
  0.2636179492142847  0.4709066530660715  0.0538990810292855
  0.4038090454052443  0.5982649463348990  0.6044888587109668
  0.3935052592412813  0.5950253219199995  0.7965168846089824
  0.3934933241311083  0.7845813871775112  0.0002600818803404
  0.4045211311090620  0.7679674356483154  0.2004825995553577
  0.3902942219551864  0.8042057066091308  0.3921126621943871
  0.3938077947274317  0.7832424412372335  0.5938168935516662
  0.3838778890706172  0.7754003280605596  0.7869285399079718
  0.6001677198830113  0.9889278541416663  0.2129116034855498
  0.6071113139230769  0.0038974070359491  0.3997476958493780
  0.6201287307230812  0.9893591146058838  0.8085816407485324
  0.6055263812763524  0.1967304361883457  0.2203352689043540
  0.6054740675193195  0.2005840074638728  0.4075972115991762
  0.6035977201752064  0.2146908860833006  0.5985933300851107
  0.5998106057790026  0.4131462631480730  0.9915688581750518
  0.5983092778504202  0.4032763957637790  0.6015945672399657
  0.5930562439718340  0.4035193358750561  0.7971137589945643
  0.5856701931003647  0.6006929661391360  0.9968478828184110
  0.6153106163086354  0.6095826488147867  0.4144713267761903
  0.5922498378231772  0.5966874378231271  0.5945205122009172
  0.5916828973309954  0.5985251970037549  0.7953629699866696
  0.5876713340480367  0.7843446899692643  0.9999124275515500
  0.6097902799987314  0.8123152686073803  0.4041187814549956
  0.6052819836092702  0.7962787421780991  0.6021981472953323
  0.5850369872996611  0.7893920926445501  0.7949648904577550
  0.8073707936311983  0.0133256823983888  0.0104460714125805
  0.7933223350238964  0.9964118578007711  0.2073044555335541
  0.8068080944802789  0.0075828224480955  0.4085363096670938
  0.8124823012909809  0.0148611931024066  0.8062233784175592
  0.8003310348569167  0.2054993739401435  0.0022774379933697
  0.8056931812710137  0.2029016616082610  0.4121796839874490
  0.8095387795174819  0.2077044220187723  0.6058518138221285
  0.7935950522685030  0.4010912012906651  0.0019313601686642
  0.8211700521905108  0.4156676153977651  0.2142164309029393
  0.8054198123861083  0.4010354698318085  0.4090538230960411
  0.8038661967781702  0.3992434056742438  0.6012062380173531
  0.7895328482602010  0.6027577018770760  0.2021206689858916
  0.8124368427106123  0.6112594996550469  0.4158624771654382
  0.8014608552745892  0.6019710193257797  0.6021048836147458
  0.7830613276989176  0.8020680981606453  0.0052702999810634
  0.7973870290259069  0.8026898720092333  0.4040074504713611
  0.8060261680047905  0.8055371955179566  0.5982784452295241
  0.9939595683268641  0.2073709931653316  0.1903849454815895
  0.9935243085419362  0.3939223143041743  0.1968279739315111
  0.4001118294129628  0.4010033635124284  0.5992784641480700
  0.3944918653491395  0.5983654639720281  0.9914059320941944
  0.5969850064685538  0.8043201050026146  0.2009919259259433
  0.0016147717806595  0.6004112370150022  0.7991240301356982
  0.1905268567546961  0.5999106843035718  0.3918992532122652
  0.4009681795993963  0.9903292112203903  0.2011060218459719
  0.6073290284453421  0.4018392740153039  0.4109784857358860
  0.8136643231773064  0.0067917857329873  0.6040496678512399
  0.8105531554359480  0.2113953277837316  0.8117031168193685
  0.7989769554504811  0.4040076135365434  0.8022527027293865
  0.7977488582715075  0.6009491001710465  0.7981842264962874
  0.7912954176043593  0.8013697852398174  0.2039728568316441
