Zr Ti V  W 
 1.0000000000000000
    15.3704372863088707    0.0041087699184726    0.0045828320708022
     0.0041071823098185   15.3593176205705255    0.0049868964281650
     0.0045832368054306    0.0049883200619353   15.3853693029952101
 Zr  Ti  V   W  
   1   2 107  14
Direct
  0.7917008545738461  0.4017261011789809  0.8102054506449755
  0.4094481674394799  0.7982637140949765  0.8030889915956690
  0.6127102057000835  0.4007407860594603  0.9886518895245405
  0.9999043477848553  0.9981492821841464  0.9967345280454779
  0.2021591667951327  0.9945667607016957  0.1965861114933020
  0.9991752779094569  0.9973310752226928  0.4041193890530003
  0.9951320417829370  0.0000470964959156  0.6014950394950951
  0.0033996497669748  0.9985160658392209  0.8006150224690931
  0.9997317064328006  0.1978773494530733  0.0023321336500965
  0.0001387050324650  0.2048546924367650  0.2020161207605468
  0.0000447214414965  0.1977252893312944  0.3990986220423269
  0.0028373453313968  0.2012413347417438  0.5993466481085353
  0.9994149501819571  0.2015377660664194  0.8009301574100987
  0.0040949563053305  0.3999919116362537  0.0056987185274518
  0.9983779459034697  0.4017523604377418  0.3975207750681586
  0.9977328963378096  0.4001560387067111  0.5997599615133098
  0.9997482687016312  0.4009980406073601  0.8031059210096981
  0.9984173248692120  0.6053964464728764  0.0000778439684836
  0.0045817993857731  0.5954833865150824  0.2007431218801432
  0.9994256494646044  0.6030827667129876  0.4027826734179520
  0.9996386010971529  0.5997162713201479  0.6016104456496367
  0.0027177053123761  0.6010426014803152  0.8002754615378955
  0.0051392903098406  0.7926538095130718  0.2012613900040044
  0.9991877371371873  0.7991381046434094  0.5940354022483814
  0.9997665625665693  0.7991707677073757  0.8065317758687842
  0.1995856948954593  0.0008612132464377  0.9952069604566574
  0.1965858937892317  0.9989710369450845  0.3989800826635489
  0.1990811459876434  0.0026676204087945  0.6053927920440693
  0.2007334184112691  0.2033053358114172  0.9983950993530313
  0.1992256901971158  0.1950000270515291  0.1998161924916618
  0.2024791191312578  0.1994750206813606  0.4033889706809853
  0.2007256797136746  0.1953454668698700  0.7962172108803953
  0.1971026800216318  0.4049589354222783  0.1950247500317500
  0.1992051647967642  0.4005099402869800  0.3989081234020718
  0.1979895516450288  0.3963007615377031  0.6012058767528969
  0.1979685819253875  0.4049055057550133  0.8044838157408692
  0.2010211453809569  0.5962301739822096  0.9961973422172595
  0.2011958387174940  0.5989244498210620  0.3999386705515043
  0.1997131998319344  0.5988266925176442  0.6048380361363992
  0.1967180874253133  0.7994939071822345  0.0025799600165175
  0.1966793713319623  0.8002488270345712  0.3976765157100747
  0.1997684356251447  0.8006855037123989  0.5989363599543298
  0.1990151582165433  0.7993180533037129  0.8005678092748360
  0.4013747244577041  0.0008640549293723  0.9987931074362055
  0.3997450447622349  0.9956405191142690  0.1987093746997481
  0.4016327890350494  0.0027310753594965  0.3997915002573056
  0.4002228471931371  0.9985992997957400  0.5990165162224608
  0.3969412767522741  0.0007846440829298  0.7999388219818282
  0.4013264655135586  0.2003476626158096  0.0020708778053228
  0.3985864213667754  0.1978432511131578  0.2034802789425611
  0.3961593382133616  0.2004089881083445  0.5949170820873947
  0.3999547623577059  0.2004541179554172  0.7983717635524481
  0.3960787481571031  0.3980290969742666  0.0001339704760200
  0.4011218355865249  0.4001044726529609  0.1980783942757626
  0.4002176940505150  0.3967446859838496  0.3976154240577625
  0.3991317844397642  0.3999535102380438  0.5980516434412536
  0.3965506337577054  0.3992270629942662  0.7996074746830836
  0.4020987364636329  0.5990480128958023  0.9992637348630106
  0.3972040617515661  0.6032567880790938  0.2005972574679055
  0.4005549525887367  0.5984508627666960  0.4006420685870341
  0.3984653150556182  0.5998600758108690  0.5986649693668010
  0.3957693328712847  0.5993799204159130  0.7997159401250167
  0.4024396235987517  0.8011377221430108  0.0065674339012380
  0.4011571805685513  0.8018710457597571  0.3965205323298919
  0.4003381381274224  0.8006695548238610  0.5937684603379572
  0.6010666218033408  0.0004586238811639  0.9970771341165180
  0.6026360433764211  0.9993354304914356  0.1980540202879799
  0.5993910063823785  0.0003839172724007  0.4013845602623989
  0.6017420524165515  0.0007907754332764  0.6025520080558496
  0.5974943484528784  0.9990728342142277  0.8004799388240126
  0.5996299252671335  0.1990691892209518  0.9990472082734837
  0.5977131474817927  0.2021031215519808  0.1985529842472598
  0.5949802896434577  0.2012894350571349  0.4006889778033819
  0.5978016655838955  0.2008709635362835  0.6007775476478185
  0.5965574957204897  0.2012354349431259  0.7998492801306546
  0.6016515654656275  0.4013186701016407  0.1990359275826103
  0.6008784088966916  0.4011593921637205  0.3985428722908932
  0.5997001887442491  0.4006979298298264  0.5992344904827284
  0.5897758982567128  0.4011031913773905  0.7945108551923687
  0.6004088581789015  0.6012478346905147  0.9983084519338772
  0.5976606764418378  0.5985250022980888  0.1979218080093555
  0.5993115187865805  0.5993028342617575  0.4019431079888333
  0.5983580840391727  0.6001044816427538  0.6019361198472198
  0.5953488308507658  0.6009762361993845  0.8000532896084718
  0.6024395622167696  0.7995683776932057  0.0002178183189239
  0.5952010196950349  0.7983250633782647  0.1997230796324015
  0.6033662979870573  0.7987597034104459  0.3986089796022073
  0.5994720614020832  0.7995384193326979  0.5997185998304531
  0.6026786144247840  0.7995581191353295  0.8006449039125391
  0.8007041732384673  0.0008832000289778  0.0032868605340563
  0.7987534040761396  0.9979862578740784  0.4025553338740367
  0.7990761430164776  0.9994096343852674  0.7965598012312657
  0.7994773246191946  0.2002599484349733  0.0013734718722349
  0.7988828246322938  0.1976038708942075  0.2026978920040413
  0.7973218543643025  0.1993602718229219  0.4013845494139519
  0.7994274148952897  0.1967227176892969  0.6000448983524386
  0.7998418031609338  0.1957102746484529  0.8008966308110217
  0.8080643564002981  0.4003649191065961  0.0105772338337726
  0.8038080259562453  0.4014705436812978  0.2046730156228311
  0.7997280990983946  0.4001783602235202  0.4020276972712463
  0.7992489967552109  0.3990485959088934  0.5995642399836268
  0.7995785498210179  0.6016403570097115  0.0012057511762347
  0.7977808119763855  0.6002188451059536  0.2014705893160356
  0.7980291403833060  0.6051689577609550  0.4019592750484724
  0.7984998087003130  0.6001666598900404  0.6030296055155865
  0.7991331725319576  0.6064267640778827  0.7994830855409231
  0.8036152420139465  0.8017499015719219  0.0032677232276572
  0.8008537635864027  0.8019226484080386  0.2046048364860059
  0.7996659166947971  0.8045395458319730  0.5962109510246341
  0.8007000899851352  0.8017005479583468  0.8002505025466966
  0.0014407620451018  0.4004258749883696  0.2021530522405859
  0.9985712567921772  0.8021619824371913  0.0066839988148831
  0.9980196789507312  0.8003316863648875  0.3964599070700918
  0.2006290618604329  0.9978034365988002  0.7988814841935613
  0.1990559277084674  0.1999116508008992  0.6002812183900583
  0.1998921883102158  0.3997198474380814  0.9996405222336848
  0.2026701901528057  0.6012077662726321  0.1979715205133276
  0.2006745090910279  0.6012770388891369  0.7998566328371147
  0.2022067764167984  0.7930227429989447  0.1992233428866944
  0.3987837415840531  0.1994102051781883  0.3985129885098026
  0.3969227485633962  0.7996650289924661  0.2017584731526712
  0.7931602918402100  0.0007968065126334  0.2020953867769076
  0.7984666403842496  0.0006091966613414  0.6017945995200606
  0.8028153507104210  0.8016452632422122  0.3994420572220843
