Zr Ti V  Cr W 
 1.0000000000000000
    15.5025012111675391   -0.0012340279220979    0.0009674179831964
    -0.0012333392680093   15.5032162688686519   -0.0125459656457846
     0.0009693510165960   -0.0125545265931211   15.4792246816365271
 Zr  Ti  V   Cr  W  
   7   3 108   1   5
Direct
  0.2027481208213331  0.9943537617651413  0.1995253176498926
  0.2003986833672168  0.4016173062917385  0.8009125555622265
  0.1808706173123699  0.8123558946737102  0.4206015142992207
  0.4241916132584077  0.4030394281141321  0.8004808265404846
  0.6021536083843584  0.1842039392413918  0.9992721230784694
  0.5855666429575224  0.8019782357695793  0.3977006454053525
  0.7964325621743928  0.1992959063761433  0.5983404633794579
  0.0060897215413868  0.8013148943397900  0.5956117388976221
  0.1810810208662832  0.9810107425960031  0.5988051923200159
  0.4140078947399933  0.7885495564264194  0.2170670829679150
  0.0000042763187229  0.9991590261708105  0.0011556320293118
  0.9964761706058002  0.0008821299060649  0.1986517649029742
  0.9986171051628002  0.0023030001054269  0.3958840825786660
  0.9995435677444143  0.0018656947801807  0.6633785591231121
  0.0019168446099179  0.1982202565101116  0.9974331076217701
  0.0004936528119570  0.2019341215225879  0.1986853300238948
  0.0000181037350049  0.2007044317340040  0.3985937242087581
  0.0018262823017897  0.2011594471504815  0.7973860533861877
  0.0001091623823688  0.4004193869354822  0.0003400960933324
  0.9996343863961887  0.4009822504908852  0.1993979954949498
  0.9988078605937031  0.4006240874154582  0.3981825769349465
  0.9992071098652158  0.4027565090310759  0.5976946407190662
  0.9967635031720206  0.3999337519991850  0.7991763073100135
  0.0013144482613191  0.6007007720474653  0.0001963912424960
  0.9995685900863072  0.5991215864729593  0.1994365099386286
  0.9985031561313070  0.6014120258958969  0.3991783655808029
  0.9993383488443143  0.5999834491705883  0.5995325395909707
  0.0001271730357978  0.6023694919572277  0.7988646587782262
  0.9991798970227596  0.8013615440144164  0.9990987438794595
  0.9992208114316736  0.7985754222915845  0.1985173374157179
  0.9851271890680039  0.8015477505658014  0.3939747174990739
  0.0015794055511407  0.8003729003016196  0.8022604192768906
  0.2017299037919253  0.9992118348579049  0.9964397783462722
  0.2073110115142460  0.0122464406738199  0.4027836929623073
  0.2026463133226382  0.9978822654387824  0.8016353359488347
  0.1997428719482918  0.1987121414196793  0.9990948496653580
  0.1982844904073597  0.2033307498506303  0.1985855732130289
  0.1978684969006300  0.2048491662138444  0.4008196449469997
  0.1999469139469876  0.2066060555152874  0.6008497545817930
  0.1995045566305146  0.1933802860519728  0.7988003629865678
  0.1999660032817147  0.4007299655446236  0.0053291082219638
  0.2039408214090489  0.4009422483653017  0.2013242336225030
  0.1984646643107981  0.4031715686230112  0.3988396223510445
  0.2004002095795688  0.4024062695193707  0.5950732211525954
  0.2005578255999845  0.6012832257531345  0.0012305637338770
  0.1995953268558729  0.5998064901945788  0.2014512984029711
  0.1984387935566422  0.6020494053490466  0.4006602013519735
  0.2013843717603026  0.5988999246568164  0.6008940152561444
  0.1991215678720347  0.6060915381148845  0.8023775051382867
  0.2041663164835661  0.7999695921123908  0.0045042406138526
  0.1979494668739673  0.7930238117594187  0.2032592935486267
  0.2090753416210216  0.7898883641545459  0.6166775911378227
  0.2010254546375301  0.8025308241628615  0.8064907186237273
  0.4031723024444056  0.9985347660460548  0.0047437051556414
  0.4059545219162042  0.0028901413461493  0.2090165245433186
  0.4037767036023393  0.0014636183480181  0.5962521038494660
  0.3999364382589207  0.0015617088435488  0.7967645269275979
  0.3967306004652075  0.1996781186632397  0.0001701068166349
  0.4004383721693425  0.2056162005266282  0.2004613347151598
  0.3990618897098752  0.1968657045757764  0.4007231814148104
  0.3973678670024662  0.2008177355406387  0.6002962475663205
  0.3996043832350234  0.1971639369093201  0.7996848561643727
  0.4016034986728775  0.3995674541385414  0.0083082957270184
  0.4001767664609919  0.3981487958118244  0.3961946479640100
  0.4010169066863143  0.4021248851685099  0.5926373894711606
  0.3988471432526016  0.6014383967237504  0.0006773418945896
  0.4001035725220878  0.5931360963813319  0.2008576647529478
  0.3965723421567146  0.6043944027293369  0.3999016865742992
  0.3993709831201817  0.5995177935219754  0.5990102435441368
  0.3987252706610240  0.6052851032730245  0.7995778627431065
  0.4039606140779382  0.7995413519800518  0.0007436340738367
  0.3898859620467990  0.8098514113021810  0.4092170629100771
  0.4061137858831274  0.7986351408453023  0.6047708033991829
  0.4013834886197044  0.8033246022054645  0.8024113504395054
  0.6021876439995277  0.0018865399903398  0.1946633340210761
  0.5968294186845386  0.0068073993740756  0.3989906100995183
  0.5999611463529677  0.9945502161786119  0.6004073967506800
  0.6024831877815641  0.0010913247250726  0.8024760069234776
  0.6016948859134381  0.2025846679897688  0.2020411772367287
  0.5997220702021976  0.2020203494746670  0.4002235872986716
  0.5953662720214459  0.1995392654825959  0.5997182001389240
  0.6006367359231708  0.2009371543899839  0.7956807687171330
  0.5995673485068858  0.4004794877832815  0.9968973865693441
  0.5969648279859499  0.4007621092378932  0.1982205697183825
  0.5990059005333902  0.4004074723729285  0.3997947919718278
  0.5977302013751049  0.4026114717617864  0.6007043788709996
  0.6144532696774543  0.4009674074324376  0.7992521315378261
  0.5998117743658994  0.6049863641175366  0.9982737232746818
  0.6001919153228158  0.5996421780452633  0.1974139905494399
  0.6000209214166772  0.5953630067511081  0.4000783929007669
  0.5981776770307750  0.6046448474158589  0.5987868960736070
  0.6001751471272100  0.5996632256926712  0.7994703111294463
  0.6062477621520556  0.7977643408931443  0.1895872153087430
  0.6011691350051864  0.8004425822823690  0.7991173987275302
  0.7997100272214878  0.9983617648334597  0.9977628040001820
  0.7996985869347134  0.0002565250663664  0.1991684373853368
  0.7975250750840482  0.0002704445775660  0.3974526505502388
  0.8001065937456915  0.9939362600754056  0.5979292799361146
  0.8038363083958528  0.0004459930992792  0.7961007139614337
  0.8056879346517197  0.2004948002416830  0.9989163497520720
  0.8008029605500316  0.2012198292440127  0.1981326283010361
  0.8003875866458925  0.1998252264593165  0.3944529405510120
  0.8034412346447038  0.1986749386363074  0.8018413249485352
  0.7994238249054303  0.4002659149796530  0.0003921230574822
  0.7976255741920513  0.4007843832748506  0.1985747713131581
  0.7986301728953609  0.4004345140844789  0.3980041702989945
  0.7985391191921032  0.4050171918591195  0.5973051457747743
  0.8029631594717214  0.4010736247812062  0.7993808481634229
  0.8004730008689981  0.5997546338354209  0.9985198481443092
  0.7999431859023236  0.5985644241260049  0.1994056957147870
  0.7986229179476494  0.6007538450143908  0.3981585881843674
  0.7995902671801696  0.6010411857587882  0.5986136910106418
  0.8020352391146141  0.6004480251647714  0.7986662748846954
  0.7984670832346384  0.7987267992801825  0.9979079771077510
  0.8004311607876201  0.7990173553415185  0.1974688801491751
  0.7945652573180305  0.8005339604438416  0.3973557533092709
  0.7930356358798816  0.7983914231491229  0.5974781990811066
  0.8032938075701184  0.8003107506737724  0.7981744735806137
  0.0024494442672622  0.2023476478637861  0.5979163804271624
  0.4008380870140436  0.0044467410222686  0.4021863565288898
  0.4011280459650953  0.4007656948605693  0.2030476174499834
  0.6003576899770624  0.9862354456724448  0.9980560884774478
  0.6010676522637101  0.8011613089937981  0.9946525551612767
  0.6002227234815352  0.7985894840966127  0.6053434776736311
