Zr V  Cr
 1.0000000000000000
    15.5176564344983579    0.0055358052127085    0.0009235349890332
     0.0055289702635454   15.5339659065587714   -0.0041197367383691
     0.0009253811786535   -0.0041210125583897   15.5341853465245965
 Zr  V   Cr 
   5 117   2
Direct
  0.0000510342134246  0.4007486410999870  0.0004180682027536
  0.3742940826992330  0.2034741014877746  0.1962256275625175
  0.6001118665756110  0.1996943794141882  0.2005711441956196
  0.6081376667778556  0.7919285950670716  0.7999064688031021
  0.7937378998318017  0.6071424258018721  0.8003077278678420
  0.0015678690033500  0.0001262539794934  0.0006524228598102
  0.0010247560960073  0.9995647607383312  0.2005421970241885
  0.0014102062154409  0.0006294244217233  0.3998315572548798
  0.0011705348112327  0.0002058570395455  0.6005839670204397
  0.0022143989984189  0.0010553242441181  0.7999891378486796
  0.0004587794500834  0.1965730129714881  0.9994112386344685
  0.0014794898629838  0.1997265584631930  0.2009060644727621
  0.0006343372753308  0.2000308082389072  0.4010585260644915
  0.0010607639865245  0.2005366418983980  0.5997155670407502
  0.0014000527238084  0.2004337599212221  0.7997953720739697
  0.0000004782909728  0.4014594667405469  0.2043340362303959
  0.0008273086958677  0.3999943635169260  0.4006830314696793
  0.0000539622397409  0.4010505292075019  0.5993423775156266
  0.0000119446834125  0.4012528723195373  0.7958113365076849
  0.0000256710410738  0.6050160007100770  0.9997163632994812
  0.0008817578650404  0.6008307749382752  0.2005882568586237
  0.0006354537801567  0.6007052484993558  0.4002742259373042
  0.0000907610226250  0.6006833919935121  0.5998165986316059
  0.0019460337566812  0.6009058251424615  0.7995560619622980
  0.0015228026091331  0.8010567843591839  0.0002971321834622
  0.0016015793663162  0.8008324154780858  0.2005833078967525
  0.0011825571726569  0.7999789526401265  0.4003086834875120
  0.0015753852397333  0.8003473069599635  0.5993955226425121
  0.0043001027384670  0.8014086874291916  0.7999342849350657
  0.2017079479895542  0.9997204401811585  0.0001843144896816
  0.1996696545482565  0.9994527583302908  0.2006525264579577
  0.2009048788223274  0.0002883487704739  0.6000614587421039
  0.2011466267525339  0.0011114458239769  0.8011387908394471
  0.2004801188822946  0.1993358161030712  0.0005666296640594
  0.1993030661505584  0.1997556368762366  0.4009703010458510
  0.1996424069375009  0.2001707948284441  0.6005879868839542
  0.1997989011112959  0.2003294090094168  0.8002352871068832
  0.2042494561415402  0.4000600800273851  0.0003604945447524
  0.2001466957656126  0.4000529470369159  0.2010411657260813
  0.2006835949494764  0.4001350765742058  0.4004803794328773
  0.2004013672399693  0.3998671932103562  0.5995010320221248
  0.2007079593821540  0.3993369278084312  0.8001431401241066
  0.2012519557723327  0.6003798864576363  0.0008825446637619
  0.1993113551408549  0.6000813635681101  0.2000138650849794
  0.2002385327426807  0.5992876948580543  0.3994323416033868
  0.2001486194997733  0.6001240759227244  0.5998991199986139
  0.1993815067954739  0.5994972598526709  0.8003854724641188
  0.2010886558451087  0.8007020794865050  0.0009108266581152
  0.2001208354223937  0.7996812353451616  0.2003789926710755
  0.2008491856372898  0.8002939469703902  0.3997932861700899
  0.2004979619499358  0.7999243931788256  0.5997557052797974
  0.2012059935570846  0.8003531206938190  0.8003108118340111
  0.4012471326129935  0.9997123072739669  0.0002102356337034
  0.4012555931787151  0.9959475892897154  0.2006478917638119
  0.4012124449154785  0.0000711316268744  0.4001883772848575
  0.4002226369994115  0.9994011921306245  0.5994777457324455
  0.4016493671178881  0.9990203797702745  0.7991320193927594
  0.4016433701645264  0.1992348742282998  0.9932291811701484
  0.4008885574981035  0.1990538006999503  0.4037729913574601
  0.3997862705401005  0.1989622956186025  0.6007125851069109
  0.3989349092895467  0.2000116412158902  0.7983694977061710
  0.4014417040849199  0.4001395040658770  0.9997505113569507
  0.4012447881376073  0.4065798887380019  0.2002755710111514
  0.4004813818445859  0.3999011072698377  0.3999784131173029
  0.4001514095881114  0.4004863420322393  0.6002123009179517
  0.3994090021131962  0.3994165085548300  0.7995395086460276
  0.4000098795986616  0.6007831238654177  0.9997880264451482
  0.3987965753854180  0.6016137118302751  0.1996229429903211
  0.3996226754308607  0.6002437346374045  0.4002675856212672
  0.3992795873733651  0.6002667278709084  0.5997227393575209
  0.3964263936720131  0.5992324842644912  0.7999347760671575
  0.4012102466238366  0.7999290873907692  0.9996058511619530
  0.3994033063381944  0.7992141385282391  0.2004077772030165
  0.4009307978995266  0.8004266131925393  0.4001428163172480
  0.4012357673266739  0.8006049661708665  0.5998919448074738
  0.3990404084059728  0.7997875602576981  0.7998905756580129
  0.6008366073967631  0.9991949145274430  0.9996695117716538
  0.6017216307029234  0.9942386871952744  0.1983658004291451
  0.6008331648133995  0.9996962057519320  0.5002729734539615
  0.6006880497866687  0.0010523482758571  0.8018508066989806
  0.6013934109496766  0.2002301234057459  0.9943982641400150
  0.6012803250284846  0.2009568278156557  0.4065002203123967
  0.6010930421596683  0.2011931159284875  0.6012662872305113
  0.6007783222891563  0.1992551107465765  0.7979327975138127
  0.5993414020862837  0.3998310446092789  0.0000907058844157
  0.6010830711209219  0.4058105596366707  0.2000462698961703
  0.6003325542226752  0.4004202246666891  0.4001614606020259
  0.6002349910093002  0.4002972316209671  0.5998279771756019
  0.5992033878017164  0.3969446469254561  0.7997197235969602
  0.5983968109582420  0.5989807054824475  0.0011424081322144
  0.6003803870646922  0.6010747088316811  0.2002112167812927
  0.5996201702140597  0.5992662381959343  0.3992186657950835
  0.5988502191500573  0.5984486205130624  0.5985306500287084
  0.5906019199692099  0.5897160824401088  0.8000750723035684
  0.6012558638917869  0.7990369915359909  0.0040287013048239
  0.6015848532391362  0.7979145082814580  0.2010089218301285
  0.6008177465778554  0.7987598583547341  0.3994680728014274
  0.6013070198089443  0.7980838507765825  0.5947320616218894
  0.8007217531299818  0.0009637419257985  0.0005492757736597
  0.8012572752546219  0.0006694680190191  0.2005148609040635
  0.8010232518005892  0.0009076238517602  0.4003457531125112
  0.8012179667620646  0.0011590897671065  0.5989480407276651
  0.8014149540491450  0.0038185019669737  0.7999088527426699
  0.8007015264460515  0.1998580124816972  0.9999635532647728
  0.8053186260780806  0.2011161970295224  0.1997346792939992
  0.8009954216300786  0.2000524385424203  0.4000529865587200
  0.8008333491340694  0.2001433115601939  0.6001843507723303
  0.8018941880046279  0.2012318306988903  0.7997467714469511
  0.7957482004015762  0.4009906771708270  0.0000386876757466
  0.8005405228866322  0.4008033746473453  0.2006495914148790
  0.8002775408809202  0.4003834456049217  0.3998481690774647
  0.8002776125984518  0.4010263613759049  0.5994719179684519
  0.7999199050572174  0.3990171505913606  0.7996106087863164
  0.7989801136930060  0.6018351150235668  0.0042538110204122
  0.8010826907011630  0.6010866175629418  0.2005864048200330
  0.8005274957540901  0.6003596629947373  0.3990286829788499
  0.8001584871704039  0.6011028148958032  0.5957915169909819
  0.8023160366728976  0.8026371620083792  0.0019022755298406
  0.8021821311517531  0.8005023558716847  0.2005712832654085
  0.8006943376348419  0.8018525439718788  0.3991493025701476
  0.8018294342299135  0.8026776541413314  0.5979032297970420
  0.8109487378430662  0.8102487431052225  0.8000955909908198
  0.2005217516967833  0.9995572530100394  0.4007231433285096
  0.1913511995528831  0.1999183449767225  0.2005098998816182
