Zr Ti V  Cr W 
 1.0000000000000000
    15.4486336428758069    0.0121581116209415   -0.0069918741920984
     0.0121590392488944   15.4505015656762907   -0.0015177914306970
    -0.0069892847668974   -0.0015156966616515   15.4491826341844032
 Zr  Ti  V   Cr  W  
   5   8 106   4   1
Direct
  0.0004502155656587  0.9652601632500712  0.9919174802433568
  0.0022749561770147  0.1831307848211330  0.9619866884701054
  0.0122066389503011  0.3811461497041528  0.6045828826584585
  0.6037616366020611  0.4176765865998551  0.3902764306668348
  0.7808191514195391  0.7820352200492567  0.2002920251516239
  0.1934563203398748  0.2082184561877874  0.5921129453815626
  0.1944245181681218  0.2028265216213080  0.8062563900656088
  0.4064945176628785  0.6036053867998402  0.5937267462313445
  0.5967195759476124  0.0061050505215635  0.4000903629608077
  0.6105457508623104  0.5993188178681312  0.2163006617250355
  0.5875051654264426  0.6219621211343912  0.4194889017595529
  0.6043193034053425  0.8018211634098960  0.8048669779505874
  0.8073130071438402  0.1991645241139589  0.8061929645149477
  0.9993969627692381  0.9964604948374129  0.1984495316849486
  0.0012044281942382  0.9302491203385256  0.3994191265332069
  0.9987273057988911  0.9911829958740699  0.5960731276625248
  0.0001602511783625  0.0059881499876324  0.7907941031419676
  0.0002808547970279  0.1968954338879693  0.2004407363208927
  0.0011315920936752  0.1994695099618017  0.3979648003975068
  0.9918216335740644  0.1833723689201132  0.5909573669935170
  0.0001783617765769  0.2074988034984816  0.7639173815833623
  0.0016447383683833  0.3961080303681092  0.0001743931643652
  0.0031395030559224  0.3941361625368491  0.1972662978559384
  0.0032604417817847  0.3999447039441336  0.3965124162510237
  0.0019283994057690  0.4021207002819543  0.8053754086009974
  0.0015615306952782  0.5920365465569037  0.9993480059870228
  0.0017608201979464  0.5977504594623522  0.2033574118168310
  0.0013775535178393  0.5956015446108317  0.4020081066464426
  0.0014512073432912  0.5996311677876496  0.6005445349767476
  0.0019157147079189  0.5994967553468666  0.7992417901187352
  0.0000066016401301  0.7781836438892796  0.0013361471537747
  0.9982520734581272  0.7972642240263706  0.1975993268584589
  0.0002294536838085  0.7977583852868592  0.6026970818950168
  0.0019004633647020  0.7997733204190145  0.8021580453144519
  0.2033674537683927  0.0031961107738776  0.0003542764737159
  0.1990193223389018  0.0010343663965583  0.2003754731985496
  0.2000628251237595  0.0011461375805949  0.4012014967504258
  0.1987617470202898  0.9992614079580735  0.5996428831793233
  0.2012476975360707  0.9999236481232074  0.7976916082999789
  0.2073067356834889  0.2022622361759916  0.0029976843318229
  0.2001385593211370  0.2008169526963301  0.1997805867983261
  0.2018566396058624  0.2017612937548340  0.3975643754848764
  0.2035673658920464  0.4009744617251058  0.0011521866681368
  0.2015015372005849  0.4011174436412278  0.2005117625937531
  0.2017378796428337  0.4023150094797721  0.4008698698545431
  0.2118242076320196  0.4079260030829355  0.5998652328897502
  0.2022021658565281  0.4055006965763299  0.7986401356080906
  0.2008592846667872  0.6012012240283314  0.0022173927726401
  0.2000713012420436  0.5998704368195398  0.2008976864105475
  0.2046718244191680  0.6027445740367376  0.8007691553372083
  0.1989532550122785  0.8015003310936933  0.0016908181903368
  0.1984635389952103  0.8006641160689534  0.2030633667296038
  0.2024975500148996  0.8018190233351129  0.4010394253837372
  0.1999093836792835  0.8014292758472321  0.8014243223345474
  0.4012884444891203  0.9994156056087026  0.9980664609938558
  0.3987033702552141  0.0020340738127986  0.1993080350445235
  0.3976658201984596  0.0029293195783713  0.4012060707181612
  0.3992332286377296  0.0024575911801228  0.6016374388124405
  0.3989183217171133  0.0009263012662179  0.7998307820090012
  0.4031077292651611  0.2012464536508647  0.9993773433740191
  0.4011397059407778  0.2004809833586150  0.1997924252458210
  0.4018477341177918  0.2025814164196436  0.3999882224625460
  0.4017924559120535  0.2023565051515756  0.6006962902518620
  0.4008482891210763  0.2026595051318689  0.7989273613130047
  0.4026173637090109  0.4002077321060742  0.9997369916401587
  0.4018657039063431  0.4007446493760032  0.1989177580728760
  0.3979899167766088  0.4009925830760878  0.3985864085455935
  0.4049872295781530  0.4009050053412139  0.5990357872153951
  0.4008883945816802  0.4066821981489785  0.7997201022733321
  0.4029198958067818  0.6012965071761487  0.0012837665148203
  0.3988844720661346  0.6000265485463373  0.1997666448283269
  0.3970393984634676  0.6025980199364677  0.3971459576390812
  0.4009395250014599  0.8014884777134891  0.0018370453566592
  0.3969705376167347  0.8000471308892756  0.1996513619187801
  0.4000998843223687  0.8024357844437534  0.4005771961444143
  0.4019693154939872  0.8046203589904549  0.6021638771907070
  0.3993915252778217  0.7970836228085479  0.8015335027470509
  0.6000943982123498  0.9995386564900032  0.9987681212445568
  0.5995912964833784  0.0015644365625582  0.1973626333779143
  0.6000572882439607  0.0031488316089378  0.8009194798562382
  0.5999299336836840  0.1991969378203554  0.9993758665438875
  0.5998545028351420  0.1992366111407416  0.1996240048466506
  0.6014929657147823  0.2041373944095425  0.3994227662490824
  0.6003268078331518  0.2007716136022793  0.6009368929325413
  0.5976325524150620  0.2015516908508268  0.8012157410728343
  0.6018770640318856  0.4009732105017469  0.9983199429197621
  0.6019305546703623  0.3955231636689501  0.1912488251304085
  0.6034319908258868  0.4001337248609484  0.6017537442368549
  0.6020150123200093  0.3997066200815010  0.7993369181041623
  0.6027543354610329  0.6006656542785932  0.0023562599383923
  0.6052835385616626  0.6028154794430705  0.6087855292403480
  0.5968343269573401  0.6005992899130556  0.8035110388135015
  0.6017412586488489  0.8002123187004565  0.0063869595714618
  0.5877928036455163  0.8058657708321539  0.2035690853739598
  0.5999809916426027  0.8119192691107869  0.4023222252733819
  0.6028094569450584  0.8054212842949370  0.6022750807042626
  0.7978417316211962  0.0005555158416238  0.9994736577356353
  0.7996890358110637  0.9972527678290648  0.2002853124806423
  0.8060429763736200  0.9988838091358549  0.3997702659579856
  0.7975989769408967  0.9990193755099898  0.6005498765845607
  0.7993159495673007  0.9977208017615812  0.7993279021574947
  0.7956329296603062  0.2003499686127101  0.0036757059448436
  0.8012790230688963  0.1971928693173646  0.2005048792174102
  0.7996708287881832  0.1998548268049014  0.4000167489228422
  0.7963037728506158  0.1981399900902891  0.5965614351219870
  0.8007174198097863  0.3990279387813488  0.0009065417687926
  0.8020633301152179  0.3943458542965809  0.1998001590397681
  0.8083755833458454  0.3990931807797849  0.4011520039739887
  0.7991096168877261  0.3990483875088263  0.5989544918974673
  0.8011229094125573  0.4038820846369685  0.8013385620761198
  0.7999406224228671  0.5989938648910577  0.0014535819043571
  0.8074728733233046  0.5869895556339427  0.2012729969578510
  0.8026273931925904  0.6024568605296396  0.4015457811397793
  0.8021604443103444  0.5989014338145846  0.6015436436844105
  0.8014051609847590  0.5998808522520389  0.8006604211147247
  0.8032484842553006  0.7998813272825416  0.9969951012391144
  0.7998232965040948  0.8020780427749293  0.4050892817313141
  0.8006544353922662  0.7996431121480853  0.6015641536303435
  0.8022565151250050  0.7990348841394791  0.8009097837976424
  0.1997670375405697  0.6023700942645308  0.4011713784578260
  0.2005445463065622  0.6033595535303430  0.5999447821053658
  0.2010978474639661  0.8002849968748396  0.6008644705019530
  0.5991206741121927  0.0030276525969264  0.6036722208565866
  0.4004104953518624  0.6015762001256971  0.8061754757190095
