Zr Ti V  Cr W 
 1.0000000000000000
    15.4774007178547244   -0.0057270445464663    0.0060485456842571
    -0.0057275938548885   15.4869400142696509   -0.0016006725836938
     0.0060484205712483   -0.0016004018593464   15.4828342852602923
 Zr  Ti  V   Cr  W  
   2   1 107  10   4
Direct
  0.0028935454671029  0.4005895825015869  0.0009890896739662
  0.4009761051276191  0.5966152453409445  0.8024147967626759
  0.7990271207715368  0.1927742695823545  0.5995925174016166
  0.9996629883095208  0.0000721874054521  0.2024126998769210
  0.9998630483731052  0.0001243000532598  0.3994285304921843
  0.9971574852372276  0.9993921034437925  0.5993710586392939
  0.0007999018670330  0.0001674629850467  0.7979719504428274
  0.0013572238274475  0.1947667456727063  0.0012166964086651
  0.0003493970203419  0.1987590888948125  0.1997368055720497
  0.0000927259921145  0.2001638969442783  0.3994893723373084
  0.0037297052860481  0.1998643914661584  0.5988284638594145
  0.0018604106865780  0.1983001534068236  0.8005412061791755
  0.9996404588717582  0.3995632802087686  0.2051545197189655
  0.9999856509394672  0.3997427530921750  0.4018986236647263
  0.0013414540696064  0.4003952579901566  0.5984725825548428
  0.9953013870474244  0.4002522536042543  0.7946173558069147
  0.9991412035582610  0.6076222118144787  0.0004869938118073
  0.0002735157192144  0.6000141011100012  0.2009472032732132
  0.9993346100774694  0.6001731295497872  0.3997151544494060
  0.0005582133835647  0.6011894222576851  0.5990101461240415
  0.0005749920474944  0.6010166754509857  0.7983399362239287
  0.9995942135913842  0.8009058138949399  0.1971553995489851
  0.0006427108938558  0.8003666225524674  0.3995273695770912
  0.0019834446924365  0.7988438976994100  0.6000648329095065
  0.9990819624585785  0.8008219821842193  0.8020430044600496
  0.2020673198204210  0.9999299553636879  0.9991301757573171
  0.1999560234102317  0.0003213073839750  0.1997075469712969
  0.1997703363407485  0.0003702410187163  0.4009506328118854
  0.1995604679960710  0.0005805114805602  0.7988874272203791
  0.2011859917149980  0.1990157019910370  0.0002105450828465
  0.2007603653097177  0.2006448050539235  0.1999738750738173
  0.2000935109473636  0.1997344593094154  0.3996037858467549
  0.2000496728623513  0.1987316678045445  0.6001489167510297
  0.1997012928884840  0.1999850777847917  0.8006310597735193
  0.2059394511320114  0.4004447453109815  0.9993717211151638
  0.2020150621885981  0.4001794161666757  0.2017753139189101
  0.1999809936565406  0.4002587879198801  0.4010669588709008
  0.2048280904254070  0.4003190967812203  0.6005688352009698
  0.1978832040065590  0.3989538492938760  0.7991589792911343
  0.2007730801966743  0.6008610914948747  0.0000632705339130
  0.2001554435981489  0.5991397099311265  0.2002525770948784
  0.1990500577726185  0.6003556940667867  0.3993277009046279
  0.1962434184514257  0.5994584096248221  0.7997043511884376
  0.1981771103876197  0.8008239544778306  0.9988584888941643
  0.2010245642393537  0.7999626141725359  0.2003931303605072
  0.2001403394807963  0.8004000934463359  0.4004544302881118
  0.2002588890017692  0.8003321476934586  0.5998882544021040
  0.4004052059328503  0.0008936882891396  0.0001030324405280
  0.4006559844603336  0.0004917662102530  0.2008286574257915
  0.4005109492824612  0.0007862292777680  0.4012937888550769
  0.4006447754889226  0.0007664787556258  0.5996198551272763
  0.4003726630507351  0.0007325813222749  0.7981501539882364
  0.4006209286430328  0.2002588911336185  0.0004838325854259
  0.4006863384390247  0.2005827441371780  0.2002295197958265
  0.3998733291033422  0.1998826226444969  0.3992754354041052
  0.4000349077968462  0.2026407989758231  0.5994920088344807
  0.4000316730882220  0.1986136957179410  0.8007820019502432
  0.4019706099489626  0.3985617151720879  0.0000900591428210
  0.4007588277568260  0.3997914855964700  0.4041625667565448
  0.4020939403300553  0.3936739356325572  0.7951261458310896
  0.3998632458447095  0.6007232856357548  0.0054306741163759
  0.4002810317636761  0.5994565027004932  0.2019854542916259
  0.3995805651970746  0.6006718069739378  0.3996734630563329
  0.3997920949355968  0.5966627423663881  0.5963568969767974
  0.3990320057303938  0.8016636151666759  0.0009857598340012
  0.3996761719729344  0.8006812885193950  0.2003601067212531
  0.3995373390139255  0.8003676520220321  0.3999990583944428
  0.6013055793012426  0.9989590327765483  0.9993597760807381
  0.6009353768552982  0.0008508113249616  0.2001575292756094
  0.6004362152780932  0.0003509006371605  0.3992614541345604
  0.6028862153120167  0.9994041204389236  0.5996172548050304
  0.5998641562202022  0.0009225330551021  0.7999868425152991
  0.6004898499689623  0.2001427753622297  0.1993141901295324
  0.6009326015150159  0.2004109294146571  0.3981804671717469
  0.5983419794426879  0.1988812689549547  0.5987749991489386
  0.5997378741245316  0.1989326303030224  0.8008768152534913
  0.5977710344090065  0.4005702333734110  0.9999727105642103
  0.6005403487506402  0.3994932439802445  0.2002802601664537
  0.6010161902558998  0.3997082976386326  0.3999264577467564
  0.5963293347813410  0.4006303660505141  0.5997198256372243
  0.6059968166643539  0.3990240374780886  0.8002423337606436
  0.6013874045724830  0.6020726676559520  0.0017332148137713
  0.6002603975219200  0.5995213226542849  0.2003902375987475
  0.6010322301429137  0.6001728724840721  0.3992009887762920
  0.6004422569441066  0.6022972121272940  0.5991293646804051
  0.6048023884451932  0.6017379614115451  0.8002647379752349
  0.5985043736031741  0.8002489204500819  0.9998086956498703
  0.6006112092508791  0.8005483146290707  0.1987648851765379
  0.5989802868150274  0.8005626629051911  0.4001401378897522
  0.5980672732659682  0.7990024664090907  0.6002979483784047
  0.6018355718207959  0.8012412378012965  0.8011001872239341
  0.7980707412090445  0.0027652718271132  0.9985418512864517
  0.8001567963852447  0.0010101872077945  0.4034145794815069
  0.8007250862469504  0.0013252923641233  0.7970317606508609
  0.8005148643468003  0.1976703765561541  0.0008648327691505
  0.8003506098759408  0.2009890877537881  0.1989784193944660
  0.8007362479618338  0.2036786803850377  0.8021526326780224
  0.7953439341436127  0.3997490503021167  0.9948776856022991
  0.7997797426931602  0.3996893617727956  0.1994373839850684
  0.7997527958968296  0.3990415372656475  0.4019851166749718
  0.7987648424525553  0.4009297083062740  0.6036061625629605
  0.7999398428277030  0.5972286991369556  0.0005683365388496
  0.8001795054796860  0.5995781873831832  0.1996171241913224
  0.8003557427572606  0.5992930128547604  0.4004548461004648
  0.8000255415130899  0.6005142366104231  0.5985503251008829
  0.9327046215790937  0.9318109269047620  0.9992607524560294
  0.7996414180342223  0.7999518607606475  0.2030570439931038
  0.8000134145245941  0.7996358349624056  0.3995286119089970
  0.8003482472117078  0.8016127123385060  0.6002880565912326
  0.8001076394818518  0.8003940854017506  0.7977297870565906
  0.2003140214281227  0.9994552209104863  0.5999644534684992
  0.1997019672760608  0.6007306925559687  0.5994969073905081
  0.2001735740190802  0.8005835043588679  0.7987257051397423
  0.4011477031693363  0.3998231593467012  0.2018758382453441
  0.3991560888437671  0.7998470147100529  0.6000794187146926
  0.3998410645631382  0.8030579330300869  0.7997513473679120
  0.5995431395652747  0.1998525966029601  0.0005412384373304
  0.8002136265879519  0.0001848961324759  0.2001625028366273
  0.8004665716212268  0.2002590604753087  0.3971610432936843
  0.8014439448744231  0.6003678581623182  0.7994811315237739
  0.0020217536265012  0.7999939801418962  0.9998537285943507
  0.4008942188078898  0.3992591936889491  0.6004492116222307
  0.7999639424448367  0.9963633650025114  0.6004004501357406
  0.8004443937093840  0.3966523798929352  0.7993880198474527
