Ti V  Cr W 
 1.0000000000000000
    15.4533176427851515   -0.0008865403605514   -0.0001136557864103
    -0.0008863085543239   15.4597859856343174    0.0001179633137350
    -0.0001136322034286    0.0001178166101631   15.4536212137375468
 Ti  V   Cr  W  
   3 114   3   4
Direct
  0.2012194694629180  0.7990563127435121  0.8029019346351434
  0.5949213249628508  0.8025579937149535  0.8039206233711558
  0.7990763234092736  0.7963946930442990  0.3997970929758607
  0.9996996157333460  0.0036131372880557  0.9999164538561456
  0.0002685297618914  0.9986619563903610  0.2010941868786672
  0.9990512341055724  0.0003016119491897  0.3997604986825217
  0.9998303361149870  0.0002985385798612  0.5991161065905478
  0.0013843090904724  0.9997800290030587  0.7980180581242954
  0.9992854394325112  0.1997885794480359  0.1964739745346041
  0.9996057904931008  0.2002269048113517  0.3987633988288821
  0.9998934559689882  0.1998068706617173  0.6003484889639644
  0.9991134680279536  0.1998508101389023  0.8032677023906727
  0.9999483167610158  0.3961523065491750  0.9997977798658584
  0.0001285112922334  0.4009237265491462  0.2003983226453759
  0.0001780368379411  0.3998481417311047  0.5998255752059375
  0.9997849862923319  0.4005763608469312  0.7993256959658555
  0.0000493954055043  0.5988851184959271  0.0000950821192191
  0.0003562257589846  0.6005943337622419  0.1997244818576352
  0.0000565463666491  0.5998790228747433  0.3999954995808190
  0.0001944365796647  0.5998486018736409  0.5996030051333394
  0.0013084554731935  0.5994893523836480  0.7995568221786957
  0.0014379928441357  0.8003163071182749  0.0006146174291906
  0.0002641203256262  0.8003265140300476  0.1994914690600258
  0.0005459443056427  0.8003265869661805  0.4000686044685394
  0.9982634272693749  0.8000059606698781  0.7994927034137955
  0.1998022792978219  0.0006744846038900  0.9994766511642218
  0.1999180293211330  0.9996995508102987  0.2013439391912409
  0.1993184876714040  0.0008100712421926  0.4005520877310548
  0.1999682061428646  0.9994666590633912  0.5998417123176293
  0.2003588091851822  0.0013333121356967  0.7986375343091116
  0.1960398013030474  0.2007607101022120  0.9999386542704729
  0.2009564762805771  0.1999222185097802  0.1999465632224176
  0.1990992671000967  0.2002883463495341  0.3996325091379695
  0.1994640217954710  0.2004862101981066  0.6001206772781085
  0.2009745895881635  0.2004350676237678  0.7998202998763649
  0.2003318263394419  0.3996911908774461  0.0000778572122457
  0.2005860126990346  0.4010056062426194  0.2007076498481785
  0.1997423368814055  0.3998140204217876  0.4001647742452770
  0.1998773546400596  0.3999355298931300  0.5994551835729429
  0.2004712221146587  0.4001350546111905  0.7990692361672231
  0.1994267056940572  0.5987702257604171  0.9994299985344318
  0.1994041048380888  0.5997216690288821  0.2004126143465468
  0.1993548006457633  0.5992325407853913  0.4005124391946161
  0.1999446475961614  0.6003546964007132  0.6000259708850050
  0.2000135941434754  0.5980316858193723  0.7998682637269197
  0.1987234396210496  0.7996331506465418  0.0019970531965735
  0.2038593872789143  0.7997136868624281  0.2002428368833172
  0.1988223074064068  0.7998766919498916  0.4004099892325370
  0.1996941338936603  0.7996760878948348  0.5981118716426683
  0.3965019406421809  0.0002307505854717  0.9989279081340319
  0.4014202661445054  0.9959237926434609  0.1986394070953497
  0.3993326496619862  0.0003010758908889  0.4007967487899172
  0.3998054058158637  0.9989454098071038  0.5993480756591499
  0.4013478400688060  0.9998593765757450  0.8006575085064968
  0.4021268372659694  0.1985430108790315  0.9999814042393322
  0.3996481112074126  0.1991209810223747  0.1991022040012984
  0.3999460173910492  0.1996550372737032  0.3988062938421622
  0.4000286344901618  0.1994971256280045  0.6005633383906026
  0.3999898330820317  0.2002363298009429  0.8003006294324192
  0.3988368394982121  0.4006191809127065  0.0000460136757146
  0.3996967800017195  0.4014470196211627  0.2003067372482309
  0.3998359487039544  0.4002622482400510  0.3997618234917524
  0.3999652122809899  0.4006430312387969  0.5995647315025492
  0.3998311653347162  0.4003102556167553  0.7993709388068843
  0.3996823246903002  0.5992412348459047  0.9993535810930246
  0.4001529763705326  0.6043462414989209  0.1995865149829389
  0.3996804067130457  0.5997273367660917  0.4006130676888717
  0.4003824649899195  0.6014453769436408  0.6000341096616804
  0.4002667931076021  0.6001553562534268  0.8001034130007425
  0.4012091196686919  0.8012270238854763  0.0038791389704562
  0.3997981451560107  0.8001705003066036  0.3959545680399441
  0.3995119110811107  0.7999598218912364  0.5985310527580887
  0.3998107111459081  0.7997830437462212  0.8005309970565571
  0.6004827601493878  0.0001907024264601  0.2033790172657351
  0.6005217990192925  0.0014437801963159  0.3999862612498499
  0.6003746074079860  0.0005003956820233  0.5984113138753420
  0.5999978596587380  0.0024249544553487  0.7952719744624932
  0.6003430892492079  0.1983546758863196  0.1968390261718158
  0.6001804107847478  0.2010274244605712  0.3994631674695330
  0.6003604253427586  0.2002385588978572  0.5996908856303889
  0.6007226891115084  0.1995539284810748  0.8027662740411116
  0.6002627426042096  0.3955880971156624  0.0001954320413178
  0.5994872996548350  0.4009863633651605  0.2008792175278344
  0.5998235837071522  0.3992592561482995  0.3998842535179511
  0.5999563271938376  0.3995873612636193  0.5995130503023165
  0.6002735356712537  0.4003467884956816  0.7987598328485332
  0.6006479476361438  0.5967713890325400  0.0003159698825577
  0.6001721450087845  0.5992707157482999  0.2002922941377019
  0.6001319246245806  0.5984539062963933  0.3999134919864875
  0.6000898852786617  0.5999553670115697  0.5997643660426974
  0.6003894010883120  0.5973070906393453  0.8000297561302535
  0.6003501837272900  0.7954147382371638  0.0018152500634797
  0.5970752978595900  0.8011997636929140  0.1989560794397112
  0.5994959238393208  0.7995776753852976  0.4006329103517063
  0.6000668830562221  0.8002250344106356  0.5975260661680061
  0.8022485972680715  0.9994551056775796  0.9996473994910764
  0.7980457837632595  0.9983697454009216  0.1990899106464289
  0.8008117487535874  0.9996283041412420  0.5986400334410459
  0.7979276502557886  0.9952260905351048  0.8000618614876002
  0.8009360783329107  0.1983323568430437  0.9991803164964695
  0.7999671112934154  0.2003872894059092  0.2000407432355142
  0.8004542806603681  0.2009187353892234  0.3991013893900675
  0.8006572789505313  0.1997263241186948  0.6008347983545581
  0.7999058551898327  0.1990959659947803  0.7992703127259012
  0.8008177683870460  0.4014680376721801  0.9992436182573841
  0.7999273819444181  0.4014459585529294  0.2006889827752988
  0.8002359729864896  0.4000118541821527  0.4001314017022392
  0.8004225384206503  0.4006835678482925  0.5998750825691473
  0.8002474052997171  0.4020123144301403  0.7986855303834915
  0.8007166978481816  0.5990356670299828  0.9996067232651312
  0.7999729435264860  0.6012554855080775  0.1992354102267125
  0.8003670926020350  0.5980047752118087  0.4005256618984324
  0.8005598871180557  0.6004532520593983  0.5997237209415075
  0.7998165496525861  0.6045487399836258  0.7997561454721631
  0.7985710468761933  0.8012730066527247  0.9963732835020499
  0.7993651065878332  0.8000948438017653  0.1972027355997213
  0.8002415391600307  0.8003578562681110  0.6050615920915726
  0.9999098548832481  0.3995443430144332  0.3997007206402485
  0.0006787299704445  0.8001429636149462  0.5993348009413713
  0.8000797249390662  0.0022331833837148  0.3998554604497703
  0.9996721301414107  0.2001700394960894  0.9997857806103095
  0.4001975651747242  0.7999014312931966  0.2001266224292628
  0.6011085745089715  0.2050596786139902  0.9997859068379530
  0.8045880009732210  0.8000064246861942  0.8010577789841423
