Zr Ti V  W 
 1.0000000000000000
    15.3251724423404525    0.0070128769391973   -0.0004714545103314
     0.0070165878469139   15.3328247917111025   -0.0066220456422159
    -0.0004713462084994   -0.0066216079972265   15.3468382774047818
 Zr  Ti  V   W  
   2   2 106  14
Direct
  0.2319568411292676  0.6355567294257306  0.0001789110484882
  0.4011561567976908  0.7993586415177892  0.0024995625214981
  0.0123185975259917  0.0031456026602643  0.5971446091135937
  0.7943719324829063  0.4065572120092220  0.2053002052740807
  0.9991767110851044  0.0063662715044094  0.0045641815968202
  0.0008269763541635  0.9993895340389281  0.8021253331797268
  0.0007725202856710  0.2037289693072110  0.9995357482356794
  0.9978294828193059  0.1970328404826145  0.1994810499665554
  0.0028402761867123  0.1966492320390284  0.3997172496511860
  0.0016927615959614  0.2021919419668281  0.6001425705697236
  0.9984926944295762  0.1974028990612840  0.7986211088170885
  0.9980242893410661  0.3998987731263621  0.1963520742106427
  0.9988344115156309  0.3991287264464696  0.3972126607090977
  0.9947334890487055  0.3990120980866082  0.6016415454514739
  0.9993576870825331  0.3994067886472389  0.8030415802112622
  0.0057117071278163  0.5932138304596286  0.0025931222097613
  0.0038523366765844  0.6005957236081361  0.2015538406535617
  0.0032217347165248  0.6001963938336798  0.3981136410501910
  0.0009749630631910  0.5972186347836038  0.5960596994803049
  0.0012385869574743  0.5998706418422660  0.8004444824361668
  0.9995139169102831  0.7969540780296559  0.0003853249919261
  0.9949661078503941  0.8006600837927224  0.1983072788908500
  0.9999129350404153  0.8029250649006935  0.4010329410181843
  0.9988800522830859  0.7975484253945151  0.6009490593363105
  0.9977197730859523  0.7984107353952518  0.8020645996658899
  0.1985106776329414  0.0091987774612858  0.9988617343763655
  0.1963990279039137  0.9980984409485476  0.1985555249009641
  0.1957799071352224  0.0016011830274228  0.3978572499659699
  0.1993192845101551  0.9939043094361532  0.7996970021305755
  0.2013390908134230  0.2019704064099502  0.0011488049927582
  0.2021231501380706  0.1993112365786569  0.2057625659185056
  0.2040669859421973  0.2022402929351322  0.5959431982184150
  0.2008545236875631  0.0662049407945983  0.6653708416727638
  0.1947154891608895  0.3964229215787378  0.9975052301003335
  0.1974865906054962  0.4014631174483300  0.1985137401030946
  0.1966543649219144  0.3963111336176585  0.4005395246028176
  0.1977744097336588  0.3994219880327831  0.6035518129126223
  0.1994202955092214  0.4082982586207264  0.8004598862684970
  0.2040688871874641  0.6009218103884193  0.2048256617083612
  0.2031800407076949  0.6012928975354286  0.4004170546430961
  0.2014639942003046  0.5996669689343784  0.5988309895186985
  0.2001123968741288  0.6072254048830910  0.7942401104735763
  0.1908379320827920  0.8217743198983600  0.9929271488180812
  0.1975958634946623  0.7989762484900025  0.1930323826317753
  0.1988292041789183  0.8019834664913442  0.4052409867461232
  0.1990742058913731  0.7998595534241760  0.6062305699523389
  0.3995174066734459  0.0059340198044617  0.0022778016362790
  0.3983308648381561  0.9958246250085746  0.1999187934429701
  0.3965751194515648  0.9969456997820593  0.3974365275123365
  0.3995633543870908  0.0031986634015914  0.5963948927628363
  0.3979315339080738  0.9992308664374638  0.7993744446306739
  0.3992623036825946  0.2010710225286972  0.9992137578345777
  0.4006051472963020  0.2018759871616916  0.2015287090915945
  0.3957202260172225  0.2006734012993287  0.4009367415598939
  0.3994306206361036  0.1991275662458989  0.7957518081428185
  0.3971379476797408  0.3974802503351640  0.9995394401516896
  0.3992586029393045  0.4042359268717446  0.1979307938068823
  0.3993096968409635  0.4037951973122041  0.3990957478929921
  0.4003093525904075  0.3974217070834177  0.6003849256808107
  0.4013963203973391  0.4017754542628091  0.8007549178771258
  0.4186410535870312  0.5886449590043734  0.0079776040501761
  0.4000494729924834  0.5959290950632484  0.5917539686502513
  0.3986212975436690  0.6007694016963717  0.8067744644775945
  0.4018479775569965  0.7963075421749515  0.2066368076812654
  0.3987193387658708  0.7970021062226775  0.4015649066002815
  0.4003334403227962  0.7999826851445663  0.5993726103963434
  0.4000056121160321  0.7989034756439366  0.7938580759258499
  0.5993329608056617  0.0015582162696617  0.9995136892215134
  0.5998487447302897  0.9983831224402551  0.1999446780521073
  0.5992593697350689  0.9991525430763144  0.3991753678838939
  0.5998594183223596  0.0035046899711415  0.5996390175573919
  0.5987224298690925  0.9926579932338139  0.8008579272253088
  0.5998485601943974  0.1995147296684231  0.9985234089992380
  0.5984685191812580  0.1983602907305272  0.2007793112738995
  0.5977894590895446  0.1987539888781465  0.4034703095784357
  0.5987690576291574  0.2022357962325634  0.7973725234990034
  0.6043324911563024  0.3966569473927291  0.9944178268196069
  0.5992739180066110  0.3988672763248318  0.1987765771695968
  0.6014863371619155  0.3985661917538328  0.3994937142633941
  0.6040992475687098  0.3955850408946098  0.6061392022084776
  0.6067017029070073  0.5969787833046341  0.0013595515205451
  0.5958053983211754  0.6003474108695332  0.2004717074289128
  0.5954427592782245  0.5991476814646041  0.4011296035155429
  0.5979330468543672  0.5981030457962694  0.5995500499528942
  0.5979585881423483  0.6011333242809657  0.8007778311080120
  0.6057913746209698  0.7996308087890575  0.9947429211506491
  0.6032875611377757  0.8000832059224197  0.1979288966475465
  0.6011854385029088  0.8008860287404374  0.4050430065855737
  0.5998773903283665  0.8000633446213073  0.6054839422661241
  0.8010880353657526  0.0015966530887945  0.0001553656387803
  0.8014499660208384  0.9939296692102768  0.1989883000651476
  0.8046777660309911  0.9982303490000414  0.4003518008714423
  0.7980928159598889  0.0005134785814090  0.5980832460932353
  0.8009926189576286  0.9942052321455251  0.7999286169000395
  0.7994061172305355  0.2003648681667519  0.9997452369655491
  0.7969510794986335  0.1969701360821498  0.2020480800033564
  0.7993164601126022  0.1994422799988588  0.4002401869403044
  0.7956659193699217  0.2013606152857413  0.5988850239274141
  0.7989826367396820  0.1956780883689470  0.7983678652547556
  0.8037702076275014  0.3996860008817256  0.9965217372796534
  0.8005825177547722  0.4004183839009214  0.4058613994581655
  0.7961456726684065  0.4035094718075354  0.7967490437151777
  0.8044894239019090  0.5983585742250126  0.0027316430838515
  0.7974100096331451  0.6063628402908372  0.2016386683253728
  0.8000716105995080  0.6003165297969124  0.3988966955961873
  0.8000387144373075  0.5959976489430086  0.5970815049453342
  0.8007044030411771  0.6050342273282830  0.7987754867266901
  0.8020858112304156  0.7994426247865133  0.9984612937290368
  0.7988055143310839  0.7982667737697546  0.3984360482923039
  0.8000805033932197  0.7988932523549481  0.6042564740655102
  0.9991764730718082  0.9972633031204092  0.1983707157591772
  0.0005244885400553  0.0010435323255504  0.3896756359557570
  0.9992539519104990  0.3988088188574989  0.9997363455413601
  0.2003882994256879  0.1999366086571339  0.4024703185195981
  0.2024878893997838  0.7994936775868221  0.8033049416836033
  0.4020690401672261  0.1999909188391750  0.5980231697335761
  0.3976951942280580  0.6023469851825998  0.1986096085909917
  0.3995270820233258  0.5993068909054600  0.3958152918553257
  0.5958212892361828  0.1999167234510481  0.6005669239554422
  0.5998176693031525  0.4035271746902434  0.8007918800587729
  0.5998152050125053  0.7971616473259860  0.8009574142228617
  0.7993160428696635  0.3991314726496279  0.6015569291554100
  0.7984642560566028  0.7987928794200534  0.1984923614475907
  0.7975882773514787  0.7982859629437722  0.8010173073349887
