Zr Ti V  Cr W 
 1.0000000000000000
    15.3049263600240728    0.0210991764156478    0.0014043698117750
     0.0211177113804410   15.3207769799940294   -0.0248693554650044
     0.0014243645409182   -0.0248650016874502   15.2929843339776852
 Zr  Ti  V   Cr  W  
   3  15  76  14  16
Direct
  0.6061612458838436  0.5735521814375242  0.0024196636094818
  0.6032335532260286  0.5582124894549283  0.4046636229593906
  0.6159180185078158  0.7768449103817728  0.3887344630197286
  0.0028085962196112  0.4136201322063608  0.6017539071195320
  0.0018599359222803  0.5945132041655860  0.2001294021276109
  0.1993752459529285  0.9984259956783545  0.2078017727481349
  0.1891263697620589  0.1980237266587146  0.8000310361641898
  0.1940630282011235  0.5907792401112955  0.5974404026421437
  0.3985025111525013  0.2007529411687605  0.8102229461955572
  0.4046299882676001  0.7927270202511085  0.5955204413546831
  0.5927964443191831  0.0110767844755931  0.9980031818430225
  0.5964227860144330  0.2062425252260897  0.6076668809924877
  0.6185058123782498  0.8118799264225642  0.9980904550958755
  0.8049351136044194  0.9802762022781417  0.0004635931549110
  0.8017446721859731  0.9997014079943196  0.2043055010370133
  0.8006811336491754  0.2055335963008204  0.1859027870154495
  0.8050345565745568  0.6164026118217003  0.3999645238635523
  0.8110765350606439  0.7965760482339053  0.8255861832138138
  0.0037292326564863  0.0025807017059325  0.9997528280517158
  0.0061375847479441  0.0031879800866998  0.1977559230554528
  0.0048217953839929  0.0018432063815942  0.4018004073349578
  0.0027805058485333  0.0039166193103923  0.7973203419850255
  0.9957945696827314  0.2017644176087719  0.9971043409675026
  0.0056909410520305  0.2034221257218182  0.1968686224991771
  0.9965901090086378  0.2058170819244914  0.3997037895071865
  0.9996501836808417  0.2051283195729798  0.6057655500466378
  0.9992333576104779  0.4023700530354674  0.0003561250484720
  0.9992459974752638  0.4014300847159792  0.2009529201997302
  0.9966733688821584  0.4044232364358049  0.3981078176566655
  0.9977112378717700  0.3994579270603391  0.8012097601109713
  0.9934829215722637  0.6058601204903524  0.6019470728830872
  0.9997292618374238  0.6069924807709303  0.7976382280525843
  0.9975404835004585  0.8038630431893763  0.0020700210521312
  0.9984647913638219  0.7999256678491737  0.2040832542312450
  0.9980507140194159  0.8020367503180283  0.6009291928473371
  0.1994997247017734  0.0021732630987910  0.9954058296870621
  0.2031698714700046  0.0014922897764407  0.6016594181813942
  0.2018050367267328  0.2020556545737097  0.0031456877139415
  0.2046578824644736  0.2030795349538625  0.2007004609622940
  0.1975908826753980  0.1997327245269981  0.3982161611475542
  0.2001160290217934  0.2016137359131011  0.5970190632301579
  0.1990610442521667  0.3997510709919278  0.9984962032423044
  0.1982708870985744  0.4004137602241263  0.4019415129733674
  0.2047721413682525  0.3958089499881757  0.5974135766893980
  0.1969250306206862  0.4037534692288567  0.7964138759247898
  0.1971308809266445  0.6001911287445860  0.0011997228439284
  0.2015638315683853  0.6017463116058643  0.1993284550890468
  0.1985985103307916  0.5993906475014988  0.3960245505872133
  0.1999208525184486  0.6018579779980040  0.8024138807422070
  0.1966496768613060  0.8018732454860641  0.0039096938149217
  0.1982408740101885  0.8066543295902073  0.3999672500982732
  0.1972354343405789  0.8008804240529012  0.6007159324341517
  0.1919313827281356  0.8019494010755038  0.8005921749804560
  0.3950554814882689  0.0025537593104352  0.9993396795098146
  0.3984914793896377  0.9965377716017179  0.4000138096107886
  0.4028999154252815  0.0018659952536786  0.5986385883797026
  0.3929678350242731  0.9948169389789698  0.7979089486496674
  0.3980523949632532  0.2000866112128994  0.5999748202769856
  0.4017988177639771  0.3978719277797995  0.9990186750842537
  0.3995548231782532  0.3974846488722903  0.2002883590457710
  0.4001631439594011  0.4000050641474199  0.3975460999125471
  0.4043123235368688  0.3970735663502969  0.5974827833240189
  0.3972466054308313  0.4066394348134916  0.7987389439717448
  0.3943292759784564  0.6022276776311870  0.4014191905724872
  0.4005818282565233  0.5978791067538550  0.6018452718020686
  0.4052119831786564  0.7999638064844358  0.1957187065248275
  0.3963256680877688  0.7953632442627723  0.8033482304109137
  0.5970883063812890  0.9920297283773042  0.2022130582302660
  0.6074416504543440  0.9982172201600442  0.4013235512195836
  0.5977753982714941  0.9968607092481374  0.5983877661577961
  0.5961127851966275  0.9984663323301894  0.7948563162510615
  0.5946096855389900  0.1967068914517761  0.1976414195709577
  0.6012884920465338  0.1980580826857608  0.8049935429718922
  0.5985953803593086  0.4041141033858134  0.2023177345603132
  0.5981580500786393  0.3733737173719777  0.4030713755397385
  0.5985585820371279  0.3981219655976064  0.7979182572951818
  0.5959801932004906  0.6027099910726738  0.2031458096847338
  0.6003059402077799  0.5966417199374829  0.6032475045405680
  0.5913063731038886  0.6008435944559907  0.7986561156787599
  0.6030770349459598  0.7980293873365126  0.6014657901825554
  0.5960187201902659  0.8003045775311632  0.7972801992496455
  0.7985862942212614  0.0009952486690656  0.7939461594560980
  0.8009651946940279  0.2053832541352245  0.5982965619673243
  0.8000446539057150  0.1979534811407034  0.7997964501906615
  0.7961906549103366  0.3996753627113117  0.0003981923221191
  0.7984932529827923  0.4062412621724959  0.2027804192733710
  0.7932287148164822  0.4033525620607447  0.5988415470922519
  0.7989739458223126  0.4017777411256122  0.7968584303729098
  0.8069802158608754  0.5961968945606941  0.9991411120617337
  0.8019158212396236  0.6021522183639153  0.1961819653844119
  0.7975526453233256  0.6024160333185949  0.6029562709299322
  0.7985592575634101  0.6004784765862519  0.8020395164004498
  0.8167582407513333  0.8181716059039822  0.3963125202403274
  0.7970399931220518  0.8025439906306675  0.5914754741351261
  0.9994294290925754  0.0041152115198573  0.5999189804975349
  0.0006453164806672  0.6011537881528236  0.9977292971968345
  0.0026981034878443  0.6048123136683912  0.4050273138532858
  0.2006446658845110  0.4018041586858079  0.2006002397015027
  0.2011354215734791  0.7982663904133841  0.2006989756223922
  0.4017351471093460  0.0002506717155190  0.1998045970132447
  0.4004206235318347  0.1974850125005797  0.3965746543496149
  0.3963847609774121  0.6007318760890765  0.9993965239767354
  0.3974562523408937  0.5987527108394555  0.1982646030039173
  0.3955818727742384  0.8008473052767339  0.0002813893704295
  0.3983531991565736  0.7990418670481871  0.3948917930044235
  0.6000750048111281  0.1906113153191013  0.3952154081030325
  0.7991206443358104  0.0045247822829400  0.5974335659932188
  0.7969896023155126  0.4003859391227660  0.3999068976160575
  0.9937913401962782  0.2014798527009286  0.8008863601898638
  0.0026461474320674  0.8046075295481242  0.4027560391739121
  0.9633564194714557  0.8053823439333450  0.8367223301082467
  0.2010337601293659  0.0067438354390694  0.4057997456237910
  0.1984320558764164  0.9958715071333978  0.7984960926431626
  0.4021065905309957  0.2009335376265746  0.0029361009218481
  0.4003976445989125  0.2008180889111332  0.1915476847417436
  0.3941652355323809  0.6012786671952391  0.7982459401832754
  0.5998996392592155  0.2015692713483129  0.0009212708395860
  0.5995048686305484  0.3883945224594387  0.0002630727436517
  0.5987516803319903  0.4019099890380055  0.5982157740372227
  0.6098758174317827  0.7970367275191702  0.1852527047142517
  0.8047361598346745  0.0098954480587279  0.3984544884495059
  0.7965849379352371  0.2037140319204021  0.9956850072553632
  0.8030082964977772  0.1985456134158241  0.4018407212893349
  0.7972530303078700  0.7934000723211005  0.2098634199930931
