Zr Ti V  Cr W 
 1.0000000000000000
    14.6487180399853028    0.0083631850441115   -0.0697598224981927
     0.0083703895760087   14.4795738386407571    0.0557498378056520
    -0.0697496183387496    0.0548849974543589   14.7039055498997673
 Zr  Ti  V   Cr  W  
   3  14  93   2  12
Selective dynamics
Cartesian
  2.6936379499287777  6.0523722560592370  5.7045171100674050   F   F   F
  5.8901660540226439 11.3118361931793192  3.4479927913322568   F   F   F
 11.8027313937726550 14.0489186619548931  0.3610027991825157   F   F   F
  0.0774901384036618 -0.1933440657101114  2.8108615396834473   F   F   F
 -0.2158968809069655  2.7333493484937459  9.2425208525863400   F   F   F
 15.4433965225194747  7.1508457627991273 12.0196239566596148   F   F   F
  2.2992606079331264 14.7552050111583650  0.1658868301656489   F   F   F
  3.5409926839256367  5.4152026966621269 -1.0234848625021369   F   F   F
  6.6608433685656001 14.3554746503558253  5.4261127151850630   F   F   F
  5.8620280223029297  2.8332437625009339  3.1069937068545488   F   F   F
  5.7031353260917195  8.4528339839605522  5.7593304205463811   F   F   F
  8.1474288326417099 -0.1813610969457812 -0.4969422689376538   F   F   F
  7.8379041762448800  6.0374516627295831  3.1142590144757518   F   F   F
  9.7043807493005581 11.9467567613530452  8.7446458794896866   F   F   F
 10.4768481562893001 -0.3484100780522668 11.4884801155556620   F   F   F
 10.9310165391364418  2.4789307814468788  9.3511639545917618   F   F   F
 10.7560677837994376 10.7460463818436978 -0.0623715356018810   F   F   F
 15.3436828941287171 13.7010763725123361  8.9513763998587734   F   F   F
 -0.4917913293880357  0.4007477404866993 12.1963773407130116   F   F   F
 14.2001186302898610  3.7052964854163872 15.9080050527884094   F   F   F
 15.0962629333830112  1.4980565508724049  3.3297826687136753   F   F   F
 14.7773995627016017  3.2904071756829620  5.2553611048275712   F   F   F
 13.6454387098290137  4.3102761659080508 11.2746093526072411   F   F   F
  0.0996567861887522  6.0980245764040220  0.4440747172685687   F   F   F
 14.4182285571008979  5.1084531394469819  3.3705517688407598   F   F   F
 15.0717321166562375  6.3271709043608091  8.5170259662169236   F   F   F
 -0.9523141763518965  8.7237975226513562 -0.5181848768235295   F   F   F
 15.3657475765889338  9.1520825454715133  1.9229210984231695   F   F   F
 14.5290879445353216  8.6284570254923612  5.7047835147651069   F   F   F
  0.0601542780459384  9.2902855830362139  9.4193470206107417   F   F   F
 14.5701656944852473 12.1564648362191541 14.6375344165022661   F   F   F
 15.2238634799283243 10.9504791363761669  3.9632617313231462   F   F   F
 -0.1747092018333257 12.3354935946278204  5.8370770074531144   F   F   F
 15.6926513215974328 11.2984966007511307  8.9295714835908857   F   F   F
 13.5021803343153728 12.1261817487656014 12.3334262094080120   F   F   F
  3.6777930471903710 -0.2684125755898470  3.5248688907156382   F   F   F
  2.7723712833216472  0.2081781407267655  5.5157633917245654   F   F   F
  2.7506413485706238 14.8159057152224669  9.1743409744017921   F   F   F
  3.2532099346732544 16.3826950758597434 12.7483680529371668   F   F   F
  1.3665389196974087  2.7695358423817469 -0.4358040807067980   F   F   F
  3.0506776493693941  2.7275046686893485  2.8961692081003312   F   F   F
  2.1898184389454944  2.5792922673640435  6.6404835111567984   F   F   F
  3.3795559427320399  4.0119511073191383  8.7814533152559786   F   F   F
  1.9426113762584101  5.4621785703064214  2.0575124161606202   F   F   F
  4.1286544674843935  6.2169805468613992  8.0490753771729278   F   F   F
  3.4552983172923670  6.1515593320643012 11.1074784627193317   F   F   F
  1.8301301267223953  8.8360084485773349 14.5842902717199099   F   F   F
  3.4114009612047851  8.6671585679122085  3.1950459685690515   F   F   F
  1.9269029995438738  9.5113055600598848  6.5169635563570720   F   F   F
  3.4432262613110294  8.4686568443868833  8.5559014508489728   F   F   F
  2.9005049900552540  8.9509638213541525 12.3207478560383787   F   F   F
  3.5459171124123561 11.1827527182459399  0.5582292827817213   F   F   F
  2.2735525946632542 12.3015622003645504  2.9778615868700617   F   F   F
  3.4522268882802503 11.3637926957140021  6.2893817136849561   F   F   F
  3.7222210345183515 11.9826142117579675 10.0139735927689060   F   F   F
  2.5569053818273044 12.6357733114768713 12.0782988410418604   F   F   F
  5.2574318440591359 14.4441527812040391 -0.5570183861411357   F   F   F
  5.3178122239490042 -0.4315808676840120  1.8054214470107040   F   F   F
  6.5512524377493238 -0.1746249325060172  9.0178049652995593   F   F   F
  5.2556045819986688 15.0672080745310275 11.8171147017001914   F   F   F
  5.3086597786100809  2.4536472699678171 14.1183965590903160   F   F   F
  4.8304754755198562  3.0117419205401927  6.6413425015584897   F   F   F
  6.3759332716672805  6.0545023209188518 15.5112036808107288   F   F   F
  4.8643011027811456  5.9545704716776031  2.9269949769672694   F   F   F
  6.2331658720943288  4.9688971636319463  6.2648669056594510   F   F   F
  6.7014323241168698  5.7333737040065085 12.6354679346989158   F   F   F
  5.6174591016036324  8.3358339181288468 14.8821564144923340   F   F   F
  6.3836408875980792  8.2816778576329870 11.0299694087631206   F   F   F
  6.8853978960924351 10.6630800387016134  6.8746728575690961   F   F   F
  6.1362037692893932 10.5422592659772434  8.8341149539976147   F   F   F
  5.6806241656606815 10.3411078160707479 12.6405546345467901   F   F   F
  8.7790766121525721 14.9254632077779572  2.2331980308370598   F   F   F
  9.2646555112127071 -0.0446452529044669  6.0687124024675505   F   F   F
  8.7433806443532962  1.0918032141997809  8.3957653306088851   F   F   F
  8.0931863744105339 13.5561122778556875 10.5846150355885182   F   F   F
  8.4673222075923995  3.4040490523426259  0.5465111499723692   F   F   F
  9.6912919466738927  3.1652351045040099  2.6827105947306551   F   F   F
  9.0826298356781674  2.7688601481160546  4.9874255871265820   F   F   F
  7.4206796508784754  3.2446751618087264  9.9998408241868439   F   F   F
  8.2490679634108659  2.6102588135819071 11.8323820231414736   F   F   F
  9.0297378116243170  5.7955003351093852 -1.1682775598252531   F   F   F
  8.5233708159335855  5.6887208735631489  6.2716430860827428   F   F   F
  8.8066896845530032  5.3215593756808994  8.9133661184677901   F   F   F
  8.3772889921462816  7.0561857722532642 10.7504015829388440   F   F   F
  9.1063915984478196  9.6989238851386794  2.9126885272880134   F   F   F
  9.3918031517961733  7.9040604688000204  6.1095803381282341   F   F   F
  9.4716930093079768  9.1176218202237838  9.0810478790836733   F   F   F
  8.6048252090104569  8.8910788089134662 12.7834932055344215   F   F   F
  9.5301231934077588 12.1626075059927903  2.2647524412233886   F   F   F
  9.4522288556597651 12.0222093420692477  4.8052770189894227   F   F   F
  8.2883588058091764 11.1769478759171559 12.1285976651156897   F   F   F
 11.7530671295135427  0.3965438725635469  4.1385663257557574   F   F   F
 12.9548987930880859 -0.7066549403810707  8.6738014126905707   F   F   F
 11.2475276081581121  2.8416298747989255 -0.8991379962242795   F   F   F
 11.9700536014969323  2.2790733960666745  2.6900077597221177   F   F   F
 12.4486469107054116  3.5326991604935172  6.0646437185284761   F   F   F
 12.7354907334023260  2.2956955141038806 12.4879593495198069   F   F   F
 12.8244597789859878  5.9955579165745956 -1.1564971669078006   F   F   F
 11.0993382007496635  5.8036777057092603  1.3069511667183200   F   F   F
 11.0222595729472452  5.6119737058835515  5.0602355130467904   F   F   F
 11.3464953630590646  5.9898613666767533  8.8189196484506933   F   F   F
 10.1815843316561061  5.6190290041340303 11.5019950692944626   F   F   F
 11.7991558301098571  7.6549055231029897  2.0124053255203811   F   F   F
 12.0699845370409147  7.8898082232873534  5.5235789981481203   F   F   F
 11.6916959131947582  8.8963346422642502  7.9457002813858191   F   F   F
 12.3856848451568400  8.4628421552290902 11.4892498482526513   F   F   F
 12.4637998335157025 11.4051949097218284  2.8671271041000317   F   F   F
 11.9536685322318075 14.5741754235757277  6.2376781374182428   F   F   F
 12.5232001289453176 11.2733602539062865  8.7402300585716137   F   F   F
 11.9090940339718365 10.4643385456069442 11.4125192594273717   F   F   F
  5.3968586831977730  2.8049166042855704  8.9810766127612354   F   F   F
  5.4952443166580602 11.8394814559708976 -0.4140542952053540   F   F   F
 -0.6167305449068462  1.2722003758340477 15.1472515012660889   F   F   F
 -0.1093389096470924  0.7548980140862195  6.3565180722342971   F   F   F
 -0.8483373326833892  5.8122543947713714  6.1942579243519083   F   F   F
 15.0463471821341503  9.9603801581590634 12.0054696027969072   F   F   F
  1.8016475396001523  4.2712392051773653 11.6768780958476075   F   F   F
  4.8000838840894957  3.7572859248217072 11.4600175546562522   F   F   F
  6.0632001247305194  5.4934797854876596  9.7148913945006967   F   F   F
  6.7244753081179187  8.3676128336636051  2.4923453457766551   F   F   F
  6.9626896625893142  7.5916981204579113  8.1202932785614070   F   F   F
  8.9266836649458003  7.9884712752385001  0.8963229953657755   F   F   F
  7.6180468407897157 10.6705543722606944 15.1184122838741661   F   F   F
 10.9483622683718949  7.9350441232427409 13.7434560336527003   F   F   F
