Zr Ti V  Cr W 
 1.0000000000000000
    15.4411249493602298   -0.0057725826640909    0.0015034816595225
    -0.0057736157285930   15.4404920489432147    0.0129561230258158
     0.0015050534304008    0.0129519398306557   15.4493068869615229
 Zr  Ti  V   Cr  W  
   2   1 100  10  11
Direct
  0.4021509278518091  0.1949852696315857  0.9993887352206734
  0.7964448774641244  0.3981407215980880  0.2005644062388962
  0.7918757861508433  0.3957562343174477  0.6039461938805321
  0.9960755066512027  0.9995068091511726  0.9994457039256901
  0.9974693063309590  0.9996725896708066  0.2000310653037176
  0.0005222736366137  0.9989874411492593  0.4007166625932214
  0.9986207024050420  0.9981606866384777  0.6002146391469054
  0.0002649425665064  0.0003294116401691  0.8008762426821018
  0.0003233732082262  0.2001710475388004  0.9993781401504321
  0.0013490499598787  0.2015098542290354  0.2006224534893108
  0.9945622511537040  0.2011159117355383  0.4016364544676475
  0.9997998262710306  0.2012243946956985  0.6010444706284781
  0.9998962731109527  0.2015203171242157  0.7986458904888084
  0.0033305624629516  0.4017586171077370  0.2005148301887838
  0.0008857010423713  0.4014928986860208  0.4011879988626804
  0.0031452910436993  0.4041808804385789  0.6000805197025089
  0.0011401631994429  0.3991748555785090  0.8001205121541439
  0.9993705275999964  0.6007075737625951  0.2005243908212744
  0.9992596211171013  0.5995500294168592  0.4038690908864881
  0.9963761580446365  0.5991932470248844  0.7960919456094118
  0.0005027653303116  0.8010501668214508  0.0009768952607263
  0.0013817232465359  0.7992991691131737  0.2005170265764025
  0.9999455387355171  0.8001329432694146  0.3993923705739875
  0.0002203486421990  0.7962029764690651  0.5986458771401619
  0.0009139188013372  0.7998376695863189  0.8014202398353127
  0.1993409898320770  0.0021304594641189  0.3992538513154364
  0.1988338880200856  0.0001326094534948  0.6001575743135619
  0.1984125408787149  0.9977266955188453  0.7971463923779875
  0.1955881687834879  0.2022216898064615  0.0023724223980461
  0.1988025126829214  0.1992533000260232  0.2010388533871743
  0.1978026775328215  0.1989813038594453  0.4011354383362417
  0.1987386607400858  0.1993599587955374  0.5994117189655662
  0.2006415808203795  0.4007644937722816  0.9996825857591324
  0.2000475721938897  0.4007127643556831  0.1990017824029790
  0.2039672384362997  0.3981529284273504  0.3986987550981602
  0.2002292298231879  0.3982179747114902  0.6013170552824547
  0.1996535349782396  0.3997360315391133  0.8014845572455024
  0.2005168745583661  0.5999494416069132  0.9988213881160031
  0.1984243711877371  0.6008372805571318  0.1976158868899008
  0.1986056800440804  0.5998657295156340  0.3978751720430553
  0.1979059934970574  0.6000901762428879  0.6010422047888112
  0.1994068477697564  0.5995818881309565  0.8017999979472843
  0.2025564555398292  0.8668176905440672  0.0004428848442617
  0.2002175433009483  0.8006470714569154  0.1989681627360360
  0.2042484188861312  0.8013357423606323  0.3979562687566440
  0.1994979461600462  0.8005387408707729  0.5994861813902919
  0.2003252025467632  0.8008675106443558  0.8013550426133791
  0.4003733254819303  0.0001823466570352  0.1998182692048850
  0.4004793624743335  0.9985524866873561  0.3999916900580442
  0.3998255586196503  0.9979167455193162  0.5981815495269313
  0.3995458904116916  0.1992048172343664  0.2064834741969801
  0.4006132372578353  0.2023548050635210  0.4041803702633144
  0.3978671948511420  0.4011456672733156  0.2044287937910990
  0.3981536068437337  0.4043283194596784  0.5966673457709405
  0.4003170119342538  0.6008788565868880  0.9979840649552930
  0.3998444690967198  0.6000485600453805  0.4027148692167651
  0.3998178856376854  0.5982298891970023  0.7946136867752628
  0.4041003048666538  0.8005426795518293  0.9995590068120227
  0.3988342881370410  0.7999757738064472  0.2034527998520241
  0.3994461885329484  0.7959206041502668  0.5963774469643951
  0.3996805309339235  0.7978696129317207  0.7980815962046891
  0.6021260163127714  0.9940869035169374  0.9987891641309886
  0.6049596534962151  0.9999132675200305  0.2014363117437632
  0.5985270925557897  0.0004991659495110  0.4001292191609049
  0.6006662995784893  0.9985929054369745  0.6006199784412918
  0.6027892083402349  0.9986081040855264  0.7985406442463768
  0.6072282371660199  0.2019809010577069  0.0011923087661432
  0.5991260632262878  0.1999145939515148  0.2008506896788598
  0.6044445461878168  0.1996231609424852  0.4024647874615204
  0.6000283878850154  0.1983905158831658  0.6012685490446124
  0.5972655205636759  0.2004235725310962  0.7994144477223114
  0.5990387374407193  0.4019922513293947  0.0009708919920977
  0.5933288444240431  0.4009713498159659  0.1993269989956005
  0.5939376608863685  0.4005874511933123  0.3997536530400534
  0.5966211291387986  0.3993747919268905  0.6015912459246945
  0.5998040681672093  0.3996206750068142  0.8014075797184329
  0.6000383709970466  0.6029204941837255  0.9998156956887994
  0.6014212362331103  0.6005980254437401  0.1989676082643038
  0.6017983297979710  0.5996098796998313  0.3994765798814618
  0.5964792984477636  0.6002973424840063  0.6005746495376778
  0.6037046548076485  0.5974439256499386  0.8001183519772797
  0.5991870413189007  0.7987383242233219  0.1971853564138727
  0.5962363226028471  0.7992328904888818  0.3981868467407000
  0.5995825180934693  0.8006198243085910  0.6002305941017279
  0.5990729196149966  0.7986835584047549  0.8024234750260976
  0.8005215163437633  0.9978139252399107  0.6026296395403044
  0.8006005590325048  0.0009334712642277  0.8039744331089186
  0.8016860885289602  0.1970735598221902  0.9981149735410976
  0.8012575936138966  0.1918585005342589  0.2064467364622115
  0.7998635030346866  0.1956230903514331  0.5964839685925886
  0.7995428825235668  0.2007030664948769  0.7973298370283137
  0.7997759094691617  0.3991301200817900  0.9979870884891190
  0.7972931173315875  0.3960696818859709  0.4054021786480101
  0.7993970008678218  0.4017779412309946  0.8031704720490336
  0.8009170864604787  0.6015977214146958  0.9957951683903792
  0.8021598417063106  0.6042526453356810  0.2000242300628409
  0.7989778061467382  0.5991868294641490  0.4020547075406534
  0.8035007565854151  0.6022400975420820  0.6041860701686710
  0.7953268584674904  0.8029081161132199  0.0000027509036481
  0.8002355655050145  0.8038660498578000  0.2020531307208576
  0.7973018642286881  0.7998289248422538  0.4002300758438684
  0.7984861289719191  0.8017658347738362  0.5988203707134601
  0.7993169700889775  0.7963442384139264  0.8001430796912232
  0.0001527561735784  0.4013694752957615  0.9995539114696449
  0.9998357856731517  0.6007480156620562  0.9991392778055821
  0.1985302591133423  0.0001019705616583  0.1996798872747694
  0.2010216444821892  0.1989649190843049  0.7998466275680202
  0.4001619853486618  0.9976726917343126  0.7979900524134548
  0.3991494473457038  0.1994561016408027  0.6025179080424007
  0.3998701311726913  0.4038702685995398  0.0016578398327840
  0.3994330328868402  0.3991519241994662  0.7997738288256795
  0.3994589509363132  0.6008235056355916  0.1992293801826759
  0.7995003149210869  0.9997701112800285  0.3995890214038351
  0.0003970217819636  0.5998980190738286  0.5996794827554039
  0.4055253690418923  0.9960022557912087  0.0024762256956319
  0.4030944268754671  0.1985407671418176  0.7994867890676147
  0.3994433041410206  0.4002862902313883  0.4007424525590019
  0.3982278423436143  0.6010022564401148  0.5989196365606295
  0.4002085747922483  0.8013720556935847  0.3994230090793607
  0.5983486404286084  0.7981955480493957  0.0004790385147178
  0.7992704524819476  0.9997488188035778  0.0023735904506543
  0.8000739539114241  0.9993302891295354  0.1935643950048961
  0.7993827228106731  0.2018116092269416  0.3999168265461833
  0.8004137581195107  0.5993570999769693  0.7991831210677269
