Ti V  Cr
 1.0000000000000000
    -6.0000000000000000    6.0000000000000000    6.0000000000000000
     6.0000000000000000   -6.0000000000000000    6.0000000000000000
     6.0000000000000000    6.0000000000000000   -6.0000000000000000
 Ti  V   Cr 
   3  57   3
Direct
  0.2496823137873843  0.9987781415266990  0.7507942670052234
  0.5021599503985468  0.2527821364037616  0.7541643302433998
  0.4971774583378089  0.7465227925309097  0.7467056282549862
  0.7499154401857886  0.9989868312750450  0.0018409914967559
  0.4996965520529953  0.0011826786864314  0.0027463056753321
  0.7555362462554371  0.2524733062048242  0.0014720442505339
  0.2471402496434469  0.0001222338456781  0.9976434407909208
  0.4993787184781362  0.2508076170794962  0.9998738183892624
  0.7506352374604515  0.4996968992786540  0.0000173324562845
  0.7513622504231574  0.0831049224680361  0.2510076062733151
  0.7509113093029068  0.0049597055596968  0.5024527388621892
  0.0011157955444447  0.0009476803441343  0.0016302955869601
  0.2526448452392230  0.2522452763574386  0.0000883170970320
  0.4995144775472433  0.5004320972870169  0.0012116428014885
  0.2486161899867688  0.9973674867100102  0.2510005762815089
  0.4996210361304095  0.2499296654027103  0.2504084155675094
  0.7491010154958279  0.4984916701591839  0.2458357639163244
  0.4981180237563360  0.0008199252320820  0.5010447403400307
  0.7521888379632349  0.2525426420085258  0.5010984713079762
  0.7524106514570705  0.0017359470208690  0.7510434288895965
  0.9959644792090008  0.2498337935822693  0.9980168727353504
  0.2459134805548026  0.4997306012296321  0.9987512010864045
  0.4998762303638818  0.7513837888704229  0.9992832702466213
  0.0028715318685267  0.0036370229103629  0.2515794800801754
  0.2522399631557245  0.2480240239175025  0.2490589659899135
  0.5011763501540589  0.4997660906919664  0.2500718261502488
  0.7499670369694500  0.7526646840423730  0.2509548505044215
  0.2547153192874080  0.0015163379713074  0.5012631616739617
  0.5009603904924106  0.2506291138728361  0.5003322087487307
  0.7495632201781623  0.5006838761995909  0.5005828406445110
  0.5001921438340817  0.9984570692189539  0.7480449130472279
  0.9979195982206066  0.4963692494728298  0.0009081103934983
  0.2498555861916907  0.7509085787247998  0.0002344115417237
  0.0002333689790976  0.2511120254425178  0.2508574990462614
  0.2507826173606605  0.4998803535763160  0.2498982132562720
  0.5001065545669935  0.7480601945457567  0.2480985474101443
  0.9968133407086515  0.9990988554690965  0.4966181066211853
  0.2479142690635948  0.2479241382416757  0.5016210903099017
  0.5009233019442282  0.5000195968741374  0.5020632900284470
  0.7497193525241379  0.7505894673337186  0.4992496205979127
  0.7460892556592471  0.4948035917581375  0.7458496486993234
  0.0032223976650947  0.7526529980532525  0.0032081337493302
  0.0009351551089162  0.4996568078743985  0.2517960342736775
  0.2527407835550759  0.7534181060014353  0.2529175708528000
  0.9989639731782454  0.2476237934812753  0.4979761233967497
  0.2491576790562876  0.4992516377340365  0.5002953740038613
  0.5017515523086578  0.7529021129387955  0.5016096753383195
  0.0005422423098573  0.0023983920316484  0.7503644615571563
  0.2495314157370028  0.2508315777092853  0.7500070062754987
  0.5002463913058640  0.4996248777643416  0.7508625239392726
  0.7506657938669949  0.7486789451058418  0.7501875155644602
  0.0030827731773330  0.7477386175218240  0.2513342317692325
  0.9976719604338566  0.4975577799196689  0.5024374333050126
  0.2480179348506951  0.7484373012606478  0.5007331845037177
  0.0039059620257479  0.2537624774709794  0.7550259488073042
  0.2477726685046713  0.5017746931985684  0.7500986407760473
  0.0036152229537999  0.7498984548884718  0.5032457955572501
  0.0013524642216431  0.5038104242500829  0.7546664489464865
  0.2485851242672526  0.7531940539181647  0.7531340619349508
  0.0006042460519862  0.7502101259799923  0.7503292373659067
  0.4996107548074080  0.9978049878910273  0.2503380968276035
  0.7483650240444543  0.7458824071685788  0.9982801812552516
  0.7545723085034333  0.2515334171691803  0.7518391905610115
