Zr Ti V  Cr W 
 1.0000000000000000
    15.5050440400828347    0.0206650371517037    0.0304858292680132
     0.0207229526236000   15.4632172535306704   -0.0191964718441436
     0.0305150008632079   -0.0191743023753052   15.4329039499575007
 Zr  Ti  V   Cr  W  
   8   6 107   1   2
Direct
  0.0576424714989077  0.5644953373503078  0.9927555858820425
  0.1985092975602923  0.2078751721307459  0.8081410847295313
  0.2016667544845064  0.6010331299158385  0.3792101868995873
  0.1970664787402825  0.6039756758558605  0.8090288255789887
  0.1809323771516354  0.7519610123412673  0.1927358467590813
  0.6006484122278029  0.0027492516674050  0.5979094932021241
  0.5923559299758501  0.7959584233464873  0.2008700204917085
  0.8043050233186213  0.4296545430831966  0.1751880752074310
  0.0051477009031322  0.4029706275328314  0.6015424547344459
  0.2100602163498304  0.3821340104499217  0.9800513148927401
  0.3739021381527789  0.6100886269068021  0.2100141656227467
  0.7941472694744965  0.3991274540042224  0.5953833764876451
  0.8335685948121430  0.6033932771845151  0.0066398651040173
  0.7958432664274222  0.7975047017596901  0.8023936647872512
  0.0004657499321347  0.9965897692015822  0.0019043066773909
  0.0016947858261169  0.9985429798343010  0.2002252475716059
  0.0002401144462450  0.9950348141866519  0.3988201180127499
  0.0011400867183888  0.9999983094718500  0.6015409739354806
  0.9993136379780798  0.9991725857895875  0.8017917418491151
  0.0075475349926468  0.1938409946540286  0.0019217235677847
  0.9986227154773152  0.1989360034116182  0.2012270473015827
  0.9989089272234813  0.1988098832867682  0.4009393731170726
  0.0000952271391561  0.2001032667462466  0.6003339130183911
  0.9922388645611692  0.1996941072681270  0.8024701546197519
  0.0032899705220837  0.3943781184900121  0.2011169587217309
  0.0007465320450295  0.4022056975565124  0.3973237957571822
  0.9951902320073985  0.4015964338438367  0.8050166228442750
  0.9928015459758529  0.5939700787580067  0.2029749289936461
  0.9931179648130894  0.6044405608101321  0.4008513198075202
  0.0002621910789578  0.6019884916908325  0.5998094632368307
  0.9888747151897817  0.6025596981982850  0.7987670301927466
  0.0020231296121664  0.7979217784290172  0.0058806650157042
  0.9899084784634836  0.8009939949511576  0.2060385713101979
  0.9998703440045936  0.8001210631224484  0.5959447880003581
  0.0005737488331374  0.7990974255492532  0.7997430207154793
  0.2014788454553181  0.9948541733217752  0.0025623426279566
  0.2007334229996060  0.9966667142017683  0.2006693184003956
  0.2001910807099217  0.0004200474639442  0.3994821542288671
  0.1985316943477135  0.0043513355715825  0.6016218635592047
  0.1985920143767871  0.0008067170032072  0.8007236600332345
  0.1995735894978875  0.1889134178279048  0.0103132219854152
  0.1991564287275458  0.1942452433666952  0.2036530943411409
  0.1987406963214031  0.1996305345182071  0.4013885303739471
  0.1989191875483633  0.2015025337318598  0.5984769491800084
  0.1996014251972832  0.3864553237210418  0.1973063972916763
  0.2000325765489363  0.3964057837191798  0.3975727343435013
  0.2015115336749415  0.4028393336871123  0.5964252980449678
  0.1976299938632261  0.4028665888981580  0.7910041139341052
  0.2350983068982211  0.6152871242291869  0.0215887275282907
  0.1802553690896857  0.5606251808216816  0.1706711438657192
  0.1990924321288091  0.6000823678073296  0.5966174767595487
  0.2001359636375225  0.8006328063922457  0.9922697613187570
  0.1931226374898261  0.8078919432391289  0.4068128224639622
  0.1988139608880456  0.7986703140336912  0.6006767310777333
  0.2013298466846851  0.8069485737202815  0.7975415321533400
  0.4008413242839998  0.0018359041028910  0.0003896690041933
  0.3988726632537752  0.0039891302706898  0.1995380196082234
  0.3993242791072941  0.0015897190717480  0.3996360673365407
  0.3955410682220248  0.0013187409528010  0.5991780276076109
  0.3990460774036350  0.9973888579529349  0.8013880375779954
  0.3968265132732595  0.2011633941943509  0.0006232343919235
  0.3985958079064799  0.2038927084369113  0.2009901782917906
  0.4001711806948456  0.2006982135737878  0.4002520033019814
  0.3982206836018831  0.2029811294040412  0.6008760487845937
  0.4037711457117045  0.1996550121932245  0.7990600811336276
  0.4036309829845785  0.4020297463141078  0.9994555999222977
  0.3978720804969135  0.4008645065932955  0.2003691062731631
  0.3995023496517646  0.4027792737531131  0.4009894057641160
  0.3979704040545712  0.4024461498653824  0.6001170337017382
  0.3964076154260299  0.4046887377363800  0.8001259167253830
  0.4071417509674300  0.6015407426415483  0.0001613051293923
  0.4067421262314779  0.6022952686525375  0.4040890092402055
  0.3980025265973460  0.6017395410503229  0.6006819003416363
  0.4027387155862292  0.6050139520162771  0.8006924511591987
  0.4030111036630733  0.8066582578435701  0.9926753706292927
  0.3937503158872160  0.8090084114624896  0.1989885118787833
  0.3985043961462913  0.8019060173988137  0.4011023085048806
  0.3977875367610275  0.8010408768708122  0.6052285162906044
  0.6017283973268310  0.0036887985471392  0.0003447368182806
  0.6006601762343644  0.0043379302468818  0.1981328900023614
  0.6004289571748720  0.0011889697454786  0.3944804486606248
  0.6003146748807588  0.0008846543194672  0.8032534747165371
  0.5919146015704458  0.1994757602481072  0.9997227270552528
  0.6012005501789199  0.2038336096609233  0.1984350122465534
  0.5998224364936331  0.2032121667964228  0.3993154891318873
  0.5988572302275850  0.2070888348626992  0.5989210313620298
  0.5996211238188019  0.2029400200703819  0.8011680069267618
  0.5985565084378249  0.3993694128666639  0.9996396558212964
  0.5941173969532694  0.4027263546398101  0.2004102511767413
  0.5989839588907512  0.4016718130018981  0.3987055338515845
  0.5943595747651945  0.4031662974104778  0.6003847057365376
  0.5962311671571223  0.4041879170626198  0.7993669060202488
  0.5975581981576371  0.5991729948686746  0.0022067021438048
  0.6122956245267923  0.5940470027177082  0.1996817855755801
  0.6022428509817364  0.5999324816743458  0.4010338563467951
  0.6012439115202055  0.6003022366563794  0.8016177825481908
  0.6035525402628464  0.7984502417962289  0.9964778396944236
  0.6003780003362813  0.7996442460481731  0.4048504134287436
  0.5991498892974424  0.7970128661165063  0.6005611000361505
  0.5925227802356823  0.7998216910526731  0.7996908315659589
  0.8021123827368504  0.0011300843983383  0.9981287388895713
  0.7997199907182325  0.0079841331032902  0.1969793736781448
  0.8006385392305224  0.0017722026655398  0.3996643092951269
  0.8043119387833461  0.0009033736034145  0.5996612337818753
  0.7999770171805514  0.0039117084535757  0.8010096537491690
  0.9742036569011678  0.3842603201233065  0.0057215062696321
  0.8008649350365119  0.2058096245339691  0.2004582929252603
  0.8001426216806421  0.2021477424562061  0.3979649848834196
  0.7997306498500207  0.2001888870834504  0.5975758069816265
  0.7986832922807243  0.1995870858013558  0.7925763532274133
  0.7879300692758354  0.3563657617361249  0.9898854719825688
  0.8000617767389467  0.4021440426671992  0.3968175970248302
  0.7950915897500187  0.4006019053404454  0.7995600568969403
  0.8023508184311990  0.6197304385497812  0.2078653448424863
  0.7984550877443634  0.6011602426310771  0.4035481710877221
  0.7980763516430418  0.6022471843442220  0.6019104828210193
  0.7968598215560210  0.5960994537065381  0.7995616724820180
  0.8017482634323007  0.8042143942336141  0.0016898087763960
  0.7980240047261192  0.8093233285083442  0.2016316757045614
  0.8049384094486407  0.8026196203114927  0.4025834913168992
  0.7994054699233852  0.8009193467974294  0.6006999830129459
  0.5989070085301647  0.6009935780351798  0.6007823549937095
  0.0025508988257962  0.7978772440919072  0.3981702770731316
  0.3970812600947946  0.7988273540552944  0.7988587536579670
