Ti V  Cr W 
 1.0000000000000000
    15.3947628529237015   -0.0004726939770559    0.0021267196503963
    -0.0004726263884090   15.4017912768726095   -0.0008921615345846
     0.0021270963932924   -0.0008941263393480   15.4191178141427301
 Ti  V   Cr  W  
  13 101   9   1
Direct
  0.9946379806820587  0.1906266124759800  0.4009212571101392
  0.0002361546031204  0.4022771634665330  0.4010742437917392
  0.2062326292027201  0.0077212047632247  0.3933541093018726
  0.1984963656631670  0.1964042485804893  0.0048521608329397
  0.1990304616572636  0.1940475738655258  0.7951713471737328
  0.3976124888892444  0.0047619171039878  0.2011640739791477
  0.3936572945419883  0.1943096379790410  0.3996507816102990
  0.4002037712354155  0.8012345256117674  0.3960594695019656
  0.6042368343182913  0.1943558665140733  0.3997056159384733
  0.7993427071402621  0.0097056835269898  0.9970518007497536
  0.8028680789302172  0.0076572925674252  0.3987150921091809
  0.8006602506287639  0.1916052391509358  0.8045750133989540
  0.7993971398805859  0.4017843776787785  0.8019386294303906
  0.0027264809431704  0.0013507344194525  0.9982314316538373
  0.9997712123948463  0.0000206812467216  0.1989480572912657
  0.0027116579308488  0.9969680377584570  0.4005621815233505
  0.0014640627904349  0.0000082132998870  0.6008108092032922
  0.9987932198261689  0.9995129710313698  0.8005322771666514
  0.9984376198663958  0.2008678785790073  0.0006235085068016
  0.0011822142139142  0.1996745372385912  0.1986852294122465
  0.0011683218353935  0.1989233114857757  0.6023982183564350
  0.0016063838967095  0.1983287247227828  0.8003705795651580
  0.0011017297703274  0.3999071405039669  0.0000916635529154
  0.0009507987016861  0.3987122807141362  0.1984115029648884
  0.9999862396334693  0.3985298151620750  0.6029700513061685
  0.0023936114838888  0.3984437293462370  0.8014792016631819
  0.0004810732468002  0.5992562884138757  0.0001644725796943
  0.0003601057517680  0.6010135388405775  0.2002091327383645
  0.0001842368192517  0.6013859449910276  0.4005215554055864
  0.0002573488375212  0.5997583842542625  0.6006084870448427
  0.0000556728203266  0.5999973406057114  0.8010473721774819
  0.0000679915595778  0.8007626053165211  0.0002037238075314
  0.9999360554501185  0.8018740363677298  0.1995091668249721
  0.0006144231023291  0.8005926582370771  0.4003706287521879
  0.0000623851539276  0.8014594500638649  0.6008533529306919
  0.0008593142535536  0.8015223544059892  0.8005413302683613
  0.2012158805430019  0.9990241720390139  0.0014927118933275
  0.1977168550835288  0.0018891355728898  0.1968446130084561
  0.1961159277613816  0.2039894353829972  0.4001584432449758
  0.2042580383800483  0.3998565790285935  0.0013455754150644
  0.2001506208296308  0.3985862206208492  0.2022061522381868
  0.2024065056772974  0.3999943272134845  0.4000592827438306
  0.2007955267439647  0.3990991586254494  0.5991187820610954
  0.2002734574630712  0.3993837685742715  0.8002014212334435
  0.1998763242884061  0.6002632877767478  0.0018667205914207
  0.1996043345073645  0.5997558460902727  0.2020895841156127
  0.2007979190732264  0.6002107368569722  0.4009035564587026
  0.2002023290724141  0.5991135932544615  0.5993023978813453
  0.1996841008976634  0.6000168887753017  0.7987656321550766
  0.2010274954495789  0.8006275372228452  0.9999470227402600
  0.1993320335990449  0.8005837695190419  0.2007476762372497
  0.2001544921790264  0.8001730874138112  0.4009441233338760
  0.2006941663470166  0.8019011672338837  0.5999275182641031
  0.2008159368907338  0.7987726863844091  0.7997232188160635
  0.3996597295563474  0.0018126856831401  0.9966562098436003
  0.4028511885370708  0.9999600072773207  0.4004836448477184
  0.4020365256029209  0.2033818148546493  0.9985018085440408
  0.3998595673102641  0.2027124654294825  0.1975565321418395
  0.3976866042916744  0.2015511964619186  0.6025306964880912
  0.4000579051680170  0.1987876479421383  0.7994673241493691
  0.4006415463768920  0.3996581424532866  0.1981676785236457
  0.4013365370668925  0.3998407984277982  0.4005181631544644
  0.4002873925260197  0.3987408573557225  0.6017658352394512
  0.4000764080421026  0.3998065091318985  0.8049931873791731
  0.4005805184847515  0.5959890703809315  0.0007558712464424
  0.4000110060274615  0.5999527919286234  0.2021137179958498
  0.4001798443674355  0.5996384120842815  0.6010568457822449
  0.4002114272668827  0.5994880233759966  0.8008869343681023
  0.4004333072734565  0.7994839982234350  0.0004198721991600
  0.4001901715424840  0.7991842442170990  0.1970801963558129
  0.3999157703283985  0.7993264797635631  0.8014129530807000
  0.5972563115744666  0.0006120828168756  0.9994070806347419
  0.6019971597002504  0.0000385420632281  0.1997902644286620
  0.5979481683503287  0.9970987682068077  0.4007769698319398
  0.6005279086313781  0.0006931736065605  0.5992008894209175
  0.5983930302522731  0.9981573543206385  0.7987522802756322
  0.6012177517265868  0.1997301642312598  0.0008902808270195
  0.6014077193368268  0.1989219374237418  0.1996798941403867
  0.5991834568539137  0.1991598345052402  0.6015567896638531
  0.5990909472974578  0.1978236307296576  0.7999723254137641
  0.5970452953964813  0.3993456071828940  0.0016208143870777
  0.6002543311056663  0.3993242375599641  0.2025401609403008
  0.5991356327519710  0.3990730891639444  0.6002797877246091
  0.5995412181991043  0.3985320428993727  0.8006747017320202
  0.6007123575762933  0.5996290364695955  0.0014235852936082
  0.6013231394315082  0.6013430809565822  0.2018994451977586
  0.5998416498655756  0.6003830288289090  0.4014557193492695
  0.5999720758962351  0.6002026959942318  0.6000932556703776
  0.6008020135190009  0.6008061525727448  0.7997315351163237
  0.6007363172117011  0.8005646401550917  0.0008584921458567
  0.6012430437197461  0.8013442330137909  0.1998953130606957
  0.6021626564306558  0.8000960297096230  0.4001361205045696
  0.6003388227070722  0.8011525284969631  0.6001619170970298
  0.6001004920777817  0.8006590402884515  0.8008804712327536
  0.8005955628087622  0.0023925194029133  0.1985342057838794
  0.7995014031939411  0.0014791356913553  0.6007221994666018
  0.8000970017443527  0.9963468217064281  0.7974406832623573
  0.7998522700610687  0.2057637111631383  0.0040268651891218
  0.8019525275724522  0.2018850252378497  0.2025599527104027
  0.8001152572366664  0.2059300854515463  0.4004073272577792
  0.8009978274003424  0.2007089764349524  0.5987509889948630
  0.7990089688644806  0.4012607211416530  0.0035234772991093
  0.8004718039609162  0.3999183712309645  0.2018702234276963
  0.7969301902009960  0.4026025702447674  0.4005967011178315
  0.8000789136847872  0.3984845335893307  0.5990905465943341
  0.8001872775401695  0.6000276044960614  0.0015861809516538
  0.8005636761092972  0.5996712648812176  0.2014244308270752
  0.8008532452485665  0.6012843718466568  0.4002783048323059
  0.8001933427517030  0.5994026326763146  0.5996190460670646
  0.8008062036977902  0.6012644029109483  0.8001114190778051
  0.8013578193096769  0.8019905762058698  0.1997789337290234
  0.8004043351297190  0.8000310696591211  0.3996367993902280
  0.8010897004523361  0.8008962151058721  0.5989205319012573
  0.8000996302605995  0.7993577246715984  0.8009405008363448
  0.2022316777136143  0.0017934180617811  0.6030122334564283
  0.1992149790186475  0.2004682508767364  0.2032588970715239
  0.1988017283815997  0.1998076404739115  0.5962227642667147
  0.3001729189879243  0.9984801356400926  0.6998451678727116
  0.3978018854361327  0.9994706645743863  0.7979427676288575
  0.4005561596333850  0.5988070183621457  0.4011719587245022
  0.4000652551357978  0.8024167093517371  0.6027962609325932
  0.5993523914058432  0.4014666758238130  0.4007774941290930
  0.8002965294631404  0.7990419842655114  0.0004403998244316
  0.4009685024703850  0.4001580918703593  0.0019977297018412
