Ti V  Cr W 
 1.0000000000000000
    15.3947628529237015   -0.0004726939770559    0.0021267196503963
    -0.0004726263884090   15.4017912768726095   -0.0008921615345846
     0.0021270963932924   -0.0008941263393480   15.4191178141427301
 Ti  V   Cr  W  
  13 101   9   1
Direct
  0.9921829218080859  0.2002644190385608  0.3994968424100623
  0.9992959406564322  0.4123411381276085  0.4009651614752344
  0.2073606446039412  0.0090437003086594  0.3950298205018891
  0.1977878696727782  0.1980552248633500  0.0067680923620730
  0.1960768453380524  0.1977988110158782  0.7960641219631949
  0.3964334950785146  0.0038919818192787  0.2029426791750773
  0.3940892144848377  0.1953080000405407  0.3975374610624377
  0.4032826440054222  0.8033634456604101  0.3960800297851336
  0.6045620853365513  0.1944877716066444  0.3991169354568732
  0.7997303287105100  0.0091174102328482  0.9971412080668223
  0.8004284422401486  0.0103797596754425  0.3996839085095005
  0.8002450225757928  0.1908705319318367  0.8046886817900575
  0.7986723503668529  0.4014810701067119  0.8020872991452175
  0.0019823555372935  0.0015130331091244  0.9988914449708870
  0.0004426534851695  0.0003203311463029  0.1994843292336647
  0.0019615131496715  0.0004498334185012  0.4003581001787115
  0.0015050179202287  0.0002773451331861  0.5997653022908167
  0.0004079918784474  0.9995924194278749  0.8002005026589737
  0.9983497853406337  0.2007234922081303  0.0007129156977973
  0.0014464625559873  0.2006536572887520  0.1984278637997198
  0.0012428556495384  0.1997128533798310  0.6021056370562531
  0.9999062403188300  0.1988716832410120  0.8002364141047846
  0.0012733047076640  0.3994165636991178  0.9992705176141989
  0.0010819816768912  0.3998895059271090  0.1986857673597081
  0.0008048184912337  0.3985297473837744  0.6027821906913375
  0.0024990707022703  0.3982899894824489  0.8018889291959395
  0.0004964885035206  0.5991797192835627  0.9996778220596041
  0.0002844436946546  0.6005873881428456  0.1972545440068287
  0.0008275918418343  0.5984633998053165  0.6020373846046666
  0.0001908676221943  0.6001132157625392  0.8003625813085945
  0.9995847245421307  0.8011403400096414  0.0000581918800064
  0.9997118030056446  0.8003113737761467  0.2002715899051417
  0.0003335736802093  0.8041977517720516  0.3998787003290577
  0.0000222802550445  0.7990623105822284  0.5990709952066580
  0.0002211339596865  0.8011872227359195  0.8005888789730511
  0.2015151759923784  0.9989646381738922  0.0000183869107964
  0.1978781023575152  0.0014441511414096  0.1974870046540644
  0.2004689842281769  0.9977242340752062  0.7990289126296449
  0.1958091349959449  0.2049583573314046  0.4004403828472305
  0.2044960509020255  0.4003920036289080  0.0015139400605897
  0.2006987024415026  0.3977032444345324  0.2019713655474878
  0.2018597304216968  0.4001067870393665  0.4003458820527393
  0.2021036964936285  0.3972387493114266  0.5997887560809060
  0.2007297318412048  0.4003888307488158  0.7999599244712500
  0.2003405587053247  0.6002497529263650  0.0012935836879652
  0.1981760592704080  0.5993281702066926  0.2033946040348282
  0.2015583773645673  0.5994462886326426  0.4008169881347645
  0.1993156516704329  0.5984726665997600  0.5979962299330421
  0.2004024324863515  0.6003952237647370  0.7986979544939508
  0.2011185902925317  0.7998593464319744  0.0010859606379423
  0.1994645967613584  0.8005108891665069  0.2006314029544968
  0.1987462222757336  0.7978893996399912  0.4000138335097869
  0.2006975950859908  0.8002360314489430  0.5983844454264204
  0.2002433056978058  0.7997916612585627  0.8004607728317276
  0.4000835397216123  0.0014719920972116  0.9978780002015339
  0.4031564545704103  0.0008014296199268  0.4039915677413776
  0.4014086827459273  0.2029069051531448  0.9986001493446759
  0.3998825679052144  0.2020351963150011  0.1972525849279738
  0.3987598321965915  0.1993254670290034  0.6027717521779822
  0.4001311493768899  0.1983823495204692  0.8001002310140812
  0.4006538893876735  0.3994089582370905  0.1978432272488630
  0.4020472076270739  0.3988955566280284  0.4004968224055160
  0.4004501601053239  0.3977045313327761  0.6018279121927227
  0.4001665368750761  0.3990212289306351  0.8046816044033713
  0.4004902925969629  0.5959841231356423  0.0003742276292866
  0.4000037804593071  0.5999585166517574  0.2017036354934335
  0.4002848354661634  0.5988011329584536  0.6006909133633123
  0.4002718031727566  0.5995452638301361  0.8004098681126787
  0.4005679624458294  0.7995710571427274  0.0003562743218546
  0.3999027836669520  0.7992063423577627  0.1973486719707225
  0.4005984881198413  0.7988949429292022  0.8009408185414797
  0.5973552671193213  0.0007121447809404  0.9999778098107387
  0.6014890535226189  0.9998094769249539  0.2002237789686315
  0.5981296397947377  0.9973386358618280  0.4011819409234034
  0.5996646731889409  0.0000442365001936  0.6004023261858342
  0.6000111753971460  0.9983475895892303  0.7996442067968695
  0.6008617500960978  0.1998591088940213  0.0010399389304332
  0.6009405639499573  0.1985091889518246  0.1994543344839747
  0.6000237433819179  0.1988811817317771  0.6020160281090815
  0.5992932187845634  0.1978525600674483  0.8002594603508093
  0.5964697937023865  0.3991652942636604  0.0011703391159983
  0.6002015368653770  0.3993550376976994  0.2019649751186470
  0.5991052592224058  0.3983969070560859  0.6003664440496430
  0.5991546720130763  0.3983054951547705  0.8008023774375425
  0.6004125985004014  0.5995657328219847  0.0012608479477469
  0.6011667884181082  0.6012042543701934  0.2013341648834313
  0.5998386181899641  0.6001989375370642  0.4011609796582501
  0.5999399267750327  0.5994689263008195  0.6001532041102786
  0.6006771213645385  0.6008162042028300  0.7995022690601711
  0.6005728226376545  0.8005787819647736  0.0007792802926692
  0.6012811275146058  0.8011688926873165  0.1998087704941442
  0.6023710804178269  0.8003699884862078  0.3999577069111780
  0.6008843788601053  0.8004037639271777  0.6003353421437051
  0.6008181141833394  0.8005611309942625  0.8013094908584160
  0.8005111573431021  0.0018320171233446  0.1992634848263533
  0.8001942936814787  0.0006793769891567  0.6008353657067377
  0.8003563497012604  0.9958702032157880  0.7974300768583523
  0.7996734309318075  0.2053493165083147  0.0038910994470027
  0.8018003045461169  0.2006015653941091  0.2020293202219305
  0.7995250988955194  0.2077604148844670  0.4004012970068245
  0.8009828176612196  0.1991346706465161  0.5991223792861149
  0.7987788478502441  0.4009753476724654  0.0032926411536922
  0.7998837441965463  0.3986251668842906  0.2010855133600200
  0.7976239597935040  0.4039078906299355  0.4008255544897321
  0.7998622642253557  0.3969778852405538  0.5998121562826083
  0.7997226133942426  0.5996582712071851  0.0010750400998857
  0.8021218065480004  0.5992817448981917  0.2026966050711748
  0.7987797604814174  0.6009666289958875  0.4003812294028727
  0.8019596130977443  0.5987591575074757  0.5982701124589036
  0.8003498451947501  0.6008486654999623  0.8001464727326794
  0.8013485171716944  0.8017745570356870  0.1999705479037910
  0.8013668920210190  0.7980316445538830  0.3998498980954062
  0.8010419292968609  0.8007273870779839  0.5990605195030919
  0.8005146804277425  0.7990560875499060  0.8006917260384454
  0.2010442799825236  0.9999773828336076  0.6007372777310236
  0.1994104218036928  0.1999120880135955  0.2035462152198698
  0.1995382976900168  0.1985585422305866  0.5964622512035486
  0.3998029249059256  0.9991054959489446  0.6014756672684938
  0.3999016000586466  0.9989456534053149  0.7989914329196008
  0.4007484929529206  0.5981854285437239  0.4007179859578596
  0.4003550931661610  0.7999240313044490  0.6019991092366667
  0.5994840767746328  0.4013554108655343  0.4006393667525427
  0.8001015183732419  0.7987343181437075  0.0007740317827976
  0.4007930181961448  0.3996828776798935  0.0013556979856931
