Ti V  Cr W 
 1.0000000000000000
    15.3660384737921660   -0.0005376361430344   -0.0071098524204557
    -0.0005380862180412   15.3658728178464994    0.0022583698723901
    -0.0071112580112583    0.0022581408279047   15.3780529877332786
 Ti  V   Cr  W  
  15 104   2   3
Direct
  0.9975265797622491  0.9953621472081947  0.3975170626399844
  0.0020931382954027  0.1874395641213261  0.1957947623876965
  0.9898933505276341  0.3909349750218504  0.4017868051938489
  0.9934609627756372  0.6019678952189970  0.6013127222767369
  0.1927098916909881  0.0017004989692211  0.7969243515890075
  0.2003816064759221  0.3988771062261794  0.4025277942396979
  0.3985010125568267  0.2000958830291804  0.6068729264571351
  0.4047877689206137  0.5938181022132819  0.7942231665576445
  0.6110663626909333  0.0019113155026151  0.7904476945379924
  0.6088122538329046  0.8001745589159012  0.2026108168021563
  0.7925539859564318  0.0031121901002357  0.6034788969353111
  0.8041282953012221  0.2080600698242651  0.4045580895216696
  0.7997227522309657  0.3942232847608761  0.7970871838395190
  0.8009178613098842  0.6058629815895659  0.7935002938595995
  0.7981399656771081  0.7920931250341902  0.6027615509139983
  0.0013544560709020  0.9974089908883002  0.9970854605595957
  0.0004194026000061  0.9661738699686089  0.1984103804521399
  0.0001697342961737  0.0006047126831914  0.6069075826195456
  0.0012067777853082  0.2005929862310693  0.9959693570023140
  0.0028687379719179  0.1963629015167301  0.4044050365023839
  0.9992048791558458  0.1993036810276801  0.6021536006649432
  0.0025512076627111  0.1964006593477124  0.7999225342009614
  0.9994652960988183  0.3998120116346588  0.9984637178725622
  0.9993422211892165  0.4000389870173646  0.1981314509342871
  0.9973836250704755  0.3984057503546037  0.6043785281624775
  0.0008356494161743  0.3996261481839270  0.8001399157024504
  0.0005619799706212  0.6023104687728295  0.0007053259735585
  0.9998596810495516  0.5970512304259724  0.2005446118060644
  0.9980768745051434  0.6030294984920318  0.3981824910710319
  0.0020667788421674  0.7994009681689793  0.9989060334630516
  0.9991071590757056  0.7989800693635788  0.4060592387218451
  0.0011964232166708  0.8027957756141659  0.6029813715669127
  0.0022843683943659  0.8041408607925679  0.8026712361587955
  0.2004731297388593  0.9999332472030883  0.0030080954790752
  0.1983187420504136  0.0010739225423377  0.2011756789110376
  0.2020601203193599  0.9987460024711206  0.3986164570727619
  0.1990208735911913  0.0008100458187812  0.5942999070803213
  0.2020482246303155  0.2005551455747369  0.0004445441142574
  0.2033719962743540  0.2005263285076956  0.2006644480736779
  0.2003839095070752  0.1977743681748244  0.4005450127370410
  0.1972742872053435  0.2010923831976749  0.5988318257397441
  0.2046885841544258  0.2035813074771662  0.7977759952648653
  0.2002153469593557  0.4011310550385099  0.9991820529177828
  0.1989022636570941  0.3985998123243383  0.1991421666748106
  0.1973491050511816  0.4012478058615563  0.6009698234128439
  0.1996746076505559  0.4011535943067773  0.7998548724503863
  0.2008490299714739  0.5999812940087552  0.0009156744033878
  0.1976983991868421  0.5991715645658274  0.2012683812394395
  0.1983147063125283  0.6018400634523889  0.3994396893753367
  0.1986822114701079  0.6000379340651533  0.5990303832981941
  0.1987545147005952  0.5991517423655243  0.7988593425391668
  0.2047165784641653  0.7992561281030840  0.9999923628225500
  0.1982233083785641  0.8006282480973100  0.4002357375309209
  0.2013197540929617  0.7994814105007024  0.6004505962143314
  0.2021935039736994  0.7975899169951427  0.7983266551093972
  0.4019223257507759  0.9960351472960085  0.9988519702406454
  0.4013780957899069  0.9999341185208431  0.1994080916843925
  0.4004181439006854  0.9995674810412762  0.3990095516866751
  0.3990538359523781  0.9978087894994934  0.5999405344655748
  0.4010214181279303  0.0041328402951466  0.7980906013668468
  0.4019243395428317  0.1984267116010188  0.9975698372082568
  0.4004524765704435  0.1997082055171687  0.1983084307570344
  0.4004795025176190  0.1993093943895733  0.3998137166920264
  0.4005037893766771  0.4021594261396114  0.9994548761938570
  0.4000367171500961  0.3996001524175211  0.1989015631301663
  0.4001296957047865  0.4000907006128291  0.4001580628435917
  0.3996357626440856  0.4035745645303992  0.6005822873332300
  0.3993642135606273  0.3932710094205844  0.7992080342121258
  0.4012203475739929  0.6035724382913661  0.0003493336401044
  0.3996063514421942  0.5997764117322729  0.2006064290785569
  0.3998205786285727  0.6021389014819909  0.3991683332589621
  0.3989586326569929  0.6009539959572056  0.5977156319813260
  0.3964307677131639  0.8006907934722645  0.1960122241447372
  0.3996462067904226  0.8010193918194349  0.3992838975192594
  0.3988034491650374  0.8003749258763402  0.6028843887991897
  0.4008692600795649  0.8042049192797458  0.8033345882992636
  0.6036090527056404  0.0002119066085378  0.0003561240298771
  0.6014729376886105  0.0035853648789732  0.2006935174694282
  0.6002697607617865  0.0014290824671014  0.3997087687142126
  0.5967661138407058  0.0002353880859667  0.5952656335682148
  0.6006453124018470  0.2001537131332682  0.9986835633229334
  0.6003217137665902  0.2010444820091998  0.2009649054992511
  0.5979543100419378  0.2011710658391496  0.4020638031857940
  0.6023081455758625  0.2008235119273851  0.5998714084341967
  0.5980117865927087  0.2026424163407598  0.7987683546369014
  0.6005061023647520  0.4011102931452227  0.9993771235317797
  0.6000449223318958  0.3992627457806489  0.2000899795176444
  0.5978571851607051  0.4004852652594891  0.4006535314286897
  0.5998522677045737  0.4006847730036351  0.5991978769615705
  0.5986768864988480  0.4008416059603781  0.7987642116136541
  0.6010125978708586  0.6000746469436268  0.9990728833528224
  0.6011095042062619  0.5973263287608434  0.2013393109122648
  0.5992936039474814  0.6015628203534913  0.4008050135352376
  0.5990111253619705  0.5991816646741941  0.5997698445397692
  0.6024172654294658  0.5991646939644032  0.7982096343420548
  0.5978014983552571  0.8003348051911838  0.9963978875317039
  0.5993321302819791  0.8010929337862168  0.4043953234075977
  0.5961404531012153  0.7992527149319846  0.6014335813694759
  0.6013492106681899  0.7993665090724690  0.7987005220451570
  0.8013061310685683  0.9998354156824381  0.0027764161951603
  0.8028487009972328  0.0015868227189533  0.2021039498887269
  0.7979334149837504  0.0000041933689346  0.4005070335213071
  0.8068632442356518  0.9998007205033254  0.8041941323274194
  0.7999753352000931  0.2003265315458239  0.0001551733985179
  0.7983944394121263  0.2008814357230521  0.1988812253947889
  0.8000319811865411  0.2028158122571182  0.6041865136008850
  0.7996069656251207  0.1966191340712834  0.8004816124498286
  0.7998288925353155  0.4009910219306835  0.0001327882559704
  0.8004613475056672  0.3995865388219365  0.2003602006517672
  0.7943244869496933  0.4049465042142808  0.3989572607940379
  0.7988175742199661  0.3983230003637864  0.5960853150870973
  0.8005150906985986  0.6007893377565566  0.0007589763140173
  0.8018542546906615  0.6013427451782648  0.2002292890936216
  0.7987784734727797  0.6020771500186186  0.3989550005830395
  0.7974186142566134  0.5953605903957920  0.5966649792315288
  0.8006856960605427  0.8003026816288609  0.0033276632250928
  0.8017737476132347  0.8012421745064677  0.2015854253911000
  0.8000692076300236  0.8017316120582659  0.3993643340584381
  0.8009770567004468  0.8029293497871272  0.8034920288370609
  0.0028893732573143  0.6012476350608802  0.8031680250174357
  0.1960677942115129  0.7999475768120129  0.2005712125813482
  0.9994400216984096  0.0013300130959306  0.8006483107406612
  0.4009591076783371  0.1985606489687894  0.8043538442229315
  0.4022329353495964  0.7995018258050552  0.9989641400495251
