Ti V  Cr W 
 1.0000000000000000
    15.4073529780286407    0.0026422717652441    0.0115039126781883
     0.0026423919818586   15.4169890810637895    0.0057190451176722
     0.0115025714523025    0.0057202193077188   15.4178430470237693
 Ti  V   Cr  W  
  13 101   9   1
Direct
  0.9987626682330439  0.4079364839869993  0.5976083359605858
  0.0001992630608584  0.4053369258087232  0.8083148437740655
  0.9968531245298170  0.5998966076299033  0.0036575933736872
  0.9952774725124363  0.6009182972841219  0.4109905509523653
  0.1988071163755764  0.8083591633084852  0.8043691823053519
  0.4035062576006586  0.9979197913450681  0.4008121808619561
  0.4019733273790217  0.6048546404705296  0.9989102247392454
  0.6018792403410451  0.3969056599996886  0.3934138806510264
  0.6011847218246467  0.6073966723910317  0.3954904180620465
  0.5984338804140183  0.7923985802013489  0.0015180052248953
  0.8011215911873093  0.9970969859370783  0.9979466125809386
  0.8083273112911594  0.5986103108365459  0.1893219947384286
  0.8101605228207194  0.5968545968852391  0.5955318902687508
  0.0023172498987605  0.9984990649636246  0.0007620255817939
  0.0003719993506207  0.9997406632011474  0.1997345807817851
  0.0003613978153032  0.9990911355662986  0.4000414741114906
  0.0017075263519234  0.9992916444682379  0.6011190375657838
  0.0007190434011222  0.9987458610776049  0.8009058462419719
  0.0004739583756081  0.1989394056226356  0.9996382238072056
  0.0000124797996662  0.1983951878767080  0.1994048773441400
  0.0001938682075853  0.1997776406408330  0.3985723359998163
  0.9975846812959076  0.1991419895081159  0.6015172830994584
  0.9995918114225297  0.3985590256430485  0.0020719126785916
  0.0004009087558341  0.3996788916665355  0.2008020268096452
  0.0032006661353995  0.6000484254999967  0.2020942641621979
  0.0069296805824062  0.6037801842432442  0.6063388728461518
  0.9991241996691200  0.8008180913205351  0.0012908340922242
  0.0004284863793043  0.7995543929791101  0.2019194903325786
  0.9993345114687177  0.8013557289185956  0.4004322390761341
  0.0012791425429539  0.8013234095111832  0.6007067776875415
  0.9979899715341948  0.7995098597669889  0.8015581387266707
  0.1997684426052213  0.0005506791758125  0.0004126229806451
  0.1989300230728500  0.0002696320990903  0.3997987634026851
  0.2002540117687894  0.0000792841683485  0.6001918062071503
  0.2008265974545635  0.0029091743330126  0.8009003862772618
  0.1996950915519208  0.2001384078638488  0.9999796486007045
  0.1993035761833371  0.2012855703595323  0.2003314664585475
  0.1993647619927371  0.2002689812089679  0.4004442799107563
  0.1991557056176448  0.2015566722598478  0.5996379989139897
  0.1990731156004414  0.2018402502625008  0.7996958136306297
  0.2005031218861403  0.4011992955740573  0.0008063496909612
  0.2000211934163398  0.4011674237945715  0.1997536922083931
  0.1982368008504660  0.4010218004200940  0.3989161068540809
  0.2001763431655277  0.4014743582610441  0.6003682381827909
  0.2018119106946025  0.4018545269880758  0.8007115254040881
  0.2005165064035719  0.6009378157559754  0.0000806954832656
  0.2001507663964319  0.5998090517139063  0.2015120028465768
  0.2011099534704265  0.5994530428133363  0.4016585731767288
  0.2009186109873942  0.6004108263282957  0.8003054673253188
  0.1988909824135883  0.7996220307586297  0.0040075554711918
  0.1999153605623678  0.7994030676900932  0.2013515344834568
  0.1994718223575308  0.7994251854373803  0.3989454493772047
  0.2011496089643809  0.7995806747140127  0.5991092999610806
  0.3992811599476179  0.9999591176287986  0.9997107968445483
  0.4003424516251798  0.9994225324447862  0.1982937152215816
  0.4015525767443651  0.0005813763921689  0.6025442486648310
  0.4002121890348231  0.9991237079527339  0.8006478538809302
  0.3985605270922808  0.2005196988538838  0.9991144706292701
  0.4000170227064552  0.1995190155347806  0.1996407420245908
  0.4011486201206923  0.2024557602123949  0.4015229024357301
  0.3982163606468880  0.2011050331073525  0.5998573811640698
  0.4023902329780978  0.1998716364176277  0.7980691801542684
  0.4010828826821005  0.3990918809793673  0.9994265447874876
  0.3992509353405454  0.4008776164773751  0.1993300459845156
  0.3989532233444560  0.4010961637437516  0.3999447000680446
  0.4008489036808217  0.4016460123485862  0.7992185318585597
  0.4005593600838833  0.6002465136278669  0.2013075642244038
  0.3990423986309758  0.5992030570823600  0.4003824043684802
  0.4003196289735567  0.6010370329322833  0.6006280270571961
  0.3975042156382294  0.8015395281706482  0.0005297412598207
  0.3995036330766132  0.8003545706209816  0.2009386887268634
  0.4010553478033616  0.7970263164635379  0.4007179225493081
  0.3996601358626628  0.7990260473686809  0.5994900386310860
  0.4032961043363347  0.7988608883239205  0.8006130515823076
  0.6002050689499608  0.9992761088870937  0.1970910460715933
  0.6028799542874848  0.0002276950663218  0.3996556727906045
  0.5994585078222275  0.9964849583733502  0.5986665532323977
  0.6004900838380517  0.0001016701869427  0.7992774411314741
  0.6009565088684609  0.1992617118633140  0.9985582261052482
  0.6004207521017200  0.1989159276125716  0.1980573179844869
  0.6001466688376854  0.1984594032801487  0.3949671693573134
  0.8003987738536121  0.1991549416672774  0.7959736439353915
  0.6000665792235038  0.2003070941735927  0.8006805908843155
  0.5999735780317609  0.3996799937837677  0.9980178542131997
  0.6004117675553799  0.4004388432886853  0.1955039328048924
  0.5985129685533239  0.4051572890619064  0.5980426525050467
  0.6006001803706711  0.3993631570222648  0.7971382586827981
  0.6015027738270670  0.5960730540927249  0.9970309881454150
  0.5989658166382542  0.6005471922679821  0.1945137464695762
  0.6010973923809860  0.5999793579576579  0.7981596641015030
  0.6005356860375143  0.7997251190013256  0.2008269313523751
  0.6010325711454201  0.8022519752980489  0.3986800948723664
  0.6013357452491342  0.7985416570723696  0.5997650016274578
  0.6018570069639071  0.7991260678908052  0.7992747313461570
  0.7995209904324487  0.9988233365392934  0.2007064899440036
  0.8010092733023896  0.9996712478680243  0.3985366111764442
  0.7993339106438724  0.0017148949167212  0.5993647172872706
  0.8004717164954896  0.9987202140823610  0.7984375504534226
  0.8009960510854988  0.2009510706756037  0.9981578146194741
  0.8009896945539554  0.1995893087914697  0.1991386479630969
  0.8004229119481400  0.1993499729395537  0.4024575405321257
  0.7998091069632135  0.3987495584338022  0.9991219468615067
  0.8002971014119922  0.3981816503536291  0.1985239528340793
  0.8020764902477610  0.3994636164569810  0.3971729049685412
  0.7957116277856295  0.3929474202264545  0.5985192062156007
  0.7985496616718443  0.4005255757768991  0.7986749011985428
  0.7976677994932254  0.5985651245524467  0.9935212232376774
  0.7987749301630612  0.5993062426326594  0.3968530089493069
  0.8022646290975168  0.5989901551873830  0.7980685820875466
  0.8011699691063702  0.7960774158058975  0.0002216677119962
  0.8002166242170351  0.8011708132510718  0.1991688339586335
  0.7999005643129316  0.7996358548341501  0.3992813811560987
  0.8011008479700708  0.7999337017235451  0.5986295602565509
  0.7995810799820767  0.7991850596667700  0.7989482510396450
  0.0003985072716270  0.1986695145504845  0.8004878437571581
  0.0000430532817979  0.3973765228582218  0.3974329104337421
  0.0012352514163214  0.6049207844357415  0.8001247315883819
  0.2004237555125963  0.9997754863547819  0.1999052941807983
  0.2024346871519913  0.6010694758736017  0.6005213809212465
  0.3993840288045535  0.4009918642840834  0.5991211590870015
  0.4010869119978204  0.6004743273191974  0.7974527354255573
  0.5972397162834839  0.0007356330322503  0.9992709128364838
  0.5994840957056947  0.6012210500766224  0.6010414737316383
  0.8058013702545291  0.1996297227922683  0.5972926223028185
