Zr Ti V  Cr W 
 1.0000000000000000
    12.2882735461728885    0.0000000000000000   -4.3445607757035454
    -6.1441367710433559   10.6419570608175889   -4.3445607757035454
     0.0000000000000000    0.0000000000000000   13.0336823299999995
 Zr  Ti  V   Cr  W  
   5  10 103   3   3
Direct
  0.9996722861998009  0.2201348695612110  0.6006801748534680
  0.0036708375429743  0.4072881331445964  0.7998173694967671
  0.3927836221924251  0.1885565856663637  0.5949630912633105
  0.6002557326379665  0.5953872634291871  0.5946878943139825
  0.8012925553660390  0.1980649369442177  0.0005033994370815
  0.9986572065271703  0.1985170140718520  0.1970373760205471
  0.2020673822434507  0.8047841105760092  0.4226725737672269
  0.3793478853866520  0.9788591475977158  0.7788039516367686
  0.4020947914715740  0.1943158499701654  0.1886834373561868
  0.4003806265087295  0.2021061649617763  0.3938387052683597
  0.3990100886955358  0.4085075489089559  0.2062809755706399
  0.6016204946646236  0.3963658527025167  0.1990959539238723
  0.6040030020617312  0.4034458993597665  0.8059532315537780
  0.5965072972361096  0.7954666891144900  0.1968130812118773
  0.8036732150470053  0.3986743570714401  0.5967652640805049
  0.0024325396952644  0.0013959937767680  0.0018529954068471
  0.0007140671969320  0.9971709703893309  0.2005699721287551
  0.9981842605613550  0.0002293250754722  0.4000598754846186
  0.9999010363060632  0.9954470563892142  0.5995181278485706
  0.0003618694813793  0.9947642830591977  0.7991115077631528
  0.0102001419773778  0.1999456571073734  0.9950721553898262
  0.9976260293446138  0.1975285152941266  0.3928785290872094
  0.9999463124076979  0.1932156058457411  0.8088764795599896
  0.0040993947417825  0.4045915561124511  0.0077431275376171
  0.0070296187589120  0.4116567136910565  0.2099499418466071
  0.0078007483039518  0.5038970438625811  0.5946590459614451
  0.0021036464169886  0.6018374674160095  0.0055168922846526
  0.9982815837294011  0.5992631097609042  0.1991083456907973
  0.0976365604704423  0.6987355235211031  0.6008387720070284
  0.0038696183788300  0.6184344827243280  0.8117071439404164
  0.0030634007886783  0.8007696248244482  0.0028858888286404
  0.0022752491218637  0.7989155739327044  0.2037915546445767
  0.9936857431247125  0.8034591013011164  0.3978456880576859
  0.0130960668639831  0.8030408723434761  0.6020350728894572
  0.1917682645336100  0.9913163324081634  0.9951591559771436
  0.1963871938912525  0.9949825643394384  0.1956213741574092
  0.1860510182556405  0.9914532481465659  0.3880609340365031
  0.1947246359278951  0.9998602859298961  0.6000368487395666
  0.1953098772946468  0.0025496629081271  0.8007405908687935
  0.1995797825956615  0.1969240649380378  0.9982479620422315
  0.1998651212874446  0.1972205011020010  0.1988390046681074
  0.1925194654513105  0.2010675172089816  0.3972379432506425
  0.1950954588261294  0.2003914329872851  0.5988462862752554
  0.1988396021047929  0.1989746228033795  0.8004203350051637
  0.2047981808512322  0.4017500397980352  0.0061780608190108
  0.1952537902841104  0.4016072229246823  0.2008891076192749
  0.1953406163481356  0.4026673525121634  0.4032662764170837
  0.2041528792260087  0.4064126461714330  0.6021073021374453
  0.2228098416710581  0.4116213149014945  0.8149809294737222
  0.2062092481818272  0.6074363258145569  0.0093695751216190
  0.2008049581017567  0.6019701940663509  0.2033826275204128
  0.2000727926525183  0.5965718356320794  0.3978715534352169
  0.2009305629539384  0.6124051618298804  0.5994435757772152
  0.2043450904960636  0.6014075379028819  0.8005682287050763
  0.2025307737086449  0.8002321836987990  0.0055705908374164
  0.1996183806277800  0.7997810956391853  0.2023010241145491
  0.3994085974446152  0.9965350747147877  0.0008937172601689
  0.3969629272282141  0.9928751202338633  0.1981685628118788
  0.3993116501673751  0.9918965955192119  0.3965845150846132
  0.4150052617402956  0.0007177436801588  0.6058739697337250
  0.3933931734094882  0.1919076083057147  0.9863174233869241
  0.4002548205406662  0.1997444983608547  0.8077368724949868
  0.4005679928374778  0.3982704506507717  0.9985175350318053
  0.3833225796604706  0.3938288774462237  0.3943332157516196
  0.3949399298566928  0.4035035585636342  0.5981688937363827
  0.3977880169780865  0.4021101274762675  0.8008776160732037
  0.3977561765237849  0.5981245035574846  0.9982110297409753
  0.3999377249260758  0.6048078213339645  0.2021509022681310
  0.3978289236698569  0.6000544899186245  0.3987270159235601
  0.3906688564320228  0.5996267744907156  0.5997615716999906
  0.4017901628939181  0.6017646305194825  0.8008265476485485
  0.4003588268033486  0.7987467776590902  0.0007245950700759
  0.3960670599096682  0.7995186332223824  0.2021433526817441
  0.4020091754152503  0.7986925493600689  0.4010186952440421
  0.4010327267187492  0.7973576960597420  0.5984311362437618
  0.4041764093991893  0.7968107545081429  0.8041316248500399
  0.5953123310491673  0.9932645488162812  0.9965683993036917
  0.5978562239296173  0.9974965652868789  0.1958265165515719
  0.5968209095761858  0.9927070968688487  0.3945995003482274
  0.6006342154712495  0.9933474046010141  0.5986205180617332
  0.5959093878510863  0.9926446207385207  0.7931715927004225
  0.5922411943821670  0.1972277211438383  0.9943430684538446
  0.6062302229482248  0.1918223710316125  0.1965372211895287
  0.6005211407885573  0.1943568238948089  0.3934054390515005
  0.6057797154675271  0.1965989654548684  0.6004210277240594
  0.5992130537376548  0.4006429885099131  0.0014956273261809
  0.6070957658982891  0.3995473484512683  0.4059152153755092
  0.6035623914234622  0.3954095256085480  0.6024262270327932
  0.5992485004546337  0.5981558081530673  0.0022813692959020
  0.5999478174406425  0.5983537453447809  0.2012821203579585
  0.6096585757726583  0.6055869922917696  0.3968878896811224
  0.5991911505874854  0.6030469774491983  0.8051434172959528
  0.5978998810484547  0.7979019539474967  0.9964194556651957
  0.6021160424168930  0.7978271453014131  0.4027552235404974
  0.6023645512052893  0.8038746015291359  0.5984065165915065
  0.5993352360067395  0.7998969823561719  0.7973029736522774
  0.7947874767649971  0.9864794226146145  0.9943453835997911
  0.7969141842165079  0.9978866075699975  0.1992854519429598
  0.7980660363342023  0.9969289148412553  0.3959626058828256
  0.8000248660999559  0.9945939232244920  0.5989237233982293
  0.8015357767104951  0.9941206860649654  0.7966326881345938
  0.7971038788610754  0.1979380567845838  0.2071671566511042
  0.7962418642322965  0.1987390724026451  0.3962481853037694
  0.7777761413420446  0.1806002638714403  0.5892695587897443
  0.7964269796006315  0.1957584211898031  0.7949952546544400
  0.7960595147842757  0.4017793341269655  0.9979771691693504
  0.8014483108637810  0.3993526053335682  0.1975550492544835
  0.7983161091797349  0.3979611276657855  0.3925631706033342
  0.8004291683744483  0.4015657314029121  0.8074075698924014
  0.8054372622054138  0.6032823177149687  0.0074518216801194
  0.7978840143233703  0.5987785695144315  0.2007048868081786
  0.8048841242921035  0.6042426638359967  0.4035349568333155
  0.8181968139732196  0.6098068479635271  0.6049798782709551
  0.8012908428851342  0.5962053100204604  0.8011883454427294
  0.8024111016849761  0.8000751052330097  0.2028155938282720
  0.8016479074634740  0.8012664093528860  0.4010798622271631
  0.8048889864773479  0.8022978895132313  0.5993466261775890
  0.8110456830921589  0.8035671503772250  0.8048043948644334
  0.9999802874829190  0.3967774217863211  0.4016435223791666
  0.0008600931256274  0.8005532083844795  0.8025145475235970
  0.5990952259060505  0.1911798471356605  0.8006130386553959
  0.9998161447499073  0.6004924804293126  0.4016091936639206
  0.1990088939720623  0.7995126600007550  0.8014502924332304
  0.8005505642671404  0.7982774361130436  0.0007650768881608
