Ti V  Cr W 
 1.0000000000000000
    15.4171836946855763   -0.0006458025225840    0.0021743795697675
    -0.0006464432342440   15.4108214600062574    0.0048957167363750
     0.0021730867805691    0.0048939939426410   15.4267125679285311
 Ti  V   Cr  W  
  13 101   9   1
Direct
  0.0007767697094060  0.3973818871821521  0.3979943837310153
  0.2083516180828519  0.1991692378501682  0.7923247669667368
  0.2003542539293766  0.6057088073031441  0.0056052790803705
  0.1991782236069743  0.5982538115018066  0.7917881728247311
  0.4009328449743418  0.9947885283038667  0.5996313993404646
  0.3951276398992362  0.2049316049101845  0.6066442701632131
  0.4028386952526049  0.6029893389050776  0.4012869173348582
  0.5969796987524504  0.9990918409791938  0.9961189365275843
  0.5947136313941249  0.3988550162394991  0.4042600417298366
  0.5906226103670242  0.7983255570817115  0.4013459441994488
  0.8019249518605664  0.4070356390075738  0.9904026275690245
  0.7976735751907933  0.5933723871757325  0.8044675281838142
  0.8040935390760611  0.8017166260012155  0.4017515525537994
  0.9993814179279226  0.9970328255544170  0.2014127876851664
  0.0000082375556088  0.0001507304195500  0.3997764933971062
  0.0006307657029498  0.0002841700234153  0.7992682261710873
  0.0016584117371496  0.2006398265416032  0.9972200652910211
  0.9999804136752670  0.0343173985567228  0.0341291106074978
  0.0002663441580202  0.1980577164484478  0.4028974506569233
  0.9989732227854944  0.2004366625223268  0.6006989399258456
  0.9995942214897301  0.1993164891401271  0.7999689789120189
  0.0033982621528868  0.4000188365655212  0.9989691488492075
  0.9995596304795932  0.4014043750701919  0.1960872938362217
  0.0014029416793502  0.3992242125351254  0.7997988608683076
  0.9969394411404059  0.5996924918619705  0.0001087622551243
  0.9978477311271254  0.5985873325935354  0.2014037515930671
  0.9992173650097017  0.6010371543132007  0.4001373179321923
  0.9976776121851283  0.5986817409275900  0.5996809271819669
  0.9993951989402431  0.5989049848055193  0.7995158264124806
  0.0026379892011656  0.7981410173280105  0.9990712021796295
  0.9982984848812004  0.7987468753718534  0.2005370455888027
  0.0031233871223038  0.7987995559262183  0.4019250936401603
  0.0009577752649772  0.7986338560688673  0.6022259895773575
  0.9993796246085721  0.7989983388725237  0.8000911583782291
  0.2007890770358950  0.9978821352794882  0.0000599729249463
  0.1988890719238456  0.0004558915832010  0.2012901949560590
  0.2001413880485014  0.9997326829730845  0.4003759391502686
  0.1979017180071910  0.9985858710072298  0.5996496916235520
  0.2012480759376311  0.9985092198206968  0.7990150871243793
  0.2000760276464900  0.1987244318880906  0.0026705637081268
  0.2031686176654740  0.1999413976289320  0.2001134041902435
  0.1987982479082042  0.1991446050705079  0.3983797654733384
  0.1973185863823242  0.1999682852856194  0.5958053342556919
  0.2003718537469762  0.3992065329816187  0.9998252893154352
  0.1993107951461236  0.3988280025229792  0.2007518797248293
  0.2024054532414456  0.3996966151273617  0.4003747666822768
  0.1983701643081373  0.4007826682262274  0.5995735043956424
  0.2015543361497964  0.4002487577917147  0.7995840792560974
  0.2003661071951577  0.5994959482764242  0.2043169572373068
  0.1983826512493199  0.5999320749970772  0.4003699636557083
  0.1991882633519912  0.5995961169842569  0.5959387511560136
  0.2011838812373607  0.7987522842348715  0.1967888121756263
  0.2001526435269969  0.8008203402674405  0.4002426436596709
  0.1998643435152132  0.7983241031059820  0.6023303843791238
  0.2015994267801154  0.8006374196152730  0.8040131784484491
  0.3990591138015654  0.9997963738929035  0.0010691979145552
  0.4017171646540071  0.9990818587862300  0.2004368150809324
  0.3995555697663534  0.0006155082358603  0.3996349865293902
  0.4025617893645802  0.9984082295343982  0.8021237272191102
  0.4003953756600351  0.2001469256265853  0.0014128310848405
  0.4015692097173270  0.2001309049798862  0.2000949199141997
  0.4003619730716499  0.1996046142818276  0.3989318975446476
  0.4048842795098817  0.1995216439564575  0.8036731525311649
  0.3984297255158717  0.4003475668639559  0.9986318368262066
  0.4011563491093212  0.4011880351124776  0.1992937352432044
  0.3979293950555841  0.3984924258869720  0.4008452161362603
  0.3990988567641063  0.4035851356073394  0.6016663888695273
  0.4000781497275107  0.4002279732775086  0.8013357687667824
  0.4017869968140317  0.5994664429306696  0.0000588315104680
  0.4016713740977403  0.5995412111976794  0.1990151063657254
  0.4002666230646815  0.5999344541251317  0.6020362551175354
  0.4026017446685107  0.6002651901984076  0.8003752839177963
  0.4009413909049271  0.7992318960248419  0.2011926767821327
  0.3957523549175622  0.8019464488375990  0.4008340386058278
  0.3991468576673644  0.7966505500045281  0.6022135754262927
  0.6000701102190349  0.0010874753482746  0.4006879428856850
  0.6023544406121273  0.9991756856579203  0.5990354623976788
  0.6007231454719578  0.0001168447519113  0.7960159916091922
  0.6005363317003806  0.2021303787526195  0.9991540877888254
  0.6010638144038835  0.1998528982588275  0.1994168139856859
  0.5987120193825965  0.1983947417911923  0.4006251111990367
  0.6019595466266748  0.2004159478419366  0.6000381212333772
  0.6014522198004610  0.1997729363807188  0.7995997433191817
  0.5979201417889154  0.4008739257604599  0.9991201827192837
  0.5991151801288809  0.4003431966648960  0.6022378546536916
  0.5991602748810884  0.3995755499267188  0.7985981521314184
  0.6002570873011943  0.6004874312166577  0.0001925435502839
  0.6005792248666760  0.5987788630549498  0.2012672748663497
  0.6016163985102960  0.6001535655909246  0.5986900910798114
  0.5986204748883166  0.5991740985210786  0.7997078211664820
  0.5994364048689588  0.7982133094066486  0.0001073275774794
  0.5996389120104456  0.8001626379523104  0.1983479704678698
  0.5992754450803118  0.7990900338696210  0.6027331331154183
  0.5993631868169887  0.7993231538186920  0.8006064081215702
  0.8026690084113689  0.9997600757522667  0.0007403155648700
  0.7998984462401895  0.0007691560468939  0.3997575372041095
  0.8006462310042018  0.9991851780309275  0.5987206622513657
  0.8003979866523859  0.9989856013781847  0.7998968460595759
  0.8013237522921590  0.1985206824334792  0.0012674773341013
  0.7979014945842365  0.2006868913189201  0.1985791335327718
  0.8013156885444164  0.2000751380026257  0.3977952494882132
  0.7999652590697368  0.1993176394451884  0.5988235377498137
  0.8001758339641900  0.1984543861742956  0.7986687110796383
  0.7990844803785413  0.3998706454081406  0.1994570943020084
  0.7987325918048771  0.3995639643997090  0.3981445734288429
  0.8007994679805416  0.4003013904981898  0.5984137206540351
  0.7992885632715061  0.3955043763687785  0.7957311796105073
  0.7989300719356944  0.6035919376524718  0.0045422349821266
  0.7986478198306194  0.5981769440160698  0.3988089736371330
  0.7998966670270353  0.5993946055789440  0.5974367765980650
  0.8011672821135785  0.8010933661330962  0.0000376819895128
  0.7982684800351283  0.7987031142343952  0.1993403425232639
  0.8000491448282718  0.7982638870017171  0.6032255726143968
  0.7996404032796229  0.8011938324189941  0.8014804591399990
  0.9995537166409553  0.9986780391822624  0.6004345874339854
  0.0000691254298124  0.3997763903050274  0.6022098158403303
  0.3992857643076954  0.7995208676453233  0.9999802173553822
  0.4002114536072612  0.7987088776546354  0.8017489559357955
  0.6008192428663335  0.9995991609286794  0.2024415357907024
  0.5994835395263048  0.3996435443049746  0.1970567124051270
  0.6019312692652870  0.5993293985900101  0.3999596000052302
  0.7992262664210109  0.9995606465170330  0.2004557066806971
  0.7989861514865420  0.5997757991273638  0.2004367576412243
  0.1968623318072097  0.8031859439792414  0.0007232013474570
