Zr Ti V  Cr W 
 1.0000000000000000
    12.2882735461728885    0.0000000000000000   -4.3445607757035454
    -6.1441367710433559   10.6419570608175889   -4.3445607757035454
     0.0000000000000000    0.0000000000000000   13.0336823299999995
 Zr  Ti  V   Cr  W  
   5  10 103   3   3
Direct
  0.9993039333044189  0.9599600772915150  0.7217823595633559
  0.9922374192708192  0.1830584905412903  0.9867154156667588
  0.9971141644212411  0.4008542679088015  0.6057512475855619
  0.4020643463367443  0.4005353451131903  0.3980688324675264
  0.6061284122732821  0.4036192194187017  0.0052865051191781
  0.9885366261668141  0.3961729635743467  0.3912313620753067
  0.9956205263933521  0.6066561484557466  0.0057559672127585
  0.9991097985737716  0.6001596596243308  0.7964156785467316
  0.2119699338490320  0.1960941521406308  0.0017538233750904
  0.2016933278801170  0.1974380330546927  0.5997573504118283
  0.1925309164280906  0.3985389507705790  0.3923919679371571
  0.4009983291821725  0.8018919083298472  0.2028848983307223
  0.5990162713587515  0.3999848946503161  0.7943072273064284
  0.6011169490291838  0.7983168889787936  0.3981932749937304
  0.8015794298245397  0.6053032749377276  0.4020425620237740
  0.9993592160943745  0.9839451975274025  0.9969658476040405
  0.9988271482059060  0.9997438154859694  0.2000745152311330
  0.9973222999602609  0.9954863393499475  0.3955425062120846
  0.9910117603374849  0.1905451355967893  0.1976887599666202
  0.9995726097710751  0.1950716791363685  0.3971604326834131
  0.9962306406224505  0.1736067971974592  0.5984618207648532
  0.0002369474534542  0.2129190157949400  0.7885821588304860
  0.9949425031388267  0.3976905141003010  0.9929098634585301
  0.9986738181065212  0.3980759254540975  0.1949671751033685
  0.0004777583234137  0.6023946193455364  0.2067252862438896
  0.0017166688040513  0.6013770286066834  0.3966827513544181
  0.0018423665004157  0.6231936153710828  0.5969095801943127
  0.0000503350465843  0.8051647619707636  0.0013127955534984
  0.0008220499108824  0.8043536892964351  0.2031871792129463
  0.0011389079668998  0.8020263376626064  0.4074250169168411
  0.0037521909831096  0.7991790881225420  0.8048436013000434
  0.2054616975451879  0.9947745267395288  0.0033473565829786
  0.1994849126764750  0.9983594091095873  0.1998191948976747
  0.1971444466545487  0.9971277906475743  0.4000592011132520
  0.1846402160434664  0.9949569706479141  0.6006766785002706
  0.2193156012875830  0.9990893527796341  0.8130710764359371
  0.1922713970225121  0.1875104884807809  0.1943608467872464
  0.1960895440993460  0.1905703242895355  0.3934031930514497
  0.2067595757319749  0.2037226274984002  0.8009409647947555
  0.2029242902284867  0.4025544044363857  0.9996766004519761
  0.2031908683112314  0.4038137737124334  0.1944466216527149
  0.2057507952576086  0.4029587865595565  0.8047594782450967
  0.1977572581967363  0.6009100338438872  0.2003854691894092
  0.2008680811124335  0.6062210499965179  0.4006679438328421
  0.2055993177679879  0.6090753000465693  0.6026514010835329
  0.2167374979614290  0.6130841389018663  0.8082186228432583
  0.2052457470074220  0.8047124874863035  0.0055422234633567
  0.2006811351862775  0.8065510766785113  0.2095187914704557
  0.1976727267128244  0.8018039624822051  0.4032368874324713
  0.1998600738875921  0.8027906721922347  0.6022130214726491
  0.2046674272149790  0.7992725303664354  0.8044460217208834
  0.4062767535843691  0.0014980215503194  0.0065753474607026
  0.3991073842257027  0.0027766945861576  0.2016308556853915
  0.3966552959011278  0.9991786131864913  0.4019260919688699
  0.3960932215048001  0.9979926432013404  0.6006063944572693
  0.4002678610649931  0.9986542109283195  0.8004445742023338
  0.4068380817176966  0.1978324554521799  0.0014767658600980
  0.4018575238159924  0.1949690664341639  0.1976593029951967
  0.3961663276382126  0.1894660145057182  0.3982771377276689
  0.3976570326628633  0.1922683661272007  0.5949965089130954
  0.3910765820195070  0.1895350902381239  0.7905337262715066
  0.3994816585042802  0.4026643856992586  0.0038552028052361
  0.4077078937854083  0.4048738885606283  0.1961834346110840
  0.4023134148859509  0.4006580898237210  0.6076547771663997
  0.4009015345934018  0.4031154712643225  0.8074765656964145
  0.4062956968165397  0.6042052576497745  0.0049987353831578
  0.3978625182351131  0.5944069828855614  0.1976146547095753
  0.4019842122559792  0.6130046777816514  0.4018336869791583
  0.4060926576148480  0.6102670780204066  0.6063094834376688
  0.4053999217196519  0.6060019695243098  0.8047915720602833
  0.4047398666996828  0.8040477369198387  0.0009977724033648
  0.3947097982641893  0.8025572321753955  0.4056375460304592
  0.3987452809259588  0.8027467905473669  0.6020680337450609
  0.4022343644492396  0.8028819543665549  0.8013000988383804
  0.6006089962959603  0.9990862412550320  0.0012344867716547
  0.5997997666419985  0.0024999777500748  0.1993541762425271
  0.5971193815979222  0.0010642044237921  0.6030520896455684
  0.5948504517560508  0.9985125820892121  0.7988406897572996
  0.5998325424913123  0.1923577949782452  0.0038046389251368
  0.5970035273724428  0.1991264229170306  0.3966847239172112
  0.5948256610841477  0.1994706047757697  0.6025821177636245
  0.5965788393621164  0.1936671879100412  0.7985192424469127
  0.5985771854580452  0.3935949678183251  0.2053208781440905
  0.6080060026073645  0.3998016962263023  0.3989313451664280
  0.5997258598469385  0.4001328388000172  0.5981531004400613
  0.6059355572650796  0.6138261240038808  0.0057795249373277
  0.6048111799359078  0.6067614846114068  0.2057947380406288
  0.5982372346097568  0.5983686122619051  0.4009489915754746
  0.6080614329296404  0.6093802504034878  0.6119827441750172
  0.5993253311095590  0.6056389193747511  0.8027615152120231
  0.6034736368937572  0.8056429384694710  0.0036124152940790
  0.6066334829234473  0.8028940535772249  0.1980860196685070
  0.5978302231774955  0.8008167221057764  0.6027496471652499
  0.6008703514320960  0.8030109925922725  0.8026557968256901
  0.7961870958097251  0.9960798201871268  0.9972903930384668
  0.8008015398259181  0.0003304069200180  0.2011418671949286
  0.7976185913017455  0.0001052903098403  0.3986387918790158
  0.7987785825416246  0.0039390693900075  0.5993268293088226
  0.7798353084025121  0.9835613354238392  0.7811161322153765
  0.7894764256811205  0.1963946268492938  0.9967926344534170
  0.7912267826609087  0.1926023973472435  0.1947541181166343
  0.7961956552350634  0.1943659743599987  0.3936412373607962
  0.7964160661417204  0.2015972139139631  0.6028123166907713
  0.7917016488947601  0.1955147050490987  0.7946060158013668
  0.8093297485991169  0.3994814318223861  0.0007975784301409
  0.8033795205307245  0.3999919554340455  0.2028144017673179
  0.7904743139423420  0.3950041182306352  0.3963039508439349
  0.7831867229133856  0.3952680673807210  0.5965504913822881
  0.8007528425468795  0.3975653578542209  0.7983172683107358
  0.8005769508989918  0.6110190470625204  0.0080454031812407
  0.8138271980641689  0.6158630709587973  0.2103576462078766
  0.8010132032771767  0.6002506354976805  0.6064355775678927
  0.7967605580080043  0.6023686075606214  0.8027755817531003
  0.8010702558035638  0.8046925364119213  0.0021392953905989
  0.8038042874688782  0.8054995009592204  0.2046612907392827
  0.8184200407778220  0.8217964308140162  0.4154317266071841
  0.7895300169436740  0.7894148974491970  0.5928332118363859
  0.8003109926426979  0.8014320730340858  0.7999237704938075
  0.9956631934494310  0.8936337375192305  0.5925152754033722
  0.9954903466167895  0.4001135311014946  0.8063814305947283
  0.6008953847029247  0.1971672860472643  0.2000630168789395
  0.2072695351139769  0.4051470859158883  0.6028043876027513
  0.1984433800427864  0.5990847826728546  0.9967908026911492
  0.6018720680608562  0.0062401570446446  0.4050210464661722
