Ti V  Cr W 
 1.0000000000000000
    15.3901465190355609   -0.0011250204104957   -0.0011259532101999
    -0.0011247543542261   15.3962745551000300   -0.0010074302771283
    -0.0011269524369024   -0.0010081141208892   15.3968520262370543
 Ti  V   Cr  W  
  15 105   2   2
Direct
  0.9986237099899539  0.9963623125802101  0.9962238768599524
  0.9973188090865867  0.9968095669547469  0.2095732650696373
  0.9970103162815096  0.6044502811914445  0.5976833067184385
  0.1997952057832785  0.1984604532708711  0.7998268382266464
  0.2070697614776650  0.5998448699951796  0.5971323520905157
  0.4133893707129583  0.6002189999605848  0.6025696408774639
  0.6039896398103397  0.0014119761491664  0.5973713979625985
  0.5947586314538550  0.3965371536641251  0.2074074185984994
  0.5977212216843890  0.3959618691733773  0.7950877560693043
  0.5976953916559579  0.6051530352794258  0.7911356226885636
  0.6066401946002979  0.7936972509278145  0.5955724467530013
  0.7930137010150153  0.0006485354990224  0.4047782680140075
  0.7979835634945074  0.2012722498904561  0.4022286981414389
  0.7969849185919233  0.4074957267076626  0.4078973117189751
  0.7913263551335438  0.7960653007583741  0.4071500887687245
  0.0011866778069838  0.9999189632231175  0.4036596024055418
  0.0012152219737521  0.9985816328639791  0.5999760651913097
  0.0005610773063722  0.0004159130638075  0.7984989887412330
  0.9976417552842911  0.2021670626947113  0.2000778369854670
  0.0001203313994365  0.2000105269452117  0.4001550943776951
  0.9998171756186360  0.1986990159734602  0.5993252567640583
  0.9980854250085728  0.2002852723488790  0.7994385316444870
  0.9998339472136697  0.2397394306626037  0.9994054062503845
  0.9993875665180689  0.3990897325651590  0.2053502819106450
  0.0030672713054836  0.4003293969833766  0.4033095002243188
  0.0005543814339459  0.3983426901076687  0.6004332911929413
  0.0015663543686602  0.3993908052362776  0.7971313636982486
  0.9997542310084315  0.6012026295910345  0.0004786491621160
  0.9952876211915092  0.5987133070895454  0.2002451069126280
  0.0000949607487081  0.6008406296259017  0.3980601518120349
  0.0003470802455752  0.5978615273857969  0.8037816618751514
  0.0003754555513513  0.7979354050188230  0.9982313401497218
  0.9983452045430177  0.7984818776957174  0.2037396031162729
  0.0019109754348134  0.7999134657156464  0.4062410593651161
  0.0011844010557082  0.7986095521085238  0.7954272799304087
  0.2016893744540816  0.0001818187499392  0.0003439254225454
  0.2010544453200139  0.9997161476965070  0.2007279280103552
  0.2017010418863968  0.0001837923842402  0.4003442887447679
  0.2013195510627158  0.0008868952856533  0.6003091901850374
  0.2014026724972305  0.9972107670000500  0.7998841328679940
  0.1995894990581930  0.2007627841429687  0.0021782456848004
  0.1985089350654206  0.1993008160990095  0.1995430801366829
  0.2006666764960191  0.1998726929099141  0.3988155106621953
  0.2000737709852688  0.1992984963987476  0.5977427288689335
  0.2012045840744990  0.3990822502550522  0.9994275735874034
  0.1975198903378817  0.4001695374076905  0.1990402742785873
  0.2005711449399920  0.4000231981859357  0.4007177134946558
  0.2017696274498332  0.3989653837098838  0.6006773385069223
  0.1983284857371336  0.4025819619556326  0.8008778973413446
  0.1983749093166470  0.5982949043601640  0.0024012673412601
  0.1985065731899917  0.5997969689791265  0.1995910711863778
  0.2020844100412967  0.5996916141784258  0.3967267141699485
  0.1999351033198635  0.7996933948412333  0.0003918670993408
  0.1989384506217383  0.7992254656799048  0.2003048229460604
  0.2000729498293774  0.8000769749854131  0.3999668732353406
  0.1979092957329363  0.8006630059681108  0.6001482692929631
  0.2003433741862948  0.7982464741796157  0.8002867511384842
  0.4007649817045913  0.9998856432557451  0.9996516743649897
  0.4007534690515867  0.9991622212482049  0.2002264623548846
  0.3995368824076697  0.9996661461228090  0.4009839629381060
  0.4001163971731045  0.9996416689600132  0.6002713886751231
  0.4005437178014219  0.9988648826887386  0.7994867381285712
  0.4012551803423026  0.2000403695993548  0.9998699007923499
  0.4010287277267063  0.1998547548840286  0.2001022679142584
  0.4001574663609342  0.1996116027209881  0.4000203474075543
  0.4016978835027932  0.1994149694093180  0.5996755144331017
  0.4028060532751843  0.1990756610312902  0.7997239462393754
  0.3991800442187032  0.4001125051461590  0.9987160351269604
  0.3974624080518784  0.3995476728480166  0.2003582336706866
  0.3980168263408694  0.4002581768578710  0.4018238974075806
  0.4014255426477045  0.3977042022856353  0.6013464371458187
  0.3963140704178293  0.3992172855541543  0.7987252478406689
  0.4011192049114679  0.5992042766051613  0.0006861522012971
  0.4021460529755741  0.5998015389982896  0.1995353605909729
  0.4023353988477159  0.6000475087616924  0.3978242088081194
  0.3974729792763992  0.6000784518988128  0.8019798690594780
  0.3998058077878438  0.7988699824984099  0.9987432684945762
  0.4002564368400936  0.7996522634503953  0.1998774160346886
  0.3982147941449011  0.7994086985800728  0.4010781703138480
  0.3984946457316598  0.8014151025774336  0.6001853874907512
  0.3993773307333922  0.7994852316670749  0.7985480745368218
  0.5992497494533888  0.9998911502936956  0.0000723065697301
  0.6009219620818023  0.9993940183669963  0.1998790976102933
  0.5956385707462252  0.9995939023506722  0.3971782063392915
  0.5999930555627121  0.9983996771384732  0.7996691737011747
  0.6006860944655221  0.1993452300200419  0.9994502623507344
  0.6022759785180773  0.1977644934010249  0.1997798212243601
  0.5983804625907846  0.2003932067157314  0.3987345658341983
  0.6018986143197527  0.2012459907534019  0.5989241600706118
  0.6008911159249060  0.1968742588622706  0.7983990163890414
  0.5980702108675205  0.3995721695329953  0.9973918370588062
  0.5958124120933271  0.3997972942736794  0.4030163186812477
  0.6013168163401554  0.3985324563387449  0.5970349749510705
  0.5995865449878286  0.5999827626116934  0.9996660206738399
  0.6050965169309886  0.6020741790757853  0.1994324123705264
  0.5999238154289085  0.5995044237646450  0.3971976719704384
  0.6063478094498538  0.5961211088111111  0.5944595953722276
  0.5991134714561740  0.8007027190420825  0.9984864509938068
  0.6002685617651135  0.8011374194826155  0.2000375607397504
  0.5950572875802084  0.8001620414335533  0.3982240423323004
  0.6003881987589591  0.8020358463951780  0.7988633249264986
  0.7978344337061770  0.9999206070821427  0.9996981512130734
  0.7985448590592940  0.9998377642674828  0.1989365422820761
  0.8034969339849328  0.9991247092296242  0.6040290180338744
  0.7992153322660688  0.9989748274083440  0.8010154666650720
  0.8000181804939722  0.2015563888412379  0.9995605405087514
  0.8006846310062623  0.1994787229129228  0.6029216997915059
  0.8000547969602547  0.1986305573012481  0.8012707680640516
  0.7963960233732550  0.3997115311321812  0.9988252904236838
  0.8025032158190444  0.4026320356874235  0.1968632546010807
  0.8002325343229174  0.4000036096562072  0.6050172472789903
  0.8035556533352091  0.4005995655563830  0.8017092018636460
  0.7998445339836235  0.5983816289231867  0.0028389190986668
  0.7988807777510678  0.6004018723440105  0.3947326118607877
  0.7991051598645402  0.5996009492078022  0.5994225396114298
  0.8006801933449236  0.5993789123099618  0.8015821784558863
  0.7994387498221104  0.7998564678086675  0.9993930241477356
  0.7996741290208078  0.7961326172713193  0.1987020491778633
  0.8082838779902890  0.7992604064867442  0.6043079749838346
  0.8003058502749533  0.7987480958115564  0.8015508930324576
  0.2000578451048614  0.5999112094655279  0.8042505634061593
  0.7999085593973233  0.2009468231160293  0.1962556221510668
  0.0024778337047376  0.8035276713484146  0.6014956849424303
  0.8004845192389504  0.5994991416018253  0.1979082799124237
