Zr Ti V  Cr
 1.0000000000000000
    15.3990340272275770   -0.0170018773457157   -0.0022529018582575
    -0.0170107766548915   15.3787801482628375    0.0165544931564424
    -0.0022517709109467    0.0165430754876648   15.4057927644380346
 Zr  Ti  V   Cr 
   3  13 107   1
Direct
  0.1914469891537831  0.2011925724231893  0.3731473351809952
  0.2027694520107325  0.6185670578257956  0.3835354921498181
  0.3824017530511883  0.7950870299462347  0.3900652763155288
  0.0018291509808102  0.0063217490681267  0.9964777445874556
  0.0003046994578142  0.1948076613821931  0.8089560797365322
  0.2032004248036874  0.1995638400706452  0.1756240585491046
  0.2031299446807818  0.5911012207837054  0.1834444333086354
  0.2083931444490389  0.8014457096158941  0.2132370218597908
  0.3915784153993858  0.2040801158525282  0.6035215077011800
  0.6096960046893084  0.0144541991809533  0.5926733958603262
  0.6046514963034312  0.1917778415958064  0.4126456160611492
  0.5897844293202392  0.2029015843536524  0.8126476526356305
  0.7953792820255424  0.1965193453124735  0.1965406867104867
  0.7844339828111950  0.1953501518496230  0.5935657345012274
  0.7973928396770880  0.1989960238216541  0.8027422829826185
  0.8019286195245848  0.8026593451865266  0.1994517341694194
  0.0037201754448446  0.9985190149849078  0.2055594791284302
  0.0017683685488644  0.0008656765921056  0.6005154367177664
  0.0018316632189984  0.9974967929367889  0.7979091931627139
  0.0007121312505001  0.2030183749020178  0.0069898395564966
  0.0019054388638679  0.1982202163628941  0.2024765841790525
  0.9917598096658058  0.2032035645684508  0.4015668193919199
  0.9980876827472638  0.1989876331245479  0.5977816697974000
  0.0005159420273639  0.3998865626939985  0.0020699933189271
  0.0001058914190702  0.3983595947677940  0.2018200412440107
  0.0006791388806620  0.3997176755837112  0.4013591339505073
  0.9989915499580448  0.3987280542320648  0.6019598865324508
  0.0009193668035066  0.4003851840533896  0.8010406092301042
  0.0012325770094936  0.5997230363475584  0.0011946599572341
  0.0004134001387996  0.5991490958015165  0.1996930416570427
  0.9955965525783255  0.5970043807797420  0.3990530382537167
  0.0011205190626618  0.6001835226723098  0.5982250136387617
  0.0001719000015965  0.5994988955328389  0.8012444614596410
  0.0025402109154686  0.7990355665295522  0.0026052857192984
  0.0030848278603955  0.8006041373235849  0.2009655986982342
  0.9963393164603316  0.8652815272513606  0.3997792194996130
  0.0000375239435924  0.8012136150243705  0.6002297063248351
  0.0004069393729387  0.7988160164234727  0.8005198175577544
  0.2032158348707327  0.0001588001909703  0.9998991341189543
  0.2022179724965357  0.0038137756168295  0.2012866174567970
  0.2014919163784494  0.0019792457064332  0.4019112478136548
  0.2015844866813820  0.0037607198939183  0.6002560771050879
  0.2023853292465609  0.0006993648704879  0.7989431575219983
  0.1992582885463173  0.1998749565176814  0.9880817172401409
  0.1954173360124938  0.2010954964142841  0.5963360211961145
  0.2013882256497393  0.1996354456596990  0.7959642053541790
  0.2001145000117740  0.3983102234001111  0.9993838938694333
  0.2012605125912239  0.3959107428182999  0.2008356901271401
  0.2000915443291507  0.4056542542530688  0.4016856163396326
  0.1997124226436001  0.4012515297895657  0.5991957200317252
  0.2002144625074042  0.3995180061225722  0.8001354803466392
  0.2007312321931265  0.5995486792673229  0.9934738946343278
  0.2005414651803652  0.6014440919609797  0.5998641679073135
  0.2010903820069095  0.5997048700603419  0.7981719209712315
  0.2010259144579237  0.8002861043918668  0.9995655279539010
  0.1793556701590034  0.8185641099595832  0.4088370153959568
  0.1996010690666860  0.8017089089727164  0.6031239450966438
  0.2005155861203095  0.8023270100144499  0.8014793648102990
  0.4016640994697445  0.9998454902483621  0.0021573783069560
  0.4021079517052167  0.9979818321808374  0.2012959022504821
  0.3995153755937673  0.0043396045524919  0.4010172873507767
  0.4025861397880823  0.0003894192021747  0.7986515975637216
  0.3993122789184548  0.1986045173233682  0.0022546382436535
  0.4010590423802408  0.1985737014538287  0.2018728081521123
  0.3993436361277852  0.1993656154716096  0.4006064365216691
  0.3959402394188643  0.1994143349395355  0.8057558928869546
  0.4005621361020479  0.3986884613175510  0.0022120921666626
  0.4015762788083309  0.3977359111869962  0.2020744146337543
  0.4003096694023603  0.3950839340584679  0.4018173814896403
  0.3996585316771213  0.4014511301822297  0.6014840955513481
  0.4006975146732230  0.3992973506541904  0.8007359387554769
  0.4006890786213899  0.5990312772643677  0.0007900871550961
  0.4039627914275244  0.5970482741821922  0.1998301428368920
  0.4086838505909939  0.5905211483867489  0.4001814453295366
  0.4007800987299986  0.5988590110985395  0.5995185544893091
  0.4013123882707743  0.5999625956959904  0.8012866797568905
  0.3998710685619100  0.7998570981361581  0.9976141665150505
  0.4053117127831836  0.7997252007053007  0.1912218975356584
  0.4001600692812533  0.8007038123389255  0.6017925787150584
  0.4008710135232789  0.8001051905924931  0.7997045044573701
  0.6017887758209911  0.0004065018765356  0.0005664642229025
  0.6027354774653843  0.9998575994341344  0.2028332461450728
  0.5955200076259247  0.9948785037766532  0.3985691399215336
  0.6009619441661442  0.0006721660332079  0.8014368114679037
  0.5999745266918041  0.1997626384602957  0.0076201212225232
  0.5976127023060762  0.1982641308843315  0.2020404944233113
  0.5916918394227368  0.2062245456025540  0.6091723820738534
  0.6015198701383140  0.3994311536497023  0.0015797240449258
  0.6006119225105467  0.3974479601266149  0.2029513904584748
  0.6012743196743605  0.3990124020200841  0.4023460655306321
  0.5997492060255473  0.4021278841164383  0.6025503940107715
  0.6006195952173383  0.4022860963922100  0.8023538972947954
  0.6013869806716855  0.5997345799004878  0.0013185025072916
  0.6026257085379666  0.5994903226716526  0.2002043292551004
  0.6023094837547356  0.5986521769637849  0.4001917011943998
  0.6005548049392965  0.6023188864796610  0.6007868510538832
  0.6008356087826233  0.6006126893208201  0.8010606165925139
  0.6016058521653270  0.8003733839166700  0.0008884823036621
  0.5993404980634701  0.7989605664619995  0.1999718987061526
  0.5988684941272738  0.8000898352519613  0.3998712984443898
  0.5988999863405279  0.8015352226800333  0.5996381178341980
  0.6003354255042819  0.8021254801058045  0.8004262622353767
  0.8002632362570504  0.0000852953927155  0.0006295181661066
  0.8026265510790871  0.9997930689434951  0.2002408384699780
  0.8247233231421346  0.9962980489849445  0.3975239569047995
  0.8061136017912884  0.9966477694671364  0.5985573262816296
  0.8008127252591410  0.9981491139342392  0.7984805391418343
  0.8008760394199885  0.1995426470363165  0.9985098650024838
  0.8006227952569024  0.1973210422607682  0.3964725808482164
  0.8012124987615310  0.3983718366689180  0.0005518817008716
  0.8011132040164418  0.3989038715979891  0.2005878037557516
  0.7996496213575044  0.3978556930345676  0.4002885973559001
  0.7996590039087400  0.4007012157967652  0.6000962888148685
  0.8005441618228712  0.3997993574695677  0.7990836812719835
  0.8015991879366559  0.5988194065824236  0.9998060776490840
  0.8006736450058423  0.5967623779397611  0.1990684043940193
  0.7995888932407820  0.6002628332291013  0.3992138574584047
  0.8000511335563343  0.5991824072752420  0.6001970310520161
  0.8006666260171564  0.6001491220413652  0.8003785450761192
  0.8018896173525143  0.8000881465779914  0.9973263359622854
  0.7973208169643515  0.8002992604179550  0.4022770803054065
  0.7998137738091950  0.7993270475435308  0.6006629163230955
  0.8005991671962068  0.8002238163471940  0.8000756023389043
  0.3989919676184483  0.9981951950319391  0.5991681885463820
