Zr2 Ta1 Ti3 V111 Cr3 W5
1.0
  -7.5249999999999995    7.5249999999999995    7.5249999999999995
   7.5249999999999995   -7.5249999999999995    7.5249999999999995
   7.5249999999999995    7.5249999999999995   -7.5249999999999995
Zr Ta Ti V Cr W
2 1 3 111 3 5
direct
   0.1972417292025495    0.9990085441534546    0.9968491840132033 Zr
   0.6012578085829448    0.4018533303757740    0.7960547399393214 Zr
   0.2058234276504817    0.5995060293198772    0.1996877791486451 Ta
   0.7977519812773868    0.5988830037535720    0.1986731439702112 Ti
   0.3997701264808454    0.4006893729544014    0.2001213054026149 Ti
   0.4031109765357563    0.2016409162935987    0.6039825213915984 Ti
   0.7986026455077043    0.0007079879713793    0.0003322638718447 V
   0.6010225582494056    0.0006970485473631    0.9999650177311421 V
   0.7996216194023931    0.2009865303028673    0.9997910472774110 V
   0.8005989001835523    0.9987476047390877    0.2032802642791215 V
   0.4005266571700099    0.9995102745399183    0.9996834879613498 V
   0.5980872335190061    0.2013616608371018    0.9998372574234867 V
   0.7984160950820486    0.4010967012452236    0.0018156658091985 V
   0.5957768478253127    0.9980709149489607    0.1993262949457763 V
   0.8013383770621232    0.0007510718002333    0.4001532788945905 V
   0.6005631675819070    0.4011520849117018    0.9942078589806600 V
   0.8005451201199549    0.5972102635012291    0.9984833559534984 V
   0.3994363403615256    0.0063369641801483    0.2045602513311784 V
   0.5978992308218427    0.2025889266154369    0.2014859705458104 V
   0.8000400913378201    0.4011403803243939    0.2003322686859199 V
   0.5992275362496975    0.0039463161318806    0.3989326773384761 V
   0.7995093845702717    0.1985180188094264    0.4023963862821694 V
   0.8008651016019193    0.0015328666956970    0.5977369415444421 V
   0.9955026501535308    0.9981659266465984    0.9964501256447242 V
   0.1950751735798118    0.2003391629874064    0.9951149176930356 V
   0.3988565733017002    0.4014711793251515    0.0005279175444118 V
   0.6012234317596686    0.6064870911966764    0.9995345104362922 V
   0.1944077670815865    0.0008307493472917    0.1956090692829721 V
   0.3985159336919075    0.1984268987205269    0.1961199111897966 V
   0.6034938558144727    0.4020480297609129    0.2003669303948333 V
   0.4023230046565430    0.9983830528908839    0.4029362318017565 V
   0.6040524937456826    0.2026828548101173    0.4034442463192546 V
   0.7984695359172922    0.4000662699741322    0.4005871699150276 V
   0.6064841720134898    0.9993235339544529    0.6015359261203800 V
   0.7922753734217743    0.1952871598832392    0.5919192663227690 V
   0.7973338719254965    0.0009127888189404    0.8005897712151487 V
   0.0017914362745279    0.2014840354513762    0.0053273836917371 V
   0.2047359657838617    0.4090097762849479    0.0045063986485971 V
   0.4056145115042877    0.6020932827187372    0.0001349649226673 V
   0.6037506372063832    0.8047683774719742    0.0087035131606795 V
   0.9997897555366106    0.9990744474514208    0.1988659600453380 V
   0.2044813814295541    0.2032766476355641    0.2036611006456727 V
   0.5945506660459704    0.5949180307507839    0.1966304828693424 V
   0.8049816041050356    0.8054758181610329    0.2056200556303790 V
   0.1982443543500357    0.9987599078426906    0.4007297420425152 V
   0.4032204112537668    0.2016485539929543    0.3968114816033368 V
   0.6039743047327433    0.3983453851576363    0.3983787239615537 V
   0.7981614410199489    0.5992620646630844    0.4012544980920350 V
   0.3992348131293794    0.0035028480106449    0.6020971562034454 V
   0.5969962763771692    0.1978762799807014    0.5982454756345794 V
   0.7941954849906354    0.4018318605204045    0.5979711408453452 V
   0.5936305623500796    0.9931312041828861    0.7950029475452698 V
   0.7997326840714307    0.1928551911585405    0.7997377787634716 V
   0.0019067203144578    0.4060998417831145    0.0047019185046026 V
   0.2040129680621199    0.6018016495348714    0.0024968573895607 V
   0.3968550576790090    0.7982237712782528    0.9984301599174574 V
   0.0037080512558758    0.2013888912745443    0.1975790104856172 V
   0.1938482920354024    0.3942859619322646    0.2012046884030410 V
   0.4043369780752936    0.6069817594061259    0.2019900118586175 V
   0.5912854489412005    0.7949046329674986    0.1942572418548408 V
   0.0063107702768228    0.0038691419117840    0.4013705723396858 V
   0.1995782852145990    0.1959359515334019    0.3966198995301694 V
   0.4041601961791560    0.3997338896898334    0.4022234585730121 V
   0.5977274604098539    0.6023842172167982    0.3961602676875490 V
   0.7934879159545908    0.7949187460057203    0.3967690084249700 V
   0.2003029297591900    0.9999442698602196    0.6009679948979383 V
   0.6087795505665164    0.4025744251159110    0.6034954143796472 V
   0.8027396246415874    0.5960104204947624    0.5963789433157484 V
   0.4002445720264304    0.9988668646222361    0.8009496801406789 V
   0.6006480216574970    0.1990236673347639    0.8005412270253787 V
   0.8063858084899199    0.3993439546143083    0.8043962916090096 V
   0.9958196078839527    0.6006681666421051    0.9944572710225861 V
   0.1964938777123787    0.7961745633793285    0.9977054754248924 V
   0.3946129061213033    0.7953448170107970    0.2000825504094049 V
   0.9969012694694398    0.1976197468230244    0.3968120309831022 V
   0.2025686620806948    0.4015804745492113    0.4027307545136936 V
   0.4024058337396494    0.6027244666767342    0.4005268606043770 V
   0.5997477163922774    0.7982956069549214    0.4006830122605712 V
   0.9929278653705518    0.9940700008236494    0.5992594601770292 V
   0.1990451485221203    0.2010278336639765    0.5941105976032348 V
   0.3988985307690655    0.4015201607790071    0.6010264383295731 V
   0.6004766153263976    0.6015366193889662    0.6011712417056168 V
   0.8068213486188816    0.8000767221892597    0.6029468919613428 V
   0.1988822206369745    0.9996206883874534    0.8011999667784200 V
   0.4055649387210629    0.2035050189772049    0.8037756259891028 V
   0.8052190857644477    0.5983624762362836    0.7991886286658547 V
   0.9974793832638319    0.5958683659185363    0.2007893703913178 V
   0.1956525543869587    0.7993396208526355    0.2014744233839675 V
   0.1991313725007840    0.5987693648984441    0.3989775554107083 V
   0.4001884851871866    0.7968424621722461    0.4039495336930969 V
   0.9972148038702062    0.1988545508329281    0.5960581729801433 V
   0.1995415458545930    0.3989839591034365    0.5994503195229511 V
   0.3978271972566832    0.5986964623501975    0.6005886881170595 V
   0.5948331079003479    0.8022123219936248    0.5995952621783976 V
   0.9987540335088227    0.9981836041927976    0.8036049690341249 V
   0.2008969038924722    0.2048625766447715    0.8001228596260819 V
   0.3975029383246337    0.3974098151135106    0.8005602010491344 V
   0.8007253602257327    0.8022516337001760    0.8010298293937024 V
   0.9930033780073769    0.7991597870076628    0.1947976000719734 V
   0.0043719862864024    0.6001882782932125    0.4057355600967998 V
   0.2000380124271296    0.7996622274549563    0.4029754276914684 V
   0.9955191066787686    0.3960181629716778    0.5959249803013017 V
   0.1947499844709544    0.5963889716806249    0.5936590122274019 V
   0.4048068087980010    0.8058478010972205    0.6045029685810486 V
   0.0057175875135821    0.1979382862893110    0.8000407558993909 V
   0.1976203530273086    0.4019867675282986    0.7969366496281840 V
   0.4005546604769786    0.6002431116162229    0.7979649169914946 V
   0.5995918820504849    0.8003464074339560    0.8010423047500264 V
   0.0056409797530616    0.8054257123306934    0.4027459727213868 V
   0.9988794903378950    0.6013761214810618    0.5995307467156141 V
   0.9975564154413643    0.3940697503178417    0.7972968712848886 V
   0.2090556651209526    0.6034057167206263    0.8026401822602456 V
   0.3967430762586597    0.7955379152160456    0.7919397615755138 V
   0.9944551477872868    0.7965313791648035    0.5966996287869908 V
   0.0025662636534961    0.6014031510238576    0.7967070197703806 V
   0.1986553384236558    0.7983267212301625    0.7990287268951807 V
   0.0044725637064289    0.8053846530205130    0.8007546739682441 V
   0.3997741478214482    0.1972268373551425    0.9971799115547002 Cr
   0.7998900500901719    0.8044228933227814    0.0020485336547807 Cr
   0.2012349668154556    0.7993326909695200    0.5992062541422458 Cr
   0.7995968234920950    0.1942421383208020    0.1958515223776688 W
   0.9962960885119901    0.4013785941518003    0.1951077658543040 W
   0.0034313588403189    0.8041897681670931    0.9996938358209722 W
   0.0003880723142737    0.4009949225402458    0.4005510000713137 W
   0.5977192218951528    0.5972542254850262    0.7976851122816946 W
