Zr Ti V  W 
 1.0000000000000000
    15.3704372863088707    0.0041087699184726    0.0045828320708022
     0.0041071823098185   15.3593176205705255    0.0049868964281650
     0.0045832368054306    0.0049883200619353   15.3853693029952101
 Zr  Ti  V   W  
   2   2 106  14
Direct
  0.1974939291741207  0.9804842409556114  0.1703708616037620
  0.7925455757992760  0.4002628079970020  0.8106698902739010
  0.4081185830390326  0.7992172938601791  0.8064633932654757
  0.6130134043431721  0.4011500242374347  0.9892484868716419
  0.0038426668271165  0.9976528450721389  0.0046578226038736
  0.9915865369296917  0.0039681417707482  0.2028508157368947
  0.0004048814783550  0.9972748229298108  0.4003215564135993
  0.9938625000430756  0.0000689624794428  0.6036260683236784
  0.0021767052193391  0.9985325746773486  0.8019087544589530
  0.0006248421064279  0.1990966913809116  0.0010475792236249
  0.0005158811562057  0.2028075781779851  0.2031877783186060
  0.0011812365156492  0.1998034720467879  0.4008935531731682
  0.0025956643992695  0.2007274340941553  0.5994017947298681
  0.9995601032100765  0.2001716093453773  0.8020599328636211
  0.0041768478447430  0.3984880574619750  0.0065557278117826
  0.9986342498070713  0.4008859040247273  0.3973050951734621
  0.9979040756872125  0.4000042170555139  0.5999829018038344
  0.9995546299109818  0.4010380107062451  0.8029136141489420
  0.9984959042766229  0.6066700243949193  0.0010331800401641
  0.0027451981538706  0.5963251306393956  0.2009231281258753
  0.0003037820254450  0.6036792192128608  0.4014097634407042
  0.9991509860611123  0.5997653255184509  0.6018560857376010
  0.0029743170895997  0.6009815510759311  0.8008137557780591
  0.0085997124315161  0.8044303404841897  0.2013974925337825
  0.9998335614912029  0.8005419890178216  0.5945306603353957
  0.9990349171842938  0.7995210644807427  0.8078622220333876
  0.2005847135133726  0.0029310471695767  0.9799499157954713
  0.1981865692209321  0.9996670121820945  0.4105522713059574
  0.1987322899417875  0.0029580283495982  0.6055236784288793
  0.2005367202702791  0.2022834103007430  0.9982872051276199
  0.2008794367066405  0.1964478754922117  0.2000638172602132
  0.2021870226843620  0.1980350169748388  0.4032442656623200
  0.2009854036213368  0.1967331810460473  0.7955081604861354
  0.1962366933217238  0.4026017110536408  0.1953282108860467
  0.1996343540335727  0.4013342143213786  0.3997550453023795
  0.1974441927535564  0.3961269916912964  0.6013921532536292
  0.1981770333533240  0.4042098281517809  0.8044800534874113
  0.2005180020311233  0.5953432436422912  0.9957023636305478
  0.2008864986854291  0.5989288969507831  0.4008652792749614
  0.1995072016586706  0.5990015128203685  0.6049995062934163
  0.1945146641148037  0.7988848856013974  0.0002367006541060
  0.1957184900107025  0.8014930316915094  0.3958807662129127
  0.1990296808773010  0.8002287587495103  0.6001670685902214
  0.1983513694445856  0.7981621332657516  0.7995964088790587
  0.3958172475918153  0.0011981702786737  0.0031086382401547
  0.4041556574797426  0.9969901369941787  0.2010140017783250
  0.3993779836971265  0.0029511707928602  0.3998483333462131
  0.4017708453232422  0.9988544056184222  0.6012329622128523
  0.3981780492020124  0.0002629424671313  0.8012434183715446
  0.4009126774338999  0.2005400627724393  0.0027351296083025
  0.3995853109371215  0.1980915099826180  0.2046068007917383
  0.3959237238346310  0.1997447563043901  0.5954021460780284
  0.4001162955423828  0.1999957925593011  0.7997450979839351
  0.3953726707456776  0.3982878852983289  0.0009906493088005
  0.4023048544698684  0.4011439169363420  0.1985573540218605
  0.3992740625906058  0.3966444684798326  0.3971665347270862
  0.4008189705038542  0.4016461867351122  0.5983280245196589
  0.3967158694086438  0.3993350219099045  0.8006397661042346
  0.4012006566809491  0.6002345358084784  0.9997308897406220
  0.3997259788181772  0.6033781252396124  0.2003564417678937
  0.4015401360401578  0.6002707444688274  0.4022538496895242
  0.3967482485341030  0.6007578939660018  0.5995893672876350
  0.3966805446531431  0.5999910235912632  0.7991255634763713
  0.4010032947423702  0.8008634786666936  0.0067985513416156
  0.3992879011068414  0.8029505281613100  0.3950783649938495
  0.4007208234718395  0.8003972829272000  0.5937719518343947
  0.6003034917248816  0.0005654701903937  0.9978756743582763
  0.6021014925135181  0.0001113061194256  0.1980852891872783
  0.5992643647057458  0.0010053070338725  0.4009514961615556
  0.6021950729538387  0.0006243045856731  0.6027167087105989
  0.5976851196464353  0.9993747375148150  0.8020147340142156
  0.5989993294545457  0.1988094516994626  0.9989015482847453
  0.5988123449930697  0.2025646133915407  0.1987510035555228
  0.5948244812859942  0.2012531852492163  0.4008646087484804
  0.5987059417067373  0.2011695801207181  0.6010371695403576
  0.5968549580596383  0.2015138209004749  0.8001831346729547
  0.6027077749962694  0.4011760450728572  0.1987983506782070
  0.6011507921020843  0.4022368151638125  0.3997358864539663
  0.5995709487880836  0.3989181791811393  0.5992561145695009
  0.5898789027040144  0.4027824122398971  0.7928772804218858
  0.6004738399031383  0.6019927010189436  0.9980305977357505
  0.5987770384445759  0.5993681007689584  0.1979127306605826
  0.5994137646006833  0.5991003948170428  0.3992805935341004
  0.7653538490619122  0.4335326174817803  0.6003034806041251
  0.5961140694267376  0.6005978872069374  0.8007607279753600
  0.6000842698778314  0.8005756392414605  0.9991447020575093
  0.5941628305593882  0.7997783542050986  0.1988663050749602
  0.6015715176011436  0.7976312667386699  0.3999368074235908
  0.5990250961726789  0.8015025071371897  0.6001421755075307
  0.6025088701168475  0.7982040853938488  0.7993225774432591
  0.8000466675138606  0.0003964061629027  0.0049977316006450
  0.7980463661413488  0.9968982603859566  0.4015237490835603
  0.8000813342033963  0.9989160616641676  0.7986474215000126
  0.8007446045263951  0.1990070355457164  0.0013117555889914
  0.7981988112935769  0.1968568809637514  0.2025424104228149
  0.7985848488428885  0.1994293094070813  0.4021479219706920
  0.7997664290579185  0.1953694258248101  0.6003210000270610
  0.7997651952974550  0.1950622950165055  0.8005555790997646
  0.8080540419926682  0.4003705032516373  0.0101543959969044
  0.8042630821787494  0.4004687664331829  0.2045073616639897
  0.8000006499532248  0.4004269903436744  0.4015672602430359
  0.7999001537355644  0.6016282401960682  0.0010973106745263
  0.7997324699143450  0.6024630689729841  0.2006911724411948
  0.7972992043860729  0.6049653208046039  0.4032474755485979
  0.8009125936886808  0.6009910915458404  0.6032060645471875
  0.7980460586318987  0.6060549523279911  0.7983985718987763
  0.8045888460685763  0.8018522773526782  0.0034626825798906
  0.7956888401872861  0.8044882252234411  0.2048070014764403
  0.7988674082187035  0.8039221560447011  0.5961412898865335
  0.8005685087923120  0.8013949645191064  0.8006979777649815
  0.0007962852659933  0.4011020992162604  0.2019617871711226
  0.9983696432612509  0.8006460536733158  0.0048735693212516
  0.9975135525571738  0.7988382064582268  0.3989040876803422
  0.2003282330743814  0.9971661319594893  0.7960072158721511
  0.1993794402156410  0.2008630843981474  0.6014411996935092
  0.1994144475829278  0.3995940749240149  0.9992804074632212
  0.2033389717552725  0.5982656056795492  0.1968848063924614
  0.2003391293365431  0.6007351983330347  0.8001274124805989
  0.2027604192962705  0.7826403101097904  0.1993744660461961
  0.3988090975222640  0.1999880534812963  0.3991856508765961
  0.3947679864872715  0.8028011155633668  0.2010300224460063
  0.7969273469085635  0.0019270542717712  0.2018214893774949
  0.7989306928663655  0.0006223013503418  0.6012902755275542
  0.8034581596345621  0.8011651893508223  0.3989432074638807
