Zr Ti V  Cr
 1.0000000000000000
    15.3990340272275770   -0.0170018773457157   -0.0022529018582575
    -0.0170107766548915   15.3787801482628375    0.0165544931564424
    -0.0022517709109467    0.0165430754876648   15.4057927644380346
 Zr  Ti  V   Cr 
   3  13 107   1
Direct
  0.2105741198066355  0.2055825181168139  0.4023209758316899
  0.2040681770289829  0.6194984598547337  0.3912218025176418
  0.3859412176049722  0.7960076435159986  0.3914365498701387
  0.0001477668419301  0.0025098645335054  0.9995154879455074
  0.0019682242119070  0.1986711867882976  0.7984947354020676
  0.1673579043003578  0.1988571012202106  0.1875379637598292
  0.2015747057885968  0.5897541183491801  0.1854751700146310
  0.2096860617406241  0.7964941149939029  0.2161431913154117
  0.3962199325559297  0.2032279959099426  0.5976267034122209
  0.6079835711939604  0.0069340072535176  0.5983350180217324
  0.6141589765224963  0.1977473909956496  0.4027921722659078
  0.5897709171917891  0.2024582812221511  0.8069419040517063
  0.8269919263364854  0.1980358545543831  0.1967091444628939
  0.7876830556672143  0.1936746753265552  0.5910887264392012
  0.7989362570271034  0.1989766735281933  0.7997170857005836
  0.8017803488408766  0.8014663104756581  0.2006660248790223
  0.0010194426057542  0.9947618572443411  0.2030404501147676
  0.0008896933864204  0.0012784853167962  0.5995870661676093
  0.0009298295598849  0.9977930823643780  0.7975501691353595
  0.9986907145158788  0.2014010821428654  0.9979198471771797
  0.9997028699788936  0.0680002736762265  0.3332953550967393
  0.0012504841920846  0.2027036501685583  0.3993820173110479
  0.0012571875140914  0.1998048787905742  0.5947239116397733
  0.9994859644078375  0.3998703978937752  0.9997105581386443
  0.9999901376861337  0.4013043840371389  0.2007671145247219
  0.0010201077549977  0.4013939157231424  0.3997028944662230
  0.9989015169206343  0.3995987791573860  0.5994517408715414
  0.0005793337137820  0.4015142925452161  0.7991019705206084
  0.0000445250151131  0.5999705541432515  0.0002238981096687
  0.9991674902080220  0.5992416474523735  0.1986928547670711
  0.9958197748573133  0.6002561270840444  0.3990954284234289
  0.0008920453445574  0.6001764314218683  0.5986101121170673
  0.9994843121838480  0.6000984603712860  0.8004146904845569
  0.0016209094092782  0.7987580759286680  0.0024600743471805
  0.0022655241504146  0.7984943207514078  0.2021328159269355
  0.9938705520923035  0.7998338323805713  0.4008826712188270
  0.9997215853469504  0.8008072274370920  0.6003050463233747
  0.9999426011094844  0.7992841190050959  0.8001847570913054
  0.2024937294714858  0.9995881450518858  0.0014080711496414
  0.1992052088896301  0.0012361644394956  0.2021683106215789
  0.2007099218979659  0.0048031031506677  0.4016148732154096
  0.2010402102075417  0.0042654872946341  0.6006681880753013
  0.2010892682630807  0.0007334686911842  0.7995392627510648
  0.1967345172433553  0.1994494001104776  0.9950946703145450
  0.1969349918858270  0.2014058241019026  0.6064531060184518
  0.2021651709208933  0.1996787505978835  0.8006460519334581
  0.2004209486042061  0.3985547328230518  0.9993053142376328
  0.1991634079809992  0.3961178080865522  0.1999410657755043
  0.2000206387543710  0.4082418030305132  0.3994581663801057
  0.1994477612579737  0.4011275195203352  0.5990645572210903
  0.1996562088694250  0.3993051684858751  0.7997387769931288
  0.1998190107996473  0.5996494898369210  0.9938688264328954
  0.2000935820205460  0.6014696099374021  0.6019292313944420
  0.2005754736272465  0.5994629345058667  0.7984742533563660
  0.2004175516875433  0.7995745644751463  0.9998961236485657
  0.1849813860537041  0.8188099156529582  0.4118502586800359
  0.1994661664872849  0.8023322422870467  0.6046461849886758
  0.2000322611125515  0.8022128456561294  0.8019744261233304
  0.4007098264589345  0.9998961953506544  0.0021215047217197
  0.3985853008044791  0.9985511651172411  0.2007915221032393
  0.4006734302495276  0.0057525094554581  0.4010551589036203
  0.4012590556001959  0.0003461563919140  0.7992934269162317
  0.3969726846981764  0.1984903300013970  0.0033593539695715
  0.3994931654589471  0.1980584431934832  0.2022668794040241
  0.4099901492659682  0.1992509849631597  0.3985128765469678
  0.3967047718672307  0.1991303997823611  0.8046280694932127
  0.4002252963646523  0.3981550812126121  0.0013516045330937
  0.3990555204376809  0.3970007622189589  0.2010505065282472
  0.4011571760431043  0.3953549206690982  0.4001997292357519
  0.3994502022130265  0.4015229903807184  0.6002553117868971
  0.3999365356687226  0.3989784029390214  0.7997386119602720
  0.4001448857605379  0.5990136190747340  0.0005057537900914
  0.4038355276997219  0.5965154320994129  0.1992685004355737
  0.4088051558582328  0.5905996204841155  0.3994170144098979
  0.4004914233175290  0.5987498653391099  0.5990283871118685
  0.4005103333944524  0.5996091133603098  0.8008680772688510
  0.3995259922252166  0.7997830470704163  0.9981703848342230
  0.4050572586030361  0.7992339326634097  0.1918999409285868
  0.3999266383680272  0.8007649183943205  0.6022504785725011
  0.4003472644148834  0.7997701040788094  0.8000397434857172
  0.6001246555762695  0.0000642728221236  0.0006846765349543
  0.6016131750419338  0.0002713121842925  0.2021749290780663
  0.5970162042129085  0.9961931032783582  0.3989810561602165
  0.6001480886658148  0.9994113184502794  0.8017779302311838
  0.6009087728076302  0.1996232263293788  0.0052770347282191
  0.5973335031159606  0.1982882860699374  0.1997094766641039
  0.5947565255747687  0.2032727991179038  0.6040505878073263
  0.6003088685228934  0.3994873816617664  0.0007482545864563
  0.6012485205265345  0.3970117878171769  0.2017166980388819
  0.6018413580007314  0.4003289558468158  0.4010213043898881
  0.5992969626687531  0.4007741360092705  0.6011238598103369
  0.5999070126044276  0.4018202880095227  0.8007647495376715
  0.6005786360570048  0.5996870939719189  0.0008841933637227
  0.6017830769147382  0.5991097805202816  0.1999923670420638
  0.6022937024636047  0.5992459563172667  0.4001545016854300
  0.6001244324690216  0.6013746985004510  0.6003076238125622
  0.6001929384977427  0.6000457744141675  0.8003490070134728
  0.6009551409526372  0.7998989830829786  0.0009748530006792
  0.5991148977858491  0.7993718580077520  0.2004505788935813
  0.5990651107515501  0.8003447571226407  0.4001100330850841
  0.5989340506561248  0.8000889186603760  0.5998442289521709
  0.5999178581566544  0.8009579669972647  0.8006493172880118
  0.7976285516305657  0.0000104208274414  0.0006755231007519
  0.8018235947068156  0.0005671374876209  0.2003801453293982
  0.8097326121175358  0.0010759637132534  0.3991250452481483
  0.8049458728384183  0.9962854712929163  0.5990189935282683
  0.8004990405823689  0.9982189941095341  0.7988362048371843
  0.8010644272213570  0.1993899672784051  0.9974832296388457
  0.8078533869132385  0.1988294085069426  0.3958321325030033
  0.7992574297173545  0.3984025239759781  0.0001419141828221
  0.8020114793367004  0.3992469781158635  0.1996898255938649
  0.7997067140206982  0.3978133502229216  0.3996963029128074
  0.7999477162209864  0.4002048568890583  0.5991920084440678
  0.8001105450172461  0.3999596358998858  0.7983154793410621
  0.8006416405081069  0.5990407196760912  0.9992773094230728
  0.7998881595448178  0.5971088614347465  0.1993697233709682
  0.7992506871846597  0.6004679833643994  0.3992305055125498
  0.7995026347246699  0.5989719693671381  0.5998837372510154
  0.7999402569080950  0.6000274575583927  0.7998320168202601
  0.8009698752645603  0.7998681793440755  0.9975643932547190
  0.7978114822786792  0.8017087009685018  0.4029717388305177
  0.7998218676229631  0.7991284299621034  0.6010641664025903
  0.8002045289299783  0.8000401355891417  0.8001902790704083
  0.3986892306217959  0.9975552243218694  0.5997107159694561
