Zr Ti V  Cr W 
 1.0000000000000000
    15.5025012111675391   -0.0012340279220979    0.0009674179831964
    -0.0012333392680093   15.5032162688686519   -0.0125459656457846
     0.0009693510165960   -0.0125545265931211   15.4792246816365271
 Zr  Ti  V   Cr  W  
   7   3 108   1   5
Direct
  0.1927616891504436  0.9948522157575320  0.2000803081086418
  0.1989688245799320  0.4016669629624358  0.8005745964629730
  0.1835407671046747  0.8090582125100017  0.4161222018727921
  0.4223040231505990  0.4023394969782282  0.7999088457335999
  0.6036400790642682  0.1836764471061181  0.9973926013422333
  0.5854455774656432  0.8019538454722759  0.3982562000625182
  0.7962711912954009  0.2019325022340863  0.5999798080685202
  0.0110719297865373  0.8033461199946154  0.5943706538446567
  0.1928363692418034  0.9810465357642667  0.5964872546634136
  0.4140572528978612  0.7887515162441707  0.2168524167610195
  0.9991606611266730  0.0001514795776304  0.9995539403523253
  0.9964202466625319  0.0033794286303699  0.3958060271827528
  0.9973033005083667  0.0022668313612733  0.5989189367234181
  0.9998635003755890  0.0002126865154797  0.7981991967432934
  0.0021830957150473  0.1987395795609930  0.9968215599296197
  0.9959103296933810  0.0310439461669743  0.1983550218534634
  0.0006335687065894  0.2000922628444859  0.3998562409235829
  0.0021745672013833  0.1995248994515400  0.7985383375356417
  0.9998846086182827  0.3995118813985084  0.0011512443608401
  0.9999728966371203  0.4032505695048712  0.1998562518842692
  0.9988948123841235  0.3990365434737553  0.3981023392510724
  0.9992014468166664  0.4019715471891795  0.5982175098280120
  0.9960399739341986  0.3998425736906546  0.7988324480377750
  0.0015749814917244  0.6013090457163078  0.9993419263177084
  0.9997837624388577  0.5995003925188827  0.1994048037286115
  0.9983985587267155  0.6012911045949052  0.4000746554530927
  0.9997430015942399  0.5997284554356596  0.5996578983678599
  0.9997956434189110  0.6021289203654477  0.7986906777548065
  0.9993003584750779  0.8008022445077267  0.9989804549635004
  0.9997694308466001  0.7979955579711906  0.1986537454740858
  0.9859972791662007  0.8012617767664658  0.3947852446653619
  0.0015398185766786  0.8015622507436723  0.8020721202679575
  0.2018807621235907  0.9990961103905717  0.9972710463740323
  0.2088680024582361  0.0110969059750815  0.4019199312189155
  0.2000629540944394  0.9976719388250948  0.8017922030411082
  0.1995775381531304  0.1984173035729182  0.0002684319665005
  0.2009249576271244  0.2031891158239695  0.1988895020655149
  0.1972727594616209  0.2037907683588314  0.4001045798752509
  0.1997574490496746  0.2019963036833733  0.6007225446635203
  0.2006052610258048  0.1946945575383466  0.7987045987562114
  0.1997301438362369  0.4005462797395697  0.0051427225026148
  0.2027277752021001  0.4004091054768152  0.2012886922513119
  0.1985808570965228  0.4022532716428655  0.3990810501822749
  0.2002644689019733  0.4006313956569055  0.5951805306832086
  0.2005511333464294  0.6010521144072537  0.0010547405494705
  0.2001739561743247  0.6001390575428578  0.2014603478536533
  0.1984154995838663  0.6007890415729239  0.4010833594833839
  0.2010223295440012  0.5982771500077655  0.6011087296732399
  0.1989538631003744  0.6058974534508164  0.8020271794117753
  0.2043844756814991  0.8001165603762896  0.0043279073853961
  0.1988760880216255  0.7933126850423708  0.2025928008319792
  0.2109917399737989  0.7890979677398700  0.6160200056497991
  0.2019702990947336  0.8011729303162549  0.8072216056551961
  0.4024447544811876  0.9985821393357767  0.0042507697656669
  0.4027873288756886  0.0025788946368819  0.2090435731569919
  0.4027431632206349  0.0008695109995540  0.5960302368441117
  0.3995333001738435  0.0011442788243077  0.7967813158967826
  0.3974655061145448  0.1997051141310460  0.9991524999325690
  0.4002133058705011  0.2056267415110945  0.2000660090907460
  0.3994324118846135  0.1965529767168070  0.4012502941927281
  0.3973521312383672  0.2006260612533069  0.6002746784823328
  0.3991229729668044  0.1964111593657510  0.7993651412197079
  0.4014020792058860  0.3996860537634803  0.0077538539256122
  0.3999398260036551  0.3982640911246472  0.3960763065277519
  0.4003765843359754  0.4017640774178624  0.5925316208486470
  0.3988830244999957  0.6014782381677657  0.0004266684514189
  0.4002487327978663  0.5932755344941727  0.2009435181038542
  0.3968869734199728  0.6042117721936408  0.4000835514838191
  0.3993084003415335  0.5995620794009732  0.5991601287773315
  0.3986169953129569  0.6050929663543581  0.7995029881999272
  0.4042674067823514  0.7996607772875181  0.0007631855670037
  0.3908077818616115  0.8096104310174201  0.4093155641143850
  0.4069882993980286  0.7987538292715032  0.6047547278246297
  0.4011021003328500  0.8033785183845111  0.8024300911536254
  0.6010745512798173  0.0017257266431344  0.1940018642209116
  0.5971770014042901  0.0068336033181481  0.3991852548931498
  0.5997433668297391  0.9951078842286111  0.6005805044311378
  0.6011001441265811  0.0010722756183241  0.8020360057981101
  0.6008521338256720  0.2028071776168104  0.2015560542113355
  0.5995774560026472  0.2021756590928978  0.4004629442079436
  0.5953067509812158  0.1996396220375462  0.5995593286594111
  0.6000707611913711  0.2007473483896446  0.7947494668255004
  0.6000461131318324  0.4007529503045890  0.9969878533518653
  0.5967179938284036  0.4013990941115712  0.1982952684635232
  0.5992124240594070  0.4006228904388847  0.3999506281658234
  0.5973178997195707  0.4030942445290520  0.6007706335640632
  0.6132672847309262  0.4012182529352620  0.7992631846740027
  0.5998529586201710  0.6052080697347795  0.9979144160688539
  0.6004891092486244  0.6000765889912035  0.1974096739230831
  0.6001774423953029  0.5957454803840846  0.4004348990767744
  0.5982670856800668  0.6050831246616492  0.5989667515514554
  0.6002052223459329  0.6000314003606524  0.7992282847738778
  0.6067919931198547  0.7979618149081336  0.1896999407637476
  0.6011925180094998  0.8005796405095126  0.7990617482549400
  0.7981990072310226  0.9998194222040321  0.9988177441559848
  0.7993164443368410  0.0014222894336733  0.1993776809586486
  0.7966696146197988  0.0008630904406258  0.3975238854829284
  0.7993394017806196  0.9956661093308778  0.5979435399947554
  0.8021530030488030  0.0008911426691171  0.7977693626205695
  0.8079622956359067  0.2015261455695910  0.0009014616706204
  0.7982414612833270  0.2013695154206663  0.1985832301712180
  0.8012521414500221  0.2001860704454550  0.3941932517384498
  0.8015048852554001  0.1999715512346651  0.8033198600387269
  0.7994707538448028  0.4008667600484966  0.0007225554845089
  0.7989410604713625  0.4006112249108136  0.1989407481856945
  0.7984953326422891  0.4007766943229034  0.3982709446003628
  0.7980205346882233  0.4063947311892707  0.5973559047643643
  0.8026000575081756  0.4013998453271973  0.7995615293072718
  0.8005627443040408  0.6001534855768116  0.9983994286268907
  0.7997232666793553  0.5993045797429872  0.1994934114684234
  0.7988571058105790  0.6010317713173098  0.3983340137533168
  0.8001544234615485  0.6022206620458224  0.5987998688788284
  0.8020318864509290  0.6010726373908171  0.7985586143532978
  0.7990902134798236  0.7996074974668494  0.9978384818860981
  0.8008910171045678  0.7994288781255219  0.1976472591072581
  0.7949686403430223  0.8010339166815398  0.3979337259196696
  0.7941000815631123  0.7998226859275069  0.5979810964508201
  0.8026775992431843  0.8001631092550991  0.7976791629839247
  0.0027903536988434  0.2006433579652829  0.5991174132995996
  0.4020078046533791  0.0041717680990050  0.4016801171985391
  0.4012390410257108  0.4010805635220862  0.2027198141112508
  0.6003437199150923  0.9857862539709299  0.9976393312799398
  0.6013918319172743  0.8010710488904584  0.9942307188995987
  0.6008838351079375  0.7992475599235072  0.6055391991658764
