Zr Ti V  Cr W 
 1.0000000000000000
    15.5189800638460067    0.0053948810984519   -0.0005922212079772
     0.0053614356663930   15.4324842596042995   -0.0034080797093035
    -0.0006771033361387   -0.0034056472556456   15.4238540815599539
 Zr  Ti  V   Cr  W  
   8   9  99   7   1
Direct
  0.0426336909223373  0.1584189105369428  0.0094576219483293
  0.1946676257663109  0.9981726695756740  0.1443956849427549
  0.1901542762767900  0.2125462678785183  0.2122522538017188
  0.1469671854781683  0.8227973643601649  0.9991020129728607
  0.4077885244486827  0.0114371891843805  0.7950653056801420
  0.4290582274921745  0.5653860952556562  0.6013437273240456
  0.5687416367228773  0.1880890983603387  0.7961997569917592
  0.5968146322985484  0.4002671654402034  0.6028032457148867
  0.0040877453527890  0.0085251011468133  0.8149845514883801
  0.0031101215765017  0.2073031333479613  0.7831385492041195
  0.2355303936208647  0.1888517249327916  0.9983663263175124
  0.1930388458678623  0.1981652700783402  0.6102168915880591
  0.4093104466428230  0.8048303910762932  0.6022272183487112
  0.5974872987937663  0.1983482847671560  0.2074313130091632
  0.7936395160382375  0.9963850486723731  0.4036882770688868
  0.7964654863150364  0.2067711919506005  0.4044750928645253
  0.7992122932324989  0.8020770672040531  0.7973024791315676
  0.9915949404641839  0.9683666840449159  0.0122743327027728
  0.9921094934528761  0.0029514454823594  0.2070770185211661
  0.9967454421099656  0.0039787087611051  0.5999094661842136
  0.9897660596378738  0.1998152628315511  0.2083227656186957
  0.0009511072504079  0.2003317851238509  0.4022123555137060
  0.9937348555260785  0.2005285013584673  0.5930900985575528
  0.9990378646902647  0.3982060063894440  0.0019417955918974
  0.9993818471003214  0.3987518517808348  0.2012119769980085
  0.0009347805316163  0.4016176928146982  0.4017694667766645
  0.9987214593272939  0.3986882548654137  0.6015676343753370
  0.0009871880902950  0.4038392500973185  0.8023562471589555
  0.0004327578226102  0.5982514376589504  0.0016435920559718
  0.9974308483364975  0.6016292103604254  0.2010974213442870
  0.9983640349065821  0.6009519003844851  0.4017336108878704
  0.9991793300130717  0.6020694948122298  0.6023856171872527
  0.9993503947055761  0.6019497383122222  0.8020954058233132
  0.9965434131271746  0.8002616461977689  0.1730689176240852
  0.0045984621862429  0.8029601851959349  0.4024457180693545
  0.9981057448606587  0.8049345811510414  0.6027943841591638
  0.2362547385392733  0.9967522280429550  0.9501521958669746
  0.1981251260142977  0.9999061487109632  0.4015931422803475
  0.1982973570309812  0.9972961993835177  0.5971760379043877
  0.2022009626325504  0.9973227238102421  0.7837534533101489
  0.1994585178769671  0.1999732198903754  0.4112321485029567
  0.1925867122246662  0.2029189773046817  0.8059313630145828
  0.1983921326173975  0.4090441066293198  0.2020477053094293
  0.1985136479456997  0.4042607074897029  0.4034434954019612
  0.1979575479697038  0.4023337431331461  0.6030558849314827
  0.1982181610294780  0.4036743079486080  0.8033360405088591
  0.2000704913803620  0.6015642849939630  0.9994079648311398
  0.2000098894984718  0.6011931583155914  0.1981199576391862
  0.2000068882915022  0.6061359318263754  0.4028036509128652
  0.1938782870069419  0.5998171255619590  0.6015921635523572
  0.2016269469288224  0.6018465358241233  0.8010333934035763
  0.2013911706881272  0.7967244310516967  0.2046355197618488
  0.2036900658106182  0.7978583322275349  0.7910921138584117
  0.4168785797206255  0.0010680329260591  0.0035134123365248
  0.4047334181033792  0.0030860185500416  0.1982306410626570
  0.3961515268397494  0.0028057255387250  0.3950498870137776
  0.3995459315803166  0.9997263437453386  0.5917169572960866
  0.4187903930588256  0.2042835529098979  0.9992693095709753
  0.3970127166042778  0.2020901114316512  0.2010138899327814
  0.3958851160397132  0.2010840950598909  0.4004663422321446
  0.3989193337182083  0.1921054337800681  0.6036236719353764
  0.3802374519936303  0.2112576891759256  0.8003342091296974
  0.4008790644970632  0.3996594744089477  0.0022677837703926
  0.3979131367695192  0.3997431996482719  0.1989910574746309
  0.3964989533891909  0.4001754673093238  0.4014843284508322
  0.3882796214436441  0.3774489291411230  0.5984929719800438
  0.3976298304346259  0.4031026631646035  0.7997392358801481
  0.4014598550308132  0.5998448578979388  0.1994010786153630
  0.3987747623598164  0.6016949585547432  0.3981680812200162
  0.3986031926237366  0.6012585650061426  0.8040160054742642
  0.4030417936836870  0.8038910092733597  0.9988034976328289
  0.3950188870104931  0.8025508260713876  0.3981444797424693
  0.3981773722015686  0.7995723388996856  0.8013394130059457
  0.6093327898195527  0.9995623272137280  0.9998856308368426
  0.6007485277928637  0.9976767947078907  0.2019284308543372
  0.5954751681342331  0.0010503563286615  0.4017480235654514
  0.6009098306788035  0.0011518462474709  0.6019053570781857
  0.6108859579188382  0.9906127220165137  0.8010437491370282
  0.6091755052411487  0.2005074037960876  0.0029037232069036
  0.5930843190384135  0.2019337024725702  0.4033069965951755
  0.6003237553904602  0.1956031150247392  0.5948593104169148
  0.5985864951400423  0.4034731833358479  0.2003719123964330
  0.5974137787071492  0.4016807902723560  0.3957295331137974
  0.5984880798178059  0.3990089414800286  0.8067975566756228
  0.6004421566548853  0.6001244974445504  0.0003188728705990
  0.6000912224315229  0.6016869896782854  0.2010114312967518
  0.5985817274250890  0.6036659159845917  0.4016999016051592
  0.6193412885617319  0.6099209553526537  0.5988493285821305
  0.5989458094536844  0.6000577888242626  0.7990994950160901
  0.5993521432630138  0.7991837610059119  0.0010221560022847
  0.5991181184633765  0.8002464477965473  0.2016988226536857
  0.5968725435642150  0.8022022978062390  0.4013663128484968
  0.6062705427507940  0.8040544264826087  0.6001258868726145
  0.5946557094872554  0.7986989853977432  0.7993362959211091
  0.8029968353174487  0.0003048355569957  0.0013769739964580
  0.7964792374484198  0.0029005130315680  0.2012923340082314
  0.7999917236974634  0.0034466666345145  0.6064424356182119
  0.8016706466145762  0.0062955614232344  0.8041228241779174
  0.8056446440061185  0.2022116693227162  0.0005850081711732
  0.7993780402884461  0.2023962788093750  0.2010521647617745
  0.7965371547980803  0.2018438277218572  0.6050837507151248
  0.8055547675243564  0.2033834649209595  0.8019091931154212
  0.8022187736629426  0.3991737048364828  0.0018278226600510
  0.7990904228932475  0.4011103184053058  0.2008501434113332
  0.7985288251690922  0.4039921693872573  0.4018262756204257
  0.8022386594354830  0.3996148550598302  0.6021287000743860
  0.7976584388398947  0.4011441812198633  0.8023818162144213
  0.8009751398444752  0.6023393995822393  0.9998337146641436
  0.7990143085244332  0.6007499725708919  0.2008534346862929
  0.7991554466314141  0.6017090399717310  0.4009994796803400
  0.8064839049756473  0.6000940595881827  0.6017588762563972
  0.7993465444851943  0.5995888498282068  0.8015433869251295
  0.7965297287609198  0.8009834597964141  0.0009356669618730
  0.8006167696720353  0.8007683300700841  0.2008586331782672
  0.8002763780642895  0.8005699206395938  0.4016500501310137
  0.8036807745244859  0.8045094707660175  0.6004805472236447
  0.0001043445314935  0.0019187726627061  0.4022128931654868
  0.0039704822502291  0.7997583259619750  0.8000739385137569
  0.2014643645595933  0.4000031970026425  0.0015467108057865
  0.1975713462602330  0.7990303882493289  0.5962528791613838
  0.4004542912193902  0.6010108308623715  0.0010794648708651
  0.3996433948668905  0.8012190104851377  0.1983852934417761
  0.6013992379015788  0.4008371430722190  0.0017328032368800
  0.2004581551757211  0.8038592593243343  0.3961884132191180
