Zr Ti V  Cr
 1.0000000000000000
    15.4889002550493640   -0.0195313770937778   -0.0155534076795571
    -0.0195267745976093   15.5102089440028070    0.0059105293967036
    -0.0155475950656657    0.0058984254639578   15.5083315327291498
 Zr  Ti  V   Cr 
   5   5 111   3
Direct
  0.9992454400407980  0.9943924827555405  0.8031602644924534
  0.2097353566976885  0.8013115685267256  0.1952305020222135
  0.2158525947437262  0.8082571125061478  0.8032221873666137
  0.3918543461517445  0.9644412646824149  0.8359746516691495
  0.3841986561439412  0.7949931705884582  0.9973164646517548
  0.2003240153289673  0.4018240800852622  0.9997496532914428
  0.2102744771407437  0.8129723757604863  0.5928676524155619
  0.3978681040104383  0.0132014344906247  0.0258983018694577
  0.3904434344145317  0.9888656575144180  0.5966253718981757
  0.8027614014098589  0.7999559454404650  0.2012089088083870
  0.9970146465148166  0.0004837727678080  0.0058329546964374
  0.9984995697936164  0.0007049572908624  0.2008204958695557
  0.9990811442295966  0.9996101204937843  0.3986501548198889
  0.9975352732830381  0.0001881332427895  0.5958594803508331
  0.0001538168964062  0.2001041767128474  0.9998954298271381
  0.9985879893090751  0.2007593834065057  0.1987166640145271
  0.9994981640361906  0.2002451289684631  0.3991337652308498
  0.9991199783445288  0.2013541641882711  0.5990565440271668
  0.9972688632505552  0.2030561924687404  0.8007322985905047
  0.9964628393759483  0.4007718240067886  0.0004221408869036
  0.9992465621292533  0.3995527952039459  0.2000607031550450
  0.9995822708876045  0.4009051249939600  0.3993283821655366
  0.9998889645219111  0.4009171689196772  0.5988060784278654
  0.9999180445381834  0.4008651245056503  0.7995323058205362
  0.9990987639489232  0.6004020362158459  0.9999677598171108
  0.0013379178693903  0.5996201430361316  0.1992599017492166
  0.0007062023141815  0.6006793505636110  0.3994546548125202
  0.0023724366323611  0.6012793562603906  0.5995302668933831
  0.0027651203104127  0.5994932663912527  0.8003061229023466
  0.9943452896799360  0.7998502469950134  0.0000821723414610
  0.0004744275231421  0.7995686218162227  0.2011434777378820
  0.0007193823407701  0.7992680353230669  0.3998070650591703
  0.0021706470429985  0.8005356650639605  0.5997814900485535
  0.0024245625787733  0.7934866316647197  0.7980178765476829
  0.1953984913388006  0.0025002056390007  0.0006547539862211
  0.1995881576376838  0.0042950163754665  0.1999366346428496
  0.1980172976068543  0.0015772672832788  0.3986693167935724
  0.1941503538899328  0.0081609055112872  0.5980672538912744
  0.1971126869102378  0.0126784707479066  0.7987245309360695
  0.1990838973337009  0.1997645200450169  0.9983586694977640
  0.1996733377216846  0.2013065328519404  0.1999293003659461
  0.1997550440701697  0.2002440436003657  0.3998940631493094
  0.1987124293503891  0.2028817607179574  0.5990158004352159
  0.2000204834447421  0.2041383141133052  0.7989280563776890
  0.1998827807554951  0.3998339669444154  0.2014829890045543
  0.1995455566493704  0.3995636402785446  0.3998222904118263
  0.1999664770874348  0.4010514568761012  0.5988665432345825
  0.1994616651471635  0.4013631303074990  0.7977867690874064
  0.1987712985410973  0.6029956111659536  0.9991378125435159
  0.2006511595536721  0.5961186857986083  0.1998428373577890
  0.1995848838206005  0.6008722644905642  0.4000493926608225
  0.2016546755183157  0.6010271341949028  0.6006522557599557
  0.2014536557152069  0.5986888323449991  0.7995030985685024
  0.1850885497534361  0.8014970720549665  0.0023835521220154
  0.2002071062298303  0.8010713528813703  0.3988079952249539
  0.3995360449478565  0.9993777706403422  0.2091999913201260
  0.3982946633865802  0.9984758338018036  0.3999596557122674
  0.3977453095867239  0.2031333257551249  0.9981136624510114
  0.3992605244408426  0.2012583572396146  0.2014873941763438
  0.3991021725813842  0.1988724292909113  0.4004900729824489
  0.3984332283886942  0.1979293323948376  0.6007670418927631
  0.3989273034050219  0.2023441159104839  0.7979701514110643
  0.4011882657038317  0.3990888876365841  0.0009041360341179
  0.4003179257644373  0.3988853539270201  0.2008151810146505
  0.3995624628093990  0.3995358873458137  0.3996263828510501
  0.4005056746413722  0.3980782049802913  0.5982540366151895
  0.4011093108654574  0.3975617100481113  0.7982556667716578
  0.3987265616640506  0.5915601320837341  0.0001615542107083
  0.4000408015780137  0.5980363427640535  0.1994047354373997
  0.3993455515176552  0.5985729544142572  0.3988469944495930
  0.4000683722483380  0.5954386895202671  0.5975616986468951
  0.4010937776182493  0.5909034586381964  0.7996149318337050
  0.4090409657401308  0.7975134493020625  0.2052448412214199
  0.4016237052059070  0.7972313673748685  0.4008965899014489
  0.4079535970214674  0.7916766095072886  0.5949973940538221
  0.4169656121679455  0.7763568695296402  0.7885508263467647
  0.5970140519494497  0.9992771592844879  0.0001211724381785
  0.5996575707724813  0.9995436011038175  0.1985378242048728
  0.5990014670986982  0.9995238869950733  0.3992026070410512
  0.5992503775972181  0.9986168876867545  0.5992856695555370
  0.5994576553172781  0.9992140491670842  0.7996474469745745
  0.5961063183235866  0.1974968073003165  0.9980730873360806
  0.5996312627666008  0.1994285309695620  0.1983858699594651
  0.5982440375286386  0.1982248124357512  0.3997496862966073
  0.5985912429811877  0.1979042781642770  0.5990884537438633
  0.6006758070583355  0.3972591993214536  0.9992638238668485
  0.5997628705037945  0.3988142492491109  0.1992322839344146
  0.5999075361619609  0.3991696930833507  0.3990388993523912
  0.5998692180294013  0.3984156757201044  0.5991068728362444
  0.6013660089616265  0.3980906613421376  0.7996119454532937
  0.5982863557369544  0.6002736273424816  0.9987327296009600
  0.5992562637584194  0.5993485852146977  0.1981130104500590
  0.6001035353241450  0.6000917688581611  0.3987120623559769
  0.6012831689980721  0.5986420737684648  0.5993506250360109
  0.6023026228967221  0.5969414804995274  0.7996870725655371
  0.5998761109515036  0.7988566125834723  0.9981355524139695
  0.5998304734988505  0.8003694272920224  0.1972086591749621
  0.6008718825140472  0.8000751437793666  0.3990782947388672
  0.6041452589172638  0.7990495292257106  0.5983965049963603
  0.6050067504120448  0.7988104345739879  0.7985410169201519
  0.7982924474260407  0.0036124522752194  0.2000439719974658
  0.7992036245713473  0.9999747831926253  0.3992222836559041
  0.7988602996486028  0.9999664740844719  0.5984044339082434
  0.7953081851845090  0.0012802076983374  0.7994817771071826
  0.7986191055383797  0.2002076121341888  0.1994509931417052
  0.7991189908617002  0.1997684327304967  0.5991974339606929
  0.7988811421209605  0.2002347581283641  0.7975225903622438
  0.7989107740286426  0.4005301268361389  0.9992317473082289
  0.7992567888538517  0.3990673976085177  0.1993674549177081
  0.7995807776191887  0.3999020300375065  0.3995879907486256
  0.8000878400901853  0.3998633650915293  0.5987837001080700
  0.8003695152796315  0.3996970647788870  0.7998640606236821
  0.7995735275061555  0.6001386359558921  0.9990515851184233
  0.7995856684852679  0.5975968936123165  0.1991676795215823
  0.8005882594137529  0.6001149797209614  0.3991535078520728
  0.8014701586436471  0.5997536678104657  0.5993429312384635
  0.8013007139011078  0.5992365113527566  0.7986888711159180
  0.7982156956507026  0.7999063487962397  0.9965025049139085
  0.7999447210807061  0.8000080450304341  0.4016129155040802
  0.8021729779237128  0.7996873047916624  0.5989574400490385
  0.8018949271644922  0.7990975536624747  0.7984298788035897
  0.5989439804113199  0.1983619539858622  0.7991329091991125
  0.7979592612627826  0.0667081828584119  0.9994780714458891
  0.7989006215194784  0.2001359987410763  0.3997231171496289
