Zr Ti V  Cr W 
 1.0000000000000000
    15.4784941647390344   -0.0079236740217215   -0.0009191182658338
    -0.0079251379727764   15.4698410550827550   -0.0021700748410725
    -0.0009188735928934   -0.0021700052242540   15.4804947945978846
 Zr  Ti  V   Cr  W  
   2   5 103  12   2
Direct
  0.9984760036248786  0.4001651443837414  0.8020560039870340
  0.6007462681784301  0.5982794334894445  0.6018245092671268
  0.1963305328103881  0.9979805080193125  0.6017847080209381
  0.4185677861675856  0.9963409691720059  0.3979539488090607
  0.4046437152712707  0.0004094131327873  0.6071257127384366
  0.6030239592930381  0.1755537120656226  0.4012770578070103
  0.7983749273463786  0.8002570892334734  0.7934755079855621
  0.9993591656421444  0.9997671125163550  0.0012098781186186
  0.9996289931746690  0.0003171828768080  0.1992822691122690
  0.0028441995808399  0.0002234933192773  0.3994774307314297
  0.9978009057273809  0.0008005804405025  0.6003648627412388
  0.9994693331083349  0.0002651966037064  0.8012840020319286
  0.9992644650132743  0.1995616809602082  0.0007001811325653
  0.9991792006566145  0.2000054119265040  0.1999431147299954
  0.9999652610543117  0.1959944921470067  0.7997164949197132
  0.9991270693537686  0.4003985130095986  0.0055891775816732
  0.9994244152281063  0.4001454135715415  0.2018844558327439
  0.0006522110121419  0.3997240864133087  0.3997046628541196
  0.9993370505884676  0.4014630969448529  0.5966068060121303
  0.9993816694802854  0.6011842162221467  0.0005484729090573
  0.9994170993221108  0.6005468153568279  0.1996142041316880
  0.0018144467484515  0.6000980199326184  0.3992871168310326
  0.0016722266999885  0.6009891009955792  0.5996833070287367
  0.0009802738119836  0.6051922051969439  0.8014479685783258
  0.9989719120575155  0.8011784234655629  0.0005310249939983
  0.9984442094883196  0.8006970556407094  0.2011622034924482
  0.0005412371122271  0.7987935291406337  0.4006278660994883
  0.9950197622716647  0.7997099229975220  0.6003153534115621
  0.0020116493587754  0.8019254025108813  0.7999004454344766
  0.1996865680454208  0.9996786402790467  0.0008951162832285
  0.2014989257707123  0.0001767496620780  0.2020675502194997
  0.1996304370296560  0.9999137584990690  0.8022494072791195
  0.1990325734937282  0.1999379922242297  0.9999781180160097
  0.1994989861498680  0.2007910374381233  0.2000325424985569
  0.2009800961931477  0.1962653995052419  0.4012905678246913
  0.1987037802274381  0.2016506567189989  0.5997647941336507
  0.1997188037377355  0.1995182147098961  0.7992428013452237
  0.2005136999740809  0.4005141522452540  0.0011638190471311
  0.2010199224514765  0.4002698377873791  0.2013176219483258
  0.2002446444071321  0.3993206463478193  0.4001060466065253
  0.1994689962902490  0.3998430243468962  0.5990454173765739
  0.2036551548167725  0.4004146359607334  0.7997258203526286
  0.1992610875168125  0.6004102629624282  0.0001353558110062
  0.1998537827820862  0.6008515044494648  0.1998428484938900
  0.2008337187930661  0.6003644061133496  0.3995590269166164
  0.2003824583840732  0.6008672623393891  0.8001517964308048
  0.2003007236197069  0.8000565566177931  0.0004878700585524
  0.1998746869146175  0.7994391661120929  0.1994137743616291
  0.2013870663330057  0.8024150501811170  0.4009093415063222
  0.1997680973670888  0.7992217281905256  0.6001597683089637
  0.2007136849152010  0.8003688588737718  0.7996652567389396
  0.3998635809467895  0.9996261467057219  0.0001039769413997
  0.4004864001012304  0.9998948994382757  0.1968464547614849
  0.3996704173217482  0.9998202546894283  0.8018649753362156
  0.3990000632304042  0.2000905735463885  0.9993160117149533
  0.3991962180291636  0.2018024824616056  0.1997876348087380
  0.4001207483510894  0.2004559179927380  0.4008626916594800
  0.3989222723192160  0.2030047032936637  0.6004643127671870
  0.3988318437927181  0.2007019662335645  0.8006512321350063
  0.4000465013664896  0.4005457787553005  0.0009423506157087
  0.4005822892841713  0.4008307627312738  0.2003418672428540
  0.4008220450451008  0.3999184550078744  0.4000395447357056
  0.3995985136668552  0.4001569928280773  0.5999412850509392
  0.4004756440612955  0.4011143132798455  0.8000541388595707
  0.3987257616647331  0.6008248525332192  0.4004266142775431
  0.3960897890118569  0.5995850838368610  0.6005682451281078
  0.3984094008495753  0.6003926524923915  0.7997688364792910
  0.3999205188264318  0.7995887289988659  0.9998332641654309
  0.4013321473953881  0.7972176143732959  0.4009833790205568
  0.3995625380267843  0.7987522843776901  0.7993659901998408
  0.6009993659830777  0.9992648475122298  0.0010156509519084
  0.5983354976586204  0.0009110210700567  0.1993444078001421
  0.5990895902405678  0.0013655027866503  0.6007388085042236
  0.5997430040359626  0.0002720512328291  0.8015853959641197
  0.6001081535342853  0.1997187319323472  0.9994379460702846
  0.6000941019107985  0.1993980031484956  0.1982532478239525
  0.6009077227671423  0.1983342260142825  0.6025813091619234
  0.5985437263233483  0.1990252268569750  0.8002701188180067
  0.5994395461165447  0.4001806108459657  0.0007425211769211
  0.5991567822617380  0.3994879782970701  0.2008521433690912
  0.6010020650986929  0.4020290808123647  0.3992809757830165
  0.6002231531139472  0.3942913424272343  0.5986762930534778
  0.5981416985964090  0.3984652747642624  0.8013902355021217
  0.6002678503991119  0.6002122263641771  0.0013736252224177
  0.6006978752605129  0.6009811675764782  0.1987177259191338
  0.5995933509855035  0.5999343032976050  0.3959158623503533
  0.5985361075570232  0.6003743624037293  0.8054701288640189
  0.5992468337087931  0.8003610601012168  0.0002014103345707
  0.5991214080471688  0.7991530086815163  0.3994031133223312
  0.6032839724995136  0.8053772836959271  0.5980133136449006
  0.5967070215938904  0.8011141319012424  0.7996816940122327
  0.7995047480993908  0.9995211598181819  0.9994599721714772
  0.8036785780003495  0.0012700040495002  0.3986283468480321
  0.7996076176836900  0.9973120083772762  0.5981335771826876
  0.7994134013837985  0.0024361336416921  0.7999074745290846
  0.8002635765565301  0.2008009438363794  0.0001868259830938
  0.7994217897409189  0.2010413918913378  0.2003261415026953
  0.8015695473971797  0.1983042590096132  0.3999620083118285
  0.7999257512941722  0.2010088922304080  0.5998674053854477
  0.7996284409807990  0.1998697845428701  0.7987450809453672
  0.7982071112205950  0.4008376521361005  0.0010691236775335
  0.7998358288835585  0.3993810821317774  0.4003702269196814
  0.8000114413134796  0.4014328062608239  0.5989233804237329
  0.7943638065796452  0.4006877951012611  0.7990664024995908
  0.8003458435870029  0.6008379699160774  0.0001572949354027
  0.8000038840658111  0.6007476652663167  0.1997096962996851
  0.8054590343559304  0.6040396109543703  0.5996830154398107
  0.8004202849490931  0.5996890181172282  0.8011088900941149
  0.7991105046248251  0.7997591581495019  0.2017227867495388
  0.7986347887301976  0.8024998864934755  0.4011904811870739
  0.0002103572805507  0.2000751525379555  0.4002491049085635
  0.9988581439253753  0.2000160473910097  0.5989417312547397
  0.1991795746434742  0.6008370568500534  0.5997179507653437
  0.3994468878428951  0.6005450332985490  0.0004835139260908
  0.4000500449155959  0.6006551948448537  0.1997747909923737
  0.4001016807996906  0.7993409948363405  0.1996708334827897
  0.4001481966570816  0.7974142726175041  0.6003859069278035
  0.5996005011066337  0.8004777050506756  0.2002861908079643
  0.7341831568798879  0.9992496915933138  0.2660844597999726
  0.7991951146150166  0.4009651379332725  0.2011870023746473
  0.8017894337098198  0.5999898703022551  0.3983103751474726
  0.7993815437390451  0.8001073197092429  0.0017499782510524
  0.1998007141107979  0.9985599081405154  0.3968769240973862
  0.7983578897495727  0.8007182112553787  0.5946158353161995
