Zr Ti V  W 
 1.0000000000000000
    15.4549315649027950   -0.0222495129286640   -0.0105509386160289
    -0.0223053274730288   15.4776580052303601    0.0156777599783081
    -0.0105831741986949    0.0157005871891177   15.5087905410777189
 Zr  Ti  V   W  
   8   6 108   2
Direct
  0.9976001192368851  0.0008224607586250  0.4238391676692307
  0.9946938400695152  0.6473880821652280  0.9625254531286367
  0.0098753579800658  0.8109032993547807  0.8017644464476436
  0.2118650498348408  0.1866469840692793  0.9849469081446056
  0.2153635980031961  0.5728098504403109  0.9933817491656448
  0.1877833327048433  0.7914281477706864  0.9909766931343007
  0.6101834648428607  0.1990431536321501  0.9964642489105807
  0.5996645757231008  0.1963736194379810  0.4031378053825727
  0.9985645700206170  0.9933063661481073  0.6275125306982436
  0.9866266290548356  0.4053010811223025  0.4275332948149571
  0.3900895593312677  0.1999206394245053  0.8073106798730518
  0.8054187184824504  0.4014558705363327  0.5928562390980681
  0.8030892619659126  0.5936299757293141  0.4063459525412934
  0.8112954734279019  0.5990035010708665  0.8021218763313894
  0.9980782966842796  0.0118233501043036  0.0062114786540006
  0.9990847994886400  0.0034687688200852  0.2028878258234493
  0.9993655628465370  0.0140919471764214  0.8134234118118662
  0.0011462357278476  0.3066824705646285  0.9001450454217956
  0.0011263605647336  0.2044599251798409  0.2059266840433488
  0.9998823249987344  0.2026144694205065  0.4027101372061808
  0.9994843454404269  0.2043790951092328  0.5991658177782089
  0.9990819835020358  0.2055768619654124  0.7944448516170415
  0.0039787622459921  0.4097801449068450  0.0051806065625951
  0.0042479777196844  0.4015321670695617  0.6111789589736074
  0.9994981557298581  0.5933195095683796  0.2090035974830668
  0.0032555991547027  0.6040367310799909  0.4006331398919025
  0.0029115279036246  0.6021842503536087  0.5945504129821326
  0.0068973500814787  0.5993127481106423  0.7811068228274599
  0.9867334945408519  0.8324654966728684  0.0115378247989407
  0.9981390421360743  0.7963117523460479  0.2017295466966243
  0.9969658082130931  0.7978162426559524  0.3986473270490464
  0.9992436556862394  0.7988002014395630  0.5945029600041076
  0.1989289064962873  0.9946463976200745  0.9984297010343020
  0.1986296670999239  0.9974716229992151  0.1978963995618300
  0.2023343990715587  0.9979214563551382  0.3995873685685327
  0.2004152788295252  0.0003981768063632  0.5988239090527456
  0.1983243102945917  0.9997485487372726  0.7981323101747386
  0.1993660089744594  0.1977432625175988  0.1987545713705892
  0.1987608824399111  0.1994358410142679  0.3973066627607936
  0.1992762047182154  0.1995969527307963  0.5947925588956682
  0.1927173123176129  0.2025805149053140  0.7866290239754018
  0.1999629764447989  0.3875889769294686  0.9991050604562952
  0.1960178089696852  0.3978498571552084  0.2015213979877834
  0.1995762040891474  0.3996121325605044  0.4024233574956778
  0.2024423198393416  0.4000048118699732  0.6014971025603539
  0.2020113732596836  0.4009886882789729  0.8002017054201017
  0.1987299002752458  0.5980535953514405  0.1999889043983210
  0.2019415519695668  0.5988020878965532  0.3989636721505108
  0.2023796160655459  0.5992530976781216  0.5948854587517974
  0.2017058610590259  0.6009686007691561  0.7902415592412716
  0.1973285741573260  0.7971989853927952  0.2014294484182948
  0.2011359979167264  0.7991024611994902  0.3977554491212701
  0.2004853452754373  0.7996795778374968  0.5936734894448574
  0.2097893166600149  0.8008212595787256  0.7866992040861909
  0.3983867798597686  0.9965749311684803  0.0006548049778086
  0.3986575815285280  0.9987075203026917  0.1996373496267542
  0.3987359317123297  0.9985116701847160  0.3992789774906646
  0.3995721317693081  0.0007718692205958  0.6020864387212046
  0.3995057803308190  0.9988232837244201  0.8008847151683081
  0.4068203484409756  0.1988836872556203  0.0053084195876545
  0.3984243879317845  0.1991565635318146  0.2014803140509096
  0.3962482577440350  0.1991961969882066  0.4009820035207942
  0.3983565186926865  0.1995974738085098  0.5982185148123896
  0.4040201836928144  0.3983986188670850  0.0022123141242604
  0.3993086083293420  0.3985482036905076  0.2005899527160213
  0.3983260448128967  0.3998209142636612  0.3990001065843184
  0.4022949958199150  0.3991702942740954  0.6018534074369398
  0.4007806495232836  0.4007318524083430  0.8018280696571991
  0.4103770907759975  0.6013983945421825  0.9998295659061583
  0.3986455913050513  0.5972938048853160  0.1982658592279446
  0.4005260976834710  0.5985834899163491  0.4000472906388503
  0.3998310104852021  0.5993356233073138  0.6004091915246934
  0.4003213156789260  0.5996618312108178  0.8010005140940493
  0.3997871274189038  0.7981736614319487  0.9998451425210834
  0.3963745451054537  0.7981472744032091  0.1974761439936097
  0.4033776904272497  0.7984184187681733  0.3991948529254378
  0.4010436992560359  0.7992896165686628  0.5994857316821880
  0.4015812186878899  0.8006104390762249  0.8001644380712539
  0.5987491796001897  0.9942189845090640  0.9997192709074613
  0.5982021462746777  0.9979730043435058  0.1997884400681056
  0.5972552879306936  0.9908101310361621  0.4020559434281071
  0.5991480996294848  0.9989336932304398  0.6025864444875314
  0.5979461432954860  0.0004251920371101  0.7998089526711515
  0.6007850662969830  0.1996018902250729  0.2007940263435162
  0.5996566633086974  0.2011107673225183  0.6048727493692744
  0.6027948614769935  0.2005145916634578  0.7950424519094369
  0.6024576772003737  0.4041527009655315  0.0011989324901898
  0.6006102273973489  0.4006938534222647  0.2005987439165937
  0.5984123776622765  0.4040843550678354  0.4009153648153690
  0.5999180335651950  0.4014191521942050  0.6004672383236567
  0.6016315012137126  0.4021082630386745  0.8001210378309521
  0.6034929879691935  0.6013214284467813  0.9991081011386987
  0.6000667629147205  0.5987187025022382  0.2013617406227236
  0.5986186168137653  0.6024379630829781  0.4009462188842087
  0.6012314815500152  0.5997715664312739  0.6022607704415368
  0.5994409669140214  0.6007870603483431  0.7993762466551648
  0.5989522985204135  0.7991320081728396  0.0010373616512568
  0.6000818336843710  0.7973311519054447  0.2040011192578659
  0.6001546835773129  0.7997719642875111  0.5959387841720712
  0.6011865578143506  0.7989949661914819  0.7981354712798790
  0.7953931844095822  0.0035484372821420  0.9999238052477570
  0.7992395934812689  0.9999661332336696  0.1999725926655370
  0.7947284375422867  0.9986728718499385  0.4000295654465647
  0.7980648628685266  0.0017193883416069  0.6020041590847461
  0.8005484285991383  0.0015954892222634  0.8014108013985767
  0.8099126954034696  0.1997271576983125  0.0000447924829132
  0.8019206645201832  0.1993890678781279  0.2005315280900600
  0.8032381037431173  0.1963287499105925  0.3988288180387333
  0.8003453942111701  0.1979903824236574  0.5981049277250484
  0.8026275276639158  0.2030469966978659  0.7968081841511224
  0.8044949582566074  0.4027548170204552  0.9994320367974594
  0.8022820129574413  0.3983222712947084  0.1991965132792054
  0.7936870938296108  0.3958634681739002  0.3958921850972213
  0.8014857855871914  0.3991698501688303  0.8029579899530643
  0.7966774199592921  0.6021770847159770  0.0047803164787641
  0.8011731242880292  0.5981650618640981  0.1996251181000635
  0.8021552682901830  0.6037294154927699  0.6022573915899520
  0.7967839613734303  0.8027847962193543  0.0005518461210714
  0.7996412231891521  0.7982669942968487  0.2016880418669979
  0.7953275860303958  0.8004581442870610  0.4000426775355503
  0.8003498002299639  0.8011026245425619  0.6005391535145526
  0.7977214635918262  0.8043547315264528  0.7992075218186282
  0.9989710968889055  0.3988175529012438  0.1974624157092003
  0.5994446831633633  0.7968377812893680  0.4002726737859091
