Zr Ti V  Cr W 
 1.0000000000000000
    14.6931264743195609   -0.0418914435529454   -0.0865466858222386
    -0.0421314091287652   14.9181159915822761    0.0350684463372300
    -0.0878027903360856    0.0348297458047336   14.8690250798703243
 Zr  Ti  V   Cr  W  
   4   3 106   4   7
Selective dynamics
Cartesian
  3.0649095301268172  9.3006212605797955  3.9796587766600577   T   T   T
  5.7473682004876210 -0.7625845699152781  8.6571463607381371   T   T   T
  5.8251637773328317  9.3823179812104005  2.3186959908626648   T   T   T
 11.6845729577930957  8.9900160827204942 -0.2036063661038655   T   T   T
 -0.3876719139163355  3.2546230943153791  2.8331364251385658   T   T   T
  2.4545215818796753  1.1923151811928954  8.6237191591710882   T   T   T
 11.8678386871044275  8.1256598034446146  3.4799674284559319   T   T   T
  0.3319786577368680  0.4907616763443078  0.4996026692237810   T   T   T
 -0.8205760261265030 -0.5226328936003044  2.5859553960673534   T   T   T
  0.9843687685789365 -0.5355036704218494  5.9516614137369537   T   T   T
 -1.1191276909133832 -0.3168544383176413  8.6005182037404655   T   T   T
  0.8419557272173367 -0.0381833648356995 12.1320167490763460   T   T   T
  0.8477250308221551  2.7538429918764487 -0.7219762697477846   T   T   T
 -0.2155933725458239  2.2614240033739881  5.9560375078110415   T   T   T
  0.2376168717749110  4.2078529891260921  8.7507422675255651   T   T   T
  0.2982346975386612  2.6053553978209019 11.3729744875483387   T   T   T
  0.6233176857984877  7.0553042907880377  2.3761762750841329   T   T   T
 -0.0174185692731222  6.2513912863274950  5.7630352792070534   T   T   T
 -0.4932601136123949  6.4101833767738832  9.5288675721313165   T   T   T
 -0.4700653934886767  5.4253723252758803 12.5316799392987690   T   T   T
  0.9769812109668053  8.1035445254818370 -0.1748713471422244   T   T   T
 -0.4891514031723093  9.5400100927469378  2.7398087566991225   T   T   T
  0.1589002331948204  9.4114013497880027  5.5041017783742259   T   T   T
 -0.3840952797032960  9.2847819372514557 12.5939447933303601   T   T   T
 -0.4851795779101742 11.6670754005628314 -0.0548217655049267   T   T   T
  0.2902341524071725 12.1780456188765953  3.6522776342798964   T   T   T
 -0.2576047178467928 11.7343460228749574  7.1294107132500786   T   T   T
 -0.8037321983165613 11.3344982041821787  9.5351858740762161   T   T   T
 -1.2241672903715419 13.3713818199000603 11.1849297985142755   T   T   T
  3.5119507835063093 -0.2200587592936479  0.0621214695556405   T   T   T
  2.6752633017508147  0.6921648242266717  3.3194939838134583   T   T   T
  2.9878655238519976 -0.9398594400175901 11.1562630692014277   T   T   T
  3.0007360462490174  4.0575281967755643  0.2863869161510504   T   T   T
  3.4508203668830113  2.9551076476547538  2.7300093700859160   T   T   T
  2.3517763540738836  3.0941592321086500  5.7483356672540138   T   T   T
  4.0024804494038326  4.2325429806699395  8.5320612351181211   T   T   T
  2.9810359116507490  2.5640882137947671 11.6500730267185535   T   T   T
  3.1579143670441479  6.9199562869812326  0.6245012429961622   T   T   T
  2.3881776904370278  5.6613679150964673  3.6580358448006387   T   T   T
  2.8692712897382684  6.5261740869581280  6.5402396401621381   T   T   T
  3.3147657777368247  6.1395807709201327 10.2676828794947390   T   T   T
  1.6639474000803696  5.8185363200521030 12.1292285201168735   T   T   T
  3.2300866786555442  9.6499156128795729 -0.4509765244514090   T   T   T
  2.0530312694460950 10.3775305364039632  7.7374499276771909   T   T   T
  2.0119399958711504  8.6861068735297806  9.6967690431183318   T   T   T
  3.3039060015502035  8.7422105927623068 11.9685886971481175   T   T   T
  3.1699545491310461 11.7739269318658408  1.2322798321976873   T   T   T
  3.8435790571022435 12.9315420450566965  3.6290707473763777   T   T   T
  2.1227125463506935 12.7953975150345993  8.4834222780708348   T   T   T
  1.1971746690121736 11.9406917733435112 11.2150592123576374   T   T   T
  7.1314787133454827 -0.6300098510160018 -1.0530038896120677   T   T   T
  6.4936607265268682  0.4859435164004682  2.5753062902908628   T   T   T
  5.8379610737309342 -0.3363168151992488  4.8669852477981683   T   T   T
  6.2875473894422313  0.8486947039341405 11.9911124178104043   T   T   T
  6.5077162176431615  3.0755421815012265  0.0201637980742718   T   T   T
  5.7582212323939723  3.2421758554005740  3.5496562014117794   T   T   T
  4.7244829491927893  1.8885523044061692  6.3149045353944215   T   T   T
  6.0114823096167198  2.7805771058942801  9.2073960601566860   T   T   T
  4.7776278219690482  3.5670377331364480 13.0736458048542143   T   T   T
  6.5924302035387976  5.9711592701629357  1.2556009388446514   T   T   T
  5.9172752740461627  6.8716121529300072  4.8313375842742357   T   T   T
  7.3859641872919850  5.6273938206227818 10.3893548707048318   T   T   T
  5.3731430518011019  6.0567865359922548 11.9861434212773528   T   T   T
  5.7191260252181833  8.4667373586011170  6.4597660884191486   T   T   T
  4.8219328715133631  8.1526436721007247  9.1793731903873397   T   T   T
  7.0499315978232104  9.3865656598404268 12.2136293081060678   T   T   T
  6.8949884678908138 10.8570556527406126 -0.1432579924393014   T   T   T
  6.1924866763960527 12.9985888564985803  1.2717248808405961   T   T   T
  5.0909941765430071 11.8733694250604742  5.7446372278056073   T   T   T
  5.3201181028282383 10.5876981187621659  9.6094348578272655   T   T   T
  4.4862318950256483 12.4067378796599499 12.0983502592929053   T   T   T
  9.2392383194946213  0.2077202123026408  0.4694080238819787   T   T   T
  9.2641789652981785 -1.2628983858505447  2.6680976583207157   T   T   T
  8.5051441471617153 -0.9488048771875131  6.3000766436637132   T   T   T
  9.1663160050010148  0.6692720279238020  9.6449785071538567   T   T   T
  9.8360940592251147  2.1801900871549376 -0.9052927237598574   T   T   T
  8.7215039845323314  3.4030740540939663  2.6151446567802661   T   T   T
  8.4023068405228347  2.3965664205289960  6.1916309987068656   T   T   T
  8.5044126224396077  2.4240706058810337 11.7121562541430144   T   T   T
  9.4064742749726857  6.1149457270990304 -0.0487477049405019   T   T   T
  8.8231467749656325  7.0543151479722566  2.5043898543819751   T   T   T
  8.8312413872776840  7.3831118013172290  5.9679180258802775   T   T   T
  9.5525130289129780  5.2449360812125931  9.2871771306304112   T   T   T
  9.3582072357315074  4.7435157512293644 12.4994003031908143   T   T   T
  9.0972945061475592  9.6938871463199501  2.4786845351714328   T   T   T
  8.3033914341292263  9.8063684313879502  7.2895822368084211   T   T   T
  9.0547752186891604  8.8603751813973339  9.4138545191018679   T   T   T
  7.8244861858056920  7.1142752041597745 12.6206169395861743   T   T   T
  7.7336360662477048 11.9161061337723151  3.0259318950396565   T   T   T
  9.4848538320941920 11.4069398260340531  5.1579007912603725   T   T   T
  8.7937086430804978 12.5004857059631771  9.9444959603242964   T   T   T
  7.9124346482531278 12.2930997807108096 11.2535910651560691   T   T   T
 11.4734949952128709 -0.8317524602695574 -0.4932621344076019   T   T   T
 11.6333589475804828  0.5708048987028618  2.1192486704833904   T   T   T
 12.0560954267174445 -1.2247690736219528  5.5499243167212908   T   T   T
 11.1900122199597298  0.3559172442336671  8.3023764688297454   T   T   T
 11.8326895734016713  0.3410240944737081 11.9280816610968792   T   T   T
 12.8341527032817844  3.3470842377603267 -0.5659357206888052   T   T   T
 11.1982354499380516  3.2198373941667402  1.6448009889133282   T   T   T
 11.4316134284355790  2.9047599957445458  4.8861940515928630   T   T   T
 12.0186043834323435  2.9541648393323778  7.2474782477129516   T   T   T
 11.8199420253389746  2.6528276096570664 10.1012384834061386   T   T   T
 12.8548645127288790  5.8490201869843546  0.8550742000542120   T   T   T
 11.5885455280714975  5.0778048010888721  3.2831582807562074   T   T   T
 10.4752826896642670  5.4660851286188494  5.6516468049557904   T   T   T
 11.9053842987052150  5.8625735365987106  8.3465670291968852   T   T   T
 11.5671973611914822  6.4372575457618124 11.7927310743346734   T   T   T
 11.7569941050059796  8.5657412696256241  7.2010178637868378   T   T   T
 12.4112565274632427  8.9154710348636392  9.7915999411156829   T   T   T
 10.2218391032605194  9.8937856215992763 11.5810408682441786   T   T   T
 12.2174131048492658 10.6843189225140289  6.1365429116777142   T   T   T
 11.3570849073660103 11.9089353147639585  8.6275159303609019   T   T   T
 11.4486262853692491 11.8851645044902199 12.3608990777551195   T   T   T
  5.0335778701940557  5.5185639989229012 -0.4902259049237394   T   T   T
  7.3869490772447293  5.0499298801218693  7.6545273376920768   T   T   T
  8.6919182870797744 11.2871092091298948 -0.1974052721620150   T   T   T
 12.5126748877696965 11.9477270400976394  1.3735713514501833   T   T   T
  0.7198946530525490  5.4026985413691326  0.2423567549631956   T   T   T
 -0.2729307588086449  8.7562078982276965  8.0320239386771775   T   T   T
  3.5370992147308202 -0.6249716887165387  6.1150479750804845   T   T   T
  2.1264561849421262 11.8763179285086746  5.5739340673273627   T   T   T
  5.5560271317982135  8.1028399052649167 -0.7864803321102019   T   T   T
  9.2528960324214928 -0.5478497164336404 12.4379040238743919   T   T   T
  8.1390181577443723  8.3976877072873553  0.1347832913201179   T   T   T
