Zr Ti V  Cr W 
 1.0000000000000000
    14.6931264743195609   -0.0418914435529454   -0.0865466858222386
    -0.0421314091287652   14.9181159915822761    0.0350684463372300
    -0.0878027903360856    0.0348297458047336   14.8690250798703243
 Zr  Ti  V   Cr  W  
   4   3 106   4   7
Selective dynamics
Cartesian
  3.2057327963416280  9.2967206035191179  4.0521458004789350   T   T   T
  5.7402840844818588 -0.8012354672039044  8.7205372811103121   T   T   T
  5.8038575474889074  9.2947335048204796  2.0015343431620871   T   T   T
 11.8310692623412184  8.8938118926398264 -0.4109451807839190   T   T   T
 -0.6456699052722218  3.1716413819244340  2.9756418177771757   T   T   T
  2.4780464317346493  1.1661630077459300  8.7277455780591229   T   T   T
 11.8572974845261907  8.3226800165092989  3.4533319566786695   T   T   T
  0.4363375932641578  0.4283178239122924  0.6282247487619602   T   T   T
 -0.9062464018706015 -0.7085685412143281  2.7389617452421904   T   T   T
  1.0151881460025582 -0.3342652149716833  5.9904680061740363   T   T   T
 -1.0339172227976938 -0.6658593437094458  8.3297148348143626   T   T   T
  0.6150757432262590  0.0519702696142401 12.4303757417517957   T   T   T
  0.7518355493514806  2.6030153099307269 -0.6623040360091578   T   T   T
 -0.1256219455788953  2.5337673877971341  5.9251275129534768   T   T   T
  0.0543028253665350  4.0979255604669707  8.6300078231123223   T   T   T
  0.1418663636843800  2.6781330633834597 11.4157330817809264   T   T   T
  0.7467107965529095  7.0738613381131588  2.2807532123405241   T   T   T
  0.5857040209642796  6.7625887832464393  5.9770460724112855   T   T   T
 -0.1948213925395803  6.3776000467558518  9.6129371311374499   T   T   T
 -0.5580997435917182  5.7987915834768096 12.6539406131457195   T   T   T
  1.0292334330798929  7.9409038120402853 -0.4067009386401027   T   T   T
 -0.3566899542875431  9.4625868173201599  2.6656835080048542   T   T   T
  0.1490305510595013  9.4773795065710580  5.5827468705301202   T   T   T
 -0.1018565247822578  9.6916088550600659 12.8080999595818863   T   T   T
 -0.5881605148409061 11.5778747767269774 -0.0014359092461755   T   T   T
  0.1902176754788483 11.9429370822472567  3.8263550230935444   T   T   T
 -0.4797194864054293 11.6937529773848574  7.0710497391295721   T   T   T
 -0.6706583616487820 11.4304994641845319  9.5524824316299455   T   T   T
 -1.2493320771757064 13.4526652343306257 11.0365012909374425   T   T   T
  3.3836040792176716 -0.7132695880094156  0.4332535135383030   T   T   T
  2.7607709320415625  0.7131389147425702  3.5873112213010856   T   T   T
  2.7686408465743324 -0.7903680850454711 11.1983959484584528   T   T   T
  2.9961538816489757  4.0586231794154450  0.3202424961287638   T   T   T
  3.4899321605106306  3.0943624908461773  2.9440841894025880   T   T   T
  2.5083390289487699  2.8584427511678210  6.0114275967627302   T   T   T
  3.8179172065263143  4.0762812958582897  8.6006599169004101   T   T   T
  2.6276365032643687  2.4164365691972911 11.6392441782669014   T   T   T
  3.1336888614185585  6.8730111955259110  0.3096124203178887   T   T   T
  2.3082283140175868  5.7053961221217255  3.9821014781681918   T   T   T
  3.2165452132014916  6.4005972560676589  6.4332748172814798   T   T   T
  3.1374191052323166  6.0512233813779472 10.3120878471786632   T   T   T
  1.6205517746142062  5.5598668038107109 12.3404749922297743   T   T   T
  3.2337153660991724  9.7071897493077071 -0.6972870001286823   T   T   T
  1.8601241510293101 10.5289704163339870  7.9940030176940873   T   T   T
  2.0461187231446729  8.4995251206324163  9.7272972531873236   T   T   T
  3.4962619657594085  8.4991378813146383 11.8571548677804781   T   T   T
  3.0345385321129026 11.6153852251265253  1.3720311288868876   T   T   T
  3.4705402039183602 13.0626748639413837  3.7324304347092436   T   T   T
  1.9069480860166026 12.9827188719676254  8.5434468434382325   T   T   T
  1.3187914740223827 11.8368880473540905 11.1567268458753084   T   T   T
  6.9888823227527102 -0.7421394347449077 -1.1559951208279058   T   T   T
  6.6355733434393835  0.4299326103870599  2.7802033985797219   T   T   T
  5.6658599977909336 -0.3956051341642791  4.8907382105021080   T   T   T
  6.2506494761227183  0.9915248862418111 12.0049099823114496   T   T   T
  6.6450760614186537  3.2658230675934359 -0.0936301911768023   T   T   T
  5.9509581720295834  3.3734109721750700  3.3337721560622846   T   T   T
  4.7727540262644155  1.9992088003835256  6.7740182069276864   T   T   T
  6.0704580944864910  2.6596318880722389  9.4051482650770240   T   T   T
  4.5206560769149711  3.5605936191608389 13.0346515755614671   T   T   T
  6.7003828297635657  5.9992071580157260  1.0372621291577246   T   T   T
  6.1242851119222177  7.0698631185623269  4.5737316662657923   T   T   T
  7.4694287013840581  5.6234649102448744 10.1247587267444583   T   T   T
  5.4052671903073382  6.0205988895870828 11.7395987474381887   T   T   T
  5.7441021680380553  8.2241489667494232  6.6157192994023344   T   T   T
  4.6882649720948431  8.1868329960121411  9.2278949851343022   T   T   T
  7.1887269754229068  9.3876616372271435 11.9003832241966929   T   T   T
  6.7726561393780687 10.9109771518818217 -0.4862331101179804   T   T   T
  6.4762499477197242 12.9558111576906505  1.2531663234486774   T   T   T
  4.8505133942581660 12.0782976940372073  5.6760294510463920   T   T   T
  5.3412669036282159 10.6963973695427637  9.8341597547932746   T   T   T
  4.3273502625031313 12.4165542708876622 11.7849301421557495   T   T   T
  9.4400971084466789  0.2511307352051645  0.2499201957144094   T   T   T
  9.0274227096145108 -1.0233449823261029  2.5980380306616073   T   T   T
  8.4263786117041715 -0.5118590420405679  6.2036084509166951   T   T   T
  9.2228274693137777  0.5231287273299435  9.7866045092513740   T   T   T
  9.6617574213097601  2.3245856990227955 -1.1167103018831517   T   T   T
  8.5571141157674333  3.4888967171818686  2.4073311501381394   T   T   T
  8.4506427973341935  2.4287669610366667  6.1679459549726623   T   T   T
  8.4568295910370548  2.3426585151650037 11.5244916451181965   T   T   T
  9.5726268396916101  6.1807367172143000 -0.2872518298617303   T   T   T
  9.0999264844535990  7.1784930080791103  2.1394389748260538   T   T   T
  8.5394951994907373  7.3562176695745114  5.9050653253552046   T   T   T
  9.8965149105788974  5.4580736936047387  9.6036813382654458   T   T   T
  9.2761635411632941  4.7441681925316503 12.2688997093505794   T   T   T
  9.3112109241227081  9.6465551045312221  2.3718054480133404   T   T   T
  8.2886213494166405  9.7283902739204304  7.3625431922713922   T   T   T
  9.3177926177506443  8.8581576362432379  9.4442859174514115   T   T   T
  7.7271718074951359  6.9623202203331713 12.4821062644348046   T   T   T
  7.9601793300704058 11.7951475880149665  2.9706492335078951   T   T   T
  8.8263590852247411 11.9786823746358451  5.2791611897955386   T   T   T
  9.0373075322813072 12.6534514557619087  9.8209629979140907   T   T   T
  7.6085822657645439 12.1595651494448767 11.5386398565288761   T   T   T
 11.4859207185045662 -0.8911601033075773 -0.6490662154443977   T   T   T
 11.5616770784632426  0.2583455624093235  2.0380105412431493   T   T   T
 12.0213924884118786 -1.3584502698251186  5.7941331428699758   T   T   T
 11.2706486505792309  0.1174790897601852  8.2791733955971978   T   T   T
 11.9737833002469092  0.2729110208313437 11.9151767481078483   T   T   T
 12.8623113636986712  3.3190767140911310 -0.2497907642788583   T   T   T
 11.1582311547546595  3.1362872159620423  1.9446059560399167   T   T   T
 11.0572410244671868  3.1791617398931491  5.0310529794046088   T   T   T
 12.0387413476922607  2.9703031423756201  7.3599977718873326   T   T   T
 11.7846155440842537  2.2954072908704304  9.9593610826609940   T   T   T
 12.8042860373150251  5.7653766846762435  1.1268134025727903   T   T   T
 11.8423233000917207  5.0691598283321939  3.5066578231232191   T   T   T
 10.6067815384655617  5.7481070225735280  5.7852473214414184   T   T   T
 12.0710121212676000  5.7807634930466865  8.3499765742136383   T   T   T
 11.8785983657480987  6.5975186984959100 11.4885413979685609   T   T   T
 11.8313239907452985  8.9221678677724245  7.2248901847331419   T   T   T
 12.3179397987250372  8.9539330381983611  9.7031128319833559   T   T   T
 10.0183432293044419 10.0533507340085464 11.5629026687842540   T   T   T
 11.8301172866371882 10.9163271512960431  6.0229268070595188   T   T   T
 11.5520932614919101 11.9229417195778691  8.7361180937667573   T   T   T
 11.3983016471004124 12.0066884938287259 12.4575303725405426   T   T   T
  5.1841495781211169  5.4476979539334796 -0.6637363022574114   T   T   T
  7.2892737662070335  4.4001723586564783  7.7925376673108451   T   T   T
  8.7125675297465968 11.0908086599244591 -0.0811647434303823   T   T   T
 12.7918661112303891 11.4923970713226300  1.7092402154140984   T   T   T
  0.6265513820155381  5.2538202773158336  0.2757801339499099   T   T   T
 -0.2114799440772180  8.8082778577302978  8.1003104657529637   T   T   T
  3.4713577777471825 -0.4748671247001360  6.3150654233064785   T   T   T
  2.0349029269214531 11.9176825151724817  5.7170036266901150   T   T   T
  5.6104090076666493  8.1218828428065546 -1.0186265263472243   T   T   T
  9.1612385033056150 -0.5664693886796222 12.3606308531284963   T   T   T
  8.2260648052325571  8.4615435052763619 -0.1719380170506076   T   T   T
