Zr Ti V  Cr W 
 1.0000000000000000
    15.4546529229448950   -0.0040749683285616   -0.0054037382233372
    -0.0040912970430347   15.4638570505567383   -0.0473148360752500
    -0.0053791826064366   -0.0472533129127416   15.4680791581891697
 Zr  Ti  V   Cr  W  
   7   3 108   1   5
Direct
  0.0023720547053796  0.9980183890855925  0.0339083947121119
  0.0104989745874830  0.1910523849648564  0.3946304432337511
  0.2041420237747358  0.9947423374418010  0.6009228040251203
  0.1996263371876749  0.8396803192002599  0.4211799207527924
  0.6038101927019313  0.0094416212453522  0.2129953265585634
  0.6002006306961793  0.1913679553592359  0.3930593687538464
  0.7701629619680553  0.0291328610571779  0.3843122776371226
  0.1946120738392432  0.0348334107778956  0.3846017389414041
  0.6108133416048540  0.3995604111022141  0.6000934146150245
  0.7906097154147529  0.5870835064031790  0.5936122710307993
  0.9989495096745233  0.0019394668781483  0.2236510963238892
  0.0045033125178935  0.9872557508502789  0.4065065499209342
  0.9939231485859423  0.9959329243774803  0.6021213376323874
  0.0011554662765331  0.2028981480881406  0.9949209686290564
  0.0000054377957868  0.2002512624196662  0.1898971463531466
  0.0007002621118357  0.1944853815990128  0.5994869512682693
  0.0008572771043253  0.2019354890052343  0.7955136170470162
  0.0010275802566200  0.4007148680853127  0.9940511221986837
  0.0000721921239373  0.4008552492854465  0.1982995207089035
  0.9989178944305145  0.4024242367858827  0.3994416435332739
  0.0015785534324939  0.3972262479471397  0.6026241545359855
  0.0000304341289059  0.6001728486262397  0.0010206034064792
  0.0009688812123427  0.6010542662257314  0.2006389069153558
  0.0014513855374358  0.6000236699703902  0.4004998881428196
  0.0025767628432387  0.5973608061538395  0.5983603817459580
  0.0005544849800200  0.5951558889386158  0.7980850261404973
  0.0009982748764745  0.7955141283941376  0.0003464978772487
  0.9987350028670674  0.8005736961623626  0.2030653094734425
  0.9935691006155242  0.7961613095665041  0.4040933386575764
  0.9981459667050198  0.7935202766753244  0.6045731146437430
  0.9962218644514131  0.7963622401940029  0.8027531897177129
  0.2047004487911258  0.0011373153885865  0.9970793471938704
  0.1957645549727653  0.0020988373537754  0.1927588576254926
  0.2019942138473605  0.1998627438896393  0.9980906913072599
  0.1999411159784964  0.2041847210641502  0.1975662488561472
  0.2004966750424053  0.2000235613260876  0.5924854531497723
  0.2017282948793118  0.1933550476800291  0.7955527330711769
  0.2017629970012931  0.3992262334311752  0.9990808649504661
  0.1997808229237797  0.4009835813648025  0.1970498434480683
  0.1974925307540116  0.4016587642693556  0.3983586494252989
  0.2012927584098910  0.3969362581489271  0.6002495414565863
  0.1967784309638891  0.3959365830676548  0.7989540066740752
  0.2018415948012117  0.5994815557234505  0.0003649555304646
  0.1997815691158734  0.6025168395464932  0.2023302154995075
  0.1997604786494165  0.5977679856115087  0.3999909499386067
  0.2034161008950943  0.5955260076488825  0.5992144524716938
  0.2009727108311865  0.5990489230828563  0.8017297639117656
  0.2008406604626266  0.7997014355852342  0.0030930585603061
  0.1990477861484641  0.8015757653560425  0.2043504646563479
  0.1991432828139821  0.7884745903126231  0.6135491671951504
  0.2001620849925546  0.8023618504326470  0.8063995263106932
  0.4024963808827904  0.0006446224492935  0.0049856594299580
  0.3946590731720536  0.0010097197463601  0.2020192441938270
  0.3882988164720425  0.9987180458465847  0.4018597966217905
  0.4055194626211474  0.9985298906227525  0.6036075921901748
  0.3977390777379133  0.9994214253057488  0.8011079960870693
  0.4009792333047919  0.2004042446989926  0.9986307734411928
  0.4013491172416608  0.2005113919902266  0.1993445505728083
  0.3957942362276544  0.1989765723256409  0.3996887848173029
  0.4031387104928623  0.1991441225098210  0.5973220630569364
  0.4012585104389996  0.2000138988239102  0.7972468005287361
  0.4010879175127581  0.3998246317694630  0.9987333039007334
  0.3997101315823060  0.4011508130379675  0.2006117644733426
  0.4033261900226612  0.3974922649474189  0.3998658927448075
  0.3995610883497466  0.4011274032752552  0.5989743588709452
  0.4006452088926060  0.3975933064222651  0.7982832086538261
  0.3994454525558371  0.5987765222876604  0.0007575981552477
  0.3993564795504808  0.5998688425629745  0.2026272599159144
  0.3975872782512065  0.5993687683788427  0.4031903629582640
  0.3989604931486701  0.5976534541423714  0.7964087744031546
  0.4004223251288471  0.7992012528018166  0.0028801440652781
  0.4000848547169253  0.8013298369450302  0.2040334476668569
  0.4023176002231379  0.7973262797828170  0.4020177280052203
  0.3997056688749244  0.7917717777832269  0.6004121002752353
  0.4054198315918612  0.7989277754404942  0.8023359960180612
  0.6006861323007497  0.0000919856542367  0.0021001287930593
  0.5782295796721532  0.9850306063855132  0.4154931547234895
  0.6004250958801981  0.9973480439684328  0.6054704696842301
  0.5985499183806509  0.9954043705978368  0.8031588737925061
  0.6001913666400734  0.2001741028934191  0.9967899252438785
  0.5997755493916479  0.2114294712990377  0.1890513629270635
  0.6011724426104295  0.1969986186678702  0.6015509957275480
  0.6009407310335585  0.1982683579939827  0.7979444522158392
  0.6005717316047990  0.4013903384605818  0.9967457310804337
  0.6015708939397528  0.4038008103024146  0.1980572319832915
  0.6005362887141722  0.4003892472775665  0.3962276635483603
  0.6026334981055559  0.4006322325313399  0.8009034914145209
  0.5999601782581478  0.6007117716663746  0.0002511009438798
  0.5989063632992393  0.6017399828244444  0.1999587505809505
  0.5974771894041110  0.5986462498313099  0.3998319091654704
  0.5921126048337638  0.6003676671819599  0.6002709126571858
  0.5999060008208115  0.6032336018821367  0.8009780842829503
  0.5982848707106774  0.8008944799008032  0.0003989704748824
  0.6019591719537023  0.7991383357365757  0.1996950276487023
  0.6005722319253690  0.7960263162241601  0.4038959838492155
  0.6009182513307054  0.7974684123415422  0.6088094687540941
  0.7977151573035369  0.0043574971354734  0.9956145392321863
  0.8120660827683516  0.9928468649707182  0.1838983896512725
  0.8000434403414473  0.9972340068962856  0.5971199019695199
  0.8012750645010197  0.0001609038921065  0.7988172762074633
  0.7998843872369891  0.1997040273376820  0.9963372561952828
  0.8015416294526084  0.2025702849002096  0.2003207874721500
  0.8077101722874470  0.2179330510056867  0.3974171337787789
  0.8013723329994671  0.1957043077571574  0.5928725619008981
  0.8006072891202028  0.1985492281671447  0.7965502684661531
  0.8002322796272729  0.3987382826163757  0.9991841502192891
  0.8018201965748931  0.4002211784677688  0.1973261668240248
  0.8006079503331228  0.4044568211173782  0.3979437789300006
  0.8043201339217679  0.3928754472682352  0.5982180746775698
  0.8056833360536401  0.3972403103281219  0.7977969166741881
  0.7994770688650896  0.5971505353702706  0.0000543925100787
  0.8007441221567890  0.5994594535681154  0.1977033801651119
  0.7983402697749625  0.5995260443150086  0.3965282459612535
  0.8005885762610596  0.5988419181051736  0.8008471212305034
  0.8001960994520335  0.7996944606316672  0.1699931921887293
  0.7987309019562756  0.7961915845334381  0.4022794437528380
  0.7988078101783348  0.7991094668190594  0.5994360566276963
  0.7981068609815448  0.7987693371059164  0.7999085277824314
  0.0014125264419558  0.9979896754297353  0.7981264837065422
  0.0020864290869140  0.3989498465820987  0.7984626813486253
  0.2018494311703209  0.9985391831660767  0.8045448425858317
  0.2077696675070426  0.2144049029024208  0.3963332463129544
  0.3983598249809142  0.5956474687500505  0.5990182014117211
  0.6019095206875628  0.8003380932279142  0.8044548308835395
