Zr Ti V  Cr W 
 1.0000000000000000
    15.3960504026614231   -0.0029059402776773    0.0109527228615838
    -0.0029019596058232   15.4211892961187402   -0.0178703021294289
     0.0109643357546517   -0.0178836246684765   15.3929296075496413
 Zr  Ti  V   Cr  W  
   3  12 107   1   1
Direct
  0.3887567817327038  0.4117373720039493  0.8012506743281538
  0.7983315523709085  0.9737498384420619  0.2236188523533262
  0.8121741844409610  0.2089805427525805  0.7752901548259986
  0.9863654530503130  0.3871876757841310  0.8055548374362596
  0.0011825380059145  0.6401199170062962  0.1789501681858707
  0.0099613005432462  0.7854179695998895  0.3847695169471955
  0.2092738698753562  0.0015653250570111  0.0006327500419103
  0.2044682016324044  0.5836468354125993  0.8028356532492922
  0.1869780466201237  0.7973084075518667  0.2065962349855370
  0.3963788825601778  0.0027747162485832  0.8088687355393999
  0.5912535796968756  0.6026184741339088  0.0001593127213639
  0.8042246452627404  0.9957288055036165  0.4235287599260417
  0.8013568033906457  0.1933203739148856  0.1887429526003053
  0.7978620568523975  0.2008878572486070  0.5747235908931919
  0.7955694907326135  0.7749057200773026  0.1932636891104804
  0.9997746765984410  0.0031714241964864  0.0001521859423479
  0.0040139975031603  0.0090929559621323  0.1985569847090341
  0.0013681197566651  0.0014996352215520  0.3985147499605605
  0.0007349126254477  0.9976510630073406  0.5981355595555621
  0.9994327105816524  0.9977373709946932  0.8002934095237817
  0.0006181770606024  0.1989387905509627  0.9967657161046878
  0.0029508639620177  0.2028578522780150  0.1972842216995416
  0.0006190910593444  0.1989618121387386  0.3989481609368320
  0.0028452964580470  0.1986833265672668  0.5992365272244246
  0.0097008257721230  0.1908905091700930  0.7995974187332604
  0.9974512853164798  0.4313985601585135  0.0000385285241561
  0.9982791658690190  0.3986222512647666  0.1983910990358429
  0.9985440158753528  0.3989898633736882  0.3979400272611409
  0.9991399987514834  0.3985001292905525  0.5979076192054001
  0.9997242029452266  0.5921955515261746  0.4104983538169047
  0.0004484307642587  0.5993008989069276  0.6063919250840099
  0.9986616117459438  0.5994040702903644  0.8043317831604140
  0.0002574814530112  0.8108693402976533  0.9944129656663879
  0.9889763325919122  0.8205523204267107  0.1911133222618087
  0.0006751444357318  0.8008701663307025  0.5996031891662604
  0.0015714290748849  0.7982552623477358  0.7990649396029993
  0.2008388748555371  0.0030671496420614  0.2044155163048474
  0.2006924456990586  0.9992204979181623  0.4012587852420957
  0.2007891779044073  0.9999325495478898  0.5994002026942589
  0.1969305898516503  0.9982027455167308  0.7973804747548654
  0.2001614738810823  0.2048569795507695  0.9995593135803157
  0.2008530461244874  0.2018644902060963  0.1997652042436641
  0.2005917732171127  0.2001599078327697  0.4007545707616404
  0.2011209745882317  0.1986412379903285  0.5993729731526414
  0.2032565201594863  0.1976601628345852  0.7984457473973762
  0.1943654943577378  0.4028350084813843  0.0014115397678556
  0.1966195926639204  0.4031437418018414  0.2014501532846451
  0.1990026739122764  0.3981075718606364  0.3994966813913035
  0.1974250660690358  0.3985514292156705  0.5998496810808942
  0.1879919232290796  0.3918136314064810  0.8002488220203509
  0.1976745012793461  0.6010914782064987  0.0059701375920483
  0.1993372378157467  0.5988768847172559  0.2027744348706326
  0.1997149358137801  0.5970347811348239  0.4031370125099939
  0.2003225816847906  0.5994852562259763  0.6012387360737397
  0.1968004812248584  0.7966082366399998  0.9979488521764196
  0.2043207944904007  0.7999973095103962  0.4055939906442976
  0.2002753719043582  0.7992944319892833  0.6024407563871469
  0.2003723351118417  0.7981021099819292  0.8011321374432097
  0.3979489832535883  0.9996180139081291  0.2001320646972902
  0.4005872992332237  0.0003131418452296  0.5998361315146672
  0.3988368541736653  0.1977713128108555  0.9995518406958849
  0.3991437892014209  0.2016115774783392  0.2004461650375617
  0.4002250576080248  0.1994638674893302  0.3987200879740606
  0.4002189288121989  0.2004241794926556  0.5994010797524790
  0.4003692606048737  0.2025739179548435  0.7996977876070990
  0.3973972842492354  0.4007491774205532  0.0052973026980181
  0.3988872330555715  0.4019544969106134  0.1999573230726522
  0.3992501549868862  0.4011123959760303  0.3987830873829694
  0.3994056372471884  0.4013032755640151  0.5957035461950664
  0.3936923833654417  0.6049777363494758  0.0025833396314508
  0.3995655072694829  0.6039971600293865  0.2013479217760190
  0.4003778639685082  0.6012494694140528  0.4001623400241453
  0.4002066179621592  0.6030908771131958  0.6005052919146611
  0.4048276434619716  0.6115401644387883  0.8030224870240396
  0.3978890041257236  0.8065441953588037  0.0028253830175809
  0.4005854717161988  0.8012610706940904  0.2012317133886846
  0.4008440221812831  0.8003666792983744  0.3996335943948298
  0.4010504410366547  0.8023146927560598  0.6015002056010408
  0.4000186207182094  0.8027197021637582  0.8013966929269585
  0.5985892144030305  0.0024957848061307  0.0021471247844620
  0.5956496035117825  0.0032542327272218  0.2017809861540290
  0.6009768247514944  0.0002710232249146  0.3994268824777584
  0.6005364621371879  0.0016696766037287  0.6009217869136846
  0.6032849693942879  0.0027228299077226  0.8016451911674938
  0.5999493965326946  0.2018746313248161  0.9979140735703663
  0.5974191312296240  0.2008972429181602  0.1986201445642180
  0.5999002631464375  0.1999772094557921  0.3987871357723320
  0.5989800106363327  0.2005446547117599  0.5988431772990646
  0.5987418652856414  0.2019005061232720  0.7984796424294378
  0.5979937664378099  0.3997501308126958  0.0001394070719456
  0.5996476968165204  0.4003926912006280  0.2000607473441073
  0.6003426213632167  0.4000738826154138  0.3997184802349715
  0.5981857201849142  0.4010500332183579  0.5998835102111115
  0.5982842787316440  0.4009240670753946  0.7995273598271146
  0.6009976393164780  0.6021740903385756  0.2014237916114761
  0.6001857677706192  0.6004773406418333  0.3998978235200714
  0.6012829950199935  0.6014299578979934  0.5999088585672020
  0.6012672159944907  0.6022838058599432  0.7997713216791095
  0.6008855029774559  0.8037270208815449  0.9999164616983134
  0.6010025570187786  0.8042604413217387  0.2006519233310672
  0.6005421583078617  0.8004168909609461  0.4011859635127470
  0.6006247997051509  0.8028530934290555  0.6000348634094154
  0.6008611204851776  0.8029627514837911  0.7993270790396760
  0.7988924544268744  0.0030499523814405  0.0050378724694442
  0.8008475170154030  0.0016918308093425  0.6121282507795099
  0.8009720620404494  0.9980572928808419  0.8054370866944588
  0.7986563789817127  0.2010289416135819  0.9928272221902406
  0.8009982538853524  0.1959487728375852  0.3865824230808841
  0.7979003817925412  0.4018961472950350  0.9996988306017458
  0.8000241059378665  0.4032260110907624  0.1987612110884214
  0.7988316985354034  0.3960864757708975  0.3987210755011209
  0.7998280783633787  0.4016705850065194  0.5991521593902439
  0.7917833577382085  0.4099771086099918  0.8010055261669770
  0.8172080232640360  0.5995066485481825  0.0006495929485062
  0.8000922140202611  0.5930841033802310  0.2014377078584137
  0.8023311958846593  0.5969387602904889  0.4022010649101415
  0.8001215043795672  0.5999102307523779  0.6009099164869399
  0.8007064597562207  0.6033968107902599  0.8004573298397317
  0.7996794110747257  0.8004477860978672  0.9957485182493118
  0.7996126033821798  0.7946235884443646  0.4034207555642508
  0.8021979021495675  0.7999164446217114  0.6001453266257719
  0.7996717115552637  0.7991222293203831  0.8000241541926532
  0.4009363973880039  0.0000494255618902  0.4005291048888369
  0.4047703266308693  0.0019144906463893  0.0060065005052362
