Zr Ti V  Cr
 1.0000000000000000
    15.4866812533483102   -0.0138389071891856   -0.0042650055420354
    -0.0138393523722023   15.4879634038831639    0.0014184031787679
    -0.0042741725747290    0.0014267905633447   15.4705250654031623
 Zr  Ti  V   Cr 
   5   5 111   3
Direct
  0.9983645501809495  0.6000396334031849  0.9993437210957713
  0.4332120743124375  0.7955444850067418  0.4124046924568722
  0.6016052812551214  0.6006483655894017  0.5943248755017999
  0.7840968769888523  0.9643276628966323  0.5993947192585186
  0.7842048690829090  0.7495756107885635  0.5994051471126595
  0.1978406962120151  0.0004353650267945  0.5981296856343447
  0.5970732211630894  0.8017604769226195  0.2271495217327682
  0.5840093406691645  0.8332210178963052  0.6031296429022528
  0.8014968380976175  0.2062328659050338  0.2057238536129345
  0.7968075693944773  0.3985628692825690  0.3915719516900525
  0.9985700506299701  0.0020658926523140  0.9995979583653343
  0.9995924349756150  0.0000395992034707  0.1998765987977144
  0.9992788676577371  0.0010895477520481  0.3980207212646028
  0.9984301221794830  0.0001149683898641  0.8002999340247404
  0.9991668044690920  0.1992393674537409  0.0012278102114289
  0.0017871218779253  0.2002242333849434  0.2009025525010688
  0.0001448270692871  0.1986126289170916  0.4012738015064236
  0.0007888851209916  0.1991685756757564  0.5984171816099257
  0.0000838928887090  0.3947669687710366  0.9984090306084671
  0.0006102761549225  0.4001409655472598  0.1997039108977691
  0.0026802936744266  0.3995376018332316  0.3990961959832202
  0.0026852815865877  0.3973438844689232  0.5993768715821493
  0.9997354379368378  0.4019472803400790  0.7986026638692422
  0.0001818961245947  0.6003021234634838  0.2042983126187126
  0.0004818690106098  0.5991245860884892  0.3994973091490079
  0.0005820874613687  0.5994992240719499  0.5968281051980308
  0.9997325492512665  0.6014075689017112  0.7942107063221115
  0.9995430579693516  0.8050147969754587  0.9998625230399887
  0.9998810119636746  0.8005161684436105  0.1996648282133736
  0.0034877016161134  0.8011761914276547  0.4003615355004717
  0.9958508614802656  0.7973865494532995  0.5988614701167735
  0.9989625326899799  0.8016263391764684  0.7981524923062783
  0.2000853456259840  0.0010930009833234  0.0006714673513004
  0.1995050317198372  0.0005207691314668  0.1995672252371047
  0.1997379188515889  0.0000229683295860  0.3978147622932463
  0.1975755988341497  0.0018236312191051  0.8015002362251761
  0.1996880297896460  0.2006646270649564  0.9992975087215346
  0.2003118965698043  0.2009666260275125  0.1999415465822715
  0.2008923269856226  0.2016540446680867  0.3991456740302717
  0.1991121540571570  0.2032864383636764  0.6003090190671971
  0.2013397420381098  0.2015123694375469  0.8001844080249929
  0.2006604347598417  0.4002484541392266  0.9993222522511460
  0.2007149160992239  0.4013174093900352  0.1987161217742546
  0.2010536947150778  0.4008632093054970  0.3987873352014968
  0.2006854509222974  0.4023501751968828  0.5991056210489998
  0.1995895823242491  0.4009342917853234  0.7997723700777912
  0.2044179956765174  0.6011673842233848  0.9991353251136182
  0.2005384206364302  0.6009733312440273  0.2000627252374291
  0.2019122580943943  0.6009252005038656  0.3986144139678442
  0.1994785782697562  0.6008113788613851  0.5978603868949321
  0.2004364073905038  0.6013093209889542  0.7981073809056924
  0.2006675192610479  0.8015368303905404  0.9997279754217893
  0.2002142834984238  0.8002396927351927  0.2002502959188131
  0.2024500513563839  0.8002828700537529  0.4000905030359153
  0.1968881088640968  0.7995617012193718  0.5999614987721332
  0.1990784625984340  0.8006364545569843  0.8006498216007059
  0.4006011230076071  0.0013889918973778  0.0007025067207519
  0.3989835006072187  0.0009870335197673  0.1997737893789339
  0.3988750091676234  0.0046584706165875  0.3991703883705214
  0.3947043833946494  0.0038784174445581  0.5997916158053114
  0.3987266195719226  0.0017460642692881  0.8019484877213869
  0.3992623287550368  0.2016517409669684  0.1998308112587765
  0.4011219090425275  0.2009474823686409  0.4007432518078101
  0.3982254019979817  0.2038400462570108  0.6002316719766584
  0.4006090086521290  0.2016320739876042  0.7997050925742961
  0.4010245696676601  0.4009702786134890  0.9990655818008605
  0.3996797245651213  0.4005927692204199  0.1989572049194256
  0.4021318922142876  0.4000401761812953  0.3993939242391213
  0.3997150021103871  0.4026582768219464  0.6000626471654186
  0.4004411770107150  0.4030017357520124  0.7991738516499506
  0.4016147653327954  0.6016940912790701  0.9993453131865787
  0.4000435936054194  0.6003149694013746  0.1983879762981142
  0.4008429158619640  0.5948704690826153  0.3989063186609444
  0.3960439286706783  0.6029090303502099  0.5976731807846141
  0.4014237242458188  0.6025684549196244  0.7982768860846389
  0.4016028448153368  0.8014236689405791  0.0010998974033765
  0.3982534742314023  0.8007027053900283  0.2001963183745629
  0.3920479432106244  0.8036095702652104  0.6092290695156880
  0.3996681128370490  0.8011258988991870  0.8013930500635754
  0.5985029302169768  0.0008511971703131  0.0014849684167937
  0.5990652601784943  0.0040053049396436  0.2004762198800533
  0.6004312878347817  0.9997083869745068  0.3997921141041906
  0.5903571503462824  0.0170967786729590  0.5998004609975639
  0.5993115607520220  0.0032762742838783  0.7981749544884167
  0.5995103603437485  0.2009942523345873  0.0008932727331208
  0.6012988734563182  0.2002233680587445  0.3993193298414071
  0.5983912964430657  0.2041812760873607  0.5987939651888976
  0.5995203767139607  0.2019351266169178  0.7998982962449139
  0.5995333008312830  0.4004212883675403  0.9998373918310184
  0.5995068427527754  0.4001004367069350  0.1992211760798791
  0.5990461570146839  0.3999545471239007  0.3983923733348306
  0.5985901344362656  0.3982438218211671  0.5984009522288002
  0.6004279823601364  0.4016707616130401  0.8005644889409244
  0.5992525646562977  0.6025986644457064  0.0004411242354985
  0.6006039344637943  0.5989453149215181  0.1986489692271509
  0.6019538961498437  0.6007381604822341  0.3923694714810313
  0.5999229132292163  0.6022064005633878  0.8000917007259947
  0.5997393143983277  0.8024999611754549  0.9929702642568197
  0.6251806123334944  0.8016101858399225  0.4194725974399565
  0.5997528611291904  0.8025201161601032  0.7983873253850381
  0.7972118082644978  0.0009586907366057  0.0024238732888766
  0.7977505273152770  0.9975682240035895  0.1986572019895728
  0.8010831526947650  0.9988543046571270  0.3957756387713401
  0.8003922930343795  0.0008850392470272  0.8035206429770856
  0.7999394488869234  0.2005937250134605  0.9983317997000777
  0.7988640441404585  0.1947405156267768  0.4022346054725704
  0.8015392145337794  0.1978228067041981  0.6008870295292297
  0.7973606061627607  0.1994656191579655  0.8002788396226879
  0.7985020231811022  0.4000744530302446  0.9979789004140617
  0.8002951842229483  0.4031345507984082  0.1955092436331160
  0.8015561550554904  0.3937263230381448  0.6000036036664350
  0.8004918136742400  0.4005377912804340  0.7997340869568988
  0.7945360588028231  0.6008426838108708  0.9988971949862934
  0.7993607647643964  0.6005067004288990  0.1982506817270383
  0.8016207712832943  0.6007691684249618  0.3975592445620282
  0.8064298165970644  0.5674688101681093  0.5955070406942162
  0.7997503200501832  0.6007445265544684  0.7976904152921699
  0.7969583153673958  0.8003083492268351  0.0009299039138571
  0.8018212976999837  0.7987413955714611  0.1996092484020556
  0.8103031928578373  0.8000223891318932  0.3964500178150172
  0.8000633104149895  0.8022902023073647  0.8001841470158216
  0.9977700430324297  0.0653155185028831  0.6653686821227985
  0.3997416909311750  0.2010178798935274  0.9997117888450995
  0.5969392449932753  0.2008294667546711  0.2005585410491220
