Zr Ti V  Cr W 
 1.0000000000000000
    15.5633147981762434   -0.0105082892338306    0.0011052113616143
    -0.0105224976463168   15.5390273600018674    0.0056805954645976
     0.0011054290159095    0.0056800010957864   15.5617863503600393
 Zr  Ti  V   Cr  W  
  10   1 106   6   1
Direct
  0.0072463145345997  0.1899995813770778  0.7962165428907344
  0.9993126691899793  0.6235977768710337  0.8009504575467664
  0.1908646634779322  0.0023119813029573  0.8028713908875168
  0.1977011223833630  0.8003051629587428  0.3972976288533631
  0.3976831346615495  0.9986788483768622  0.9976290090913127
  0.4012237645292661  0.7739368090720898  0.0019942414336054
  0.5985866399332200  0.2018725594316444  0.2032055872428855
  0.6101749607336439  0.4095569067670930  0.3989964580025213
  0.6010781135774662  0.8011795754422681  0.6019298862343423
  0.7935209363451990  0.5923839633804057  0.4001718358533526
  0.9990983665099272  0.9949000031136609  0.2024103527785193
  0.9977993888781994  0.0010152629681213  0.9991058010333000
  0.9984204740897243  0.9993594573772797  0.4013581452981749
  0.9988231389484190  0.9967786660093904  0.5978853671186741
  0.9882014550395015  0.9861094425934004  0.7989815136623591
  0.0005365111808746  0.1996820745591389  0.0033752594054994
  0.0017252730246675  0.2016492003165830  0.2005768916586813
  0.0024675552814095  0.1979846834811942  0.3991389463313245
  0.0025014988041516  0.1981953843321689  0.5941870116078826
  0.0011465649757729  0.3991437833998848  0.9993788546815682
  0.0010852731625913  0.4000678234382630  0.2004373241525798
  0.0038365144752604  0.3984264873220124  0.3988758981706913
  0.0021982435276220  0.3992067452013046  0.5998264301868154
  0.0001885156543206  0.4033143643139264  0.7992987508865806
  0.0004399280849170  0.5972697512379479  0.0035635084743327
  0.0004941804400749  0.5996395669833335  0.2006070544163495
  0.0017835525234713  0.5985901247163027  0.3994311510026184
  0.0008278225562652  0.5985461876427794  0.5957118570362711
  0.9986983377821829  0.7970884433481243  0.2020169222398271
  0.9946488963492790  0.7979357306446285  0.4001421072404592
  0.0005321816290229  0.7978816807111073  0.5984637524877209
  0.9998399317962985  0.7989402882066304  0.8983263259375902
  0.1911140244825654  0.0009414768404155  0.0064993275948814
  0.2014194910612530  0.0016768182456903  0.1988523900361683
  0.1990555935217006  0.0040457084403176  0.3979848053826657
  0.1987337820919435  0.9999747331912587  0.5964906501003184
  0.2009578876699681  0.2015034199838784  0.2006493530971050
  0.2005930227208201  0.2006912264347440  0.3985864066093873
  0.2067364136073220  0.2011855123546610  0.5976571878501863
  0.2085699634863847  0.2072814902277016  0.8007847478305398
  0.2001041941558363  0.3996820780972430  0.9995637413411499
  0.2010346143325722  0.4013858029113373  0.1980485255733009
  0.2005736326602589  0.3993995356786871  0.3988219753867673
  0.1998612032006714  0.3995816108364049  0.6001317317734630
  0.2016081135241064  0.4019809269115107  0.8014350734793538
  0.1997956999684840  0.5984636946283822  0.0007415044076061
  0.2007828038232381  0.5994423095011333  0.1989365764980559
  0.2008794739257380  0.5967101511868885  0.3991483925265243
  0.2023276233620812  0.5979421593002867  0.5998549448861186
  0.1940802645423891  0.8008216624984739  0.9980655368951920
  0.1990480168615867  0.7995509907076316  0.1938766832579778
  0.1986061601120587  0.8009540844679952  0.6033767567228155
  0.2023134320882687  0.7962454846381741  0.8013371613258123
  0.3995589203422984  0.0009130853472323  0.2050749152489428
  0.4004352369339992  0.0007497215754011  0.4011031295548008
  0.3982671334679296  0.0044798326103116  0.5974011926142057
  0.4016087313707571  0.0001719677564131  0.7930801763485936
  0.4001734653509818  0.2046176631324588  0.9992579674012750
  0.3960079816941154  0.2016480441600948  0.2012251294914981
  0.4003645363068627  0.2015870775317846  0.4046894770965198
  0.4022699955534874  0.2010885048621914  0.7956978347558302
  0.4000045993034584  0.4004583414892784  0.9983852602233141
  0.4007895830179428  0.4015453785361309  0.2003803294290248
  0.4002462542825316  0.4008311032548041  0.3995230099170531
  0.4009827634072031  0.3966753936528088  0.6000181477181705
  0.4021292043920969  0.4011711183629277  0.7991568042262813
  0.3992690516264847  0.6008763091866814  0.2006807733713911
  0.3979335560092462  0.6001224111907433  0.4007500320792417
  0.3988535681506065  0.5983571633023017  0.5993979696994857
  0.4012773846544070  0.5987252490247977  0.7983527157547827
  0.3995073886275680  0.8010902105402351  0.2056911907042803
  0.4017080178388492  0.8014322209646938  0.4019379466341934
  0.3994984299006014  0.7999252091281828  0.7962218153735120
  0.6045569966253577  0.0009321418730202  0.0007598165178608
  0.5995129130554658  0.9968264225121092  0.1996332177749939
  0.6003324307948172  0.0006321280945243  0.3997308189756356
  0.6002409374100200  0.0040752352474183  0.6001216571867986
  0.5992583466175129  0.9992944421351702  0.8007844559969576
  0.5998378695315137  0.1996863148687307  0.9966953081427284
  0.6017030805524528  0.1989004933709302  0.4055021843261462
  0.5966831600588046  0.2016100009110093  0.6014523202195233
  0.6008083189796970  0.2002112944062400  0.8004943631226700
  0.6020914358361731  0.3998507502697221  0.9985511716378074
  0.6022448196866854  0.4002587078879992  0.6038659496307895
  0.6008290936679914  0.4014448845525508  0.8014350706112383
  0.5997840283764937  0.6000087822193240  0.9992454592512880
  0.5985337582892784  0.6026904863745319  0.1981301376522029
  0.5903147660854973  0.6110058141780921  0.3993969368201459
  0.5975751601845579  0.5972432898943656  0.6017365484914775
  0.5990302629698684  0.6004085102687868  0.8009492773896884
  0.6056918217751077  0.8007235716484961  0.0014986242073876
  0.5997029560764470  0.8004438166686565  0.1990874921979533
  0.6001388033344743  0.8040518960614587  0.3965620634913779
  0.5991514760056734  0.7997593769782938  0.8054192387239604
  0.8017195328155875  0.0001680172519885  0.0007162461824995
  0.7984162289959094  0.9997377116688089  0.2000906216681360
  0.7993744940012341  0.9995419306206696  0.3998363397143569
  0.7993496412341985  0.0010522867404141  0.5996130770895106
  0.7955156866891553  0.9982617505860709  0.8000181618620731
  0.8009181508267297  0.1998900652253515  0.9999972664165910
  0.8016956273117081  0.1964319854212128  0.4000817122460573
  0.8007664257623189  0.1989944490035988  0.6001848199731041
  0.7983009602305492  0.1983150916972529  0.7991285930406006
  0.8014784646377993  0.3978461789698673  0.9987885856014471
  0.8029616575294046  0.3993876719442948  0.1968897736990325
  0.8116833358213762  0.3892348125772286  0.4000292679578844
  0.8025606351119740  0.3960887441457780  0.6021473504970698
  0.8008059382752166  0.3982407666198714  0.8003708783927835
  0.7995607602971584  0.5979150770485365  0.0002691906979091
  0.7991056035945697  0.6003220671293281  0.1959029751102199
  0.8002158433707672  0.5968536481213728  0.6036364057207255
  0.7957810414659466  0.5990973477597453  0.8007891096624037
  0.8016299620192714  0.7999580095418829  0.0002591005165928
  0.8003177635016110  0.7991920674896447  0.1992484892789246
  0.7992335878372818  0.8010111523365869  0.3993329029693006
  0.8036778709934652  0.7994432844834130  0.6000136900851942
  0.7993666537961365  0.7992177743071091  0.8014949704658353
  0.2007641363522453  0.2021022972017695  0.0017265313006150
  0.2039747595417802  0.5992073579819399  0.7995780220631304
  0.4008881135095742  0.5907575431737166  0.0003287680489918
  0.3958256260823605  0.8000647713587995  0.5992809132450937
  0.6009639456885276  0.4057483747441830  0.1937027341593965
  0.8038931885232381  0.1992471207258006  0.1999330432943108
  0.4009862998149233  0.2009765989698907  0.5994857281753139
