Zr Ti V  Cr W 
 1.0000000000000000
    15.1551955940486707    0.3413345649070436   -0.0916547029007958
     0.3429155770792368   14.9139423285422623    0.0015080820018284
    -0.0919746516174866    0.0016562780053059   15.0825629027418522
 Zr  Ti  V   Cr  W  
   8   6 107   1   2
Selective dynamics
Cartesian
  2.6222612387768955  2.9190376349647091  7.3445045134453490   F   F   F
  3.0420091913784160  6.3234514843560392  8.7921649037356335   F   F   F
  3.3217384824527216  8.9178379083027366  6.1395640070830737   F   F   F
  5.8456836230245504  5.9692821194544461 11.3998482864550148   F   F   F
  9.5108167661815983  3.3892771640592128  5.7347338337479954   F   F   F
  9.0943679724797359  9.3271391942721174 14.5167895023027498   F   F   F
 12.2438975101023875  5.7797172144037701  5.8788903245110022   F   F   F
 11.9027290010715134  6.5592357136517112  9.3590165153427947   F   F   F
 15.6552496045747702  9.6422298574114578  2.6630224859232325   F   F   F
  2.4999034083300695 12.3201070056970412  0.9309915347678154   F   F   F
  6.2706295256103370  8.7269656777817062  3.8655084771695400   F   F   F
  5.8436289344075867 12.2897486313954225  2.7863197995049198   F   F   F
  9.0513860153179149  8.8653968553811477  9.0540267546665074   F   F   F
 11.9367585852116331  4.0418929248115472 11.9061843177972602   F   F   F
  0.4951862531596811 -0.4802846653660044 14.4461872708206354   F   F   F
 14.8270394690142417 15.3654709805279310  2.9659127175355566   F   F   F
 -0.3634493084501490 -1.2208791984792253  5.7527063779758176   F   F   F
 15.8583174519274017  0.6404587972524642 11.6269585473907977   F   F   F
 14.4935644223616098  2.8994797860805908  0.5473745272184400   F   F   F
 15.9856977144547123  3.5050051616325697  2.3991230647674375   F   F   F
 14.7726276514183290  2.9193890449925890  5.7373203833108040   F   F   F
  0.1474721658222693  4.3548028597383723  9.0156681054564967   F   F   F
  0.1423888694959803  2.6140009050502053 12.1806175446318914   F   F   F
 15.6331195728404726  6.4486525650317175  0.2035949740610221   F   F   F
 -0.2820844173481172  5.6085816487568563  3.7209116295382656   F   F   F
 15.8893802841053855  6.4787085498744936  5.6946394844608115   F   F   F
 14.3277525012182423  6.4843480977740171  7.6956352703795838   F   F   F
  0.1324843522342928  6.1890590528978544 11.3533405702750887   F   F   F
  0.5019140775274472  9.4433783905914535 -1.0992035447747821   F   F   F
 14.8559322079563234  9.9133824786185443  6.4078383527792813   F   F   F
  0.6510398230649088  9.0190289326655257  8.6140334775407172   F   F   F
 14.8534474165928145 10.0328194381034130 12.0524316392937649   F   F   F
 14.9466690468693919 12.2723194759043679 14.9894767821168795   F   F   F
  0.5531246595040639 11.4820726067079644  5.9048531842444314   F   F   F
  0.3484608806761512 12.0926925523079198  9.4189111095567473   F   F   F
 16.1439892468515822 13.1587609081888885 11.4812346936130023   F   F   F
  2.7653386939600328  0.0036266235091422  0.3130078451401569   F   F   F
  3.3426685552335700  0.3971122868311939  2.6611041369595028   F   F   F
  3.0309053823240730 15.4220545041934951  6.2060281904773698   F   F   F
  3.3819784667759363 -1.3563876042361942  9.2093952847220972   F   F   F
  3.4300160817336254 15.4512952052925936 11.5243200604992477   F   F   F
  2.8012259693275476  2.4134311232174483 14.7027581010857471   F   F   F
  3.4212898397200786  3.0637185899224932  3.3353268826641647   F   F   F
  2.5068753537231969  2.5053724433255158  9.2345762942649188   F   F   F
  3.3785668886744080  4.1239263583065719 11.4146407360546611   F   F   F
  3.8823666816983642  6.0234371709954653 14.5025809497698628   F   F   F
  3.2601950327781246  6.7808480041038361  3.0902515023539432   F   F   F
  3.1131521653354710  6.1675757485878391  6.0561503674221040   F   F   F
  2.1747560134758426  5.7694324229135905 12.7482177833034758   F   F   F
  2.3755622359044040  9.1982470444200377 -0.2987421176981979   F   F   F
  3.4948134664721660  9.1759989133798427  2.4532662435140669   F   F   F
  2.6228637805826827  9.5548291224220030  9.7698880090207929   F   F   F
  3.0985433887902962  8.4242258893596365 11.7678509481937024   F   F   F
  2.2651953281858397 11.1751679599055329  3.6552947159717677   F   F   F
  3.3407826926258770 12.7270615403021434  5.6650668639255315   F   F   F
  3.5182717190460355 11.5195829067593589  8.7717279798317236   F   F   F
  2.6485001681313785 11.9072773470770130 12.3494003044945657   F   F   F
  5.2141713125578812 14.1393021291758973 14.5355581665292313   F   F   F
  6.4966690385400350 14.6773433694531086  3.8726883597280257   F   F   F
  7.3898005458614602 15.4510703053982006  6.3304758397542100   F   F   F
  6.5139241397155638 -0.2174590147659418  8.7190767599733086   F   F   F
  6.9660708577622987 14.2745926030759414 10.8436557748829614   F   F   F
  6.2943718286482673  3.3920600969720729 14.2359908525634253   F   F   F
  5.8027398965842076  2.4273772146879500  4.4945836067168781   F   F   F
  6.0210885516937998  2.6287030712165440  7.0498836531700571   F   F   F
  5.4760623063144056  2.6502076263220915  9.7761414874517190   F   F   F
  5.4962875031044556  2.2997303514533738 12.2230926846316414   F   F   F
  7.1207184156572048  6.3222949016534438 -0.2584252633701755   F   F   F
  5.9930324847398850  5.5167003572292277  2.4227666910576136   F   F   F
  5.4582967587763029  5.9403085129204927  5.9144886619173063   F   F   F
  6.8755641593756565  7.0926547360933494  8.9932850134679665   F   F   F
  5.2850997957167447  9.5040386102031782  0.3477233131128701   F   F   F
  6.9293211381528730  9.2252755974821437  7.1484999869104175   F   F   F
  5.4055448547805725  8.9921400620130747  9.1254484654802397   F   F   F
  5.6190092697974956  9.2079050740010118 12.9271690027921160   F   F   F
  5.9556065179089748 11.6073599210290119 14.1501252123205941   F   F   F
  5.7191573270240159 11.8132386719724476  6.5847056039963707   F   F   F
  5.9215567375612030 11.7712892327032623 11.5024227664191923   F   F   F
  8.8463256420599343 15.2660082959842391 -0.7043850645355509   F   F   F
  9.9499905979119685 15.9044376497926851  2.7686027539164253   F   F   F
  9.5747108371356795 14.5362782662082335  6.1926564244094084   F   F   F
  8.8842368924365953  1.3782702444411363  8.7508894329544606   F   F   F
 10.4804494023111552 14.8402453029658492 12.0412799318214532   F   F   F
  9.8600323994063697  3.0135312289715444 14.7650305343959669   F   F   F
  8.6875104048780560  2.9424281239243033  2.2011074812952507   F   F   F
 10.2243245732299286  3.1264070717355303  9.7314950825438338   F   F   F
  8.3560802551000926  3.1744180693391568 12.0506818265237783   F   F   F
  9.2897950327452303  5.6286517576258230  0.5271970702983909   F   F   F
  9.8975686016453039  6.1490400704445829  3.1483509670852210   F   F   F
  9.0325799963916662  6.9263452474610752  6.8017198116818767   F   F   F
  8.4469584667247197  5.1898075616349573  8.8201858666166792   F   F   F
  9.4065622577021291  6.6970785889679307 12.0723633177793488   F   F   F
  8.8348905527547892  9.8890136346513504  3.0296466715617210   F   F   F
  9.3712250579877026  9.0295335150082803  5.5801474278551506   F   F   F
  7.3844718257773287  9.6407792348118857 11.2442722382227629   F   F   F
  9.2131889543284515 12.8323396467317963  0.9732765956937749   F   F   F
  8.5409062406940404 11.3257261123592841  7.3364602641629748   F   F   F
  9.6910973460987684 12.4102540301877227  9.2084395213639727   F   F   F
  9.2729335345244053 12.6477973729848365 13.0092680637109677   F   F   F
 12.0966862870973273  0.0883226716757052  0.0749096387587462   F   F   F
 12.9620007604050347 14.6112734247579308  3.6683891820608876   F   F   F
 13.0686576698550638 14.9281543358570001  6.3343492588648509   F   F   F
 12.3315117455496495 14.4607144043575548  8.5030671737227248   F   F   F
 12.9558620898880914  0.3811729109891421 11.6789184544175217   F   F   F
 12.2965878696652435  2.5341870337061443 14.3849086805494295   F   F   F
 12.2771404794363548  3.3654787102596373  3.0811276830205441   F   F   F
 12.4092063977309568  2.1986690553180508  5.2076097047939625   F   F   F
 12.2523622585219716  3.0221215068929212  8.3146470622647630   F   F   F
 11.6303089645695419  6.4329284156090161 14.9989801062824561   F   F   F
 12.7202597888966817  6.9837849860632826  2.2887381087960850   F   F   F
 13.1113507780689158  6.7156002813843561 12.5864070297935431   F   F   F
 12.8533781375543725  9.1453546010366349 15.1020528865124568   F   F   F
 12.4384136017498808  8.7709918833739913  3.8239373027009731   F   F   F
 12.0302623562155695  9.3986169627259883  6.8451220652401421   F   F   F
 12.4677902091359289 10.1212199521489890  9.1544782324653866   F   F   F
 11.2590937418402746  9.7145658100360031 11.4889470370899680   F   F   F
 12.1840331767059986 11.2606385177340549 14.3870268787150266   F   F   F
 12.8570922864285642 12.1715513129118946  2.2373340279238869   F   F   F
 11.8254825282091396 11.7263593698766098  5.8275590272939999   F   F   F
 13.4497818884836917 12.9038997832892015  8.8873566252543377   F   F   F
 12.6423751329100007 13.0469227910105889 11.8303112230077279   F   F   F
 10.5712059237378320 11.5763002857951438  2.2634109714886081   F   F   F
 15.2273116844723333 12.7123797646019732  2.9537713069401628   F   F   F
  6.6107571755143040 11.7153250976715828  9.0290572668310922   F   F   F
