Zr Ti V  W 
 1.0000000000000000
    14.6150993175941277   -0.0918043621560243   -0.1314797268688350
    -0.0923619246728337   14.6948876785043350   -0.0001779029724189
    -0.1312349503819182   -0.0000139100582880   14.6849516002141325
 Zr  Ti  V   W  
   2   2 106  14
Selective dynamics
Cartesian
 -0.5651771004777605  2.6332567180742830  0.3521263893637748   F   F   F
  9.5103729378249540  8.3091384599796712  3.1927288982894684   F   F   F
 13.1508469545065161 14.7719551346644007  5.3274345603395385   F   F   F
 11.4279264096500821  3.0540070832032300 12.2210190190522123   F   F   F
  0.1710026553635281 -0.8123763244468989 14.8308088809544127   F   F   F
 14.1372645605927723 14.5271102386914404  2.5746259098111679   F   F   F
 14.6056959116571345 13.9741127109539036  8.5632862004370072   F   F   F
 -0.7876478547453216  0.2206854915926286 12.1629996578502162   F   F   F
  0.0717695338660668  3.1109636457776326  6.4440188432681271   F   F   F
 -0.6771741104844838  2.3223405312014505  9.1837558129471937   F   F   F
 14.9471259894321893  3.2627136563323260 11.5896027725586332   F   F   F
  0.2187217119473894  6.2743173449727099  0.5336789167006289   F   F   F
 14.4160194495319605  5.0884548635516058  3.1718032290840350   F   F   F
 14.5092980092517774  6.5989441735798895  5.2890130706054475   F   F   F
  0.1448955363129187  5.9494389925427953  9.2368375048389986   F   F   F
  0.1322935344751080  8.8500454560806610  3.2222463912599149   F   F   F
 13.9248811609392451  8.4234837927720125  6.7755047667635617   F   F   F
 15.0752455864496664  9.5445820333929507  8.6871452654479633   F   F   F
 -0.0135150223243997  8.1903141753056712 12.0980305796646661   F   F   F
 14.5366389381686965 11.4629393758495244  0.5766810921911304   F   F   F
 -0.8835441659516035 12.3185167865240857  3.7018556948575334   F   F   F
 14.7706499321760027 11.6516672306334819  5.6080835565283422   F   F   F
 14.0282700319462439 11.7540411117039110  8.5290369752323834   F   F   F
 -0.6378837154221294 11.9174548492112535 11.6901253203234461   F   F   F
  2.2488691575040782 14.9504003912131402 14.9871671554776569   F   F   F
  3.1785046016806588 -0.0360456389300841  2.2757815825114132   F   F   F
  2.2697256533325203  0.1249845586185095  5.8785737645708016   F   F   F
  3.5060986855476095 15.5787456679724912  9.2523566537888335   F   F   F
  1.4317493107450188 14.9960670389312440 11.8957624630843721   F   F   F
  3.1308165179564074  2.5711052459486203 14.2490731437408300   F   F   F
  2.6687218641400801  3.4822182945468940  1.7291413099728969   F   F   F
  3.0681397668310866  3.1610896960101025  4.1184449484335452   F   F   F
  1.8537568887211793  2.6990623647091789  8.7457835483892818   F   F   F
  2.0544442294548122  5.2666992429473920  0.0839759279961416   F   F   F
  3.1617563420163801  6.7707554416528470  3.0943240388917244   F   F   F
  2.7565848299410360  5.9485084152833716  6.6824371088889976   F   F   F
  2.3409973458938005  5.7008868145855587 10.4317350022070325   F   F   F
  2.7887854082970409  5.8718188859692031 12.7319810029606799   F   F   F
  2.4420201279368245  9.0028408410705865  0.2837450891355288   F   F   F
  2.7481235178025156  9.1241338943142640  5.8995775423323442   F   F   F
  2.9999894906281686  8.2418465009625592  9.5399646690555162   F   F   F
  3.8919798225149500  9.3687958962801456 11.7493267037556990   F   F   F
  3.3456194185780657 12.3791647375665939 -0.8822503747273182   F   F   F
  2.0558382676361369 11.9337225195179624  2.6254443000418561   F   F   F
  2.9673862225504219 10.9896147823104418  4.9100215304903054   F   F   F
  3.2979267417388702 12.1252677002857538  7.9796473545422959   F   F   F
  2.2724560116533623 11.3498295788209091 11.6784054520591933   F   F   F
  6.1603747816962020 14.3434039498429389 14.8436030051377852   F   F   F
  5.0607553042211615  0.6626058375214352  3.4665679990659219   F   F   F
  5.7550613994981354 14.4873630518416743  5.1976533768538200   F   F   F
  5.5675653835956096 -0.8470696084513284  7.9011555217821128   F   F   F
  4.6056802685622804  0.3173002914470776 11.6559899633283433   F   F   F
  5.3732971042482269  2.9819018923338021 13.4461979880791525   F   F   F
  6.1050420991328345  2.5243718616484534  2.3813475036690779   F   F   F
  5.7962317656143423  4.2617131927626675  5.4987013615337990   F   F   F
  4.6391384459612528  3.6404005656539273  9.0037659205812339   F   F   F
  6.3570412379911900  1.8959663433363305 11.5105278740709842   F   F   F
  5.8170163356977209  5.1640806682136917 14.5565811327588186   F   F   F
  6.6803272064054049  5.9399565818022113  3.2217211398148926   F   F   F
  6.0852009446692907  6.5985745854529849  8.3191733346585472   F   F   F
  5.6413010559851635  4.7284876812288825 10.9325452700300083   F   F   F
  6.1097492635539083  8.9517873196817082  0.9852377525676265   F   F   F
  6.0220951117764692  8.8349673868451823  4.1302407658930926   F   F   F
  6.7808162194802257  9.1947106617516763  6.6907673458218060   F   F   F
  5.3041897873171191  9.1996715355991725  8.5980766241512843   F   F   F
  5.4420794184082437  7.5476849872243292 11.0071807483054371   F   F   F
  5.9218965377101114 10.8500248501061289 13.4028087708912906   F   F   F
  5.8850188013665452 12.2914274586570738  3.2259447831193162   F   F   F
  8.8922976334035706  0.1433072045379451  2.8431064710876401   F   F   F
  8.0456808195795269 14.4989267236515502  6.4275814356715948   F   F   F
  6.5309871565573072 13.1105773560555114 11.1491601988778690   F   F   F
  9.2138125959497845 14.8396989776759298 11.6241013719848389   F   F   F
  8.6009644387676953  2.6170708035148924 -0.1509658463465722   F   F   F
  8.0721782355340146  3.7586083874098177  3.1587182390269604   F   F   F
  8.6874010037687857  2.3820668413924402  5.0971179469476162   F   F   F
  8.2183552368609085  3.4738929308540865  8.6581535867402710   F   F   F
  9.2077929722188703  2.4992156937852714 10.7945273204857699   F   F   F
  8.9202241747344697  6.3530460380970908  0.0519368321747129   F   F   F
  9.7863824424565813  5.5280134286509721  2.1796856732579806   F   F   F
  9.0138060612653899  6.0194392967749000  5.9790293098608913   F   F   F
  8.3547016962743950  7.1745268128443902  7.5506986581751923   F   F   F
  8.4024800479107977  5.2380990876426328 11.9178783935281878   F   F   F
  7.9574243202814259  8.5733412686039774 -0.9074022708662027   F   F   F
  8.4674182327067697  9.3204587486367068  8.7777026708030892   F   F   F
  9.1619368315620857  7.5895535986826497 11.3623746577015439   F   F   F
  7.8969111833572665 11.0584139203405822 14.9594150692139287   F   F   F
  9.0702864806286065 12.7467777404828269  2.0681909603568793   F   F   F
  7.7323136296256205 11.1611438220707502  4.6048500525582607   F   F   F
  9.4407505463578847 11.4615797864242861  8.0190174077254692   F   F   F
  9.5256503675133501 11.2894482353235706 11.6129734865841652   F   F   F
 11.2263481500223570  0.2091969953259206 14.7013079395318087   F   F   F
 11.1724105039477557  0.0080915341472664  8.5037136408586651   F   F   F
 11.6175773707638541 -0.4427292340471123 10.5537274234271727   F   F   F
 10.2481321533119516  3.7526033563011971 14.4724255843389891   F   F   F
 11.7252378351533437  2.5783555230544644  2.9926268063430173   F   F   F
 11.0980027823113971  3.0213736006091394  6.5994267747393476   F   F   F
 11.9501008773247470  3.5477245885338555  8.8857055233491522   F   F   F
 11.7678293090803177  5.4304763919747598 15.2690771376137313   F   F   F
 12.6385689167113622  5.3451263475477946  6.3125970289996802   F   F   F
 10.9033055484043526  5.6312395186344544  9.1600039574948067   F   F   F
 12.1570990602427038  6.3745717269594158 11.7564073619960539   F   F   F
 10.9299282856516982  8.9308258025866234 14.0536453931796199   F   F   F
 12.8634242638211660  8.5741343077069807  2.4269088423475003   F   F   F
 11.3980139130972784  7.5610185449546581  8.3689879656409687   F   F   F
 12.2073250291896844  8.6720878046123779 11.4963860432999709   F   F   F
 11.9491354424932634 11.3408059588435375 -0.0603436048018507   F   F   F
 11.6563515689215809 10.6349121324690650  4.1328764352995231   F   F   F
 11.2589074230302160 12.4298879283085029  5.4802004300739044   F   F   F
 11.7642399702118698 11.0990597784443974  8.6482534049601707   F   F   F
 11.6381906888759872 11.3777452851864247 11.9058651885131965   F   F   F
 15.3197251720263843  1.9864014143315585  3.5417490131426232   F   F   F
 -0.4110679205135247  5.3389764814334866 12.8915140254681013   F   F   F
 13.6708548295425665  9.1638585302147675 -0.4388076753831867   F   F   F
  3.3703134580727729  2.7474496603225971 11.3241775073692352   F   F   F
  3.6200044818699393  9.7106474047002003  2.5230020624344576   F   F   F
  5.5627450563640402  6.8781577927309678  5.9130252699483830   F   F   F
  5.4504556600327714 11.4078499830443896  6.1153715593774001   F   F   F
  6.5196065228893438 11.5875244767501311  8.7224470326014281   F   F   F
  8.6869940343330185 -1.0110922477923197 -0.5894163608993199   F   F   F
  9.7477916205752937  9.6069916970721643  6.1902104073169069   F   F   F
 11.6060742900272658 -1.0691193698579764  3.1998392451280568   F   F   F
 10.5378132364688462  0.2919184544537962  5.5482316843170851   F   F   F
 11.9990675299796123  6.1691510068563824  3.5901658784112809   F   F   F
 11.8865944647154542  8.1629828045182986  5.2876398365652006   F   F   F
