Zr2 Ta1 Ti3 V111 Cr3 W5
1.0
  -7.5249999999999995    7.5249999999999995    7.5249999999999995
   7.5249999999999995   -7.5249999999999995    7.5249999999999995
   7.5249999999999995    7.5249999999999995   -7.5249999999999995
Zr Ta Ti V Cr W
2 1 3 111 3 5
direct
   0.0069980532047133    0.2072380608962536    0.2066545730344903 Zr
   0.1999779370035292    0.7986597613506525    0.7972454849756411 Zr
   0.4008345711025590    0.1971036295419732    0.5987292398590409 Ta
   0.3974323670667188    0.9976364653149463    0.3946737238407813 Ti
   0.7990725634609624    0.7979435608900028    0.4012241096333322 Ti
   0.5984710628373976    0.5974549824829476    0.5965627272380822 Ti
   0.7983999626235645    0.0029398036411410    0.9987646146506045 V
   0.6078966511840898    0.0031397776954244    0.0014577434626293 V
   0.7958003481909555    0.1955621823674564    0.9954560166599313 V
   0.7961743644619265    0.9966540066974190    0.1994194078404876 V
   0.3958384177066017    0.0039564603597224    0.9985872556981187 V
   0.5967272347515565    0.1972026932375420    0.9978607217106485 V
   0.7970838112759113    0.3952363211697795    0.9976271264613022 V
   0.6015793710067382    0.9980845990901018    0.2063415651783163 V
   0.8013298751821076    0.2003475443859138    0.1981773220599841 V
   0.8015999195427396    0.9990809347841160    0.4062689891701809 V
   0.1999321426484986    0.9992441748876831    0.0004028827548310 V
   0.4070555649709783    0.2055900497187132    0.0049235347741058 V
   0.6006694392850556    0.4009889444443109    0.9997496177966352 V
   0.8009494135183491    0.5982269718771919    0.9963915520049500 V
   0.4017371251764741    0.0012606694339847    0.2009301814133725 V
   0.6034824336733968    0.2032940330710299    0.2045072546433137 V
   0.7957110398801642    0.3981209448391340    0.1967070090854208 V
   0.8037672901262705    0.2049877488089421    0.4007446985822482 V
   0.9950416507573681    0.0035145667182532    0.0009280737969310 V
   0.1973875911621730    0.1967108579141182    0.0041937311637722 V
   0.4065459362518654    0.4030018680983750    0.0055064034606729 V
   0.5955053163128630    0.5940728536647349    0.9972309606541904 V
   0.7969657620096264    0.7975156581353113    0.0043728063947234 V
   0.4012958190437819    0.2062813964180462    0.1992461480939867 V
   0.6000404911622552    0.3994250726054215    0.1953044526162028 V
   0.8051291506992611    0.6016293539079939    0.2040249053438982 V
   0.6014541110574040    0.1977066721899346    0.3995505834112508 V
   0.7994528354891958    0.4005474156538537    0.3967605829946239 V
   0.5988595548445266    0.9986247373494568    0.5995942646989116 V
   0.8005324903256696    0.2006699782301985    0.5997307277539735 V
   0.7996242899220168    0.0017706039393760    0.8062068578341357 V
   0.0014748746599677    0.1990509109785799    0.9999279755928583 V
   0.4016474079429553    0.5963300839245813    0.0016313516855035 V
   0.5974744171859073    0.7966347932180173    0.0013081776747016 V
   0.0023546404004579    0.9992482144598651    0.1963875256274858 V
   0.1935521140564097    0.1992996312327418    0.1970941310744819 V
   0.3965678901547034    0.3959988808781774    0.1929711657937485 V
   0.5951774936945998    0.5939233078974884    0.1937239051519155 V
   0.8044458839578681    0.8066340148881777    0.2061816720085093 V
   0.2063725876344479    0.0072781290564480    0.4007258671117999 V
   0.4075187883636214    0.2006858947251033    0.4053164924699147 V
   0.6013682758905786    0.4027538304560870    0.4015796129561622 V
   0.7998078958261938    0.5961763612798138    0.4024433858756381 V
   0.3980230372908454    0.9971923585623483    0.5981991926529905 V
   0.5977414180180787    0.2020171500849135    0.5966232266255059 V
   0.8001387160853163    0.4014191894928923    0.5985208989234193 V
   0.5935437612067618    0.9987122030222499    0.8010763334161342 V
   0.8017915202798507    0.2031540368857195    0.8021314047948451 V
   0.9955886869162123    0.4020000749838438    0.9991605608917938 V
   0.1983930535339425    0.5997791756990826    0.9987321950766165 V
   0.4030632245284369    0.8033622656364509    0.9990980957062869 V
   0.2001970106852438    0.4002599501289676    0.2013284545046388 V
   0.4030385181701259    0.6004595813584347    0.2010953913347414 V
   0.5919899962430781    0.7925681648587121    0.1964342791525705 V
   0.0000404852721643    0.0001420430400087    0.4042646059342469 V
   0.2027316270913702    0.2010459748194975    0.4014953243893296 V
   0.4028454379030347    0.4005958624448126    0.4029377571320139 V
   0.5978051335527998    0.5987666491786203    0.4002755199827129 V
   0.2007836445257338    0.9963196026212131    0.5981780956913614 V
   0.6002270718859144    0.3953440947829936    0.5961834160940711 V
   0.7999460268146059    0.6010675311965695    0.6007135086535966 V
   0.3947734140205869    0.9961174958338187    0.8007322317328192 V
   0.5977392996051756    0.2000060748241757    0.7966854489864528 V
   0.8046971636630823    0.4026921414516801    0.7992075716350671 V
   0.0052774758009269    0.6023438534934697    0.0041375473963230 V
   0.1972202308871354    0.8052256685892550    0.0029576683322612 V
   0.0059572742538596    0.3998910691082304    0.2051017732561425 V
   0.2048003834202017    0.6020133552988273    0.1972811960362110 V
   0.4059203768825654    0.8030457958391048    0.2084088412225928 V
   0.0034701288125900    0.2039460860670609    0.4034208450292924 V
   0.2010054918988295    0.4013299420804163    0.3992386770972221 V
   0.4012508683382631    0.6000257399498226    0.4009786196829999 V
   0.5932232871582503    0.7994315541032477    0.3979116593603599 V
   0.0021020038345528    0.0003213512003844    0.6011507095396668 V
   0.2035094368325487    0.1996767535439208    0.5993490815766841 V
   0.4044621397368710    0.3983926117948699    0.5995127735762349 V
   0.7978275710613323    0.8030687737835285    0.6020394709976296 V
   0.1995344494075585    0.0051510717832792    0.8003597064566219 V
   0.3990164433997440    0.1995713096988277    0.8029053821229482 V
   0.5950461163725054    0.3935885084578443    0.7962914823735350 V
   0.8043579217262877    0.6053746637036534    0.8051808476039130 V
   0.0013319301670552    0.8015130933094506    0.0008408237996897 V
   0.9985566555364365    0.5996717446439574    0.2005245856065812 V
   0.1959226706430810    0.7955506977293125    0.1982106850332397 V
   0.0075305146853528    0.4033877822874709    0.4022739306862477 V
   0.3984810800430743    0.7972003044955952    0.3950619861572629 V
   0.9952710393024322    0.1989111210038339    0.5988561131616714 V
   0.2013615442291908    0.4039178886363361    0.6039703055865859 V
   0.3966025990997235    0.5949275305685071    0.6025619625651957 V
   0.5991204994449798    0.8001769052910828    0.5994349047304024 V
   0.9990279791487292    0.9995726903136439    0.7995200545492454 V
   0.1998090124220951    0.1978969788614116    0.7980090534862564 V
   0.4030889724276490    0.3964789807398968    0.7989470932470024 V
   0.5994341605920768    0.6012636580773251    0.7961005874075076 V
   0.9968862529563668    0.7993664987601654    0.1992884758881837 V
   0.0004309565119609    0.6027655748152717    0.4053251943109281 V
   0.1992666464188217    0.8000581948587453    0.4006739295439606 V
   0.9932484021189172    0.3971408981365688    0.5946408495782047 V
   0.1992924421744807    0.6025161513813232    0.6026742537398804 V
   0.4050298240322824    0.8030768962679602    0.6016207610430678 V
   0.0000274567348462    0.1971990105819902    0.7961831359568765 V
   0.1988782174364054    0.3946406902110497    0.7954693470907719 V
   0.3999312207072297    0.6022718725270694    0.8047922082223180 V
   0.6015703961601864    0.8041361295843599    0.8010486685393845 V
   0.0033944818628837    0.8000182346049809    0.4018252219865733 V
   0.2007485084235897    0.7995484188312827    0.5983230171147464 V
   0.1953351791367900    0.5949129343277080    0.7943437644096537 V
   0.4003131348629122    0.7994787066628851    0.7990829134337876 V
   0.0025928433448881    0.8017801840214057    0.6026448608630602 V
   0.0011394808052710    0.5990036863523509    0.8020372078440654 V
   0.0036990197233182    0.8017665058853838    0.8007320349237319 V
   0.5987724230511472    0.0039006728395707    0.3955594023295285 Cr
   0.1986032068744037    0.9963741926811424    0.1991421327521600 Cr
   0.2005474987096403    0.4047917650708330    0.0003568701686552 Cr
   0.8030529482165707    0.0058815004696848    0.6029366308907538 W
   0.1988218954713525    0.5992115056266190    0.4033036700288053 W
   0.8013358286449667    0.7999564568724000    0.8072131601242090 W
   0.9929226160741320    0.6012884860037826    0.5960505707656208 W
   0.0002204964203778    0.3999734706264233    0.8021051766624248 W
