Zr V  Cr
 1.0000000000000000
    15.5364267418827353    0.0141760265446098   -0.0034442262972265
     0.0141671620811882   15.5240745923983035    0.0049821264813726
    -0.0034426786392167    0.0049831204927505   15.5354998368454975
 Zr  V   Cr 
   5 117   2
Direct
  0.9507339318015581  0.4080482439662864  0.4004248293907425
  0.1979884557589397  0.5993471765102739  0.5607798650263305
  0.2309214775976385  0.7965257858679792  0.2045725557115269
  0.8002842648855664  0.1994626989379695  0.4004217615182739
  0.8051049013856214  0.5958639070681049  0.4001004054426485
  0.9993956011268259  0.9996496805474004  0.0006205028308361
  0.0000715332580321  0.9996000107442266  0.2002467725076858
  0.0000330876516236  0.0011075041962902  0.4006093878029662
  0.9991395666732723  0.0004871461187825  0.6005729023999268
  0.0002976703116455  0.9996383306098262  0.8007324407140312
  0.0002607365597607  0.1990090333707723  0.9996088864875672
  0.0059448691395561  0.1983808373843194  0.4002644928938974
  0.0007743943080493  0.1994433538516749  0.8012410120002936
  0.9994170240523041  0.3995965983363433  0.9996232875363571
  0.0008570859258508  0.3996887998387071  0.1960930485263875
  0.0002632382081433  0.4000913851692808  0.6051462480384017
  0.9996417551584811  0.3999622193826542  0.8004067267464626
  0.9992565010840146  0.6002741573473727  0.0000625124474660
  0.0029944141535025  0.6007136466784208  0.1976704747550428
  0.0124258101961320  0.6075029913231713  0.4001438195259819
  0.9973034992772927  0.6015544215782216  0.6030452201961106
  0.0018666116378026  0.6003506990838878  0.8010549271118010
  0.0011218514803143  0.7997991010629898  0.0007334683322893
  0.0057742917823149  0.8002561655240142  0.2010698561365936
  0.0003136941114050  0.8032519060189057  0.4012204653851149
  0.9985484049976501  0.8015863194476786  0.6024243700248006
  0.0003246662616054  0.7996656157419362  0.8001068237689737
  0.1991809286761340  0.0004116829169556  0.9996934865443646
  0.1997161578290824  0.0022922754392334  0.2011214764901802
  0.1992659940128713  0.0003655035958331  0.4006470356813362
  0.2001505713680426  0.0015090105835281  0.5997793064058662
  0.2002386244167526  0.0004850662039821  0.7998191020797230
  0.1999809015382399  0.1998219535192355  0.9999434044767697
  0.1999953833871030  0.2002430978852802  0.2002719312963793
  0.1982723778961616  0.2032456709462360  0.3999208611006049
  0.1996532133639193  0.2003478215655434  0.5996046896877778
  0.1999929939077806  0.2000216416844096  0.7997227230845081
  0.2002523717249416  0.3980572948842800  0.9999081237610411
  0.1988301629785228  0.3962759487681609  0.2002606660706822
  0.2056125036444654  0.4044752069790606  0.3999955334951906
  0.1982470755015145  0.3961544368170768  0.5990337302620924
  0.2001064840869294  0.4004847444649973  0.7995957372936338
  0.2002632908121072  0.5983088418228169  0.9991621103778003
  0.2017913181250107  0.5937641266461455  0.1940879199874137
  0.2040928216667977  0.6037668551293147  0.3701283890559530
  0.2011749233375971  0.5989512820240493  0.8035615862059704
  0.1998816217596772  0.8004239582424350  0.9984508690997110
  0.1994282342146618  0.8001025158770080  0.4068711723092814
  0.2005159951760796  0.8040116602896917  0.6028133794952777
  0.2002898269666206  0.7986442731379796  0.7995420147061533
  0.4009811282468688  0.9991643911198629  0.0002349643931563
  0.3996101095231205  0.9992250090547252  0.2004204142010302
  0.3992002518273012  0.9995815785085919  0.4005258356377350
  0.4006273251204632  0.0000099320877753  0.6003089329981606
  0.4001362777987947  0.9993664423158158  0.8005857888588559
  0.3999944605650473  0.1989224577616104  0.9997806982398234
  0.3997267173669116  0.1993638808552777  0.1997405736176545
  0.3969596436845375  0.1988840943900917  0.4003381855988253
  0.3995969111016539  0.1995810301806801  0.6004252504187281
  0.3998958647805896  0.1993580928020519  0.8003713113379041
  0.3996741326754166  0.3990450476707418  0.9990405543725794
  0.4009161959052276  0.3980595415633759  0.1986676264738212
  0.3994380740197833  0.3995188718783619  0.4001618302298665
  0.4003767440632628  0.3987537290871395  0.6024478723120605
  0.3997919400446501  0.3996453408836741  0.7997846907987368
  0.4027850687762712  0.5989257987817997  0.0001423334393922
  0.4026752715511050  0.5958204294466353  0.1984259734205265
  0.3999355932653816  0.6006587538995530  0.3993496101712529
  0.4028545271104734  0.5990473746858171  0.6002333204087194
  0.3993928920961410  0.5992446000117760  0.7994029008627173
  0.3993273948557107  0.7988657463891878  0.9996484391261949
  0.4021837756526553  0.7997964610234943  0.3343661971215700
  0.4012323200455554  0.7996957550747031  0.6024495201678062
  0.4005904045413389  0.7989920961984571  0.7999260152714944
  0.6003323053902941  0.9991580636892802  0.0004688123720573
  0.5994427327498479  0.9980107625374633  0.2005538193901408
  0.5978877189942935  0.9974946986499188  0.4001733567156704
  0.6007792427831531  0.9995135666598921  0.6002517320195919
  0.6005618401352044  0.9991940708390381  0.8001549402174994
  0.5999538610176693  0.1989150971993145  0.9998933051199538
  0.5995618691703283  0.1990400486278069  0.1998902953636006
  0.5937137632789065  0.1966377765697839  0.4001208342298316
  0.5993309945844792  0.1993314588063443  0.6005006525643426
  0.5997510705368694  0.1992765911051266  0.8004321441646648
  0.6004681677450578  0.3988258764838547  0.9999248044164234
  0.6000145414377716  0.3985024588911095  0.1985102216609723
  0.5916322102497771  0.3998577448416268  0.4000760539605913
  0.5993833341313501  0.3989519231881920  0.6013735371177482
  0.6001088645655296  0.3994731334908690  0.8001719264763970
  0.6004426812565562  0.5992426753010839  0.9996072799901364
  0.6007234348803400  0.5989629564731304  0.2000634629543133
  0.5963159569251314  0.6015995810628475  0.3993020701736965
  0.6009667682213031  0.5988942792001992  0.5993149537996283
  0.6004383749964444  0.5993508590589184  0.8002198230497966
  0.5995294529931313  0.7990714783050424  0.0014970596846741
  0.6038635089557124  0.7988752496867476  0.2007607655583368
  0.5997774392244837  0.7985731683795492  0.3994745570064875
  0.6011151611253541  0.7997509303426360  0.6000295251492230
  0.6008606008504096  0.7989187698024056  0.8003569898573702
  0.8000423370042687  0.9989197923314898  0.0001558148868883
  0.8005031712948861  0.9999397052031572  0.2001034025498215
  0.7994851112242924  0.9958356934819625  0.4003307877263481
  0.8002720519495299  0.0003440382310072  0.6009289373961112
  0.8003600678905137  0.9991163783990218  0.8005797091973686
  0.8005177279764892  0.1996029222583704  0.9997984437584949
  0.8001309765979063  0.1981116421642044  0.1953148728897213
  0.7999264156396246  0.1986653995441514  0.6054130624744163
  0.8007553263947460  0.1998546338413317  0.8006454180468384
  0.7994564879899546  0.3988184411181968  0.9992925245939693
  0.8000769244271154  0.3977494134350511  0.1995825007724661
  0.7644991309383659  0.3982079662230851  0.4001912401106764
  0.7993849451435755  0.3978825389678499  0.6003853933657863
  0.7997507667389603  0.3994914691635740  0.8009540474693557
  0.8006716522581458  0.5986403433380384  0.9995645131846173
  0.8017009838193939  0.5992648486894305  0.1948764766872712
  0.7997900079308196  0.5998686290494946  0.6055916273934354
  0.8002238286628715  0.5985679510175992  0.8010226546310961
  0.8001451221299869  0.7995493501732250  0.9999156458769721
  0.8025034593999288  0.7986370947182646  0.2004469083582892
  0.8004677414172747  0.8008507448658785  0.4009831797093108
  0.8000865987549287  0.7992351643758578  0.6005301276239747
  0.8004481097719739  0.7992308299601975  0.8013817223328887
  0.0008165974701762  0.1999958120695979  0.1987761742135222
  0.0008024582547830  0.1998898986580099  0.6018248019353956
