Zr Ti V  Cr W 
 1.0000000000000000
    12.4460440271870478   -0.0309947616971239   -4.3989253883522315
    -6.2384413668072662   10.7678790108888940   -4.3662527767173627
    -0.0053679371909291    0.0306881249957397   13.1816589784411669
 Zr  Ti  V   Cr  W  
   3  15  74  16  16
Direct
  0.9939470956800939  0.7943700570803560  0.4407307402267195
  0.2047945445741131  0.7959788460873795  0.4025593693415424
  0.4042435722594346  0.2056474006667074  0.0011159746082966
  0.9956901480811629  0.0022364796455871  0.2008610222398381
  0.0053638105007677  0.6357798751490219  0.6072408816026997
  0.1951317407807898  0.3983901493347048  0.5897673334888587
  0.1990538960179348  0.5978296659945573  0.9967823015499242
  0.4031584756375954  0.2047851883222042  0.2097921350279475
  0.4010972326213324  0.6028009044851056  0.8008070692764530
  0.5988292187927715  0.9984461652213463  0.5935454723341795
  0.6061730336507640  0.9997202461245670  0.8019628543032808
  0.5968350854757319  0.2055833709798304  0.4007469279291322
  0.6006258274182033  0.3998680339849845  0.7935257995097322
  0.6128033341023936  0.8103093667270383  0.0078903033541388
  0.8025244472636138  0.9993329636675119  0.3947337550760975
  0.7977219477310494  0.1988606601950613  0.3901258757333654
  0.8006608336538495  0.4096722827006922  0.3988575811722090
  0.8112536755714398  0.4003986687291028  0.8074876078407803
  0.0040757704349337  0.0016066483194799  0.4013114655831837
  0.9939100672786145  0.0094713300262822  0.5986232703623318
  0.9952144107597782  0.0028405945515989  0.7988382676100976
  0.9971230482795804  0.1999454104257304  0.9991190753894833
  0.9943293526405166  0.1917519842581155  0.3865345040869667
  0.9987827800479731  0.2036766587636157  0.7992530833508680
  0.9995620955849157  0.3990940140747802  0.9981047043219068
  0.0021764971685449  0.3949682777720699  0.3924359287593383
  0.0000209265170257  0.3998805960962241  0.6001566115359177
  0.0040717448037447  0.6078791998763720  0.0003813574175850
  0.9920031104430376  0.5831790835800178  0.1897562409144494
  0.9949928214005301  0.5793612417496022  0.3866158481743771
  0.9979174910295824  0.7977303147271281  0.7982578715040269
  0.1943675832933111  0.9963819947187396  0.9924360839750855
  0.1970939263751163  0.9955288430711788  0.1962269264751286
  0.1977812560978787  0.0034769659826998  0.3954169307695151
  0.1935868687205475  0.2014035212766675  0.9996047819933863
  0.2028711302560634  0.2080614407884223  0.4044024144901923
  0.1935402660961306  0.2015100002058912  0.5957885381964390
  0.1957518477699145  0.3965530029805266  0.0018045961297320
  0.1953712318988022  0.4003268665974500  0.1959251102206170
  0.1970900386757636  0.3992941295139361  0.3912365976340095
  0.1913705486096359  0.4008763489756063  0.7982709057008709
  0.1978346273840491  0.5964530000226134  0.1976633066198658
  0.1973483300955217  0.5849925342201712  0.3929786045424679
  0.2029741424081735  0.6042381761288792  0.5968585215202276
  0.1894282227877195  0.7994814620804601  0.9911754971887589
  0.1964935817083890  0.7949284223735004  0.1902459323069237
  0.2150385252906814  0.8057850739427187  0.6166519053996533
  0.3933045765643596  0.9901351396079726  0.9915215109163235
  0.4016473451883703  0.0006570094023646  0.3971977849862705
  0.4119014989584222  0.0071749710061526  0.6169680634103497
  0.3946064095281929  0.2000724355146739  0.4045460412478560
  0.3999270554025575  0.2043538510497506  0.5920736813374063
  0.4063381594192692  0.2068174009602221  0.7972960839405505
  0.3951699294706376  0.4105796592499154  0.9994138304686309
  0.3944773761470529  0.4045832725907803  0.1983597123708311
  0.4010393361386084  0.4018763991979731  0.4010312413587750
  0.3942868094187646  0.5968148542821302  0.1911621368029340
  0.3972883872799660  0.5952734724859005  0.3946625808954071
  0.4017391161521499  0.5946418069829343  0.5935960806456290
  0.3997583453518714  0.7968810202848248  0.9995532515252248
  0.4020454822208807  0.8006923624081992  0.1972216011737562
  0.4035691109924712  0.7911015853559366  0.3901166920240522
  0.4048800940096935  0.7952400799856552  0.5962431344898100
  0.6034010695442196  0.0046294634057691  0.0038408210708636
  0.5987806328518158  0.0003385265841421  0.3901657370774525
  0.5957975719525181  0.2024456824518958  0.6005008183578809
  0.6105229704639998  0.2064271669704366  0.8080424372998156
  0.6031232891429352  0.3970757134800211  0.0007203652090075
  0.6042547518258277  0.4067653108375691  0.2103909819757687
  0.5973280121615869  0.4019153976204016  0.5927132071761269
  0.5949813030103328  0.5956727647294425  0.1957564249142524
  0.5933630175015875  0.5937096302190156  0.3966786468682227
  0.6004239553880063  0.6031790446397637  0.5987546495760843
  0.6036084553897063  0.6032038962634375  0.7944896293873753
  0.6019097036416283  0.7955260112301982  0.5984221722886122
  0.6044899673940766  0.7950752996469568  0.7957343022247828
  0.8032349283892045  0.0011579210011047  0.0024190530609213
  0.8033932849033484  0.9978773374716557  0.6017856145106230
  0.8031271272127142  0.9968966931453699  0.7952157853070205
  0.8044944260299738  0.2062310642987832  0.0036738137419952
  0.8050435976563345  0.1963133209017698  0.1922007175886429
  0.8052255885261942  0.1960510724035759  0.8052055169588054
  0.7971701398765229  0.3939377680377396  0.1854909428500916
  0.7924801037823780  0.5905263441805417  0.1957417498213543
  0.7846154857133827  0.5967284563817878  0.3948782852275806
  0.7875194519073132  0.5938643369212973  0.5941504408527136
  0.8067146821520982  0.6072102127306098  0.8021421065087180
  0.8042908018027966  0.7968012474823265  0.9944478510364299
  0.7970045577260992  0.8013119443020202  0.1999704916166947
  0.7837009332195558  0.7927583086907151  0.3900662099443686
  0.8082976082039878  0.7971549319375698  0.5963882122438803
  0.7992088741481278  0.7981119953884865  0.7939530609526582
  0.9979258818015586  0.2041692537366397  0.1948835720255574
  0.0000203026556268  0.2043787126627002  0.5978623882624406
  0.9996297742419766  0.3935202417398934  0.1943561393069131
  0.0023363013780768  0.3971137705562545  0.8002828503848074
  0.9997031309718676  0.6040377451408703  0.8030145474945555
  0.9989912361040547  0.8014245777705709  0.9991522202721744
  0.2053103961689788  0.8042368991594985  0.8048677879181566
  0.4055677859665944  0.0022108037045862  0.8015134355651943
  0.4025996490415471  0.4036637900325675  0.5987119325097100
  0.4048258901602530  0.6053522289773245  0.0051167760046622
  0.5991486869054373  0.9931463006733664  0.1932496022014448
  0.6049585791178482  0.1961749352270553  0.9952678088963434
  0.5990607567214263  0.4096726460769935  0.4025748669324897
  0.5930111669442868  0.7954783131006703  0.1931016527162956
  0.8005288021171519  0.0056959659189107  0.1995194631279766
  0.8026569814719325  0.4001550704832885  0.0023030901614416
  0.9970375429661351  0.9947098462479015  0.9939533953206089
  0.0003988986570511  0.7978994485583520  0.2010605748027268
  0.2135382739708709  0.0148420803109295  0.6052752292240304
  0.1831454158546565  0.9838589641313958  0.7837398739019369
  0.1947578082187416  0.2010572539586028  0.1994154215997177
  0.1953317262270054  0.2024300885315029  0.7988796282667981
  0.1919682288453539  0.6017109277752606  0.7927363555106495
  0.3965275081594492  0.9925558409186988  0.1931392354555367
  0.3949002958061423  0.3990633490599808  0.7928968431779392
  0.4061273980570688  0.8064943627224710  0.8013491668018348
  0.6032740660027360  0.1948930554421728  0.1914995004115572
  0.5994363149316064  0.5987813002159422  0.9987266933154383
  0.5975925652455240  0.7981609182640395  0.3946495809035465
  0.8027166141952465  0.2009332839103724  0.6011880805271750
  0.8085058726001570  0.4100825610588635  0.6062424364486104
  0.8034889710647339  0.5990997736156117  0.0012996168772352
