Zr Ti V  Cr W 
 1.0000000000000000
    15.4411249493602298   -0.0057725826640909    0.0015034816595225
    -0.0057736157285930   15.4404920489432147    0.0129561230258158
     0.0015050534304008    0.0129519398306557   15.4493068869615229
 Zr  Ti  V   Cr  W  
   2   1 100  10  11
Direct
  0.3986783552375227  0.1954007170086170  0.9998949882223808
  0.7964479037020560  0.3983114798706651  0.2008638983243901
  0.7917513859279328  0.3962311969571026  0.6036164003945312
  0.9953418759553566  0.0004800487430960  0.9994539389438776
  0.9976607355777911  0.9994790661818654  0.1998802803788532
  0.0005811259125612  0.9989054203105319  0.4007098249594072
  0.9986293237308337  0.9980580963282258  0.6000333721751322
  0.0004122587513047  0.0001804038560039  0.8010290264437493
  0.0001624038477668  0.1999078978126491  0.9994179192324494
  0.0018290948497761  0.2013337282370632  0.2002939867247328
  0.9944723674063356  0.2010562482752952  0.4016592703901652
  0.9998063765458430  0.2011495893470814  0.6012053713074925
  0.0001356472516787  0.2014611229641241  0.7989186296493324
  0.0033970236257532  0.4016499219887703  0.2003900000696169
  0.0009852823147374  0.4014560517075508  0.4010657162184559
  0.0031655511087782  0.4041935537227595  0.6001269364223748
  0.0009875697320696  0.3990593111626458  0.8001695018687635
  0.9994173174843005  0.6006866238993520  0.2005236358996788
  0.9992108227789517  0.5995288666705663  0.4039588506733113
  0.9963501583881317  0.5992706379901671  0.7960664348837495
  0.0021169382387844  0.8012937040161042  0.0008524084058843
  0.0009862528548345  0.7993360253392400  0.2008579748355646
  0.0001514484020301  0.8000982555977454  0.3993263672003576
  0.0002911819614353  0.7961637630442991  0.5987016592966226
  0.0002779360444695  0.7999102268769309  0.8009009339829145
  0.1994288754563032  0.0019643906126994  0.3988615077868984
  0.1988899837440284  0.9997888326715869  0.5997930777600962
  0.1984487558729985  0.9980954604825393  0.7959636395520679
  0.1968484730197044  0.1687285239591833  0.0016580822740625
  0.1990551204780290  0.1988593268281739  0.2012189372800228
  0.1978201891255232  0.1989249456892413  0.4011183600905032
  0.1986794572249676  0.1994212401990519  0.5993886874700598
  0.2006323778793948  0.4019311071105085  0.9996604767303601
  0.2000292706349251  0.4005274681818106  0.1986635646106400
  0.2040121189988105  0.3981762724124744  0.3987276848836704
  0.2001943875597069  0.3984330566718243  0.6010755203491296
  0.1994829621084479  0.3997757433560746  0.8017140719768568
  0.2006427171661379  0.6009800974961711  0.9988708830607651
  0.1984460940231171  0.6001946781218438  0.1984168018826613
  0.1985798863550816  0.6000309342862868  0.3978145795375411
  0.1978864076142153  0.6002333185472645  0.6011030381347230
  0.1992899399494058  0.5991989212713159  0.8012025539553524
  0.2023102342524913  0.7986170682912640  0.0007469500233663
  0.2003339174199552  0.8005468466393753  0.1981407012072450
  0.2042039092301470  0.8011266477024269  0.3979080059324835
  0.1995114189255727  0.8003982584990186  0.5993840286902133
  0.2002737188860634  0.8010263315501273  0.8020560930269319
  0.4005124727184682  0.0002458054884715  0.2000644731453302
  0.4005396697408471  0.9985603576207932  0.4001905779070562
  0.3998708440296896  0.9979590323438531  0.5981635476644419
  0.3994870158776569  0.1992415406141539  0.2065956841655671
  0.4006883149353274  0.2023843403804480  0.4043976444912452
  0.3979672462965402  0.4012114329853569  0.2046065008503557
  0.3980370147556643  0.4043363436527952  0.5968546248307363
  0.4010271585637097  0.6005169143048456  0.9981320199174205
  0.3999102461896968  0.6000710554011426  0.4030262679581900
  0.3996289402251645  0.5982791255585175  0.7947079901005846
  0.4032684902873320  0.8003684894781130  0.9996763537710449
  0.3992190437432760  0.7999834279396754  0.2040203282561517
  0.3993344228379139  0.7959662463656736  0.5966097090729244
  0.3998969672890125  0.7980822522776652  0.7978523840520532
  0.6018402398771661  0.9939829524073346  0.9987947040275547
  0.6052134127729019  0.9998238031200470  0.2015002480989124
  0.5985852802151983  0.0003909745329129  0.4001186696544063
  0.6007855958891051  0.9984342317822412  0.6004149448488931
  0.6030503018232654  0.9983808103424192  0.7983146515247211
  0.6055545286308801  0.2017419538588319  0.0011410141851926
  0.5989818261872103  0.1997643818900376  0.2008294437629295
  0.6043663295418498  0.1995921225949618  0.4024934207248891
  0.5998978935859447  0.1983142380159588  0.6013911736438756
  0.5970712023367035  0.2002720872619586  0.7994415133880478
  0.5988384915352094  0.4018544744213220  0.0009878474967284
  0.5934006307351835  0.4009683205838092  0.1993197386537587
  0.5938766409495372  0.4006000250269026  0.3997714790518461
  0.5966153859892912  0.3994480341294952  0.6015836853927912
  0.5997271725569159  0.3996279585738328  0.8014757520864324
  0.6000834712152903  0.6029524253381753  0.9997974816651537
  0.6015231655879076  0.6005760433697932  0.1988833116769790
  0.6017850356779229  0.5996487034605649  0.3994130113686147
  0.5964632596521652  0.6003220570007486  0.6006421021944590
  0.6036712366386473  0.5974016751172839  0.8001456782608419
  0.5991875390241758  0.7986336128748431  0.1970674787863144
  0.5961848578604140  0.7991773377353509  0.3981331297982623
  0.5995278165345805  0.8005587516890892  0.6001771173273842
  0.5990320336087447  0.7985142981668704  0.8025197905938631
  0.8006120045862456  0.9977069863819686  0.6025981347776018
  0.8005115472007298  0.0007199909031506  0.8039427711509808
  0.8010225056521040  0.1972384956045576  0.9982038714902799
  0.8012032498108677  0.1918760041184912  0.2064444110295468
  0.7998278485347913  0.1956297191783355  0.5965294589920874
  0.7994278769510419  0.2006060173981805  0.7973246239010993
  0.7997549369249437  0.3992184469536232  0.9980904460464904
  0.7972848256212067  0.3960260501268541  0.4055688904870497
  0.7992739126875501  0.4018064975292773  0.8031409603546700
  0.8011594499223101  0.6017491853061332  0.9958295471017332
  0.8022340701795693  0.6042914594755165  0.1999722776371248
  0.7990147228123590  0.5992088085728475  0.4019779126784295
  0.8034705725314985  0.6022515473403794  0.6041509712435169
  0.7951459801003344  0.8026747715117177  0.0000078785048387
  0.8005172505788988  0.8036469729852889  0.2017818721282654
  0.7972600627153625  0.7997336589667056  0.4001886324449079
  0.7983941066974886  0.8016438550352131  0.5987195901437756
  0.7995369689990144  0.7961170976777153  0.8003777453221547
  0.0001862290489563  0.4014096515503897  0.9995888557552697
  0.9999293119254182  0.6008625999454600  0.9991205058051297
  0.1988378340172743  0.0000233663525441  0.1993818115169477
  0.2011721259140470  0.1989752581120168  0.7996891073776069
  0.4003804940812304  0.9979008221356053  0.7980467837107006
  0.3991311330450640  0.1994723694770395  0.6026593883946256
  0.3997321596221089  0.4039922156420111  0.0017795717256224
  0.3993711013180389  0.3990934607486352  0.7999110922069698
  0.3994639992164026  0.6008170541097760  0.1994385960324900
  0.7995754417495755  0.9996444908151586  0.3995235705715682
  0.0003206148249691  0.5999091063421257  0.5995580798765097
  0.4072149784283899  0.9965967858574277  0.0025476507951794
  0.4031691444165369  0.1986896481786019  0.7996716748274201
  0.3993746828807729  0.4003294549752821  0.4008292781649234
  0.3983323956050762  0.6010256092751329  0.5989418059982572
  0.4000039908533152  0.8014315791460794  0.3994136431031790
  0.5982925557925999  0.7979754547833654  0.0004934005679813
  0.7992707939930225  0.9994342059400138  0.0022827726286412
  0.7999983465047977  0.9991917003149725  0.1937804363939103
  0.7993203830216360  0.2017382146347111  0.3999855540337007
  0.8003378987028685  0.5992266497002473  0.7991345866675051
