Zr Ti V  Cr W 
 1.0000000000000000
    15.5633147981762434   -0.0105082892338306    0.0011052113616143
    -0.0105224976463168   15.5390273600018674    0.0056805954645976
     0.0011054290159095    0.0056800010957864   15.5617863503600393
 Zr  Ti  V   Cr  W  
  10   1 106   6   1
Direct
  0.0087619373371787  0.1878502646215929  0.7967288523818751
  0.9991546382509120  0.5986226079881791  0.7995042917223050
  0.1923921633378576  0.0044025281431177  0.8024906157514086
  0.1968430407222552  0.8004770184720745  0.3972660447499184
  0.3972420848354485  0.9978588138947960  0.9973672392966620
  0.3987952094131569  0.7733248566517951  0.0010498174207660
  0.5990873295894813  0.2020756919860299  0.2232788932843256
  0.6061672628008892  0.3974275661282431  0.3987034781877573
  0.6012215953210162  0.8012870471432862  0.6019407554088104
  0.7966308638227932  0.5958814371100490  0.3992767633890247
  0.9996377570885143  0.9946297046679874  0.2019268172280948
  0.9974631232072891  0.0002932442454922  0.9993724161885056
  0.9987396889615570  0.9992549682363964  0.4006748204891637
  0.9991558805055458  0.9980406771157202  0.5974105550936213
  0.9891067950770966  0.9891115878684603  0.7981453498280759
  0.0008649687804637  0.1996970317899391  0.0032853240040240
  0.0019293335325670  0.2017410414694455  0.1997862185245431
  0.0024275188568434  0.1981656510160026  0.3981230273857786
  0.0033000907336114  0.1988796941560477  0.5943285904147181
  0.0012828313997670  0.3992311701689878  0.9992617149696751
  0.0011080343508342  0.4004859116174621  0.1996558791757946
  0.0030752338371876  0.3989984414139812  0.3984770433078221
  0.0019580951328215  0.3990262655582631  0.5991089347276175
  0.0000830773104495  0.3955975742216760  0.7991073277950135
  0.0003044328497734  0.5991696001543407  0.0035482134780256
  0.0012957642617497  0.5998931438615192  0.2000204695015476
  0.0031130430862563  0.5993850992677877  0.3986936032720809
  0.0011245043969488  0.5992220083500573  0.5949666075834285
  0.9989739061825711  0.7984400107649857  0.0000832123667324
  0.9986793327222999  0.7971703607366306  0.1993807322345961
  0.9945936922107621  0.7988072605421368  0.3996556501929256
  0.0003313892473300  0.7986577253258977  0.5993741804876533
  0.9991948865981547  0.8000812027382738  0.7994597379041908
  0.1915882912229775  0.0023698860642558  0.0060258455162401
  0.2015345548839791  0.0019526558596759  0.1988337575794642
  0.1987801066862852  0.0041251498202870  0.3978378325479845
  0.1982593640403951  0.9998233124866548  0.5964883446392433
  0.2003883639294337  0.2019077903099197  0.2003145199714128
  0.1999734063458496  0.2009316597422356  0.3978728717801041
  0.2067724303355632  0.2021777374119748  0.5972663179163475
  0.2099535545565209  0.2083754693429040  0.8013767186526878
  0.1994651317653367  0.4010914351910639  0.9992888870689404
  0.2005532527659698  0.4021450530062509  0.1976788684110921
  0.1993331653056891  0.3999736359107507  0.3984227084877722
  0.1992014642370674  0.4008145156480787  0.5996258920540742
  0.2019665118654986  0.4023631212384015  0.8011304197049571
  0.2006960512632582  0.5996697951697314  0.0002015980881664
  0.2009085754427745  0.6001957259467876  0.1987887607295169
  0.2010181598526933  0.5971085611205260  0.3988080234026195
  0.2020095607271912  0.5992386418529919  0.5998803722198455
  0.1942353910619671  0.8011755347800140  0.9985565641896756
  0.1999533357227846  0.8002328463848979  0.1942926883348243
  0.1978576131427702  0.8007530891235953  0.6033801055540232
  0.2004715155946586  0.7977471561612812  0.8011757842850550
  0.3999978090958954  0.0013351680900835  0.2046518058519494
  0.4004470638360610  0.0009765061084905  0.4016323117947673
  0.3979410519704077  0.0040858900167954  0.5973206054860838
  0.4020089438748097  0.0006144183742653  0.7926957010045047
  0.4004181810513235  0.2044642244300505  0.0004415356984066
  0.3955263410847173  0.2013352389972207  0.1998228131018926
  0.3989863734373107  0.2021504516667947  0.4032527516688524
  0.4031312999486581  0.2014618761242287  0.7964240506177862
  0.4000049608966203  0.4006536531098090  0.9977768447401221
  0.3995577908488414  0.4022328746505127  0.1989820013404604
  0.3973787924477721  0.4018099503100631  0.3994992999378632
  0.4008170582297420  0.3978709955761434  0.5998271256997501
  0.4020359816468760  0.4013336467638699  0.7987338393798168
  0.3996246909931869  0.6012112414621147  0.2003032236443464
  0.3986376297308838  0.6001065810719511  0.4004910726341362
  0.3987603995512805  0.5992176026142000  0.5991571480810325
  0.4015139839293383  0.5997639839060399  0.7985042367678978
  0.3999415199210378  0.8012548991786751  0.2052355335641182
  0.4012682971001597  0.8008758085778123  0.4014103125943391
  0.3991931728571145  0.8008997017254352  0.7960223523473603
  0.6043383152737652  0.0010444533196441  0.0019755483128439
  0.6000393472836240  0.9970508329132842  0.2001043800750344
  0.6000539861769172  0.9983972222837608  0.4001517712923897
  0.6007186532586857  0.0040774830577299  0.5987670091708974
  0.5994198394568926  0.0000783004743067  0.8009020501850349
  0.6004674184747921  0.2003916744608553  0.0042983468502540
  0.5986885944247182  0.1999459401463050  0.5051507562882324
  0.6012807675807157  0.2001376696182349  0.8041935087844109
  0.6022441173228815  0.4004636535314036  0.9992519383342227
  0.6019190630702086  0.4017333664041144  0.6041857003318424
  0.6005208204040694  0.4006955084313274  0.8016408134877775
  0.6001568980175983  0.5999995593029205  0.9998006335906950
  0.5991034289624606  0.6014166275306828  0.1985305363074502
  0.5929277217101648  0.6047988056928781  0.3991041707900657
  0.5979420758948301  0.5969594564245928  0.6009648904254838
  0.5989895030522281  0.6004089984016183  0.8011655984254459
  0.6047532797985714  0.8004428689411568  0.0017648456356865
  0.6000193510232276  0.7999225052697341  0.1991194639346759
  0.6000560646308256  0.8015876083212347  0.3964888006028386
  0.5990817993466037  0.7998903734550115  0.8059620816433378
  0.8011132193376392  0.0009713174437449  0.9996125284147777
  0.7986648896417676  0.0000499325408547  0.1994238047717482
  0.7991603176224255  0.0008897870788651  0.4001201086267500
  0.8000516106906639  0.0015886805709810  0.5992696339340927
  0.7959087273942724  0.9991743816559511  0.7994697622709643
  0.8019811114917614  0.2003304305814745  0.0002549214669936
  0.8024950897387996  0.1981108354561997  0.3993314518083246
  0.8025501424099318  0.1994541239411267  0.5985664497787602
  0.7984074621751430  0.1989045038707512  0.7986186131343395
  0.8018540339113801  0.3989361283615018  0.9981341798712920
  0.8033739778030491  0.4007936143515286  0.1959872099298114
  0.8099650589599149  0.3924250878747210  0.3997725115088090
  0.8016797711610356  0.3971614579439365  0.6014102857585097
  0.8000248806483822  0.3976260355893869  0.7996748302579401
  0.7994511737592018  0.5986111552843492  0.9998120058346878
  0.7993948011721125  0.6006725509785460  0.1954851541576784
  0.8005580997313017  0.5978622554147400  0.6030186809499311
  0.7953150249237224  0.5996237814791910  0.8005361965553831
  0.8018196531343400  0.7997381819739530  0.9997932874316336
  0.7999998765252930  0.7999895457738383  0.1991374052569440
  0.7999461188217508  0.8026945055389957  0.3989092547400437
  0.8042193115186291  0.7991692029199048  0.6004158661694622
  0.7988653507519055  0.7998252980134699  0.8007051420875760
  0.2007842569591461  0.2029615814698808  0.0018956487301691
  0.2047007838231325  0.6002032982659081  0.7995628303380098
  0.4012719359880443  0.5905448435335571  0.0003327828010373
  0.3951596683274933  0.7999872644264476  0.5992187292078244
  0.6007290509665539  0.4047224401829311  0.1937902947626119
  0.8044929895083247  0.1997377934367946  0.1990416904933571
  0.3983885614287894  0.2012484879229148  0.5984622721466951
