Zr Ti V  Cr W 
 1.0000000000000000
    12.6172176936866709    0.0115451545700756   -4.4669336730166407
    -6.2903605648566554   10.8649981714077679   -4.4432462987804993
    -0.0385933284248056   -0.0380859578850954   13.2914089255054595
 Zr  Ti  V   Cr  W  
  10   9  91   5   9
Direct
  0.0107778020462306  0.9979360590286946  0.7946525951205565
  0.0030324429582140  0.1996692946812126  0.0043463956453065
  0.0010002806539642  0.4004052334279843  0.6073533851443015
  0.2073088944684936  0.1957484316208519  0.8018552969066796
  0.1834711852883649  0.3966973680960605  0.3862996104960884
  0.3981756510002976  0.3980846428842325  0.4036968004428871
  0.4052447615844172  0.8339589618903942  0.6337762540308878
  0.5351162647038731  0.1222869096435597  0.9306999883590050
  0.5902865337956842  0.3859781191799506  0.9931927952052201
  0.6062661425179019  0.4034340741529098  0.4062549412839423
  0.9859701237437317  0.4001835065426187  0.3897250659559121
  0.0011093151299879  0.6092783005664467  0.0055622970827337
  0.0040305871157832  0.5999228757628138  0.7994722745094087
  0.2241512959031542  0.2178063967823653  0.0388354790898856
  0.1964498951279514  0.1955959093968545  0.5876894538326632
  0.4018970606726261  0.8126236345451537  0.4072897363297378
  0.6024953072772944  0.6106875529232043  0.9990452857636000
  0.6063346951342451  0.7990231168327658  0.8058027552580594
  0.7985937765325736  0.6061706054783706  0.8022594045732195
  0.9986388487772484  0.9837103369026321  0.0056638611604344
  0.9925242821947785  0.9905328514497426  0.2000660005322679
  0.9902541410082436  0.9932860730368062  0.3965740507529886
  0.9775732488597528  0.1787854866082912  0.1956702202018572
  0.9936146485213189  0.1911061419225849  0.3981521364465101
  0.9924383231611913  0.1857778878474436  0.5929975958375180
  0.0024016728261089  0.2216152031930377  0.7967372695345578
  0.0043594520705297  0.4063418178598207  0.9955032693239442
  0.9873808753054821  0.3990128909707775  0.1859000858597521
  0.9940141607762697  0.6013682457026168  0.2008365096517541
  0.9935733823013191  0.6032994694756273  0.3933799831426504
  0.9990810169685999  0.6068327400627985  0.5931092086041386
  0.0036734427279869  0.8066279305085521  0.0053217479494618
  0.9962985288809030  0.7968893611162396  0.1995948429623187
  0.9956515470610735  0.7967635270261932  0.3956362742160643
  0.9999210834559337  0.8000849407774618  0.5957373500895478
  0.9976819171875263  0.7938269483776161  0.8005595671233056
  0.2043277595048928  0.9941774764873986  0.0053525488525174
  0.1956904322138036  0.9912063458115541  0.1990260091439151
  0.1940767396209483  0.9944756083865892  0.3943796781731960
  0.1883698454281694  0.9871091616187878  0.5850143235340759
  0.2516953267609328  0.9849233705916344  0.8091773388581257
  0.1878722719526373  0.1785968084181385  0.2061970066688749
  0.1913979056617608  0.1838661269959673  0.3895138776651383
  0.2130560123171207  0.4199980511021534  0.1967998410635940
  0.2064140775013364  0.4104550435452137  0.8117841985481321
  0.2025453085374903  0.6001337465455052  0.0017988228374983
  0.1916617293505466  0.6098432824390841  0.3949851775088550
  0.2054956939347612  0.6075720163562632  0.6083095914908051
  0.2168704089877361  0.6124270283280885  0.8138687813806261
  0.2011949143167687  0.8016594152041829  0.0066206525004469
  0.2010210634820679  0.8044526214787588  0.2049636601364171
  0.1918717513285152  0.8050056320186143  0.4000034472883413
  0.1762263656426283  0.7898890768004939  0.5927106720638836
  0.1940643669835927  0.7922035708404651  0.8041431282294034
  0.3985842914525053  0.9909196975230191  0.0135626656301147
  0.3995316536239369  0.9969861127764887  0.2034941956405851
  0.4013510060516905  0.0059548693908098  0.3975629193572456
  0.4008459035529304  0.0174940053284923  0.5912986108272772
  0.3975193414676755  0.1927656016295498  0.0140125204173168
  0.3995761352901531  0.1863919975764015  0.1978037121080679
  0.3955748158777557  0.1852998933437303  0.3968947044465487
  0.4012964682401310  0.1990253205736765  0.5919599923373047
  0.3933517086266037  0.1799819723589902  0.7668254631617228
  0.3974220381495990  0.4179571715096239  0.0102399299545399
  0.4222680109965331  0.4190060196807431  0.2064597451010214
  0.4000646590692101  0.4051355659866015  0.6130510421585947
  0.3993624227085515  0.4015508028993940  0.8015586327507854
  0.4027219540910847  0.6066411616547142  0.0048965109379291
  0.4042325524270957  0.6085311690596852  0.2029091732204925
  0.4011889717373326  0.6065553914649100  0.6063327377863663
  0.4081879236849741  0.6049661498968559  0.8058953815594355
  0.4018873257996792  0.7984251539609069  0.0050677653209026
  0.3936504107127954  0.8014463405616810  0.8214693850056856
  0.6043264090104802  0.9856591381785192  0.0032790114682810
  0.6002683155297772  0.0002754961964725  0.2032934927613624
  0.6040672997458246  0.0015954297566727  0.4006882689332837
  0.6136084981768375  0.0130331167998017  0.6031306946059120
  0.6439489445129368  0.0182897877847307  0.8126483821084389
  0.6022113527762345  0.1898343277072352  0.3979183584186224
  0.6038493172130361  0.1998847995458329  0.5956586756485882
  0.6085837170275380  0.2000571715023666  0.7847136832313149
  0.6007576303331409  0.3995418775890240  0.2014944083991037
  0.5981550659033823  0.3988615489002665  0.6053886229226662
  0.6035788555962898  0.6061187830717677  0.2036851403729460
  0.6052702002798376  0.6135637538224831  0.4046745873993727
  0.6074160811641571  0.6127256602118999  0.6187202408220623
  0.6047494709251917  0.8085246669986631  0.0097270904385557
  0.6043823737515147  0.8022802907441458  0.2011462758835282
  0.6055317070717806  0.8064083980189293  0.6015755901809211
  0.8047545427193339  0.9978648825732762  0.0044073377845127
  0.7975179813069631  0.9955553404197152  0.2022217992146612
  0.7971860850735454  0.9987603221584811  0.3958691463782305
  0.8039264919843645  0.0010004787289667  0.5953554338127179
  0.7972672761002506  0.9918498155683843  0.7901621844061246
  0.7966269832510269  0.2063828940821753  0.0013664142940741
  0.7935038816135207  0.1903858138203244  0.3953917968438502
  0.8009384289524374  0.1976339200079296  0.5972824808282958
  0.8043909463740980  0.2016458815350200  0.7957439003166592
  0.8085719245061999  0.4060168054232884  0.9973788038108794
  0.7944264617130711  0.3995771283147652  0.1939394999169583
  0.7923954207965977  0.3977287613627195  0.5973742607551978
  0.8029738105014674  0.6058710749827226  0.0105227675388876
  0.8014023972752445  0.6051828214705948  0.2023731236841915
  0.8010396108747805  0.6031548051478296  0.3956699755134965
  0.8139594906683024  0.6120176851261674  0.6072640918088202
  0.7984674650397863  0.7965141851365021  0.9999175146239955
  0.8020277047109842  0.8014447524425654  0.2030666394317653
  0.8024935340783600  0.8021160806887077  0.3992415131517680
  0.7980225078115715  0.7924481346019453  0.5920179592387111
  0.8080021947494344  0.8057231257021680  0.8006593730011156
  0.9862683429777453  0.9940937114273544  0.5750781630750077
  0.0051491549862191  0.4027322824047232  0.8121765250389610
  0.2088169903984707  0.4123798705428934  0.0055294599153965
  0.5945874487078321  0.1873822862721465  0.1988083524195654
  0.5976509677974734  0.5990349349514063  0.7985245346201952
  0.2081092912321437  0.4071579799675031  0.6095498593600162
  0.1963973868224923  0.6053161706760276  0.1991150959100488
  0.4026834383662861  0.6122082800232022  0.4089081166028294
  0.4022528026008737  0.8031624945014901  0.2006504997724990
  0.6016865138737141  0.4053811488688913  0.7970029121242700
  0.6057120944722013  0.8061098351087048  0.4021727928868756
  0.7872936974799378  0.1905550306286166  0.1931664409289239
  0.7969045653628806  0.3960912059764304  0.3940724903589479
  0.8036597103631544  0.3999947122940925  0.7973423052928978
