Ti V  Cr W 
 1.0000000000000000
    15.4603446293932016   -0.0041322082870834   -0.0012082850725322
    -0.0041323107289872   15.4623066666688764   -0.0009055477358807
    -0.0012084946887904   -0.0009048943237887   15.4540012347107183
 Ti  V   Cr  W  
   3  99  15   7
Direct
  0.9894254074551329  0.8088145278484886  0.9941636337098662
  0.5944885294511140  0.4022811456867644  0.0002309859276892
  0.8009423033565395  0.3999179783647021  0.9981853211181495
  0.9995636120903850  0.0017930471647907  0.9992284100367610
  0.9985884954570595  0.0008128923638144  0.1993949295770608
  0.0025794741713663  0.0003644168959571  0.4045943947977206
  0.0008864124117024  0.0015250692377371  0.7950435986889025
  0.9984365480476456  0.2014237436627234  0.1997516363432078
  0.9987724799941421  0.2013942053228631  0.3995760604426748
  0.9999549787653695  0.1978836866384632  0.6008998821397165
  0.0004664556841869  0.2014269707240937  0.8011713525108298
  0.9985966282034874  0.3975161367886870  0.9990074918564810
  0.0026316663224644  0.4022802635194919  0.2010033423387129
  0.9998502693819363  0.3989818624303726  0.4029403861111996
  0.0006989038443257  0.3995485386241140  0.5996740268589476
  0.0005986813311512  0.4003372095594186  0.7988597722536229
  0.0028983204121783  0.6010418023830625  0.0037376196559162
  0.0011132248578498  0.6013583919745542  0.3970212040821196
  0.9999440824531817  0.5996049586971517  0.7998845344919515
  0.0001175936558196  0.8000417088486085  0.4006877302081145
  0.9996670595452175  0.8002351265376906  0.7981322471271275
  0.2010040151134585  0.9993460268010423  0.0026159188816985
  0.1993389892441543  0.0012375300755607  0.2022680680526543
  0.2006774450288527  0.0004790382076405  0.8015974957659506
  0.2003613906606434  0.1979392003525453  0.0007233047841514
  0.1997051073256892  0.2042419290117371  0.1987366176860214
  0.2007961304807762  0.1941416865901130  0.4006564635421217
  0.2007816972171292  0.2014000892821153  0.6003782207213859
  0.2003961759980545  0.2006594114812068  0.8019730187959920
  0.2009326602576364  0.3988096730825302  0.3985503604316507
  0.1996874176130390  0.4012712677317049  0.5990587531394694
  0.1997147500147926  0.4002232019587507  0.7986462040341819
  0.1964868987166285  0.5957735053598271  0.1972586249832699
  0.2015515558923707  0.6029990814944116  0.4010669137166245
  0.1989410889997756  0.5995626587838394  0.8039349551057748
  0.2032347071961622  0.7995246062572099  0.0010463518314537
  0.2016809078834446  0.8007238076009966  0.2008042113118375
  0.2014703122543634  0.8039306236029189  0.4008536447329745
  0.2017709265292100  0.7981421568155449  0.6007636267232824
  0.2006876593723126  0.8008397360020373  0.7992871591766237
  0.4026986340632360  0.0006937886217753  0.0005220356181455
  0.4000043375078626  0.0000015660911715  0.2007336883409067
  0.4016078113219425  0.0000351387791353  0.6007539164180677
  0.3994633906792893  0.0003937425463328  0.7997880997360934
  0.3991666588067421  0.2002875311965653  0.0007444455053717
  0.4007352386863830  0.1988755534389958  0.4012371229429064
  0.4004963398641632  0.1994990731595140  0.6010200941402908
  0.3996087433062093  0.2007876161261551  0.8000633134598186
  0.3984885183698618  0.3998480424095731  0.0006527795658586
  0.3956382860708392  0.3989458039111871  0.2014211223186967
  0.4001551381061614  0.3989240445562942  0.4010043994862386
  0.3989782662292948  0.3992776775916198  0.5998628393912546
  0.3990345265652820  0.3998249861040994  0.8006010043212489
  0.3931322371551518  0.5996042961164775  0.9995502157060033
  0.4023359401650412  0.5992549982830880  0.1991108336097847
  0.3997179033712864  0.5998090567894785  0.3993900080971619
  0.4022500716250063  0.7996894928434067  0.0003306315244576
  0.4007778926224569  0.7979821211118550  0.2009971521892932
  0.4006785362308522  0.7999922618536424  0.3999380885472196
  0.4002994770864954  0.8010193933169558  0.6002890539659942
  0.4006261933720734  0.8002098782313517  0.7992187131077545
  0.6000645918981981  0.0004929883719799  0.1984854688828732
  0.6003178322952485  0.0000644649657222  0.3999417288761028
  0.6015612123056497  0.9989968331485340  0.6012079716705633
  0.6007024686042081  0.0003253892550008  0.8032636950734381
  0.5992478176227867  0.1954050975233815  0.0008959419001032
  0.5999238653247931  0.2011013052567325  0.2010956414294603
  0.5999770257535186  0.2000700285143409  0.6004380411194389
  0.6002179683427367  0.2011424112968179  0.8001442645168112
  0.5998176319029493  0.4006713542769412  0.2007762844035585
  0.5988283233058219  0.3984719563235206  0.3994122122043687
  0.5998226319792895  0.4045864747522127  0.5990644940723561
  0.5992707611690532  0.4008019469076542  0.7992796408180228
  0.6025105014645742  0.5994587148641130  0.2009925518135257
  0.6006619003388582  0.5998215895528751  0.4029596402921927
  0.6001848992011071  0.6003007782559073  0.7944680765232488
  0.5992815340992533  0.8045805592125597  0.0006234095077959
  0.6008044473759619  0.7978982008917240  0.1998823795407222
  0.6001632447221236  0.8015306443376498  0.3991769783804453
  0.6004741591069654  0.7968060607050262  0.5991031311674093
  0.6007391268165980  0.7985482715188168  0.8021482818315616
  0.7972866249331246  0.0020378465630930  0.0007393021090548
  0.8011263444833717  0.0012322937153759  0.2005430625344808
  0.8001400395701213  0.9999219167331952  0.3986401670495222
  0.8026999065689563  0.9997164450797460  0.5997546099745048
  0.7999946071626161  0.0001453714866234  0.8012050234113292
  0.7996965449689872  0.2001601538700795  0.0006869586889955
  0.8006795926725889  0.2018023490341253  0.2007423545956718
  0.7988364692916190  0.1996040742263800  0.3994941834383203
  0.7978340306210915  0.2019170549064527  0.6001451660217236
  0.7998703222800329  0.2010443241796075  0.8001729682253357
  0.8000124747958689  0.3992719156679519  0.3999643409656727
  0.8015045864588488  0.4000445557048089  0.5990077043414135
  0.8004521402292663  0.4003561078722186  0.7980820114982214
  0.8031003115771985  0.6024353224209199  0.0005870541128143
  0.8033218987449195  0.5998427160296105  0.1981657206342177
  0.8020011709253640  0.6002473287601606  0.3986649962057302
  0.8005085060185405  0.6007620235204348  0.5991668544019518
  0.8008227319398544  0.6006420359268246  0.8024360948460341
  0.8002576906148767  0.8011101776209784  0.3987153589660459
  0.8011344624506964  0.8001952007180853  0.5998381666741656
  0.7999810501910279  0.7994530800151768  0.7988719672004438
  0.0006530250230432  0.1990338550980371  0.0001207901484896
  0.0006038141600658  0.6005698487848594  0.5994871855965349
  0.9997562416636881  0.8009751927968075  0.2013547874381580
  0.0013838768671920  0.8008473833922183  0.5996958777992516
  0.2002652284158059  0.9997341200717992  0.5997365796200125
  0.1986554264433713  0.3996580845192894  0.0004383304656588
  0.1996713430439502  0.6001382798522307  0.6009611638279682
  0.3999609483278928  0.9999247663435907  0.4008781439219361
  0.3999949669016826  0.1998285275562327  0.2009715070952640
  0.4002531369814095  0.6000683019025793  0.6006883976275217
  0.3996608509385891  0.5996095201470065  0.7998292143372024
  0.5996829862719504  0.1992750497321210  0.4005326414836017
  0.7318619609926825  0.7357392270454167  0.0000925427384257
  0.8001710304152828  0.3995532416697727  0.2023560074115708
  0.8002029868286783  0.8002566103289305  0.1994724099474200
  0.9967709697372267  0.0041702515777251  0.5998815506333209
  0.0014283143558007  0.5987523503750996  0.2000749317706242
  0.1962880162500732  0.9993772487948446  0.3956359716407151
  0.1991349622095276  0.3992270092786861  0.2044540254676219
  0.1975388518998175  0.6052085010830148  0.0022432260006540
  0.5995555491591410  0.9998209975396275  0.0018564592237738
  0.6050296605821233  0.6003457826563876  0.5990258180026837
