Zr Ti V  W 
 1.0000000000000000
    15.3687751858679373   -0.0034047973547748   -0.0004629384474201
    -0.0034058626285429   15.3762737440467472   -0.0028872120149207
    -0.0004620936853672   -0.0028876454386987   15.3933118945991367
 Zr  Ti  V   W  
   2   2 106  14
Direct
  0.8017022741194850  0.9924532140331145  0.7961269632047010
  0.8143387917078142  0.3856321288303498  0.0149553604527832
  0.1963576112493638  0.4035640564931284  0.3929941517999285
  0.1984265499406000  0.7979591442864404  0.4018370531924899
  0.0004554384463622  0.0019043721866461  0.0029559372379171
  0.9999250621807521  0.0011507876234287  0.2007365365319680
  0.9986153462938430  0.9993020934928059  0.3980008083408778
  0.0012907459928022  0.0022853665848569  0.5969931959201604
  0.0048655846606421  0.0014213035572772  0.7988994760769007
  0.9963472002591088  0.2020394262988579  0.9989701284585123
  0.0002117018141583  0.1994882710178137  0.2000830082635587
  0.9985823186532078  0.1991527295762203  0.3997321237266129
  0.9999488948320624  0.2004057710847560  0.5994531620969091
  0.9985356679148407  0.1993882188035941  0.7993581524600447
  0.0116176091501827  0.3999219518187888  0.9974113160177259
  0.9948558987406241  0.4006110644989446  0.1983146699274886
  0.9970336134449792  0.3984758732336973  0.4008610255129166
  0.0037566097010349  0.3993698502151525  0.6007105323705533
  0.9968818691290482  0.4015957341884804  0.8013186799781122
  0.0001668530996313  0.6012030822773657  0.0020680976320873
  0.0039949276869768  0.6005430903574653  0.2009051263030792
  0.0015132267411216  0.6025269206533713  0.3992922503583940
  0.9986096716051712  0.5989646391832828  0.5978900015434923
  0.9992014957389084  0.6006522908488251  0.7976628114494945
  0.0001555349204185  0.8014899458719938  0.9996458651997121
  0.9964287534778050  0.8019998427838968  0.4034358242318720
  0.9992908150327751  0.8004333879752413  0.6000782946569492
  0.9997138154535253  0.8007297670758754  0.8008752655515501
  0.1994390870043906  0.0029399432448267  0.0002625403681265
  0.1989055521888744  0.9965360900038619  0.2001100898645958
  0.1993580846221919  0.0012921166387527  0.3998978297853016
  0.1998079359117702  0.0014202904803374  0.5986662947182612
  0.2004418700608364  0.9960106256309996  0.7997461911113783
  0.2006738200538621  0.2037828782289175  0.9993604053747718
  0.1996221638121116  0.2019451228011184  0.1998165499471781
  0.1993083878537129  0.1995401315162539  0.3989672141997164
  0.2026075881678130  0.2057933013712090  0.6006236728154798
  0.1991196602604398  0.1990257359881019  0.8013879303144736
  0.1994439944468873  0.4051763670509840  0.1920864649323156
  0.1999996584095440  0.4035266312732098  0.8022886984025623
  0.2003133850904325  0.5963533797694495  0.0037720813838759
  0.2008798156847172  0.5951205376997535  0.5944856378339780
  0.1994057963946970  0.6048187750956658  0.7993076349396457
  0.1988267011146096  0.7998785240833353  0.9961300452147072
  0.1722854257524375  0.7956934333633409  0.1956938860891875
  0.1996172948227235  0.7988032367170069  0.6054047125685266
  0.3988422104769868  0.0022104647599808  0.9999302870921740
  0.3975847494891913  0.9963693762032605  0.2008294749765558
  0.4033295280903597  0.0006430690624235  0.3994543081494729
  0.3987256713294821  0.0038544617623951  0.5979946743515787
  0.3997822655273294  0.9986380635172427  0.7985186475495287
  0.4027664991332889  0.1982741367861868  0.0005090463732654
  0.3982142687923732  0.2000364533056888  0.2018651237237275
  0.3999665628650267  0.1997234073123713  0.4028916918821477
  0.3990035920775630  0.1975400362211002  0.7954582631513530
  0.3978406656298549  0.3984527828924558  0.9996274481012942
  0.4019602269552460  0.4006505773701018  0.2009274181395217
  0.4023064226764597  0.3988389529193284  0.3989551273757247
  0.3949632632942365  0.3959239414831014  0.5999715614812875
  0.4034672532057787  0.4013407882924845  0.8003185561138971
  0.4002799526757568  0.5993563944539628  0.9987247575955756
  0.3969510962385297  0.6023483726051521  0.2007192796476394
  0.3962141958134117  0.6007230939712511  0.4005804415150119
  0.4022230081153955  0.6005012212462758  0.5968913202340712
  0.3996514570695874  0.6022320273673112  0.7985551757788739
  0.4014484115280803  0.8014891535871821  0.0006778690127720
  0.4014545805125406  0.8019693802681799  0.3959180484004527
  0.3993916012732067  0.8016441877122997  0.5993685569369782
  0.3966598335610145  0.8009837382509060  0.8007604276446361
  0.5996228985895837  0.0062629120159980  0.9999644532044633
  0.5996115712192626  0.9972272756974239  0.2039128572417996
  0.5982358633914552  0.9998521403628918  0.5953669871953549
  0.5961914789268434  0.9990665124492135  0.7983269931035899
  0.5975891545790880  0.1989149983959856  0.1956603424689331
  0.6000258321404536  0.1969480479992899  0.3986545433611993
  0.5951231708364449  0.2016624049899476  0.6009048813643030
  0.5994080284779255  0.2051289728780073  0.8043051684723881
  0.5979149271939767  0.3962784890663574  0.9954926896010656
  0.6022506028138086  0.4027725868911912  0.1989934805268271
  0.5993018452811023  0.3991080414961463  0.4000801189528979
  0.5988196183434156  0.4029169551739075  0.6041394994458322
  0.5994010972289843  0.5971353956081596  0.9992883686738776
  0.5971018781465764  0.6026449707031352  0.2013452040247099
  0.5994532599549746  0.5996306087370405  0.4035648642373612
  0.5990351726295650  0.5972344623255725  0.7948150456360237
  0.5991403740386294  0.8006535299649471  0.0017060878438055
  0.6005306046476206  0.8037028228856951  0.3968691543424483
  0.5982900165640500  0.7961638415170876  0.5995034146292518
  0.6021978187801671  0.7992581162414771  0.8017683235482659
  0.8004666448088952  0.9967540130759056  0.0042622137008688
  0.8010833462234913  0.9967169682220821  0.2008621857840538
  0.7966221521228921  0.0003039064323291  0.3982160807197226
  0.7993466160085801  0.0000670870305195  0.5937116669503406
  0.7937937270304964  0.1883746011174095  0.9989935957852613
  0.7990058997567864  0.2043418058313730  0.1986477997804232
  0.7986661174547418  0.1992312607255594  0.3999090263970418
  0.7987222592680094  0.2006646817109198  0.6000844877133146
  0.7990975040160424  0.2013077485840540  0.8001070511139374
  0.7996216843520028  0.3992242083158454  0.4021547359115115
  0.8007754535356779  0.3993194512476569  0.6004291234864767
  0.7973569686314012  0.4011278364238803  0.8014073265838975
  0.8006211986774472  0.5977279188990609  0.0003694503567688
  0.8009363072034007  0.5977564614588372  0.2008023028888585
  0.8009535727293957  0.6007545422299384  0.3997501696936850
  0.7964922927640826  0.5988340282507761  0.5967780687799534
  0.8004978050585275  0.6003523147059475  0.8001920768056515
  0.7998020913146391  0.7978960554746979  0.9986771021478063
  0.7926551342914510  0.7966498015018576  0.1978171376605945
  0.8007206445871753  0.7992885557340405  0.3978438747915201
  0.7991721795226899  0.7990208390831214  0.6040152682560458
  0.2038333788168279  0.4001389094449634  0.9976304126027721
  0.2002831844528459  0.4009288384581349  0.6079893631556466
  0.2002536966966554  0.5986924490149511  0.2031640700183632
  0.1990371117689759  0.6000245655052892  0.3970465382463065
  0.1992049781994287  0.7989104991653082  0.8004274342147878
  0.3989026876629452  0.1995904196775571  0.5997550864302674
  0.4038636482646181  0.7991825244421148  0.1973673123991284
  0.6009777461949239  0.0002574541366880  0.3994611769370466
  0.5990161222196041  0.2026489213702826  0.0002902120485194
  0.6007673202093379  0.4022185896897741  0.8009315718428858
  0.5976895823805520  0.5991498035164249  0.5979588427367641
  0.5970552356237810  0.7988443084563591  0.1981471520223165
  0.7979829891992566  0.4015809181066734  0.2116186246381691
  0.8002429649930198  0.7930673338468148  0.8009095954341006
