Zr Ti V  Cr W 
 1.0000000000000000
    12.5062221911064633   -0.0118592771758309   -4.5188867799002281
    -6.2437795351313943   10.8693910899341972   -4.4629948533269008
    -0.0196216462483696    0.0342470852872195   13.5010443303164465
 Zr  Ti  V   Cr  W  
  11  18  74  14   7
Direct
  0.0019688720655333  0.9894271402393143  0.1944980345234629
  0.9904300771396095  0.1886996528544608  0.3909185596335792
  0.9884796484182298  0.5994949442532196  0.3884644391634257
  0.9997317861106982  0.6082622900524534  0.6041662576282359
  0.2129060557020917  0.1800194860300167  0.2061105894777230
  0.2051560699908238  0.5949491424369158  0.3842325957294453
  0.3804547559009393  0.7924832001037215  0.7890137243616436
  0.5967394178715969  0.0094949936099244  0.8057895445213205
  0.5933679902094037  0.7991791089925170  0.3857157168833494
  0.5928203041430039  0.7953933016364477  0.5987095647630053
  0.7941621964042670  0.3989854991179607  0.6034465384179256
  0.9969377266190036  0.1977466048991182  0.6093950532707187
  0.0026871613577628  0.4013588635084657  0.0076781200171795
  0.0058058474083980  0.4023238601979676  0.8053620250502629
  0.9981040801800927  0.6085807082504363  0.0101621694542000
  0.0145607099383327  0.6228225658896458  0.8234681091936931
  0.2096281054603689  0.8547358669958728  0.2012686541295843
  0.2029896687780209  0.0130811147342058  0.3979822516766139
  0.2031595361316536  0.2015255780155234  0.8003533202308889
  0.2116286895883968  0.4012273246941083  0.6107587773932103
  0.1988603088876269  0.8142888326722809  0.3971133576793663
  0.4089702046857941  0.2064912711972790  0.6087875126009986
  0.4183986184333011  0.4006169556646806  0.4100759612247736
  0.4010996806923129  0.6031549834036687  0.0021383394823853
  0.4010290114894994  0.5776453093844532  0.3698226356959749
  0.5968270762662060  0.0001746599218286  0.1976946346367152
  0.7976357875114944  0.1990115332873937  0.1988967381420822
  0.7950825205639198  0.5995323732489574  0.1965973754550452
  0.8004407725243935  0.7940930880575453  0.7951571789496366
  0.9922020341705980  0.9879708553376350  0.4047414219242870
  0.9956933138966755  0.9930780662553763  0.6002539167404705
  0.0060772702259578  0.0012483302427115  0.8027112651718985
  0.0076703573602723  0.1999232499745329  0.0058961679486580
  0.9971092734271486  0.1965196278622900  0.8111133094827485
  0.9856798301520137  0.3765167768625874  0.1916605215492973
  0.9884279119440043  0.5754524351972439  0.1803875952908661
  0.0004051402256544  0.8042143442112738  0.9923395586550369
  0.9862979476386298  0.7778166838389093  0.1962829825496790
  0.9990445965953242  0.8174412140847670  0.4085405742967645
  0.0008703168117241  0.8149911463310634  0.6060015024470018
  0.2054310765701399  0.0008270875825550  0.0023456296471112
  0.2044584397629281  0.0107400330334583  0.6073156903656114
  0.2097450861568020  0.0080788207423205  0.8079563160936825
  0.2117826772085916  0.1974974221324582  0.0000199444089317
  0.2217531722546253  0.2199110700041789  0.4292260067763793
  0.2000785318234342  0.1900931221723441  0.5983982655422306
  0.2047460627549051  0.3940323267874102  0.9974098593633421
  0.1994903490630685  0.3890360461721788  0.1841341020160941
  0.2087931249231909  0.4075136485775946  0.8114721968262414
  0.2061765004471293  0.6161816732583791  0.0030903063056764
  0.2188075010319758  0.6129382898125841  0.1893254451374230
  0.1864679925663174  0.5761646631420144  0.5775054769675234
  0.2024926496512834  0.5971148457750042  0.8063485370116206
  0.2032561095048067  0.8234724201423402  0.6098158262538531
  0.1918340449283338  0.8162594612321390  0.8175367271272558
  0.4003539525318481  0.0095043981802866  0.0022781739232622
  0.3995276250504056  0.0124486514118395  0.2012333332371883
  0.4022721980393404  0.0119786969574464  0.6076196361623072
  0.4166930322986242  0.2062043438533310  0.1948132334044157
  0.4155042784915508  0.1947417833666201  0.4037332408042060
  0.3998775865157977  0.3942552927734091  0.0001713546414743
  0.4050829286988518  0.3925790847998227  0.1924287389256381
  0.4154638778703321  0.4098495109999328  0.6151558173602911
  0.4016552889022209  0.3961505209945829  0.8059082116120956
  0.3914495928909449  0.5791058994735264  0.1788834402440841
  0.4052559528353434  0.5893463327957857  0.5996840633228598
  0.4093477281050731  0.5941671927909855  0.8072359198714661
  0.3880278549349629  0.8055929887781597  0.0041507801203589
  0.4001177564523646  0.8154496655451217  0.1982661873806630
  0.3972507834586466  0.8312863747591001  0.3961534096934191
  0.3824221394547067  0.8203281324445174  0.5856645606069723
  0.5936582988965046  0.0011103237815676  0.0043753691941619
  0.5990013419079586  0.0153164420145330  0.4018310028936057
  0.5912424532677314  0.1967297197497341  0.9973004703784148
  0.5970372669097137  0.2041777493779112  0.1982448851095330
  0.6065380919911177  0.3927696194088441  0.3951745850657580
  0.5979302682013049  0.4015065134938760  0.6066268328947956
  0.6040490934674010  0.4001454599405254  0.8076786472980755
  0.6022062407526606  0.5966989993709712  0.0018852219190452
  0.5942183542769620  0.5921103521391181  0.1937483168161035
  0.6064221234572043  0.5890638889748337  0.3942808082195765
  0.6027914610814765  0.5971286992398234  0.8044067089486507
  0.5959408768761303  0.7961643479680013  0.9988873023546699
  0.6078418061424803  0.8004324393884115  0.1940214658478572
  0.7793346521931941  0.9737211025000186  0.1812422373618503
  0.7931732224602650  0.9961584323836763  0.3971253586809356
  0.8052929342585656  0.0095023952418784  0.6061857318789524
  0.8161456956306360  0.0191917374562026  0.8076744765893429
  0.8058813775026191  0.2098686098404061  0.0033310612630268
  0.7894477900059174  0.2039811085778672  0.4075660074853568
  0.7911766888808085  0.1942395781500033  0.6005011363025576
  0.7971646697935125  0.2031330728439658  0.8014824418177842
  0.7797939728417690  0.3869453852899877  0.1821675912599836
  0.7921886366674737  0.3891031083297019  0.3842884479748866
  0.7908880839586028  0.3929232807815820  0.8099078995375759
  0.7924690968761261  0.5909693836954774  0.9952206994368603
  0.7785721041612962  0.5923298924457043  0.3926379737182011
  0.7847274736347982  0.6060156914846997  0.6022422759380667
  0.7973047517626293  0.5950363514509716  0.8080028125267208
  0.7955557370844676  0.7882892138048213  0.9961195282820892
  0.7948988082353078  0.7974217302944407  0.1967124060582440
  0.8022343904759024  0.7973367718182603  0.3971877040499325
  0.8078565288295537  0.8010787204835538  0.5943251613183070
  0.9990307242037346  0.1994975380826889  0.1886351240546133
  0.0026668966671748  0.3988530898449604  0.4008900082560952
  0.0079668275153679  0.8102109662504341  0.8042568992622005
  0.2078232534984165  0.8145020957076865  0.0042921177442350
  0.4148775218143938  0.0184272606506897  0.4108407545095380
  0.3910185904187144  0.0151190714178901  0.8016929619479219
  0.4008321457437613  0.2006561185886239  0.9984934780624489
  0.4041390611910758  0.1988034908976364  0.8058711616710720
  0.5958104213064138  0.1959049870424659  0.3939633899632938
  0.6007725289163982  0.2013561951733258  0.6010387191486511
  0.5986219163845897  0.2117459361578894  0.8046973197761274
  0.5977267728509326  0.3956180848863544  0.1914708628819251
  0.6039187281694255  0.5919230437682685  0.6024872610792891
  0.7926134503567824  0.3944088467220725  0.9976464708429703
  0.9968031635415109  0.9964329384149129  0.9869656739839610
  0.0043588207762799  0.3986456066127765  0.5984297478152010
  0.1986385962468840  0.3887412848572966  0.3925313130905979
  0.5994603176015288  0.0131872304248938  0.5997766059191951
  0.5942175525883541  0.3937299470052953  0.9970962005036090
  0.5974332335971779  0.7912499733560313  0.8051481604855645
  0.7985895854853416  0.9987821284739660  0.9995169805572427
