Zr V  Cr
 1.0000000000000000
    15.5277836321495606   -0.0011014415353407   -0.0036444284316418
    -0.0011015311309700   15.5268057001839015    0.0012045176117796
    -0.0036459540422085    0.0012051907892001   15.5242636607114743
 Zr  V   Cr 
   5 117   2
Direct
  0.9994880634901303  0.1991224845055896  0.3994403617730600
  0.9962759841207586  0.3991554518399284  0.9989367486964823
  0.5990053559035493  0.9950088253655672  0.0059047002876198
  0.6032118026166281  0.0278224121277353  0.7860590061157152
  0.8026535741971864  0.3772394425893358  0.8063444625955619
  0.0007974577511309  0.9981251882233069  0.9998515713102473
  0.9999062656627355  0.9980277293261771  0.1999744514757609
  0.9998276270390074  0.9943218579305697  0.3997567385554126
  0.0000585094675987  0.9983499332703799  0.5995430045915474
  0.0020527765105816  0.9996393408013132  0.7989968767050036
  0.9989271924206373  0.1944291582225065  0.9983939802428643
  0.9992963326470214  0.1989178929441729  0.1958163505906661
  0.9993195812564561  0.1979458106542897  0.6031757451905728
  0.0021587549427535  0.1992535067064777  0.7994773635971082
  0.9999292245759116  0.3994845164958508  0.2035823985909919
  0.9997470978517876  0.4035543225239662  0.4005935868358718
  0.0007133216926607  0.4003191013617470  0.5987674211246090
  0.9988588387623937  0.6036280276022260  0.9993042749039044
  0.9991323740487561  0.6000402511946453  0.2001438619226939
  0.9993526581546307  0.6003137984747415  0.4001467387606202
  0.9994341198587784  0.5999807950348612  0.5995091891715296
  0.0003474081861501  0.5999627383218075  0.7984883225672045
  0.9994454425123033  0.7995452424268027  0.9994151944370767
  0.9993529311063560  0.7992918516743481  0.1997077062890563
  0.9997216621609479  0.7979408173886257  0.3999267123972918
  0.9995059994120111  0.7989784282597624  0.6001756036721566
  0.0008463714759877  0.7994571610207770  0.7995430298207669
  0.1982337293617622  0.9989650599666452  0.0006751996590246
  0.1986760471703261  0.9994626548750037  0.2005445472317703
  0.2002167925254709  0.9983607472948349  0.3996668913297365
  0.1995692192090283  0.9992445260990690  0.5986813813588805
  0.1990751144308781  0.9995298544161141  0.7992485397744280
  0.1996343946633494  0.1993183527076805  0.9996368841328243
  0.1997195391319154  0.1993827232552355  0.1989040234480872
  0.2038717074713037  0.1992948967125494  0.3993280876329110
  0.2006793375396923  0.1992512597277233  0.6003433040354066
  0.2006580804109410  0.1998621313627541  0.8003844892772192
  0.2028075361092075  0.3995221238409444  0.0010293113920871
  0.1995592359681453  0.3992281938909303  0.2010316525242312
  0.2008060620763186  0.4000478201261540  0.4000777419460961
  0.2003691917756802  0.3989949508518021  0.5989140402332024
  0.2020753564839208  0.4003917863686907  0.7990078227914680
  0.1990621021844474  0.5994957461609683  0.9999226384105188
  0.1988137209548125  0.5992930652248398  0.2000592037663043
  0.1997412278786333  0.5996389977857922  0.3996994152719570
  0.1993636136465815  0.5989106821083253  0.5998565075965645
  0.2004760262148034  0.6000247763871670  0.8000567770567580
  0.1997206122725433  0.7992185256670190  0.0001195293760579
  0.1995113836045721  0.7993998808229308  0.1997923711705934
  0.2001542733682913  0.7986083615711137  0.3999317910456631
  0.2002742816333377  0.7993549885503634  0.5997795345833605
  0.1998377049334323  0.7992579837415295  0.8001135887269381
  0.3939466604355130  0.9986815398913924  0.0010445969851265
  0.3982643852318412  0.9996245454755202  0.2007982691661271
  0.3990309481602102  0.9989571348903776  0.3998711093540729
  0.3990835139296132  0.9988290890590786  0.5992009658382101
  0.3964608000535169  0.9998842160762124  0.7998129514536978
  0.3995389334150493  0.1996309869987069  0.9999978077438375
  0.3992498586065878  0.1991089758002968  0.1994190686965745
  0.4005103431891790  0.1989658497271454  0.3996175724221295
  0.4003406529743390  0.1997641380428128  0.6000860175891631
  0.3991944461224738  0.1996748183383873  0.8007742922116549
  0.3991504530330193  0.3996335202581454  0.0006477603980730
  0.3992753375735679  0.3994459507090219  0.2012102545223956
  0.3998572438392377  0.4001500250209515  0.4003038000622883
  0.3999063758927171  0.3992049547756022  0.5996308432897482
  0.3998801966818984  0.3992549217851351  0.7999479653081574
  0.3990314421011767  0.5997684731206754  0.0003030053574671
  0.3991332469400114  0.5995719628889836  0.2001809158646701
  0.3995109610609862  0.5997106439650768  0.4001433856443674
  0.4000675326674289  0.5997900510496753  0.6001527434864481
  0.3992841440454988  0.6004427057584791  0.8003055618852016
  0.3988922626630917  0.7987951587238743  0.0003177019807375
  0.3998314058958796  0.7995000580564001  0.2001052718939220
  0.4001116726409696  0.7991249218309843  0.3999678282924558
  0.4002733731028334  0.7991300871395159  0.6004745218151588
  0.4006306148272851  0.8011921573252638  0.8008282694896339
  0.5995290477888857  0.9995598574072938  0.2065660317803070
  0.5993644323681009  0.9992096593467646  0.3988255730693478
  0.5999193014525667  0.9995064083584947  0.5899041426467542
  0.5987144111832019  0.2023159247223386  0.0005114331011302
  0.5990100561757478  0.2003036697803335  0.1998273455089231
  0.5984241662673006  0.2004787615821175  0.3995125182883800
  0.6001039947589657  0.2002373390465855  0.5982572102041076
  0.7002307511775213  0.2012165087044347  0.8012616805051433
  0.5963360933641382  0.4011213836403794  0.0013433540351643
  0.5983234924768062  0.3999728818385596  0.2021020340301834
  0.5986315189233388  0.4003011247533667  0.4004453115082510
  0.5991949049384583  0.3997731068768687  0.6001138466277676
  0.5969787818189352  0.4047532738720476  0.7996663866069046
  0.5986203575311847  0.5989224829920647  0.0008696988260647
  0.5993487865164576  0.5992020707506518  0.2009620775776738
  0.5997965516215515  0.5999238467099924  0.5997820795028663
  0.5997287884776538  0.6018536996310546  0.8000396885379770
  0.5994603120139537  0.7933220031082873  0.0008868767884262
  0.5992937724647095  0.7984515929397540  0.2016001911645212
  0.5993304258875036  0.7984673710016110  0.4000403862341408
  0.5999825905336879  0.7997995780857587  0.6002073338554610
  0.6000260390908663  0.8052818659596461  0.8004896782093475
  0.8044144148580493  0.9992357230020285  0.0008368310116544
  0.8006518209613745  0.9995492212752288  0.2006998692613873
  0.7998015684727191  0.9981361491309193  0.3999159050806152
  0.8005999405923862  0.9990528448205664  0.5999099248359032
  0.8062394993200025  0.9968431854389862  0.8005473802438502
  0.7979283910029872  0.1993873020007227  0.0010170995598686
  0.7989447220050631  0.1988115765784076  0.1995144142269292
  0.7949374316667240  0.1982055883407894  0.3991755439405180
  0.7992739660001476  0.1993210715237676  0.5992246536679022
  0.7919855019958987  0.4002212540306236  0.0089878417842987
  0.7985087928497088  0.3989867892953985  0.2040478888495601
  0.7984328695104723  0.4000814309617182  0.4006541532248217
  0.7992742257012424  0.3985548625830586  0.5976404775040350
  0.7986127165443196  0.5996341641852406  0.0006796921165803
  0.7994861549960443  0.5995107609922531  0.2010611102727720
  0.7991151746914456  0.5998131709891340  0.3998445206326652
  0.7996227888580637  0.5988427244872957  0.6005664459176594
  0.7997871920142857  0.5973407777293532  0.8011678078062415
  0.7993566199622951  0.7990903866129861  0.0009270535489594
  0.7991055438914578  0.7993677311183773  0.2001384801334667
  0.7988630141731345  0.7988306130207568  0.4002653952617358
  0.7993505754106258  0.7991260780712448  0.6000615470613989
  0.8001726450107799  0.7992284117904169  0.8012340472445447
  0.0059122414105350  0.4000349079831934  0.7948551477596605
  0.5993571031403470  0.5996646413260214  0.4006051394580428
