Ti V  Cr W 
 1.0000000000000000
    15.3901465190355609   -0.0011250204104957   -0.0011259532101999
    -0.0011247543542261   15.3962745551000300   -0.0010074302771283
    -0.0011269524369024   -0.0010081141208892   15.3968520262370543
 Ti  V   Cr  W  
  15 105   2   2
Direct
  0.9988163168988684  0.0015875384600899  0.9976616796636711
  0.9979744604525651  0.9974242279593141  0.2095421559178745
  0.9963611008873569  0.6027036919964103  0.5986969120433222
  0.1986492337503087  0.1987810982944582  0.8008572887198606
  0.2070053384635299  0.5994372800894968  0.5973747278770041
  0.4132461398058537  0.5998688455808475  0.6029096907981576
  0.6038871943650486  0.0011903863976042  0.5975522086648416
  0.5958084699053897  0.3959619296246168  0.2071165628756444
  0.5985536813109000  0.3962104146034640  0.7953289531884421
  0.5971021735750330  0.6052572841699093  0.7909911625030487
  0.6070107930782472  0.7936440241925378  0.5956233133892199
  0.7933200544900321  0.0013899992471460  0.4039364832995729
  0.7979812881967586  0.2011788848253893  0.4026416442105981
  0.7971376132754114  0.4073549031085835  0.4060759672220388
  0.7918559069262883  0.7956812371128190  0.4070927364391335
  0.0013784374289546  0.9996894586465882  0.4038812870501575
  0.0012691181087929  0.9982482058689505  0.5998705432850466
  0.0004697556009071  0.0011148670205581  0.7988208459963031
  0.9971141132081189  0.2010125394980339  0.2032065337029876
  0.0003200641473895  0.2002887468587649  0.4006823546278406
  0.9995922323810809  0.1987610304631735  0.5993401372671442
  0.9981966196420035  0.1995073752667678  0.7971048756348679
  0.0001109060867213  0.3360833275305286  0.9993792318073651
  0.9995397086016017  0.3985503269966240  0.2024685911088647
  0.0031064186567438  0.4007024517950967  0.4030306060463073
  0.0004618368104186  0.3984646997476178  0.6004008598115430
  0.0014186806469896  0.3984818373200172  0.7991522267276984
  0.9998396078571357  0.6004025780081014  0.0002057967137605
  0.9952607201314538  0.5998982260649921  0.2009168407376279
  0.0002187167792740  0.6006739727812824  0.3982536933623301
  0.0003716676030967  0.5990440459806043  0.8024461521892877
  0.0003327421372934  0.7998348139749679  0.9981004223860159
  0.9984163102049914  0.7990779074495693  0.2030565872736048
  0.0019008438338119  0.7996722432627102  0.4064140753627489
  0.0011501886597002  0.7992162318804884  0.7957582328529517
  0.2017906328344545  0.0002995252150870  0.0003235305807479
  0.2014444669152938  0.9992359818168897  0.2007623612587519
  0.2018734804776488  0.0002454098070974  0.4001570955537340
  0.2013469710778079  0.0008610791065853  0.6002549257163208
  0.2016322748044698  0.9965179718897978  0.7996699161639798
  0.2018995973560999  0.1998649135379010  0.0019575372937818
  0.1973543361236736  0.1993153245179608  0.1990007639560131
  0.2009480029850008  0.1998078076540551  0.3989944137075637
  0.2001537736378966  0.1992328636566625  0.5976762972431290
  0.1994844668888233  0.3983425626637374  0.9997860291572800
  0.1982997706189833  0.4002416606556191  0.1997745971947899
  0.2004165964599313  0.3999316624963505  0.4003209717841181
  0.2015920797629029  0.3988140128577463  0.6005868174034399
  0.1988468855742076  0.4028788040073745  0.8002744181955670
  0.1991823470963006  0.5992557623106332  0.0023199157132602
  0.1984969356427084  0.5997222194394339  0.1995907744060071
  0.2020816801122046  0.5996829879733429  0.3968101345741320
  0.1996906804019751  0.7998289991273010  0.0002402361184746
  0.1990797191708588  0.7991355832220397  0.2003419412554223
  0.1999684059192181  0.7998617796447566  0.3999246721990147
  0.1977709067094414  0.8003228365170375  0.6000362899193747
  0.2002951931668188  0.7980331895337568  0.8001216246400776
  0.4010314067410619  0.9994395302545227  0.9996393642428267
  0.4006817070808684  0.9993541225396605  0.2002921651936528
  0.3996871700892684  0.9995294023265265  0.4010638495530391
  0.4001801314566582  0.9995065541489152  0.6002732927559222
  0.4006054620536702  0.9988784785437463  0.7995207094306352
  0.4012380515355505  0.2001162763483114  0.0001017958975500
  0.4011427173827036  0.1998134768549099  0.2004049295672487
  0.3999573374215012  0.1996752560542282  0.4000875258888403
  0.4015507605738713  0.1993973009542681  0.5998876351745830
  0.4028328527369304  0.1990392768927843  0.7996874377287433
  0.3993285733390712  0.4003551141731719  0.9987891186592917
  0.3974238917165733  0.3994757562597919  0.2002104790508020
  0.3980296473516728  0.4003610478539541  0.4018847705161702
  0.4013535864798402  0.3976442223885672  0.6014260744226808
  0.3964798088433561  0.3991445548747738  0.7990028381569525
  0.4009375172432803  0.5991188071594180  0.0008559133499317
  0.4024895691270953  0.5997360576007443  0.1996510188556031
  0.4022022968217438  0.5999518860692230  0.3978585426579832
  0.3973511690510235  0.5999008451091196  0.8021323013807556
  0.3998883425872680  0.7986878887975914  0.9987158161919898
  0.4002742914315783  0.7994717570657354  0.1999258306241497
  0.3981867834777391  0.7993453925649178  0.4011254000778489
  0.3984831740579796  0.8012702058578390  0.6002119880370801
  0.3994466091604273  0.7993024001446067  0.7985191545098443
  0.5990246376131787  0.9994737274621512  0.0000867942467124
  0.6008630553983413  0.9994297777818856  0.1998817950435976
  0.5958162102518649  0.9996239436681511  0.3971857826940263
  0.6000914870609920  0.9985116353636300  0.7997284460143483
  0.6005176833973289  0.1993930935425288  0.9994008243559585
  0.6019442783286051  0.1977043161936355  0.2001050034562639
  0.5979062191048220  0.2004349421111659  0.3992760353866325
  0.6017723517769641  0.2013005582678884  0.5990576858116753
  0.6007363888232663  0.1968621597388226  0.7981080296785765
  0.5981558636800678  0.3998689203578791  0.9973044053274229
  0.5957772775010929  0.3997807708941654  0.4028785328549913
  0.6013047282804141  0.3985747322089186  0.5969163647829518
  0.5995939212072344  0.5998409679575535  0.9996530638921913
  0.6050320943204197  0.6019956672967561  0.1994853308862607
  0.5996245159631729  0.5995191829561038  0.3973136208990466
  0.6062708392394545  0.5960554499348755  0.5944262276821221
  0.5991058457819822  0.8004677718142934  0.9984550995080680
  0.6002239498110615  0.8010957930191472  0.2000732606356944
  0.5952075656674902  0.8002027635247623  0.3983411955127221
  0.6003966051758927  0.8018949535432105  0.7988383107990434
  0.7980197940834389  0.0001498224625069  0.9994514327620418
  0.7984761803264436  0.9996845617230963  0.1987574078533094
  0.8034497387891985  0.9993367673415797  0.6036783605329052
  0.7989129431256181  0.9984513091130615  0.8005144175777029
  0.7980354682868019  0.2006712098209922  0.9997984571679583
  0.8004113739383945  0.1995969601563829  0.6030429062408802
  0.8006494737160732  0.1987656126471275  0.8021764169872581
  0.7986722408153871  0.3990328096791763  0.9988376493435634
  0.8019376760114862  0.4027595244085413  0.1973230186308478
  0.8002592825893580  0.3999239107858757  0.6044529499667108
  0.8025968700231637  0.4008241496454331  0.8009010866568456
  0.7992873225219582  0.5990863630125665  0.0027307895990580
  0.7987197227552302  0.6003663198206708  0.3945438412797095
  0.7989835875387319  0.5995447884721853  0.5990184501704902
  0.8005226368964907  0.5995614172523507  0.8014192016232277
  0.7996102496689130  0.7999129108933113  0.9991256103706199
  0.7995364998188808  0.7960795194280400  0.1986455212735195
  0.8083722601616805  0.7991862092416802  0.6040779053981115
  0.8002936008505251  0.7986852817038506  0.8013047047250406
  0.1998853112698829  0.5999775450041054  0.8043347804508344
  0.8000324069102577  0.2013627642782008  0.1964043700832118
  0.0025991041810004  0.8033325873361825  0.6015606418544943
  0.8003520701397548  0.5994577184088675  0.1979507084718677
