Zr Ti V  Cr
 1.0000000000000000
    15.4866812533483102   -0.0138389071891856   -0.0042650055420354
    -0.0138393523722023   15.4879634038831639    0.0014184031787679
    -0.0042741725747290    0.0014267905633447   15.4705250654031623
 Zr  Ti  V   Cr 
   5   5 111   3
Direct
  0.9988840024790556  0.5994969508613197  0.9993042865282581
  0.4333542874591672  0.7949792427973196  0.4128211909728357
  0.6019248985542429  0.6010270547704558  0.5942640838895644
  0.7874839916505429  0.9632070567205319  0.6049540038330039
  0.7866747531974098  0.7488233877885349  0.5943115302373393
  0.2029205582680150  0.9995549594620030  0.5956654740781751
  0.5968733175470738  0.8016377346194491  0.2274812198159015
  0.5843944985027559  0.8313694842296867  0.6031073391325087
  0.8021290334816762  0.2068214664185891  0.2068000260770788
  0.7970140593623680  0.3989929943793822  0.3911679673379990
  0.9977085436270527  0.0014465025772188  0.9991632988164960
  0.9995950089561774  0.0002849075136888  0.2003561587664999
  0.9984563292901255  0.0011478917046241  0.4000059256003579
  0.0022570947665872  0.0011009150818476  0.7996082185953060
  0.9990530211833379  0.1991194596464156  0.9995078659119535
  0.0018150150215652  0.1999751055629830  0.2006027067483049
  0.9997150983829312  0.1985223167965071  0.4014410177899786
  0.0002549237866227  0.1982645541291762  0.5997519535569062
  0.9987066425871549  0.1987896796505591  0.7983316259725016
  0.0002162794341307  0.3953060082218318  0.9994661224976804
  0.0007205440955529  0.3997648830282124  0.2000073337560796
  0.0026530362194386  0.3988426698753584  0.3996842129092159
  0.0027977232249032  0.3981939079777717  0.5984029942876873
  0.9999410974229789  0.3997898926304949  0.7983888114287815
  0.0003685553119592  0.6001530044900754  0.2045219278326856
  0.0003292414217523  0.5992331820263530  0.3999698440209581
  0.0008896619175353  0.5995759941601329  0.5973540126206457
  0.0001581742683243  0.6008322166866205  0.7941024632229698
  0.9992143565987616  0.8052453515456658  0.9993147449434331
  0.0001559982529295  0.8005474425073472  0.1996553540601338
  0.0038505180809119  0.8009100022701093  0.3998084667456948
  0.9961251191075214  0.7990677154230855  0.5991601020987880
  0.9983036040378929  0.8016602946827165  0.7986044453543786
  0.2001913142721674  0.0012011086133711  0.0010779268377232
  0.1991002779065037  0.0006977605956899  0.1998922715884074
  0.1996890599834933  0.0001544686423669  0.3973997624397516
  0.1991059083160957  0.0008249805067577  0.8011177909335029
  0.2002554286807894  0.2007353308841009  0.0001148478740383
  0.1999507156164913  0.2011623539833561  0.1999451672955938
  0.1997663669828105  0.2014558887608678  0.3995285539098460
  0.1995760169799561  0.2033923503092232  0.5992766122909207
  0.1997337180673844  0.2020704295578287  0.8002805862343271
  0.2006965280991784  0.4003040196363872  0.9995654435702406
  0.2005364222924274  0.4012538864519371  0.1990031716925792
  0.2008846740591231  0.4008269541009288  0.3985767192992066
  0.2003541105902195  0.4021996204418060  0.5990683917823729
  0.2004198997832883  0.4019750910730832  0.7999698826731465
  0.2044364341106177  0.6013014269665917  0.9993519901795701
  0.2004769380926058  0.6009527735994764  0.2003322818014757
  0.2016447173077903  0.6007720739876447  0.3988015861850053
  0.1993611744896470  0.6009442562253750  0.5977414601276557
  0.2003418144111525  0.6011069942699855  0.7980958496095601
  0.2001932756005622  0.8014678170726440  0.9998009069334560
  0.2002298349310046  0.8002378225021706  0.2003602141407531
  0.2014879540874947  0.8005991506832665  0.4004467970533578
  0.1967134057742698  0.7991924190110474  0.5998758584434742
  0.1984451970922844  0.8003524305789641  0.8004811225321022
  0.4004241760656304  0.0015940475369237  0.0009965148992583
  0.3986281428088315  0.0011466561694391  0.1997562954139284
  0.3988565556418096  0.0048331985264027  0.3988838500826701
  0.3959279441512984  0.0042427445170358  0.5996930569916311
  0.3979900062812960  0.0022286528520976  0.8016166512295485
  0.3990766619278559  0.2018290787509256  0.1999594923661565
  0.4007362962481381  0.2011187770178370  0.4007103490413697
  0.3980784303864572  0.2044330155472402  0.6006404337347241
  0.3998980351322352  0.2020867135976954  0.7996235657844483
  0.4009539780136494  0.4009749171853055  0.9991854192046002
  0.3994686070170839  0.4006143448365670  0.1989466323407153
  0.4016023744106254  0.3999421397391682  0.3994266355559997
  0.3994433131711625  0.4030667416238080  0.5999694266179573
  0.3999125239843498  0.4031688281412356  0.7991467921259809
  0.4015126375059812  0.6017076565656506  0.9993880506691328
  0.3998441536966864  0.6001565921226855  0.1983674847469854
  0.4005056696128251  0.5946319100294521  0.3988506470580245
  0.3959808652416140  0.6031898563952560  0.5974239252156879
  0.4011990312606368  0.6026741280674766  0.7981460325297791
  0.4013175296766870  0.8014990295551730  0.0011403747957661
  0.3980274946120563  0.8007067919074345  0.2003554695982576
  0.3914304197488610  0.8037257402016676  0.6098068543767361
  0.3989106500191728  0.8010692172974726  0.8015269443803317
  0.5994183318626810  0.0012796651472369  0.0005297273696539
  0.5990814518632652  0.0042574252249423  0.2004222077008233
  0.6000833297040705  0.0000744722041397  0.3992685391313101
  0.5911661867308097  0.0163766703633548  0.5984066399121157
  0.5998787453106830  0.2010525558537359  0.0004301900829748
  0.6012657432385671  0.2005130909992376  0.3991300798433421
  0.5979919211125434  0.2044524042197476  0.5987079494632113
  0.5998877692212577  0.2015113258016363  0.7998696339277670
  0.5994416806407298  0.4004429489118640  0.9998597189695393
  0.5993429021482786  0.4001959773380119  0.1991273171110805
  0.5987988808881259  0.3999565839843872  0.3983760771767368
  0.5981617118788658  0.3985902970812632  0.5982000023319038
  0.6000726200303889  0.4017162581377161  0.8004242236486214
  0.5992753730673636  0.6026540221555581  0.0001693228025650
  0.6004400858354291  0.5989623659084832  0.1983625353052382
  0.6017682740946981  0.6006109446201563  0.3920971448126301
  0.5993869096941409  0.6019973952938934  0.7997768751841767
  0.5998973002797010  0.8032205068481993  0.9924224112491242
  0.6255336923190238  0.8020643110623790  0.4207378423740323
  0.5991323318541559  0.8028734979346442  0.7984228841375514
  0.7976871716504923  0.0014511773057830  0.0034843807870764
  0.7983848417177412  0.9981166959916932  0.1996772410448940
  0.7997604439710889  0.9972413542655630  0.3983445414320678
  0.6305333712360034  0.0033898823640532  0.7989312736638416
  0.7992172555217198  0.2000775673851135  0.9981758203710083
  0.7989744375988341  0.1948287079108759  0.4025258700238463
  0.7995192146345920  0.1986069267115539  0.6004766147036403
  0.7989388055476225  0.2013575400858478  0.8001272831538410
  0.7985864187569803  0.4006793350631504  0.9983316267638184
  0.8005283751863518  0.4029050287812570  0.1955269758920468
  0.8020039145090766  0.3937796068203641  0.5998823238997804
  0.7997128175546250  0.4019272555346225  0.8001163494523763
  0.7948886850688315  0.6011943266751482  0.9991126762541185
  0.7995437950926084  0.6002542575835359  0.1978761797780280
  0.8018548026688943  0.5996236208238082  0.3965342080228778
  0.8067093267395857  0.5662329004532358  0.5959920750498984
  0.7997885867269203  0.6011842565132689  0.7971814796923373
  0.7970491839950431  0.8017472512720029  0.9997187554811801
  0.8017739118943573  0.7984723139253569  0.1990820853116646
  0.8100339925337803  0.7991797779398396  0.3945908504623346
  0.8000241877440744  0.8006416360774145  0.7996664919198254
  0.9960069595734720  0.9983693474236091  0.5996079897000913
  0.3998463200937341  0.2011908580935016  0.9995848516349332
  0.5970767530683103  0.2010761592637697  0.2003985796610222
