Zr Ti V  Cr W 
 1.0000000000000000
    12.2882735461728885    0.0000000000000000   -4.3445607757035454
    -6.1441367710433559   10.6419570608175889   -4.3445607757035454
     0.0000000000000000    0.0000000000000000   13.0336823299999995
 Zr  Ti  V   Cr  W  
   3  13  94   2  12
Direct
  0.2018611707311913  0.7982926473454988  0.8050836748622826
  0.4002193195827392  0.3964493418496169  0.9960272513959848
  0.7746143894657816  0.2025950059293618  0.6018335109999072
  0.9971924254295496  0.1929095641976964  0.1967725601182024
  0.0011782601762773  0.2028208842306526  0.4053990929103408
  0.0011669788761657  0.3977434222409936  0.5952079708007367
  0.2060031774956893  0.8016215371424050  0.3953777104630420
  0.4043756276389952  0.9999105319780976  0.7972732770199791
  0.4012727606492436  0.1951725350328202  0.2115376664800721
  0.4027759268599448  0.3982101458232490  0.2124666875203533
  0.6010720709105665  0.2010076152129325  0.7763218840956241
  0.6099607741974894  0.3989652963365165  0.9939400222052068
  0.6082272183594852  0.4010777483339971  0.2067564415139777
  0.5899951818729348  0.3695163140164428  0.5901739648107213
  0.6037879694759364  0.8038908636487162  0.9987970146410948
  0.8016958337861083  0.3969884796345415  0.3991438869627348
  0.9978818990339218  0.9997439759397652  0.9999782036525134
  0.0033784396479604  0.9999228365423151  0.2007903552893500
  0.0001899367297679  0.0000738505872532  0.4005110338666616
  0.9944163892195041  0.9977635467304219  0.5971283430115590
  0.9932448646804717  0.9952070680404965  0.7990293238334901
  0.9970225897993802  0.1933351881748134  0.9933934635996718
  0.0002486443336367  0.1905914247202532  0.6020510612924492
  0.9982576992472763  0.1976356399449004  0.7989753867577696
  0.9990504640291838  0.3990456338106330  0.9973973001086678
  0.0008517068505311  0.4028050199401219  0.8047481317057013
  0.9982410035495249  0.6005781288137958  0.9983099274409888
  0.0013785110095031  0.6011170947576673  0.1970605176537763
  0.9961064320167883  0.6004193809932977  0.5997481260226228
  0.9968018335557328  0.6009129190719629  0.8010513617333890
  0.0002794542351876  0.8015964170714083  0.9961887471995005
  0.9982314198756613  0.8008705179871984  0.4005889570237295
  0.9968630379071252  0.7998498848003700  0.6019317808616885
  0.1917755466644257  0.9985563651829720  0.0009195818128209
  0.2016587791102943  0.0031335432961325  0.2015762592749282
  0.2040699268001815  0.0066072857982304  0.4003496949250533
  0.1914664633787916  0.1930607603632291  0.9967454345754746
  0.1966232648037273  0.1965545000246607  0.1968983504887030
  0.2099504415655702  0.1994843731112125  0.4003131880799944
  0.1986893658840940  0.2000042587464966  0.5961815463628987
  0.1884478801731533  0.1943698738089217  0.7915581032227317
  0.1921742329826062  0.3961656944173522  0.9974510570042407
  0.2021582079193809  0.4016974109854371  0.4055825424888031
  0.2054441760296375  0.4019428192727103  0.6007230463653335
  0.1942850967241485  0.3961423630282999  0.7936946588122153
  0.2016194084563000  0.6025960673516110  0.2029865654145055
  0.2096197269947468  0.6039608517399133  0.4058561047380242
  0.1991559256249623  0.5957342793567424  0.5951253477283387
  0.2001740336084727  0.5932579397861046  0.8000523191009391
  0.1964955444256537  0.8025385193093731  0.0086523269456477
  0.2030783778265726  0.8045433573587382  0.1980967628433921
  0.1998716335381923  0.7946269068859476  0.5937196432973924
  0.4064487049174358  0.0079849618204050  0.0128556189424002
  0.4004424330407365  0.9992094436627617  0.2017538054349844
  0.4185023521432314  0.0252089384571412  0.4154232899390246
  0.4023260093050078  0.9967910844156034  0.5929442340995132
  0.3973953045615187  0.1876753096009785  0.9924169188879570
  0.3942990741292617  0.1988611217485620  0.4623115599746646
  0.3948007663380319  0.1991309115744711  0.7895627826823605
  0.4019678944321333  0.4008586436896154  0.4106331452007039
  0.4004430197173923  0.4000893569390463  0.6004503119293600
  0.3990628471308422  0.3966648293240370  0.7886520643718563
  0.4050554903308817  0.6069322980288860  0.0006727770956158
  0.4049861431535402  0.6017217718979274  0.4063112318609270
  0.4028132641241348  0.6012548981190792  0.5979290525179068
  0.4028660745386622  0.8048810809689600  0.0019605388061038
  0.4091790727130086  0.8040372306467710  0.4063623872170399
  0.4032437110876034  0.8010952045495978  0.5995907270225029
  0.4109622936642783  0.7978900862247584  0.7978330565017624
  0.6037145849611464  0.0031197103325256  0.9985843462714028
  0.6027060329120917  0.0001461124720606  0.1988726921033742
  0.6005046109408534  0.9943626634857191  0.3964150517162936
  0.6004235707125471  0.9952336478140411  0.6000472128420969
  0.6058485167748727  0.9954227353224284  0.7952680904502085
  0.6007580730198150  0.1913487480756443  0.1995991953135939
  0.5975028342613637  0.2002210480502579  0.3953544038040819
  0.4683215899364216  0.1992655064984144  0.5997511301903619
  0.6027729636364204  0.4090690491114278  0.4088644170829728
  0.6016157057524345  0.4100856574397756  0.7995284016289426
  0.6036240997117012  0.6013598824231610  0.9983573372908654
  0.6084701416155602  0.6097413211481721  0.2102162805851716
  0.6061487033207527  0.6050509782812821  0.4093629692174122
  0.6025687197070847  0.5992206858548758  0.6008054328018461
  0.6042332589143427  0.6014271128436030  0.7979478162438344
  0.6037256556001481  0.8028681449005819  0.2029431657097802
  0.6056723309738857  0.8023851363430187  0.4070527722449891
  0.6021262566074562  0.7999920054320785  0.6012282662300488
  0.6040531949277934  0.7975845825362868  0.7936520023859237
  0.7974629806308445  0.9933581297445083  0.9931622769969944
  0.8040554018999178  0.0046094291204439  0.1998662286679049
  0.8012904515655210  0.9999975188373765  0.4011885014196098
  0.7991486951232259  0.9957101261027679  0.6021343972581865
  0.7997349466308193  0.9958518070698443  0.7980284196126984
  0.8017215531931517  0.1956071474185023  0.9984001824528492
  0.8026886496151954  0.2016993585717362  0.2038682676423342
  0.7877396399955697  0.1838859989723233  0.3855177101076386
  0.8093985339960339  0.1987199581615669  0.8098196855540295
  0.8110534171370574  0.4055793051247374  0.9997571875247175
  0.8027557994580977  0.4005289083238595  0.1954805075455082
  0.8069243537645177  0.4171219194347635  0.6096647903727956
  0.8042779276805117  0.4078299081298173  0.8063594024727678
  0.8010121830530516  0.5998386178723616  0.9970582238336118
  0.8033925616848276  0.6029401786011568  0.2026497859996283
  0.8026684975193077  0.6089034743254729  0.4061210552360898
  0.8037280377870381  0.6051601978008304  0.6046563705216268
  0.8002824210912319  0.5996013856651354  0.8000482593501556
  0.8042160292418132  0.7988177318813681  0.9953464852430819
  0.8005551444599498  0.8029907659683632  0.4037544487093632
  0.7991100943879038  0.7987129889733457  0.6014223097232385
  0.8031765650356640  0.7985006389839634  0.7995304467942335
  0.0064720694916948  0.4032160421176981  0.3982369470679646
  0.9906556231578408  0.7989769828714047  0.8005906831359596
  0.0010602760509064  0.4014657445033460  0.2015685776669665
  0.0016276626097685  0.6015343762810754  0.4019233255097585
  0.0037292244050579  0.8022871188379420  0.1994644259330723
  0.1997276312080598  0.9982006468121825  0.5947326754982148
  0.1947702098439846  0.0030529698480332  0.7992392411926317
  0.1990817754384006  0.3982830883806810  0.2017456447682200
  0.1992674684783496  0.5989707445262215  0.9990980075141055
  0.4042643336891922  0.6025322646737540  0.2053605306541566
  0.4001009893177890  0.5984167097436977  0.7970359704482273
  0.4037405914067867  0.8051179011788010  0.2045934139217451
  0.6052506923501412  0.1989943377546867  0.0013736064061742
  0.7996708242461238  0.8011760466478756  0.1988770159772255
