Zr V  Cr
 1.0000000000000000
    15.5176564344983579    0.0055358052127085    0.0009235349890332
     0.0055289702635454   15.5339659065587714   -0.0041197367383691
     0.0009253811786535   -0.0041210125583897   15.5341853465245965
 Zr  V   Cr 
   5 117   2
Direct
  0.0001226990688574  0.4007836072826337  0.0002504017357383
  0.3745410819349407  0.2021598810890148  0.1972360470013127
  0.6001978545706287  0.2007477132991015  0.1994628594915158
  0.6081794736889027  0.7915116500123578  0.8001925803316448
  0.7930201250732275  0.6075890414835858  0.8003018408280086
  0.0021006424772632  0.0000727411029682  0.0003214017960897
  0.9999332782501165  0.9995612497578070  0.2017653578107076
  0.0022688509725422  0.0004603507788956  0.4001560520209884
  0.0001282285272510  0.0001581650801334  0.5996349195460700
  0.0025816971484913  0.0010632042947974  0.8000972103065956
  0.0003598993343921  0.1964608955252894  0.9995588964150621
  0.0015729236910073  0.1996795933714532  0.2009502845247778
  0.9996716367744179  0.1987703040562179  0.4011599781038355
  0.0012021005665049  0.2003996956614044  0.5997571736627200
  0.0014003656712032  0.2003420751998704  0.7995975501172119
  0.9999476252666400  0.4012415583427425  0.2044064032063314
  0.0012316713342819  0.4002538719726486  0.4007998399633978
  0.0000562113102027  0.4008387321586019  0.5993651775014199
  0.9999871001590123  0.4012952100685825  0.7957829612817048
  0.0000607916399311  0.6050055304887387  0.9995944838400476
  0.0008089440661852  0.6010454837378475  0.2006793518437476
  0.0010730301017208  0.6004768457924549  0.4003552533541811
  0.0000990983853021  0.6007298238071943  0.5998972096407503
  0.0017253118880440  0.6008966198978906  0.7995907494569012
  0.0014617049111858  0.8010896064348493  0.0004386542394442
  0.0018953312273793  0.8008353673173737  0.2005539204409051
  0.0003291317260246  0.8009748389237437  0.4004849775714501
  0.0019585980242103  0.8004171623342423  0.5995229111059488
  0.0042319200439123  0.8014355029355283  0.7996960489010663
  0.2017656486940502  0.9997307555438618  0.0001608154839119
  0.2002712701192053  0.9995312474248367  0.2004225258123931
  0.2017216586341126  0.0003563235500446  0.6001427244957379
  0.2013650881935909  0.0011290301880309  0.8009033057204196
  0.2007863334109552  0.1993438579974162  0.0005068530290937
  0.1998678852776827  0.1999070494563674  0.4009570416643785
  0.1996433809070333  0.2000589282067269  0.6006907734431790
  0.1999117024072251  0.2003738320903440  0.8002726757691428
  0.2042822774414002  0.4000894111246563  0.0002645312058047
  0.2003800680946780  0.4000664112129301  0.2009987980023055
  0.2008208579432423  0.4001140734156183  0.4005367412987240
  0.2006761014390201  0.3998867288497073  0.5995151109006935
  0.2008719800579570  0.3993219829565914  0.8000765827083302
  0.2013759092805622  0.6004230153995500  0.0008078567810479
  0.1995435519962321  0.6000342037049889  0.2000041933630300
  0.2004268117829520  0.5993563298004806  0.3995189427502339
  0.2003943473088449  0.6000390853657600  0.5999393123832002
  0.1994574782754081  0.5995479149155335  0.8003498850428932
  0.2013990899410088  0.8007639801114873  0.0008170618236634
  0.2000471990199653  0.7996406410771265  0.2003733805886757
  0.2014438381351759  0.8003045872109373  0.3997822873270261
  0.2006171620621955  0.8000335477121971  0.5998276173399937
  0.2013252252301822  0.8003477745121197  0.8003550604977190
  0.4017306012283192  0.9997160880434596  0.0001470861958784
  0.4007999929829983  0.9955506000443229  0.1996923470030808
  0.4008691968218874  0.9999326521116602  0.4000161023078791
  0.4007414042764139  0.9992614299619099  0.6005625217298552
  0.4012025359140542  0.9990966627952192  0.7997698694739205
  0.4016893619795364  0.1994814877516587  0.9933395083375630
  0.4002368290543064  0.2001210415673584  0.4041375794033130
  0.3994697782750774  0.1994184986915944  0.6009618381183471
  0.3989867435414421  0.2000470501227819  0.7985638473686613
  0.4015401720219141  0.4000848189895443  0.9996514031988086
  0.4011557420791277  0.4063184016509562  0.2000089167982265
  0.4008451678188001  0.3997960707698542  0.3999947142088129
  0.4003762503516969  0.4004799392710095  0.6003771317736547
  0.3995191684717775  0.3994474319180324  0.7994566801275879
  0.4000527021047259  0.6008057727153832  0.9998099357231737
  0.3988884376834330  0.6014593529703444  0.1995818094601043
  0.4000011761526802  0.6003002882567909  0.4003406521014623
  0.3995297376400245  0.6001840345295488  0.5998778712945947
  0.3964722034075873  0.5991601353817931  0.7999433434696709
  0.4013081988863140  0.7997725072092668  0.9994103981380339
  0.3996166137748467  0.7990751659609409  0.2004241490573886
  0.4002631372978995  0.7994088133450379  0.4001798399255690
  0.4007411609198218  0.7998138687509102  0.6001402308986088
  0.3991204508760005  0.7997204647706759  0.8000348499265900
  0.6004332365879467  0.9992897644240275  0.9994019311777184
  0.6022590316369391  0.9951865110125424  0.2013888178905359
  0.6015280272595076  0.9993455776230212  0.5991746111320491
  0.6001333591588598  0.0007813424373659  0.8001046189248850
  0.6013962720798940  0.1999392596676912  0.9942941521200471
  0.6019522260315681  0.1987536748585462  0.4049276054450969
  0.6010632235763045  0.2002480731580667  0.6011800778332254
  0.6007602308210346  0.1995032054297001  0.7979908849807139
  0.5991883087451344  0.3998950027638823  0.9999406654097114
  0.6010792802444888  0.4058813491083365  0.2001983687360897
  0.5999219847158413  0.4002459482110922  0.4002994861805352
  0.6002239428171798  0.3997320230468586  0.5995823724651762
  0.5990720732678034  0.3968440193130996  0.7994792217728188
  0.5982893053159558  0.5988464727663942  0.0012213413036308
  0.6003603804151986  0.6015802553223955  0.2004578074454994
  0.5991332245640059  0.5992882641204103  0.3993689029817954
  0.5988276592447125  0.5988766192005319  0.5981790307835182
  0.5903343082186853  0.5896527466577661  0.8001054899144133
  0.6012032593311646  0.7992914202061309  0.0041762799541497
  0.6014738616412695  0.7982374186339813  0.2007845895470570
  0.6018193145712287  0.8005515300908822  0.3996108024274032
  0.6013326913096002  0.7991592618876577  0.5959239698022658
  0.8002274218210754  0.0009384396890485  0.0003212470500938
  0.8009642836748672  0.0012257002561065  0.1976255217963610
  0.5985784963868815  0.0000627452551866  0.3998399720785785
  0.8006842042065090  0.0014116501196238  0.6019355218159068
  0.8017093893774164  0.0039562418328718  0.8005998162947898
  0.8005684800194421  0.2002969798989877  0.9996823466568980
  0.8051704250853817  0.2001634724806784  0.2005878940812219
  0.8008815263281321  0.2030667072729578  0.3995374959970105
  0.8013026047590843  0.1994713763128008  0.5989606074179146
  0.8017448498162405  0.2016472940464759  0.8000721874135877
  0.7956657556586779  0.4009243696842094  0.9999641686460689
  0.8004383740193703  0.4011024908691633  0.2001820672177608
  0.7999947324195595  0.4004415198123066  0.3999299476853008
  0.7999795424399646  0.4011535308921187  0.5999787553050849
  0.7996836233449753  0.3992010518297853  0.7995277355377404
  0.7988810660224028  0.6018144232604288  0.0042491056463032
  0.8008575173141619  0.6009011386890915  0.2002675731963541
  0.8001723753728849  0.6001192246494208  0.3990208245539277
  0.7997920940426226  0.6008262149985665  0.5961537621848967
  0.8021545389780853  0.8021793562829508  0.0017132373887876
  0.8021644469767939  0.8019537730125109  0.2015191908541017
  0.8011525146639779  0.7984555873229378  0.3990101948110961
  0.8028609401653024  0.8033615159000599  0.5963472297825568
  0.8108460495659193  0.8099672449630423  0.8004895704701566
  0.2011914218526100  0.9995892776549055  0.4008089418828866
  0.1914665909956624  0.1999955534032141  0.2004742198396705
