Zr Ti V  Cr W 
 1.0000000000000000
    12.4197844640253727    0.0308609747686351   -4.4121790674039882
    -6.1926497535654041   10.7229024420877899   -4.4385290602638543
     0.0101954953508410   -0.0149255846508731   13.2651238536343374
 Zr  Ti  V   Cr  W  
   3  15  74  16  16
Direct
  0.9947622040350840  0.1955085863938970  0.5956229166410685
  0.9952081596430327  0.5931354215978105  0.3975642402453962
  0.6152370781627896  0.7967909963950354  0.6070358184834034
  0.9986739759445711  0.3918463183464310  0.2032928033249560
  0.9946668032056719  0.5990515948988943  0.1886190066744471
  0.0044253831622722  0.7989365231064857  0.0045841114871605
  0.2149444362032464  0.0005556981470050  0.2445324853320489
  0.2058260340320064  0.0141234338904705  0.5444644938017318
  0.1983373232850716  0.3869165236338041  0.9945747721629487
  0.2065334243604517  0.4072679686831022  0.7999914549142277
  0.2083268204413987  0.8260798731358355  0.6103545578272925
  0.4043559568451176  0.3849802073594550  0.7963643212927717
  0.4013568309497749  0.6001274496788751  0.1989855964812369
  0.3944919725323015  0.5866760293902800  0.3942588683788512
  0.3998606314981776  0.6011459748762035  0.7990713972698221
  0.6073016749755836  0.0107883571578630  0.6038850138746680
  0.7875211623314358  0.2007113053872352  0.6024967644245144
  0.7946153338041174  0.6031231492295638  0.6054030110450465
  0.9923067111616651  0.0002896870871023  0.3941671845965266
  0.0086512933689228  0.9889678895427410  0.5973263296511980
  0.0109408123616366  0.9996137815905420  0.8058710475657049
  0.0052252543109536  0.2016603443209928  0.0051399121744486
  0.9956754945406778  0.1893076753572612  0.8022231681313174
  0.9954394207885220  0.4050842669171260  0.5993114976078487
  0.9969190096106787  0.4042468131986605  0.8009814971254765
  0.9958249830100182  0.5947132096607924  0.9915670919973234
  0.0005097421342126  0.6066978490838265  0.8041823620255993
  0.0021673889742349  0.8074654174243495  0.2098305793267699
  0.9913228625706114  0.8000857563709255  0.3929733185528092
  0.9941370533104753  0.7986608176209820  0.6062845414806824
  0.2034220753632642  0.9958044495604901  0.0055534538074914
  0.2090321247233815  0.0059548152801920  0.8046108042889737
  0.2123776169517613  0.1917871285151218  0.0024766270385664
  0.2051750095462884  0.1988643127853909  0.2062700254584477
  0.2018444172896902  0.2037854081158077  0.5971626388849665
  0.2114471908449660  0.1936174384855093  0.8004216959635025
  0.2019687832783992  0.3892193453396300  0.1994359482649799
  0.1966276557978953  0.3978996711506227  0.3963041171716383
  0.1934165326618605  0.3919146148308490  0.5871935114127860
  0.1985587058078209  0.5963020549849450  0.1980044531174590
  0.2077379830020822  0.6059474779950362  0.4057010808490719
  0.2000993509617169  0.6079513435588810  0.8031113437756563
  0.2030818146365546  0.7953441898880254  0.1919543852896628
  0.1993009900190945  0.8086718496536388  0.8113264778729801
  0.3980565268669899  0.0066504073059654  0.0032569939957999
  0.4139843070932114  0.0115680783595481  0.6089956080419830
  0.3992403957357714  0.1916701040684857  0.2006673379953365
  0.4169764295513990  0.2064580915050197  0.4053005980769631
  0.4149494918509990  0.2045373101870579  0.6012725469725243
  0.4009962714895590  0.3872683415036673  0.9989123511168811
  0.4009904379639117  0.3893146881392247  0.2014934161036901
  0.4029588144679697  0.3939035767621131  0.4009959576712659
  0.4011134296872634  0.3969523800041894  0.5953644289578535
  0.4028331677497765  0.6057732858891445  0.0026175724212238
  0.4052942757061480  0.5975034636764626  0.6012674134485297
  0.3959343366884936  0.8038718766222401  0.9994931020883512
  0.4018300173557549  0.8085386633455091  0.2012380518481252
  0.3986300801871813  0.8086250165532782  0.8034304680728287
  0.5947079519851758  0.0049670750089688  0.3955732487206828
  0.5977211045995967  0.0069531413231263  0.8049127823831361
  0.5897855038360628  0.1967488246278850  0.9944479207968778
  0.5975888443096934  0.2043882321109268  0.2034444698759413
  0.5937471766667562  0.3897299066174696  0.9926211012109715
  0.5974709189752654  0.3907834768755813  0.3947393105742562
  0.6018267287243669  0.3999212978511746  0.5999539445942353
  0.6056634624987706  0.3953681252920098  0.7979973440081309
  0.6042410589626788  0.5926691604588478  0.3992142355227243
  0.6036950263686485  0.5984111800843949  0.7969592965535022
  0.6002799069792136  0.8024256282531073  0.0008835375236171
  0.5965429249163312  0.8016269727654969  0.1987733618211098
  0.6086533960487406  0.8092656370523327  0.3996610813751444
  0.6012826089621056  0.7994634023091104  0.8092563213367691
  0.7995715695593015  0.0047542401108504  0.2035362091451529
  0.7876383742723631  0.9916159657287785  0.3906493173444359
  0.8107087352476279  0.9997097537444415  0.6058944107571823
  0.8137911626392141  0.0129406366729230  0.8127431993821645
  0.7945946079289791  0.2020849093228396  0.9982180666376155
  0.8001970166355047  0.2059948012844052  0.2018174425078588
  0.7923480549815322  0.2033532728833913  0.3974174211707509
  0.8005063493233496  0.2014798839465755  0.8090365990283744
  0.7800114749195349  0.3865707889611003  0.1860140439618158
  0.7950286366200191  0.3954427122677459  0.3987192964573540
  0.7940514148838254  0.3967057589357106  0.5961095242173914
  0.7950657718853914  0.3960958343998676  0.7969149852150210
  0.7978397718679320  0.5950896958405359  0.9965420437140894
  0.7848007858935178  0.5887381948491215  0.3932814558048144
  0.7975141896775144  0.5955913042288550  0.8041057626609264
  0.7965496697776763  0.7972235516655337  0.9988327689553615
  0.7972866334732327  0.8005457798653218  0.1982498832806340
  0.8009323294347467  0.8010047008917607  0.4002777482311431
  0.8187326825476752  0.8101898375740181  0.6043074869211450
  0.8103220471277844  0.7997489610118538  0.8087654381680645
  0.0010122181628169  0.2011834612341915  0.2058142509493333
  0.9947676980510723  0.2065059424349429  0.3919358874677293
  0.9950315783242207  0.3877835957682260  0.4016066006413551
  0.0077962927481288  0.8083589155077845  0.8077757578941949
  0.2069665537454775  0.8079572089161680  0.0076000755540138
  0.4015365638170135  0.0032339436418428  0.2046103784550631
  0.4106064802492169  0.0093903477306822  0.4023315238953312
  0.4054307493949485  0.0125804146449943  0.8069017294577009
  0.4031741159679758  0.1996337622332807  0.0044640376729751
  0.4057002398104094  0.1922471474558678  0.7986926334453807
  0.6008326783384288  0.2022076252785571  0.4015373968338796
  0.5949887017534103  0.2010113483132630  0.5963646358670899
  0.6010501142965166  0.2035059602544382  0.8014329080373432
  0.5920125463414464  0.3878579912112948  0.1948492423481450
  0.5936097701200106  0.5860556460190133  0.6009380572803983
  0.7878757668059101  0.3894966480566526  0.9916261348368508
  0.0075194022396454  0.0037968311120192  0.0057076808255500
  0.9966658391578076  0.0018833705531517  0.2024185667873796
  0.9938375904717479  0.3977119632170981  0.9968713748105724
  0.9999752919325088  0.6013623712687878  0.6080108901529503
  0.2032249744470600  0.1996321002154225  0.4057301202717811
  0.2012834135975335  0.6036659262364009  0.9984593111018293
  0.2019765957652445  0.6007542643605325  0.6025763864459524
  0.2059000812713894  0.8156011049078143  0.3966498881305822
  0.4025012921721772  0.8041235716534847  0.3960744343784573
  0.4024968085804330  0.8048219560977568  0.6034847461153168
  0.5971897644577581  0.0036758674205276  0.0010908701149902
  0.5955369412100292  0.0034686831044401  0.1999441057265593
  0.5989461898158249  0.5995994453232786  0.9965715520970235
  0.5968535924550140  0.5926600918536966  0.1977040066718320
  0.8014306156292160  0.0042559773138314  0.0027953557374016
  0.7938213065983761  0.5945840873962752  0.1949204739661553
