Zr Ti V  W 
 1.0000000000000000
    15.3704372863088707    0.0041087699184726    0.0045828320708022
     0.0041071823098185   15.3593176205705255    0.0049868964281650
     0.0045832368054306    0.0049883200619353   15.3853693029952101
 Zr  Ti  V   W  
   1   2 107  14
Direct
  0.7918088573988389  0.4015467546543202  0.8102723075910194
  0.4076496122622778  0.8005890955908669  0.8070497558162770
  0.6137182251182444  0.4017382216246204  0.9890030737852912
  0.9990828554509172  0.9975650508353828  0.0007057149349872
  0.9952858693756460  0.0017865495850622  0.2004724578435305
  0.0004439940178307  0.9968123420609635  0.3992574485201247
  0.9947499423103693  0.9999969736387653  0.6014023238827776
  0.0022791883821780  0.9984313694301633  0.8006863632365531
  0.9995990165729473  0.1992770116426449  0.0005078569012840
  0.0016823103582950  0.2022293950778733  0.2019206028593400
  0.0007301663754575  0.1998760022216736  0.4004868933629456
  0.0027609898468206  0.2008303879842750  0.5989601602498689
  0.9989801533281925  0.2012580946867275  0.8011723186922932
  0.0039102648309439  0.3991378168224177  0.0059987454066866
  0.9985891615605056  0.4010909840768413  0.3968858454583291
  0.9975823246859422  0.4000907455596119  0.5998407090160778
  0.9994244959504612  0.4010780128174860  0.8025139587023568
  0.9982630434884572  0.6046997298836622  0.9999731335506520
  0.0036294101719887  0.5963253865652597  0.2005532598101397
  0.9997515701525839  0.6027701376914584  0.4020780597217677
  0.9995691963752747  0.5995886878727447  0.6012208232071562
  0.0026293987386312  0.6005649452398812  0.8000554442426774
  0.0046363411798644  0.7993621362853875  0.2008749433686527
  0.9990827124226479  0.7995400450759038  0.5943586843608301
  0.9991569527599703  0.7989181818324510  0.8059302351246215
  0.1973174572078912  0.0013222728454153  0.9938811496944593
  0.1982133879945071  0.9989107603083442  0.4037132877980453
  0.1980939052121427  0.0029030066892612  0.6053991755818360
  0.2006956198563622  0.2018528952282596  0.9994556549665913
  0.2008831563622970  0.1995879936850160  0.2005927035609582
  0.2025474866506619  0.1987372573819638  0.4030079328802858
  0.2003286440849919  0.1963512882542264  0.7953754291334927
  0.1964905542593711  0.4040748131040428  0.1953916765408466
  0.1993643141874782  0.4015168411013971  0.3994425546448075
  0.1977537196271315  0.3967481550364665  0.6007049649268239
  0.1977483189307538  0.4041090215539821  0.8047304907872337
  0.1999850409450417  0.5956651210897973  0.9966907803299416
  0.2008957211815247  0.5994029814135273  0.3991391635194729
  0.1996199656229917  0.5989775939730675  0.6049073812867530
  0.1963785854516613  0.8009169625755336  0.0029529040881566
  0.1960109485191558  0.8007241950987630  0.3976569412039477
  0.1993348457325390  0.8002111920590887  0.5992966382590397
  0.1977735562156459  0.7989980906127899  0.7997157731564060
  0.2673944617276775  0.9986812180504961  0.1302490601070060
  0.4029877013875977  0.9963401794285952  0.2010259125087330
  0.4006809652039478  0.0026101303541408  0.3992248058549925
  0.4007541781755860  0.9989380926727865  0.5994477261795434
  0.3964365017622732  0.0003820793731988  0.7980671249837951
  0.4008518382233902  0.2008327762098499  0.0020264005084436
  0.3989394220229796  0.1964613679686612  0.2031825429887253
  0.3960909327679814  0.2004565428220832  0.5946374186603343
  0.3994247539520427  0.1994698168137792  0.8000176147559354
  0.3958127536758967  0.3975283131815424  0.0004182723313849
  0.4023799613345374  0.4009138357246238  0.1984236805643172
  0.4001084095824874  0.3969834509150345  0.3977966874923868
  0.3991589333454330  0.3998516501187006  0.5983247660737957
  0.3965800171751143  0.3992389006067270  0.7994561140605212
  0.4013176076745618  0.5989580518027844  0.9994216600767470
  0.3977526684226420  0.6026354118629640  0.2006670858508982
  0.4002469371974295  0.5989509332762893  0.4008053365558269
  0.3985472300794712  0.6002533212209863  0.5990398127246345
  0.3956766031274213  0.5993883307529457  0.7999283764931415
  0.4010552132337515  0.7985422041539255  0.0071950452456890
  0.4013549477969847  0.8013101398113071  0.3962949327548783
  0.4001124333340914  0.8010238122210736  0.5936438777023514
  0.6027048595865739  0.0000651724827172  0.9980269043976101
  0.6026874438311079  0.9999359360018070  0.1976009407952783
  0.5999264866545571  0.0003371189180590  0.4018924497335379
  0.6023635339562448  0.0008531814412609  0.6025726643498225
  0.5962643266780252  0.9990745119841956  0.8018697411447490
  0.5984301657201333  0.1979036851260358  0.9990375164733714
  0.5987664505207211  0.2023445483374463  0.1989531034731650
  0.5950616664516964  0.2013874796343920  0.4009277692908394
  0.5978631226353638  0.2009586864613878  0.6010668582213053
  0.5963959296502186  0.2013490281700269  0.7998427041303118
  0.6025775045357630  0.4010376724625639  0.1992509022182162
  0.6012506178835426  0.4012540802635502  0.3986082900510943
  0.5998778872912586  0.4007233949295870  0.5990410845620612
  0.5898666143596147  0.4008100352024559  0.7943445145141932
  0.6003678656369674  0.6013327837785506  0.9984805339254834
  0.5985359927144326  0.5986045451078716  0.1980063925365952
  0.5994192303250959  0.5993038638454603  0.4018302230591187
  0.5984545709922138  0.6001161141467294  0.6019920765800654
  0.5959491712956488  0.6003887450011521  0.8000058049383509
  0.6003565290713401  0.8001346629990441  0.9997248705163002
  0.5962711587237690  0.7988958505118778  0.1999328374634913
  0.6037037983184732  0.7985791510533943  0.3990528213878838
  0.5998743195798263  0.7995683222949723  0.5998470968356657
  0.6027597102031651  0.7991880805157899  0.8005469368214698
  0.7991405242157270  0.0002325927890556  0.0044348785826147
  0.7987024987912867  0.9972642961791803  0.4010557602439191
  0.7993662571203939  0.9995131031031804  0.7965935699587740
  0.7996989167228231  0.2001521911509899  0.0010217762904869
  0.7985006268853944  0.1967257414051377  0.2027728230066922
  0.7983810680248521  0.1989369982772090  0.4016257476043442
  0.7993741215510828  0.1966263399767887  0.6000069554447336
  0.7992373028604779  0.1954731660229025  0.8004713235181373
  0.8083281395543997  0.4000392982739397  0.0110388074083232
  0.8046401217168407  0.4000812386189100  0.2047732579146970
  0.7998727814951112  0.4002937929456832  0.4017597772926929
  0.7993853293101465  0.3988846829042890  0.5993127050986042
  0.7997604227468631  0.6013684738917414  0.0013075048283340
  0.7983366468641452  0.6008129308984320  0.2011977257625819
  0.7985335811427341  0.6048946979846943  0.4016073206488521
  0.7987743080943939  0.6002354328193031  0.6027965897468429
  0.7994038309369832  0.6064117368508856  0.7994047165410837
  0.8037513765743967  0.8010482821445032  0.0032008991976466
  0.7982043963392818  0.8038386064208148  0.2048465170606649
  0.8001735255891702  0.8049424779205153  0.5959574368894065
  0.8004604198269881  0.8017029238947285  0.8001404983594145
  0.0010539773334277  0.4010841600038018  0.2018938076486711
  0.9981470595766490  0.7996005433875135  0.0040290012530660
  0.9981043499042093  0.7987828573905394  0.3979602427509970
  0.1999136644293137  0.9983520013695051  0.7999665393954201
  0.1993228484342082  0.2005353673094714  0.6006408840493666
  0.1995218595936300  0.4000646462673871  0.9996592243142753
  0.2021789281619018  0.6020236657146801  0.1975244842517022
  0.2004719823168711  0.6010913064317587  0.8000719854038717
  0.2025077805969797  0.7929399583914607  0.1996537346507487
  0.3989334115193244  0.1997906601470277  0.3986723132208582
  0.3974577753101771  0.8003666459703783  0.2021750602640056
  0.7991464562585693  0.0015864997599782  0.2020578990339460
  0.7988433947777344  0.0009189320527955  0.6003896084339453
  0.8036409483724632  0.8009291807911046  0.3995604441596122
