Zr Ti V  Cr W 
 1.0000000000000000
    15.4708467865148371   -0.0457987880927962   -0.0198442725602326
    -0.0454938160247508   15.3995902028152862   -0.0270542228467451
    -0.0197944236660485   -0.0273036633962630   15.3709555907435735
 Zr  Ti  V   Cr  W  
  15   2 102   1   4
Direct
  0.9962130949119543  0.2201061225990343  0.1998922980507594
  0.0226505188203197  0.5824480616383286  0.3760247825130010
  0.1965961751078824  0.2283653290658375  0.9859094567711459
  0.2218753475681832  0.6221155426417847  0.0053521547585305
  0.1961661129277096  0.7752043393608045  0.2248309051132998
  0.2002238857612849  0.7906047387802730  0.6299802488050184
  0.3565401602682055  0.4367851772490747  0.9991459986461125
  0.4096976162458755  0.4053678664713890  0.7767175191651129
  0.5964613593271020  0.9966832529574244  0.3871687381888804
  0.6522996780517627  0.6162622752414231  0.2261783582105695
  0.5766627901162305  0.5806302890337413  0.6651513671114997
  0.5789757353999784  0.5673863549054162  0.8965402688669152
  0.5918259524248936  0.7571686619971629  0.0411201451637082
  0.5996859470938326  0.7855426086420088  0.8010155473158348
  0.8227473850710529  0.4537932944538860  0.1993178145570793
  0.0174671791348959  0.2023183088082559  0.8090906484746101
  0.7844463966006900  0.7800316176852010  0.1483828294798428
  0.9954723191084069  0.0051421261511533  0.9921100653073140
  0.9986412521205736  0.0005221814834158  0.1916407302258354
  0.0009526412107217  0.9981455100750299  0.3887498156844411
  0.9994813074073293  0.9982348035710982  0.5923403824821413
  0.0010996377921359  0.9975488857916129  0.7936178598048146
  0.9886583666161511  0.2036713521283970  0.9979217696032748
  0.0005464261695713  0.1959626918403566  0.4018124191113625
  0.9999267628420567  0.1958026908784389  0.5959700125890660
  0.9856777409720954  0.4078902914530138  0.0039086946106413
  0.0172425778362046  0.4214610868361038  0.2016627099570338
  0.9996200884386301  0.3958346819594322  0.5890970222211280
  0.9992181792492303  0.4004417146475626  0.7909128254976605
  0.9732800479931296  0.6057469718466322  0.9899045542299455
  0.0286820107814196  0.6106796741942798  0.1733043381704552
  0.0048809097264496  0.5973957426764336  0.5889871630748941
  0.0011942567536325  0.5964118421576410  0.7978632214460751
  0.9958053716805305  0.8004845896271677  0.9909152194776371
  0.9972293918075378  0.8057838501671455  0.1866598444885481
  0.0060711879130395  0.7981330864825918  0.3887511319318802
  0.9962513304614410  0.7958449601876663  0.5901360837176861
  0.0073172867799269  0.7987730991440989  0.7919181169463916
  0.1959138269009466  0.0098023225093331  0.9923538516355810
  0.1989135745608351  0.0076937699846293  0.1901063669924782
  0.1972717070617493  0.9959740385724074  0.3924370694378812
  0.2001949141228907  0.9989665268005964  0.5932143653036970
  0.2001687013569217  0.9958141130393799  0.7920848163699755
  0.2048469090034068  0.2001856823196775  0.1981470902819586
  0.2028415252945506  0.1989488056416984  0.3953992760213649
  0.2036987275242908  0.1968909474912655  0.5926549353963825
  0.2103889543665361  0.1968687869292828  0.7845872691000810
  0.1718668058144932  0.4243739675531474  0.9941449335830319
  0.2046727503625215  0.3926115492560955  0.1880875665810242
  0.1965142409858423  0.3988609334513793  0.4015399595810974
  0.2001486549174273  0.3930156719373074  0.5998619802028702
  0.1964983048178243  0.3965840656937514  0.7987290703901253
  0.2069943087473713  0.5846383830215414  0.2093037584285369
  0.2184461036127064  0.5969943879778840  0.4050252028968521
  0.1990946246768625  0.5895638552461312  0.6026350114743414
  0.1936463273664025  0.5996249863898340  0.7982930153676977
  0.1919389324083285  0.8168628114503109  0.0094082201877080
  0.1998972744644623  0.7983447054829409  0.4195769689848162
  0.1975805910948031  0.7960592171690574  0.8202946483053911
  0.3981311777697659  0.0002478599058275  0.9934577172013537
  0.3983155445608700  0.0006645598240645  0.1925254528680813
  0.3921194613192018  0.9948612812048944  0.3924846055857373
  0.4008494325638476  0.9948126257885073  0.5925442991908346
  0.3994501744440132  0.9943065473591227  0.7943430951786751
  0.4034796610626691  0.1985962255521118  0.9929475274916291
  0.4015011946791709  0.2032387137664793  0.1925196873018462
  0.4010309836579765  0.1985163725616046  0.3925910154015227
  0.4071591429291174  0.1974984433680329  0.5916255740358971
  0.4016079162559855  0.1963738219231120  0.7928458312750161
  0.4009203219883712  0.4010242655154539  0.2012561133115318
  0.3985992238305629  0.4060955254581218  0.3906281708726381
  0.3975152843515551  0.3956577491935800  0.5832434908567211
  0.4200193154590889  0.6324124493692378  0.0101180109590590
  0.3934324997521961  0.6080228522261190  0.2087055553765079
  0.3915560945434760  0.5986483944704456  0.6010606028266023
  0.3843805065485487  0.6030116895381791  0.8182438000180882
  0.3878856628590339  0.8057444454542602  0.0050873773412961
  0.4018679752035571  0.8043668230543963  0.2015188910368213
  0.3963570067805364  0.7917690822148289  0.3979762060619487
  0.4054002623503770  0.7971249686828391  0.5995406871687217
  0.3915596601181514  0.8005871093539870  0.8000188568655610
  0.5984943412809614  0.0012974966616217  0.9902503146732174
  0.5989372752573932  0.0054654909148227  0.1841554553144464
  0.6003742223704874  0.9974598881087647  0.5963650539215253
  0.5981902330817636  0.9941625836563937  0.7956707629473679
  0.5955720934489150  0.2009707671050991  0.9923556795927212
  0.5973630252607837  0.2019296418654858  0.1955091636660438
  0.5991959798235337  0.2027090966752688  0.3981482309873638
  0.6003902266905624  0.1930046934232557  0.7892038551134146
  0.6167095622787417  0.3930658104661267  0.0011646546832904
  0.5972881828493206  0.3950154785705283  0.1994889911809256
  0.6038991010398428  0.3999018889369325  0.3982108900346929
  0.6023622357490486  0.3857452611007146  0.5974994963175964
  0.6090256796907142  0.3846505625745268  0.8019439363597169
  0.5174790699432916  0.5214821111396191  0.0992745440625264
  0.5962635227180370  0.5940904277860588  0.4326354012774802
  0.5969449882525517  0.8186641587954046  0.2283078705599440
  0.6014390972638451  0.7904045671801145  0.3968954293271186
  0.7959164726320462  0.9980450506875119  0.9921088346128948
  0.7997618228061644  0.0088996371830216  0.1903296468362234
  0.8046434250298489  0.9967466009000367  0.3907198592534092
  0.7989054216787266  0.9911518705249992  0.5924324596502508
  0.8017146947288908  0.9972084193168943  0.7939530058524065
  0.7958391541813237  0.2040340712725885  0.9961721039550850
  0.7910090534416376  0.2066873019331569  0.1953278461380708
  0.7988202382421535  0.1984875559199565  0.3932598904487307
  0.7975346407842668  0.1944911278753616  0.5974642507009187
  0.7997516285730650  0.1971456282391566  0.7962616899949287
  0.7963162889827848  0.4078797333604318  0.9949916196945817
  0.8078303583898629  0.3972647943450853  0.3995505347009879
  0.8016666745793750  0.4003024066342976  0.5960124109231053
  0.8041807002882153  0.4010764393590535  0.7950924307235222
  0.8795977821443520  0.6851716335666700  0.2658808054008850
  0.7889161658644490  0.5951189387841743  0.3978181376250647
  0.8059545770887206  0.6020031075283099  0.5943423911645462
  0.8043231344639965  0.5988650809200804  0.7903725997064469
  0.7997921217684499  0.8011627857141779  0.9864367785960583
  0.8039210811900477  0.7980952321955520  0.4040145769123031
  0.8072323124078813  0.7965026648104803  0.7912442358267339
  0.6042227417358873  0.8004573792057216  0.5928431609890346
  0.9987141723746668  0.3831501204732327  0.3879756333343202
  0.4112233838686015  0.5984980432344863  0.4038863262633089
  0.6015443729277520  0.1918173517916381  0.5926958167733880
  0.8032410297611043  0.7952644841976781  0.5967923327479179
