Zr V  Cr W 
 1.0000000000000000
    15.4863295998759050    0.0024137293282322    0.0105674120120943
     0.0024156779473548   15.5040449564505511   -0.0174543962439357
     0.0105707746262879   -0.0174578174046017   15.4782021514271442
 Zr  V   Cr  W  
  10 107   6   1
Direct
  0.0009816839770247  0.9633139323215889  0.7605575365440170
  0.1931835622563901  0.4107751641446498  0.5954367103890583
  0.9998001340767265  0.4322198213678876  0.0380426283945671
  0.0037355605861556  0.5780669660936885  0.2186681333963248
  0.9605298104701461  0.7923777582817417  0.1930268510024246
  0.0029949522804562  0.7970267921852023  0.5979237352534046
  0.2007754922163319  0.6341295350808259  0.5983722093164719
  0.3587593443889918  0.8022358300741523  0.2007458166795927
  0.8389902905746224  0.4295387338113941  0.3970379348836552
  0.7501285199629059  0.7915579148322749  0.1980821663950848
  0.0008132948146253  0.0050013256953176  0.0022138943971272
  0.0043604097591718  0.9964236477469617  0.3932509113979325
  0.0012593795077637  0.0230420067783440  0.5820561185536199
  0.0009253666545659  0.1984101510661410  0.2032520431850995
  0.0021566533156466  0.1980111510922636  0.4011640760167299
  0.0005880289900917  0.2024196087367397  0.8071123482441558
  0.0008452506978405  0.3858319580061887  0.2305801234198692
  0.0302959615137852  0.3909281405884021  0.4188477739780552
  0.9876624113477319  0.3996340989139772  0.6034273253584139
  0.0006066150752904  0.3941099955651099  0.7989951406571489
  0.0000971905772951  0.6224777820359365  0.0119229338439555
  0.0054900117433723  0.6030571752566222  0.4158920570750093
  0.9945989144451302  0.5929640039577611  0.6087807008137360
  0.9985368023460028  0.5898174870065738  0.8102611032858694
  0.0017802476894506  0.8111544724851062  0.9910203806873477
  0.0020937080643946  0.7995563288799032  0.3968085296942364
  0.0005802126918803  0.7791199466891182  0.8024785702484003
  0.1998162386693862  0.0012477690753678  0.9978563024478433
  0.2006866808853140  0.0001450320077629  0.1989200223915500
  0.2020768852994010  0.9975281118236938  0.3970862020677595
  0.2018977934446411  0.0063467523695702  0.5971729488144180
  0.2026986109307513  0.0002394295469096  0.8009969597467146
  0.2016186355545312  0.2000997374649517  0.0009295371892798
  0.2017426686010101  0.1994210942955627  0.1987717984212901
  0.2029263304424868  0.1957586589918130  0.3982713142479934
  0.1990225987498205  0.1991463673992676  0.8001312472533595
  0.2028235154638096  0.4004732158427316  0.0003626948283408
  0.1987948833726577  0.3984920597178234  0.1965821127066620
  0.2066924855926816  0.4004981857405266  0.3921242500722084
  0.2000106873502095  0.3983596496354860  0.8039986532668083
  0.2004562354423734  0.6022225501413848  0.0007333705591233
  0.2066806709992852  0.6003961699325031  0.1988488642945440
  0.2012188990649690  0.5991371497790539  0.3932680267250679
  0.1997715776466736  0.5977959918102217  0.8042596588371510
  0.1993670915353320  0.8020874897805155  0.9994204811366110
  0.1722117454436129  0.7964774132970945  0.1974867213148336
  0.1985518968272272  0.7984559629071708  0.4005122895547330
  0.2077154782932243  0.8197645897951111  0.5990471912174300
  0.1988449826312040  0.7986646564739179  0.7977756005376238
  0.4014676531510231  0.9996983854495168  0.9987556714907990
  0.4026615162126850  0.0031786922571155  0.1982519290563720
  0.4004556331895889  0.9975995038691513  0.3986372966015400
  0.4031753133239186  0.0012216715694886  0.5983064578277660
  0.4002325778031517  0.9981212838384739  0.7975839977690380
  0.4010693828603014  0.1992288182234143  0.9987896294586560
  0.4010923379549138  0.1998862067443819  0.1999562581305573
  0.4013497404756983  0.1981574721376817  0.3995712134894197
  0.4010760880020374  0.1999335162150518  0.5991332366745079
  0.4002034017225747  0.3995278677697804  0.9995636410246653
  0.4003266217362228  0.3970106244855364  0.1991435124177214
  0.4016284431496948  0.3975671524221019  0.3998450499120310
  0.4029897056959554  0.3987514460367380  0.6000034529679895
  0.4001515797615299  0.3990402756050861  0.7989534048367615
  0.4016926791810330  0.6002931230004279  0.9996318418722593
  0.4038657367369657  0.5932352326065624  0.2001013131220924
  0.4009343230170274  0.5997327414381982  0.4003786543599731
  0.4053062231333734  0.5986707178495385  0.5988006993844938
  0.4000959917421973  0.5990828539894972  0.8000343611587594
  0.3987306823591737  0.8001695613623877  0.9945226403938749
  0.3997016399635820  0.7980179878081053  0.4032312745769605
  0.4003198837601237  0.8005184276715321  0.6006918932186839
  0.4001373553313758  0.7980717348516005  0.7986505611975548
  0.6004617298991823  0.9985732904395770  0.9990917831836807
  0.6009426444901603  0.9960937033150927  0.1990433341870599
  0.6009007172414871  0.9973362883050917  0.3977647239268824
  0.6002663905984592  0.9992709633505573  0.5973102852086182
  0.6006670089621874  0.9974558502556212  0.7985623663039552
  0.5991430026060083  0.1981946129507093  0.9998909321017226
  0.6015537286413161  0.2000717660709178  0.1992337388527494
  0.6001823377704230  0.1992492591143108  0.5994856448336489
  0.5996135283998260  0.1989550015792058  0.8000614915053416
  0.6000326841273501  0.3986987155508038  0.9991522913731263
  0.6024538567992900  0.4000431996096516  0.1998237697266576
  0.6037249033051141  0.3988890850048424  0.3979927668720886
  0.6010925139481921  0.4000499865050741  0.5978415056867136
  0.5990618443078348  0.3997454200956388  0.7997810896483717
  0.6018547016719561  0.5997039981110358  0.0039288065135856
  0.6031614924945068  0.5990586868110009  0.3957096587429302
  0.6017212259429108  0.6005956025208983  0.5971201691876319
  0.6013175626863898  0.5992671050319217  0.8018272110100605
  0.6007614402330864  0.7999326947787756  0.9976939044027028
  0.5642506409822249  0.7902884522133411  0.1988524333792638
  0.5986627294647158  0.7991339233318732  0.3988452356924899
  0.6007736183389523  0.7997137789842411  0.5987748289087704
  0.5996897236163453  0.7975804447536735  0.7978993120212112
  0.8010864049722392  0.0006022524121889  0.9978693187072324
  0.8013043866295465  0.9972936870104984  0.1985353587694729
  0.8010373761528526  0.9988607899602605  0.3985862427421258
  0.8020766987518979  0.0019740737992903  0.5989290400130266
  0.7989390414591939  0.9992700118296034  0.7999113949497090
  0.7991370676046432  0.1997296546933640  0.9997700230541499
  0.7995622212713859  0.1991396385696293  0.1993140090678449
  0.8022423447837442  0.1951816338426079  0.4006998237144364
  0.7958034424940339  0.2012966950985482  0.6004575905746836
  0.8023743794182948  0.1991020740698412  0.7999531590619330
  0.8043265611985265  0.3973259332931425  0.1943651925746997
  0.7960461812470481  0.3988015561137681  0.6007188406089976
  0.7985313259244576  0.3996978732229383  0.8011414492184087
  0.8028060951097593  0.6005398035788519  0.9999174699987939
  0.7938427407638838  0.5943667208243115  0.2071442465004349
  0.8016608028882914  0.6162290256552079  0.4036287662845877
  0.7982675024967703  0.6016981991780445  0.6011178391261235
  0.7999555288281583  0.5989428678977039  0.8022808306532980
  0.8024876759441691  0.8017679122314233  0.9966347880469064
  0.8065551693148125  0.8049676492916287  0.4009242366144050
  0.7963655958018173  0.8017902833884774  0.6001736946075042
  0.8013153601316922  0.7985485333899588  0.7983201958212289
  0.0002223016238540  0.0025048963220975  0.1980208386554646
  0.0003124568858132  0.1999588560222860  0.0029455630023033
  0.2005716989547491  0.2003884857527557  0.6006807837173221
  0.3999566154324899  0.1989729592590736  0.7992654843568495
  0.6008796767606557  0.1982918927479027  0.3986923817619331
  0.7972390240672025  0.3991550225924184  0.9983305920946234
  0.6012483313422585  0.5973610299457581  0.1990803723052731
