Zr Ti V  Cr W 
 1.0000000000000000
    14.7668904951090898   -0.0158161882333206    0.0691101305642305
    -0.0136211433651554   14.3505728735534905    0.0266547947778874
     0.0697682745283305    0.0258345201295757   14.7728914043337962
 Zr  Ti  V   Cr  W  
   3   2 108   7   4
Selective dynamics
Cartesian
 -0.0594098071102848 -0.7868278576179355 12.1715674973546228   T   T   T
  3.5984299657094798  6.5687882896227441  2.7737092277194315   T   T   T
  8.6755143740928489  3.0204673527894892  0.2415223914927978   T   T   T
  3.7165987442912014  7.8751707094623749  5.8297427132975237   T   T   T
  8.6410670318934404  9.1392551354328369 -0.5176191267575135   T   T   T
 -1.2905743226976478  0.1357599020961989  0.1328376256406647   T   T   T
  0.0722096885253125 -1.3966881422793869  3.5777462780749612   T   T   T
  0.3081419578089289 -0.2513041178806502  8.4579566450442663   T   T   T
  0.0846361235044318  2.6878387123688192 -0.3194720370984879   T   T   T
  0.9180191974028286  3.8429100976035735  3.5605401666000254   T   T   T
 -0.1478270000265096  2.1210480883787932  5.4380688395413816   T   T   T
  1.0195283623699243  1.9303898607265375  9.8057924393963685   T   T   T
 -0.8445575490973033  2.9958908424792310 11.3442987207901762   T   T   T
 -0.5986980552855327  6.9772859367984514  0.0679288617671730   T   T   T
  0.0438780848730158  6.0115333165970064  2.4812589706121382   T   T   T
 -0.6994744480754658  6.4432058910703240  6.1164825102029630   T   T   T
  0.6821652605060856  4.4338265674345534  9.1578235028509773   T   T   T
 -0.7572590347710701  6.0453485950179946 10.8828050544852886   T   T   T
 -0.8704427647033057  9.2852566971195039 -1.0023175961633146   T   T   T
  0.4872613427793756  8.3179347230283032  2.3777881630348996   T   T   T
  0.9125952986826843  8.5788658560801245  6.1517548754762821   T   T   T
  0.0841871589138844  8.4548958463141215  9.4454572363371803   T   T   T
  0.9330329834335791  7.8946347083622008 11.8237825019922642   T   T   T
 -1.1419678442487371 11.6846085771448625 -0.1881398874261078   T   T   T
  0.2379539811654538 10.8292519871022304  2.2836030878745177   T   T   T
  0.2217078020912693 11.2333937325878921  5.4475392542172951   T   T   T
 -0.2627144403220659 11.5812241984120927  9.5480243974500372   T   T   T
  0.2637148390943442 10.5163054194726371 11.8928632245405428   T   T   T
  2.2533414573840584  0.5234381115530724 -0.6120992856190256   T   T   T
  3.2144871813602092 -0.0087011891782204  1.6902281391026135   T   T   T
  3.1512025352039643  0.6851543356354994  6.6102253085299001   T   T   T
  3.1426040044489909  0.5514641255916978  9.1166833703589951   T   T   T
  4.2104425343705554 -0.5373177642749443 11.1202070828100883   T   T   T
  3.4753836106569906  3.6457538305602957  0.9104257625910886   T   T   T
  3.1610284791841807  2.4444538543072940  3.1638691427820231   T   T   T
  2.2204332137315723  3.0211713372676865  5.5044635413531120   T   T   T
  1.4866320031499016  2.2053822190567680 12.4337505839957903   T   T   T
  2.8665493930976789  5.2946734765847046 -0.5674776706844002   T   T   T
  3.9212334461942144  4.8720748636134807  6.1882806105757799   T   T   T
  3.1861763605895450  5.8827567148337163  9.1321792860022502   T   T   T
  3.3081856136212004  6.4478772802489992 12.0394988870604500   T   T   T
  3.8219207011920666  8.5867206910842206  0.6230010188922198   T   T   T
  4.1837865703700583 10.0838114471421907  3.9753231142161418   T   T   T
  2.4794226449783636  8.4786873612627023  8.2598381251961985   T   T   T
  3.0861295209931483  9.7011987589326019 12.9059271089700847   T   T   T
  1.2233500846116092 11.3106987345870404 -0.6371934363011253   T   T   T
  3.0122734251427543 11.9847921492901826  2.7958807061575452   T   T   T
  3.9474541977622515 12.7022700990050854  6.7958814744593701   T   T   T
  3.8235651632274887 10.7747578848935213  8.6876850238488501   T   T   T
  2.2344394089650863 11.9263755762635881 11.5578948541784374   T   T   T
  6.1963578787332771  0.0982587969651104  9.0870344414695907   T   T   T
  6.0137113289805502 -0.0560148567001825 12.8830550227570662   T   T   T
  5.4652629830210886  2.4789707194011803 -1.0405687111566295   T   T   T
  5.6193584459385724  3.2477814546285324  2.9013749751473745   T   T   T
  5.7271126356109079  2.4381726114192483  6.7691332364795453   T   T   T
  5.3719880511269187  2.4656247249064558  9.2402476672069067   T   T   T
  7.0271201013136793  3.5482922502174556 11.5207002586312566   T   T   T
  5.6182596185650144  4.8193458553595798  0.6233021057197968   T   T   T
  7.2150768060256292  5.4272898735108841  2.9422083122111982   T   T   T
  6.1834818014446409  4.9100320887990492  5.1596583211245779   T   T   T
  5.8587581815292040  4.6530652038644158  7.9248104054512236   T   T   T
  4.5595027759078262  4.5512448829719663 10.5182854215426786   T   T   T
  5.6550514079179282  9.5076774445151599 -0.2621560603893627   T   T   T
  6.2650244017188363  8.9336189585240788  4.8092555467894762   T   T   T
  6.9124891789227627  8.1888538390890027  7.1032533549641235   T   T   T
  5.0933303387991735  8.0324248452553171  8.8005517404438578   T   T   T
  7.2043751401742577  7.2608286335345014 12.8540725799286317   T   T   T
  6.4397053886153461 11.7097457354057717  1.1905447112199932   T   T   T
  6.7261181958381480 12.6925381018552539  3.7606390925447593   T   T   T
  6.6214724782667753 12.4810990845862015  6.5093138119383269   T   T   T
  4.5830883085537142 10.8992001337571285 11.0310203548382955   T   T   T
  8.8206913093932950  0.3234438234167886  2.3599367787073580   T   T   T
  7.7800258317827398  1.2245649942741617  5.9151130749770919   T   T   T
  9.2055185095404362  0.0054608922751159  9.4952936457410750   T   T   T
  8.1122142746085881 -1.4271141000815939 11.2686625021475528   T   T   T
  9.5382284786449443  2.2537186483925851  3.9249277096767514   T   T   T
  8.6323786745075139  3.7683460541421101  6.4901715888715596   T   T   T
  9.9123195396229100 -0.0844487553916181 -1.4355647713824220   T   T   T
  9.6813781590758641  6.2460049622840046 -1.0223367204426788   T   T   T
  8.9950925254506995  6.8350459231111458  1.3357726738540610   T   T   T
  9.3108926226363895  6.3912131120114175  6.6567483902870999   T   T   T
  8.1338192239709866  5.4959851976608345  9.1212362946574412   T   T   T
  9.0220485282939205  4.9988911061660053 11.7056332515447554   T   T   T
  9.3436741007419482  9.6639710563190313  3.0854984266052474   T   T   T
  8.9837346209100666  8.7068364058750660  5.4747250598258619   T   T   T
  9.9467623192854475  8.7944146993243812  9.5219748898104228   T   T   T
  7.9375946150325118  9.0652836299332940 11.1560311869598987   T   T   T
  7.8863077173562504 12.7430044937441966 -0.7973147621635871   T   T   T
  8.7617637332397216 12.0111635828588703  1.9161367999305967   T   T   T
  8.9282524088243616 11.0229003159946437  6.4700152478369244   T   T   T
  7.8486081139021868 10.5406153868883905  8.5387304281002674   T   T   T
  9.6609289200704023 10.6703935449099525 11.9497657606024337   T   T   T
 11.8343592979812655  0.8815577764349516  2.9118982189031257   T   T   T
 10.0202881016505554  1.2854967904627486  7.1476487519949412   T   T   T
 12.4761863710445979 -0.6338023315769610  9.3268091980685508   T   T   T
 11.4728357539229879  0.1830739141578741 11.3495615554918601   T   T   T
 12.4919007854646740  2.5527539572525511  0.8518043756608614   T   T   T
 12.5275559133704739  2.1907356721689593  6.9749574961771037   T   T   T
 11.1744421007244661  3.1715770411033719  8.6702987533100409   T   T   T
 12.1535042713419994  3.1492081601675723 13.1755054127680449   T   T   T
 11.4499654450826132  5.0804601350483880  1.0196946738146024   T   T   T
 12.0714756001742369  5.9394147957761145  4.0396365345255987   T   T   T
 12.1073904761782973  5.2595693265445238  6.7770051791864887   T   T   T
 10.4778283471443157  5.9804630660127529  9.0461816092204685   T   T   T
 11.8121328063252857  4.4036247054304400 10.7853736941122893   T   T   T
 11.2800097725393798  7.9461670051656395  2.6109631358014176   T   T   T
 13.0222250015512504  9.9447175296629684  6.1991734429236738   T   T   T
 12.5488844646559237  9.0312095134694381  8.7288979496813770   T   T   T
 11.3742225686471432  8.8260881179055826 12.2836997643854833   T   T   T
 11.1049951076066886 10.6432529182897007 -0.8446490653506989   T   T   T
 12.7412658354526247 11.4587277163415564  3.9432468736763813   T   T   T
 11.4581455556117380 12.4001408923264336  6.4757659721720957   T   T   T
 11.3578654554440668 11.1098605051025707  8.3993785666353311   T   T   T
  0.5634258415289614 -0.5681835529521946  5.8079181990800128   T   T   T
  5.8162596682406464  0.5743858023024464  0.3574435471188488   T   T   T
  5.0661514388016746  0.7203329564895498  3.0901224582103635   T   T   T
  5.5398575948559117  0.0558587516135683  5.4941977810938436   T   T   T
  5.9414264591075536 12.0714847142247610  9.0409145829729809   T   T   T
 12.0787982264162892 -1.1555999393113148 -1.2784451896040183   T   T   T
 11.3144134774477507  3.6817773449582818  3.0062235187071460   T   T   T
  3.0701396462362580  3.1966044506087488  8.1615817737845830   T   T   T
  8.0570329328035175  2.6492251829839466  8.7933988286447669   T   T   T
 11.5681626756006022  7.7221549788902140 -0.0443917806425254   T   T   T
 12.4219672074616181 11.4856009853948340 11.4327614109426534   T   T   T
