Zr Ti V  Cr W 
 1.0000000000000000
    15.4219977637485020   -0.0153525296692176    0.0018800521315798
    -0.0153399539639544   15.4042384266248558    0.0149563524432868
     0.0018828811446291    0.0149768248118706   15.4308175709018371
 Zr  Ti  V   Cr  W  
   2   1 100  10  11
Direct
  0.5974103713118959  0.9870800785987566  0.7914834278557639
  0.8061410638658835  0.4054900369608820  0.2022930293059660
  0.5973872998307947  0.4036661937462795  0.1971574761742021
  0.0006844047897370  0.0015053648531482  0.0003851339530507
  0.0006852104234234  0.0001896318274075  0.6005601742432308
  0.0001100451291507  0.0003488094224946  0.7998101307302298
  0.0056727300252454  0.1998840022264145  0.0009048581034018
  0.0014209496952780  0.2025917584861811  0.2006273647144285
  0.9969962205160897  0.1994314967634488  0.3998519329414237
  0.0014853074634613  0.1997244295340282  0.6006004020029954
  0.9991088750261141  0.3986072537884725  0.0039588070674632
  0.0009751944261439  0.3997080763455463  0.3980684146985685
  0.0010458493755233  0.3998577067012782  0.5993271352796717
  0.9995923447427899  0.3992892492322929  0.7991532031781639
  0.0029756720938365  0.6001974031586205  0.0011158809423222
  0.0014049955141779  0.5987490696881773  0.2002059611623419
  0.9999087740330777  0.5993255248347553  0.3993687235347330
  0.9991232358427798  0.5985913323143623  0.5987091044468981
  0.9992604733194976  0.5990078473690917  0.8009269993507219
  0.9996851256953602  0.8015595562868841  0.0005720209999827
  0.0011708680450124  0.7994337379078240  0.2006829758701797
  0.9994575607086479  0.7996491362496938  0.3989957384946389
  0.0028591260919798  0.8003081374060675  0.5994798541098157
  0.9970108112833956  0.8005138371610228  0.8001014385416386
  0.1984549383540101  0.0057725749173883  0.9995213844451637
  0.2025005707269817  0.9987820253846985  0.1996812946256125
  0.2007812479263689  0.0010480400375921  0.4000756316095594
  0.2008285152045021  0.9968687882190563  0.6006903646500787
  0.1990030236695475  0.9987503671862493  0.8000743373755769
  0.1999830063493066  0.1996171974681483  0.4008733620779812
  0.2004402092953909  0.1987871622742016  0.5998343002525465
  0.2007993603155709  0.3971927319312539  0.9995984995330953
  0.1996099684938891  0.4006828100993642  0.2020448266251959
  0.2000267524559724  0.3993783429908422  0.4018471441145433
  0.1998043555949620  0.4049625189182097  0.7983650812750077
  0.2044303062822192  0.6016258831046580  0.1955587536872117
  0.1994618063743610  0.5987592367028322  0.4015223210162431
  0.2013664033043202  0.6025693940225877  0.6050273150577148
  0.2023960979140520  0.8004497639441300  0.9976571725755297
  0.1990730210412891  0.8008508257533967  0.2012083842309502
  0.1995900158408302  0.7996748587972345  0.4039292786709392
  0.1980009466320398  0.7965611498612128  0.7959987789810841
  0.4002767392412493  0.9987105900646138  0.2025062524462292
  0.4013567642618932  0.0019154290418647  0.3977697891970010
  0.4034199724067074  0.0004455141582857  0.5989025636134730
  0.3931252537815450  0.0024758690166178  0.7976690305429501
  0.4003088065883565  0.2035129068563661  0.0005490941339483
  0.4021485655225497  0.2009625805932317  0.2013310611530292
  0.4022488778667006  0.2016400270093696  0.3991157375791237
  0.3996955382331396  0.2009035428988889  0.5988976436243967
  0.4008058732219785  0.2010500732561377  0.7994348912444643
  0.3999235229165445  0.4000554773728277  0.9994741498976110
  0.3970202184738874  0.4066467710752698  0.2024716567608996
  0.4004497446864569  0.3992885291938417  0.4001812546340665
  0.4001729967122887  0.3993825938765641  0.5986299058640066
  0.3992920918002381  0.4006068048778546  0.7973058431131603
  0.3963883460115786  0.6005267682743968  0.0026320586171018
  0.4006361994866667  0.8012685312827191  0.0003673420995360
  0.4010118828591755  0.7978003646230497  0.1995967066077270
  0.4016328865472748  0.8004469907364108  0.3997026001408703
  0.3961581094069376  0.7992166698611708  0.5958063931904276
  0.4011676680564145  0.8686249466830428  0.8673616387449999
  0.6042582756931072  0.0049916051688535  0.0014294539929340
  0.5992308158539602  0.9982396726436275  0.1989205339354233
  0.6011245876140666  0.9996876058544211  0.4001038122101317
  0.6001867579581274  0.1989033969107943  0.1947547550433330
  0.6052671176292076  0.2008872407578343  0.3975351133295278
  0.5999897097610938  0.1956572360454630  0.6037745621120145
  0.6009880801174461  0.2028072139885496  0.8038896495295129
  0.5996109152685208  0.3961621689530110  0.9963407716742337
  0.6005482431717070  0.4006059205727268  0.4032742082972171
  0.5994566252252926  0.3997085296143925  0.6004075373992461
  0.5999235389308797  0.4059218233478340  0.7978274065254368
  0.5986616155471720  0.5974591678337323  0.9956628810221999
  0.5947107157487731  0.6049535028966477  0.1969575110997775
  0.6012326012035649  0.6001290286537775  0.4001063700749418
  0.5994928003634866  0.5996876031759143  0.6025291580341320
  0.5988256340224704  0.8040389604703834  0.9949659524513863
  0.6010894195035204  0.8014786534564771  0.1988349921941646
  0.6019101867972027  0.7996775942209314  0.4004353714308354
  0.5978588763931920  0.8017489151662532  0.6018173450595998
  0.8026598916993276  0.0011579433930089  0.0005935120280540
  0.8023000321076238  0.9989036464197603  0.2010434772244799
  0.8014200818217513  0.0034065327143560  0.3993051524000664
  0.7974287470985306  0.9995038353928212  0.5998734903465575
  0.8061262395989741  0.0002771230679122  0.7993062001360813
  0.7953542333863098  0.2001183693073393  0.0007463756555257
  0.8012690133150182  0.1963671462541952  0.2040513551767666
  0.8008133651832099  0.1999469637346791  0.5966752546423774
  0.8007840098651470  0.2003299165346377  0.7994826173843158
  0.8016338606625066  0.3991491295309028  0.9966777220119384
  0.8001043225469237  0.3954734436803129  0.4066370018073308
  0.8006688727635184  0.3988496993930088  0.6016979123009749
  0.8002951742360200  0.6004633671662596  0.0002382292832545
  0.7979623399014563  0.6072192207354992  0.1993069657937131
  0.7989805220953625  0.5988295002421580  0.3996475061749622
  0.8005707925518942  0.5996955628975585  0.5986684639855658
  0.8002889757726409  0.5988439900421322  0.7999777665739850
  0.8006233690510982  0.8003228131362561  0.0004952474976484
  0.8005694343582807  0.8023548177416450  0.1998406189620791
  0.8009085875687458  0.8001866142357568  0.4004057398601404
  0.8028552257457788  0.7991942799185539  0.5982090650005094
  0.7992548282248629  0.7992318775332397  0.7994100990169469
  0.0021839590503177  0.0003035096859484  0.2007029180524319
  0.0008970112519586  0.0001692454420409  0.3998537929746050
  0.0006031123974373  0.2008504181059459  0.8004897321974725
  0.2016323947477204  0.2000821399201037  0.2012770083663695
  0.1999845425031275  0.2018266425791616  0.7997113759723223
  0.2005459596032672  0.4005188164559584  0.6001743841668400
  0.4004287467463654  0.5997225330739098  0.3993823998391302
  0.4005509837069267  0.5998412958670800  0.5989241696106145
  0.3991359282880771  0.6009444622110870  0.7993513796121078
  0.8015918972866528  0.3996878444978254  0.7989600089216519
  0.0069905291146712  0.4024562272742389  0.2017217229181953
  0.2038818844120066  0.2009149933045926  0.0008845779926963
  0.1998744807998566  0.5986776108143537  0.9971675079264513
  0.1937857175846501  0.6015903710024352  0.8055871467306708
  0.2012512939290398  0.8001009988441206  0.6010864581916324
  0.3988124144053095  0.6020653056114541  0.1976128614855812
  0.5998839367461448  0.9985888360430034  0.5928712900671851
  0.5981153973457967  0.1991379744409522  0.9980751789332013
  0.6028581168934799  0.6023260607695187  0.8001038993620039
  0.6024646048540170  0.7876379516531848  0.7985440618139987
  0.8002541193782439  0.1998209387141913  0.3999519788096977
