Zr Ti V  Cr W 
 1.0000000000000000
    14.8599595672697067   -0.0590853834781572   -0.0017243327365624
    -0.0600712287013471   14.8546081305275006   -0.0514182192095695
     0.0006820429453767   -0.0483907760634492   15.3340573925856365
 Zr  Ti  V   Cr  W  
   3   7 101   6   7
Selective dynamics
Cartesian
 14.3842330311475823  5.5398343619003443 14.4386462701132068   F   F   F
  3.0516632598637989  6.5821654446856268 -0.0100585425259893   F   F   F
  6.5916311984748610  2.6652289942967569 12.0189380383349143   F   F   F
 15.0091019341874805  6.3214775357152950  8.7131820636909847   F   F   F
  2.2061103279068024  6.1050029532863004 11.7754179895424613   F   F   F
  2.7887362221399692  8.8789100873048188  9.2531605395447212   F   F   F
  9.1207874003606833  2.8017395488859780  3.0643860680143513   F   F   F
  8.7626698430825041 11.4603333890228694 11.4238997516769363   F   F   F
 12.0923439205809853  0.6551234472736216  3.6060456393464784   F   F   F
 11.1872760768007193  5.8046778308446543  9.1157122543470539   F   F   F
 -0.9301957701410678 -1.2172814153564859  0.9999537980517326   F   F   F
 15.5567462985547937 14.3275098006835933  2.7333307913043177   F   F   F
 15.2022339710901768  0.0680089285122698  5.7595020300780480   F   F   F
  0.9484735671781093  0.0344706866577634  7.8056969740011182   F   F   F
 -0.1618782521834837 -0.2298885559451327 13.6974402599272516   F   F   F
 -0.2250122497803077  2.5553878294157903  1.0337839494267069   F   F   F
 14.4933696174634630  3.2992810438888336  3.9289053653606434   F   F   F
 -0.5844381600764533  2.6474017288195628  8.2674114256054452   F   F   F
  0.5878764913544986  2.0942388850899119 12.8019397321219230   F   F   F
  0.2414925259283770  5.9178975414211772  2.4623651868093401   F   F   F
 12.9285523513070064  5.5379345926465193  5.6615178133053856   F   F   F
 13.6669495760337760  4.4086404409182096 11.6746220509875549   F   F   F
 14.9097048516666977  8.5391304439767968 16.1528630391270802   F   F   F
 -0.6116681958441461  8.2627035126763424  3.1690056164556584   F   F   F
 -0.4677200718642838  8.6845453388805645  5.7327902477309189   F   F   F
 15.1574928767366686  8.7784875635506268 10.4429074883565924   F   F   F
  0.7050858549127216  8.8911948402739132 13.7148384613861047   F   F   F
 -0.8432595786861633 11.5812086879168010  0.5743610217758092   F   F   F
 13.9546909314519976 12.1898483427068864  3.4890810231295180   F   F   F
 -0.5314642234061218 11.3759243729570088  6.1985228832340153   F   F   F
 15.6685718047626512 12.1234716278146291  8.4475276426619281   F   F   F
  0.5854845080925959 12.5279203577968392 12.4146712480138675   F   F   F
  4.1319785504248090 14.8918142860942204 15.4022593547457749   F   F   F
  2.9448532102310709 15.8804184959810168  3.4268708560587435   F   F   F
  3.9904305882453222 14.7729653266212697  5.6031379309090417   F   F   F
  3.7356911860089137 15.8476230816293739 10.1760307637262173   F   F   F
  2.1278526744410935  1.3953354493729027 -0.3441015636674828   F   F   F
  3.1146264691113381  3.7022165956470645  2.2674647512893475   F   F   F
  2.4085582794603946  3.2610648451642290  6.4369346667613438   F   F   F
  2.0538690963094526  3.1433995777198280  9.4817603373386881   F   F   F
  2.9602057917690816  2.3736542635467437 12.2247846239118196   F   F   F
  2.9804145279304315  5.7538551978951329  3.6370572983021958   F   F   F
  3.7467318683938498  5.2572943360321105  8.2812716427479742   F   F   F
  3.3358495865717144 10.1711767923313214  0.5265862863685613   F   F   F
  4.5592821336153149  8.9629579853547643  2.8684450221200808   F   F   F
  3.2938513561257388  9.6280402536639560  5.4463823612372773   F   F   F
  2.7499976674623752  8.9291360315802013 12.2290226589608846   F   F   F
  3.4974262803822342 12.4962976229854945 -0.4141692930067949   F   F   F
  3.5240088528553279 12.3744957179014268  2.5561754312819529   F   F   F
  2.8605342313436148 12.5176663399575023  6.5189104955646968   F   F   F
  3.2407844731040707 13.1762165807768969  9.9827169271970337   F   F   F
  2.9617496267067680 11.6462713557045578 11.9819639294710196   F   F   F
  6.5305325316428640 15.8528529496678701 14.8519746500838625   F   F   F
  6.6647088293112189 14.6704532755974206  3.0410387447004248   F   F   F
  6.2263522626848422  0.3746090635134644  9.1483900585784177   F   F   F
  6.1961014951345499 -0.8954419433963196 12.5426780913746647   F   F   F
  5.2538890875836115  3.5893383930613436 15.2413164656214892   F   F   F
  6.8611043941500158  3.2190497554721818  1.6709403970300669   F   F   F
  5.8251325138486640  3.1890164646213046  4.6317774569911103   F   F   F
  5.5178592704072758  2.7290655861389923  8.4355655911891105   F   F   F
  6.8782009373992139  5.6358579560306952 -0.0760737285682004   F   F   F
  5.6700219373645346  6.2644779698085085  2.7009954492792252   F   F   F
  6.2489617281831924  5.4793259020430520  9.7866892149234666   F   F   F
  5.7785870891004247  6.7149127956090906 12.6486821198422543   F   F   F
  5.5371769563933784  8.2061857126874695  5.2421076242717364   F   F   F
  5.5805813740744394  8.4046582636748308  8.9285169657021193   F   F   F
  5.9880779661091514 10.8939787025722286 14.5533319851635383   F   F   F
  5.6101123842035694 11.2742233725109280  1.6876073091224448   F   F   F
  6.2847517188739701 11.8249548399592896  5.3196909707348894   F   F   F
  5.8326807504432070 12.0892788190709961  8.9953602586067127   F   F   F
  6.3458307444931306 10.3366850379769097 11.7443194795140347   F   F   F
  9.6277964384564747  0.2398392274180350  0.7711320889836110   F   F   F
  9.5666586550845700 -0.0015930182777534  3.0339448297363694   F   F   F
  8.6928956162745958 14.6414251354746021  5.2575085081781276   F   F   F
  8.9380399272154385 13.9783115020796256  8.9320678141138838   F   F   F
  8.8190539335556295 14.9116883101758368 13.3845350735167319   F   F   F
  9.1192372337818490  4.1323741161195660  6.1715842428215852   F   F   F
  8.9922683367902394  2.8167112382217714  9.5355190188823364   F   F   F
 10.1093449409054799  2.4546009103401025 13.1002791328391694   F   F   F
  9.1428052829036801  5.3405248361376572  0.2957222637104888   F   F   F
  7.8619307518917294  6.0411765460507318  3.3014107065834963   F   F   F
  7.8536962600206763  5.7565775587337722  7.4208679153087429   F   F   F
  8.7673488508835344  6.7407280752107388 10.4182909549411633   F   F   F
  9.0836678794666010  5.2470096268275848 12.3164056426605484   F   F   F
  8.6914316052982574  8.8130032579499336  0.6970364338881605   F   F   F
  8.0750233467642154  8.5963238415186680  6.0196660716708186   F   F   F
  9.3210520515267348  9.1322079909949636  8.6341235319415759   F   F   F
  8.7599607307197100  8.5187426782111046 13.9514496317470869   F   F   F
  8.3960297885520347 12.2548645283452426 -0.6322327802015140   F   F   F
  9.1207879603816977 11.8720841624925608  2.8632100048842499   F   F   F
  9.6351314593696920 11.0658123262584223  6.3785186180354430   F   F   F
 12.1450642524420545 14.8869246691745456 -0.2777241276155716   F   F   F
 11.4885170968089145 14.6410458979348661  6.2157182042688399   F   F   F
 12.8265882093371548 15.0107842409866059  8.5649285376706761   F   F   F
 11.3649527717505467 14.0174382226955743 12.0206135738609881   F   F   F
 12.1295380852755965  3.5826110684221590  1.1510751752214359   F   F   F
 11.4303002818911583  3.4115616887063047  6.1136859667009205   F   F   F
 11.3434088231124850  2.0352642447650968  8.4606770565123792   F   F   F
 12.0378641629218155  2.7776185950586987 11.2855899003246325   F   F   F
 11.2774670262409007  6.3701156579068945  0.6682074455391450   F   F   F
 11.3143851083977136  5.8335827472537343 12.9515621090769404   F   F   F
 12.1807467838204584  8.4540847807339237 -0.5546952622219501   F   F   F
 11.7019993632265944  9.0115246886366052  1.7730483862689383   F   F   F
 10.8894793056171313  8.6627051697828961  6.6862268986950708   F   F   F
 12.7677870553207011  9.2951675517864665  9.1375994447233069   F   F   F
 11.5889091765583565  9.2248431797445463 11.8856857100862250   F   F   F
 10.4381548640482382 11.7129135627280032 14.7322194511171816   F   F   F
 11.1220119606271073 11.1981258976068325  2.8419677962620393   F   F   F
 11.9805343299237546 12.1384946630793049  5.2367585263877752   F   F   F
 11.9874717585877928 11.6422537376869819  9.2284704391942824   F   F   F
 12.7078429555806665 11.2321335585969528 12.1596988970755433   F   F   F
 14.3522579933656509  3.5571596067377391  6.1408556804510006   F   F   F
  2.8877041586505765  5.5884544650647641  6.0789563351886047   F   F   F
  5.7379115727780734  5.7790109694250740  6.2888901341638404   F   F   F
  6.4823276705203154  8.8234824104525256 13.3275155281297017   F   F   F
  8.1682853460293465 11.4509715437919422  8.4745344006919332   F   F   F
 10.2501645967237742  6.3691046298709395  2.8553575932865929   F   F   F
  2.5142574218602101 14.4537056064495886 12.8230549568142891   F   F   F
  5.8168471093431009  8.2748386862338563 15.9736330990834325   F   F   F
  7.0930966254592693  9.0173627999971711  3.1294884755124635   F   F   F
  8.2802520994765807  2.9097930156192890 -0.4860175302972020   F   F   F
  9.7076913795138253  8.8631745225929279  3.9542526912187714   F   F   F
 11.5078866715367489  4.3109087130217230  3.6384968362415901   F   F   F
 10.2930314202258408  6.3213630087180590  5.5132670764788756   F   F   F
