Ti V  Cr W 
 1.0000000000000000
    15.4171836946855763   -0.0006458025225840    0.0021743795697675
    -0.0006464432342440   15.4108214600062574    0.0048957167363750
     0.0021730867805691    0.0048939939426410   15.4267125679285311
 Ti  V   Cr  W  
  13 101   9   1
Direct
  0.0025387051877327  0.4013918704558762  0.4002029041289507
  0.2072292365829149  0.1987553088946756  0.7933531968125395
  0.1999396194185674  0.6065522889821604  0.0058701039305895
  0.1989850822206498  0.5973130637801917  0.7925407182275842
  0.4011551654221051  0.9957781698622817  0.6005355312949477
  0.3939886063195124  0.2053572241819708  0.6068351317969688
  0.3997043730437375  0.6010587080210941  0.4007109962564506
  0.5976458010718426  0.0002021586014469  0.9948920847489100
  0.5945443112696801  0.3977428627687731  0.4038157845052516
  0.5978916692274907  0.7997555467346844  0.4007939879505556
  0.8024543457958352  0.4047939292423829  0.9902183850463526
  0.7975140582991209  0.5926392887945801  0.8057501187032582
  0.9014829718314050  0.8997170829632911  0.4023360834918510
  0.0000838838946890  0.0000841318147216  0.9992574048429157
  0.9989736163249061  0.9998076328676763  0.1977794279108418
  0.0003843307651625  0.0009816393088187  0.7988143014451737
  0.0017785910055872  0.1998406213115184  0.9984936581470240
  0.9990449223787569  0.2000537377978061  0.1995612664455668
  0.0004133225985549  0.1974198917187721  0.3994861131714415
  0.9988454272198810  0.2005756708659259  0.6001202511504554
  0.9995720399515988  0.2000944398632163  0.8000362435892382
  0.0039670234635390  0.4005178226544026  0.9985985878111722
  0.0001893688397330  0.4000582196790816  0.1960803528944930
  0.0014977224490644  0.3989262373432858  0.8004146036882157
  0.9972702557559812  0.5996742269997062  0.0007956311643365
  0.9979819380871544  0.5983357441573618  0.2011644736168903
  0.9987615188652018  0.6017427756209582  0.4003245107469490
  0.9981340824764454  0.5986833894045452  0.6006325837248034
  0.9994299860202442  0.5987252979870583  0.8003113261762607
  0.0030223387055370  0.7988809038728266  0.9988341274129733
  0.9972222434991942  0.7997533728269394  0.2024151289811386
  0.0027419867184015  0.7974076049903495  0.4013973214526228
  0.0002848762699956  0.7989245219731093  0.6015185938710172
  0.9997736447123208  0.7985638162002555  0.8000603741561638
  0.2003168425731232  0.9974723171811900  0.9997200183387187
  0.1994080402066445  0.9996941909358155  0.2016889324238957
  0.2023192233707283  0.9993703431414244  0.4002818938154641
  0.1971795383408999  0.9987700041293502  0.5995176314062690
  0.2015601801550164  0.9983674724979437  0.7989128951234716
  0.2010431637001462  0.1984978989709117  0.0015796257968246
  0.2004330361513396  0.1997874320911154  0.2000157022536078
  0.1991454045759173  0.1981921348547290  0.3993818544146108
  0.1962519765710281  0.1996880064819917  0.5957188490522970
  0.2006654721468015  0.3989061394536617  0.9998525194094483
  0.2007344858527503  0.3993645800652100  0.2006321748578837
  0.2019636899996173  0.3991466983590292  0.4002740457434263
  0.1983750730784512  0.4002329147322195  0.5996262391475772
  0.2015526454893304  0.4002300755108617  0.7997134931313682
  0.1997480482816807  0.5993652552825073  0.2041818727677046
  0.1977655129022189  0.5996362519347536  0.4004494614801049
  0.1995238600166324  0.5997662919072492  0.5965373083326205
  0.2006217260308873  0.7993036985405451  0.1970707189268488
  0.1999380245325948  0.8012593454715956  0.4003036615123104
  0.1997013770441496  0.7988713257534786  0.6018831406647634
  0.2015143049573579  0.8007530865782981  0.8036400069813667
  0.3990668925506644  0.9997676096783644  0.0010574542803354
  0.4013085077637508  0.9998200129002540  0.1998575082064386
  0.4000100183601086  0.0003894783226659  0.3994168412692564
  0.4021841997876558  0.9985902317575820  0.8024401257634370
  0.4001047263705292  0.2000703317451996  0.0018119818078970
  0.4010728659909881  0.2001583567466185  0.2000768642208540
  0.3998523177404475  0.1997477711786013  0.3986163312891634
  0.4045710130680044  0.1997555327373925  0.8038774860012476
  0.3985630909899008  0.4002152388560507  0.9985720750409249
  0.4010187570868876  0.4007636753352995  0.1991543158399705
  0.3974870677477889  0.3980921332155977  0.4007944790173932
  0.3990747609988466  0.4035507821373995  0.6016267588766027
  0.3999724489842674  0.3999711632065219  0.8013295325671224
  0.4016024964532540  0.5992519575057885  0.0002231284887432
  0.4013263121690290  0.5992744203145193  0.1989150494824704
  0.4003668033553140  0.5998975470297470  0.6020605430665676
  0.4024943426336256  0.6001297064847788  0.8005703890091388
  0.4011217485616102  0.7994309123279874  0.2012506572796995
  0.3977621953686066  0.8011185691026149  0.4006820482471807
  0.3994814689166644  0.7969592655416345  0.6018751334382411
  0.5997193591422731  0.0018482945689130  0.4005361120196382
  0.6015127815617455  0.0000922796019411  0.5995970161741465
  0.6005728255440052  0.0006005710017636  0.7962290216900231
  0.6007314570150907  0.2021638024069969  0.9999151854346695
  0.6010309021421544  0.2004562040121231  0.1993490924817652
  0.5983610431337435  0.1988485975868036  0.4005135472768731
  0.6021884222284516  0.2008320630702631  0.6003956382253834
  0.6011992939081316  0.2002200463591713  0.8000438721196007
  0.5978618261370889  0.4010239606111030  0.9993801997202988
  0.5992393594240196  0.4004511639352723  0.6022830313079952
  0.5991086348287590  0.3995100942330094  0.7988660974111002
  0.6003328198394546  0.6003148437504892  0.0003763653999381
  0.6003387106610203  0.5989680603860988  0.2015482573375414
  0.6012556135955747  0.6003430882452360  0.5988747107047709
  0.5987074500334325  0.5991115797295484  0.7999920145781020
  0.5991916086509628  0.7983035219770357  0.9998314241256603
  0.6000776788624942  0.8006471290551954  0.1983408926589311
  0.6002221685710104  0.7995953239750870  0.6023280137289010
  0.5992086618766879  0.7993290558636077  0.8005690180452891
  0.8017785242044478  0.9997646126430457  0.9998096102727807
  0.7969912023067077  0.0010274345322658  0.3991347041242737
  0.8009875957198860  0.9985959612507347  0.5972813844251501
  0.7997715465592120  0.9992236568256290  0.7992001483054169
  0.8000848314143383  0.1985013839666598  0.0000663860003570
  0.7994829322745184  0.2007901037577194  0.1986415156575446
  0.8010333232823496  0.1991677321633229  0.3990069428757832
  0.8005392548438398  0.1992514746450919  0.5990925787729783
  0.8005488027518077  0.1983362062045642  0.7990186019489542
  0.7985459659508612  0.4005269410311261  0.1995770415346391
  0.7991793338489667  0.3985519813777499  0.3984195390759914
  0.8009965249637563  0.3999538170375649  0.5989147028438567
  0.7993210363551321  0.3953457811738282  0.7960487655049712
  0.7992367399659813  0.6026182527426169  0.0049767618771567
  0.7990878930539660  0.5964985799841253  0.3993488463447272
  0.8000988494741413  0.5999123131627064  0.5969946379103194
  0.8011056544558619  0.8005593083740482  0.9998899120851703
  0.7984627831563863  0.7992842999429792  0.1981348009770848
  0.8004905642758636  0.7982611000838322  0.6035324171478100
  0.7999723348121462  0.8013277568623693  0.8013808121919317
  0.9994545184384469  0.9987678405816622  0.6005339621471500
  0.0001720475105460  0.4001962433387578  0.6027493142566791
  0.3992981955772160  0.7994876609070359  0.0000667905577365
  0.4001507451069589  0.7986519397368692  0.8015871031774406
  0.6006095327030160  0.0003704624921732  0.2018332181388089
  0.5996032032529121  0.3996162267480722  0.1971627043883837
  0.6020270510812190  0.5996341162041341  0.4001270524133451
  0.7988596017151763  0.9998658004638735  0.1996101775594882
  0.7993235951645040  0.6004173263028666  0.2013110873166026
  0.1974636162043960  0.8022734555417312  0.0008935957354494
