Ti V  Cr W 
 1.0000000000000000
    14.9814537212924730    0.0667190117993210    0.0667044518752658
     0.0664505909243175   15.0304176565470176    0.1509148178930942
     0.0664799983308758    0.1515710376046868   15.0306717557707916
 Ti  V   Cr  W  
  13 101   9   1
Selective dynamics
Cartesian
 15.1284525221282706 15.0394965149422255 -0.6630883793712622   F   F   F
 14.5695256272395284  3.4172014662417993  8.7489293648567852   F   F   F
  0.3416040327164050  8.6435762187337435  3.1195340325607650   F   F   F
 -0.1825711608944565  9.2566597529639871 10.1831804245722548   F   F   F
  3.1351772978248493  8.5463270669480842  5.5816921381628317   F   F   F
  3.6440874832788581  9.7778682450744672  8.9680482600180724   F   F   F
  5.6066017917276980  8.6526291088923823  2.9364201097487759   F   F   F
  6.9355717803112009  7.9735227716993773  9.1794354844625108   F   F   F
  5.9483616363137077 12.4797362906475318  3.2070189461292107   F   F   F
  9.4578458981077080  5.3395086142166237  8.2865343053659579   F   F   F
 12.0043780921574132 -0.1437052625597780 11.9121083670091004   F   F   F
 11.8366363601013482  3.0610150540188199  6.3279241764414529   F   F   F
 11.9865121890115987 11.8096016567242970  6.6550307215392630   F   F   F
 14.5421723673745138  0.1570062365264099  3.0779101003450906   F   F   F
  0.7531751779734189 15.7965621669442413  6.1316872030008174   F   F   F
  0.1236398475978763 14.7108460894571742  9.7184619325711772   F   F   F
 15.6034242335293847  1.2085748417156255 11.7187794819130584   F   F   F
 14.3226343526828721  3.6685764891911816  0.0217584770830227   F   F   F
 15.7081620045629720  2.6691632549140509  2.7235202723508634   F   F   F
 14.3144757680641153  4.0160462993017836  5.0015158158354103   F   F   F
 -1.3062518367803593  3.1707365372033101 12.4126602710489138   F   F   F
 -0.3819740899588984  6.4952078729308438 15.2214378679337514   F   F   F
 14.9822865696658400  5.0363563828783287  2.4364494196316069   F   F   F
 15.2858095274907111  6.1504669379135555  6.0744108628876878   F   F   F
 15.5450629268373586  7.1402215948374446  8.4430971615388142   F   F   F
  0.2274522014967279  6.5316734870939248 10.7764774989228638   F   F   F
 -0.8194214763292863  9.0793437511821349 -0.5147539172443675   F   F   F
 -0.5322803645321935  8.9021284075776563  6.7314605146469200   F   F   F
 15.9938217026634799 11.5498873927641590 15.5365078160736019   F   F   F
 15.8046259992151512 12.9642425444036977  2.4198121212667099   F   F   F
 15.6762649339925755 11.4560346784403926  5.8087635671557720   F   F   F
 14.6239831144076504 12.6301803449725067  8.1516124152055784   F   F   F
 -0.2036615308109524 12.1849972724368243 12.1874663715071438   F   F   F
  3.7306607797527893  0.9149653190833137 -0.0733124596129977   F   F   F
  3.4112636118979980 15.1900835493302839  3.7085412817552803   F   F   F
  2.3954613547096817 15.7751403437398494  9.4654700802204328   F   F   F
  3.0606379675535358 14.2975171084209975 11.9774426272987604   F   F   F
  1.8713710944938180  3.2855123478511064 14.8259424776151931   F   F   F
  3.0350321670051170  3.4765027006502884  2.5500374569581763   F   F   F
  2.1875327301906879  2.4833041199785684  6.0361077048588232   F   F   F
  3.3366575952720683  2.7363995587246785  8.1890232598423740   F   F   F
  4.1207224370172248  2.8274203553866162 11.8169694034938892   F   F   F
  3.6562563112291282  4.8388416972426818 14.9268556619785340   F   F   F
  2.9197476257911710  5.8020097105683615  3.3096044914626366   F   F   F
  2.7590506576300888  5.1649138438552944  7.2692903031979892   F   F   F
  2.6619303049385916  5.3748628356780959  9.8007240929996620   F   F   F
  2.2139017674471844  5.9540455228219589 12.4350531870401024   F   F   F
  2.8355370460888976  8.1750256253284252  0.4500764439763579   F   F   F
  3.8848762178407275 11.1973062582024347 14.0026094119743032   F   F   F
  3.3099170547622982 13.3006310311573284 15.6541340544334879   F   F   F
  3.2942798645929190 12.3489339981382624  5.9526414330976269   F   F   F
  4.0142219588035157 13.1262706942804108  9.3620656051065492   F   F   F
  3.3212986982083166 11.7280440167361366 11.3049781702247447   F   F   F
  5.6100485399779165 -0.3164660406014595 -0.0711002743193119   F   F   F
  6.7261949651711470 16.1885535047844016  2.4654363296519963   F   F   F
  6.3915761504455899 15.0499256497081380  6.0767870661181682   F   F   F
  5.9344672455992367  0.5650971702718756  9.5679336559176313   F   F   F
  5.1633654102384980 -0.7109809294017266 11.4488721219888738   F   F   F
  6.8178196448979005  3.0390204664224285 -0.6754224858304470   F   F   F
  5.1362075957063995  2.9585261472918343  5.5739890703608266   F   F   F
  6.9300216647749249  2.3992003509425066  8.8750576051393111   F   F   F
  5.8969275889154265  2.9738508428437775 12.5613018066127946   F   F   F
  6.0080581405936933  6.6570445618713201 -0.1741706644269348   F   F   F
  6.3770735288952665  5.1180746942042887  2.4042046378533564   F   F   F
  6.4343232158973702  6.5708410300352966  6.0141086785998805   F   F   F
  5.9544018450093006  4.2445820581660350  8.9828375376571774   F   F   F
  5.8551402759856597  6.1151815317320226 12.1943896183432443   F   F   F
  6.1697494249955600  9.3361749434471903 -0.8227664570552728   F   F   F
  5.9478207400779839  9.6129950020003605  5.8074685705617588   F   F   F
  4.2267608719787590  9.3794064573565912 12.0860048081674858   F   F   F
  5.9155996355368652 11.6024189614110753  0.4922192272074244   F   F   F
  6.1779848228118759 12.3253834008865297  8.5199727394158131   F   F   F
  6.4607545550985419 12.6995477308068256 12.1464404031201756   F   F   F
  8.4756487795021229 -0.1907598783500372  0.1610238155948835   F   F   F
  8.8027052271813204 -0.1492893260973410  2.9603746854414412   F   F   F
 10.0783794644423281 14.9748359310184060  5.7481654216322404   F   F   F
  9.3090165520524977 -0.7884193695741941  9.1728925789637419   F   F   F
  8.4780258051133526 15.8130704960644906 12.4905420677542995   F   F   F
 10.0771571029046729  1.9336525222743455 14.5771447929601941   F   F   F
  8.6087715858746865  2.4659260383862827  4.2067853514461229   F   F   F
  8.3623928305957165  1.9381117955022078  7.0201276851278607   F   F   F
  9.7332967537769814  1.6068344611833836  9.2801969135881723   F   F   F
  8.7276046891362160  2.7956993629751645 11.1074300947086204   F   F   F
  9.4236930600555073  5.6453196536068342  0.3417413180346486   F   F   F
  8.7369421363906987  6.3492279895797683  3.1553494421791899   F   F   F
  9.4384634115234025  6.0057153095456428  5.7233912002348166   F   F   F
  8.1509470368141343  5.6409143701833404 11.8344825128799531   F   F   F
  8.6304348285332360  9.1868553243606534  0.5907281336383070   F   F   F
  8.9382651574453504 10.1479115094065104  3.4556917002368022   F   F   F
  9.7762833294772058  8.8197029745835422  6.8473863631069714   F   F   F
  9.1342664171014505 10.7296191477662735 10.3789613642184833   F   F   F
  8.4964092122141324  9.4358815700791467 12.4671296844122814   F   F   F
  8.3063231492816954 12.1457630562755110  0.2868815546920046   F   F   F
  9.7196317439908562 12.7624174727372850  3.7756852113275770   F   F   F
  8.3157328643514408 12.5724944617079242  6.3139566352593990   F   F   F
  8.6405694545749920 13.4643678361401236 12.8879028268986708   F   F   F
 11.6585439825676520 15.1711194932812017 15.8399627689725566   F   F   F
 11.8279840791019133 -0.9235726381740105  3.3142845900247622   F   F   F
 12.8387636192362962 15.4076180815906678  5.5370486100286547   F   F   F
 12.8662428383293985 -0.0223375281806041  8.1789016263843646   F   F   F
 11.8415581256107867  2.9702040507924807  2.5851007650108739   F   F   F
 12.2316891905610028  3.2952530881323239 10.0990266617930349   F   F   F
 10.9238695418373659  3.5086305528569883 12.6420239404858528   F   F   F
 11.8205166473042027  6.5584140076854140 16.2583396723778897   F   F   F
 11.2093259019702760  5.2876455886383544  3.5268074830724774   F   F   F
 12.8428792512760985  6.5680567622222474  7.2409133357363071   F   F   F
 12.6108432849200653  7.2640842748184422  9.6922650700388608   F   F   F
 10.7071367170816512  6.1530721952361036 11.7878447391484862   F   F   F
 11.4441775882109926  8.8698135158309572 14.8633977214302195   F   F   F
 11.5717676447098619  9.5127200580604701  3.6056549045413018   F   F   F
 11.1179875194816411  9.9358257074296592 12.4764300812911841   F   F   F
 12.5368136098489682 12.6783628507305508 15.1958613432213490   F   F   F
 13.1876042390522432 11.8221173589090558  3.0277849626886577   F   F   F
 11.1425718891264829 12.4329039084311930 11.7177404626752963   F   F   F
  2.9458910534134692  8.2264705882951361  2.7378160234917255   F   F   F
  3.2886778957952494 12.9551976815042877  3.0735705143566991   F   F   F
  5.8866037111406504  3.0761804772851389  3.3209742346753481   F   F   F
  5.6756477185356529 12.7850704954368624  6.1052843003059216   F   F   F
  8.5794551404957069 12.1718999215474675  8.5979253460358969   F   F   F
 12.1955683346173203  2.3624567326319590 -0.3712219707829104   F   F   F
 12.2013701734972901  9.1436136131887764  5.9628726456883152   F   F   F
 11.8996690328956376 10.0067131090357240 10.1137217407184430   F   F   F
 12.4757994637859007 12.1764691244527778  9.3756502078537096   F   F   F
  3.9661705857357639 15.0669265627859019  7.1017755732848000   F   F   F
