Zr Ti V  Cr W 
 1.0000000000000000
    15.4232430954959501    0.0024634115428034    0.0013068356567792
     0.0024630313677734   15.4480188046633575   -0.0049125705009612
     0.0013071056929354   -0.0049160983647616   15.4327482268049074
 Zr  Ti  V   Cr  W  
   1   3 101  12   7
Direct
  0.4011525037164420  0.0102803525398224  0.8098370115971297
  0.1966211941389050  0.8049418678115973  0.2055765425878962
  0.3979447498486057  0.1882207401774126  0.9866153271163759
  0.7965044113387040  0.6094552935271595  0.0016782582802029
  0.9990361326979353  0.9986130677458342  0.0018865369482297
  0.9978156432953049  0.0023561213060386  0.2006488645761305
  0.9993346397148971  0.0006378152861298  0.6012505527290667
  0.9988971477035971  0.0001393038857289  0.8018685127972880
  0.9996576476189140  0.1987040619643916  0.0004632247866020
  0.9987890457229641  0.2004585313266852  0.2001238593073482
  0.0004730973885432  0.2000055106411424  0.3998204464541167
  0.9999914268445044  0.2005227233119590  0.5998344189520700
  0.9991685189165284  0.2008740564899489  0.8001007139846491
  0.0012601154832198  0.3988466849936747  0.2010881786843235
  0.0011436417091022  0.4007383118609362  0.5990009781144625
  0.9989702225916804  0.4003126775382574  0.8011450136401226
  0.0025237825484141  0.6004297474755135  0.0007522399516806
  0.9999439618084950  0.5972584525895228  0.2009079654132935
  0.0019224313778472  0.5984296636570690  0.4017557391350693
  0.0011759096397485  0.5998962769771842  0.6006116427808978
  0.9992991791327213  0.6000914756800362  0.7998783300598481
  0.9968554295533175  0.7992104420068685  0.0002046219119918
  0.9992282014501430  0.7997519819866259  0.2008210813055431
  0.9981204732111858  0.8003396059395846  0.4010704076625882
  0.9999683236806568  0.8000275883910555  0.8004036932256077
  0.1986151188092157  0.9978890170641963  0.0023199356593163
  0.2005395028060489  0.0037513706977441  0.2012097227723778
  0.2000351247213936  0.9961626338306053  0.4001124988531686
  0.2006909066207069  0.9997288166866219  0.6016061435457614
  0.1946233190019794  0.0002751014611353  0.7995745731746404
  0.1981572850519248  0.1978767008732068  0.9987827443215296
  0.2006777802691743  0.2009529350119414  0.1999802867380842
  0.1989663329567868  0.1935396848325584  0.3997009619793188
  0.1996225316416925  0.2006524096996415  0.5977243351893007
  0.1994524792802299  0.2011836355725973  0.7998131249388616
  0.2009932905257813  0.3995053955733676  0.9995905425671773
  0.2008534553734741  0.3980704281212326  0.1957271746216777
  0.9984044224915776  0.4002212943391954  0.3997282865361635
  0.1999102270520584  0.3999348524530756  0.6030322297225759
  0.1996014145405303  0.4000418324592835  0.8018947734452867
  0.1994514558879820  0.6003080686658118  0.0005802298630555
  0.1994333109655600  0.6076291963440590  0.3996586519640610
  0.2031135064533197  0.5997530078204020  0.5992165530241793
  0.1985140904555384  0.6002418431987613  0.7999225731252653
  0.2033405081042876  0.7998900314634193  0.9994828470242137
  0.1993290013012920  0.8011841218452258  0.5998828357013887
  0.3998123344289853  0.9876599430142534  0.0100020958273348
  0.4031800754557643  0.0002571900292738  0.2030757715688413
  0.4039953001738663  0.9978780989772463  0.4017248547948848
  0.3998768003642567  0.9996078897398252  0.6000455400232323
  0.3988289849176100  0.2000593036210654  0.1990220201116673
  0.3969009722415764  0.2019853115068665  0.3991352918298237
  0.3994693131484617  0.2037106719954146  0.5976695769524802
  0.4000522689612661  0.2111593783822414  0.7924634406525666
  0.3997009902057765  0.3974929583823669  0.1977986851712287
  0.4017316866943674  0.4002895009541035  0.3973034174324187
  0.3988711319569999  0.4050909382754918  0.5971636405495391
  0.4011644775567479  0.4036318205041169  0.8013795241326316
  0.3992312010162393  0.6019626200765519  0.0004210729324895
  0.4002739244119439  0.5963878350821231  0.2013904419561161
  0.3995341936159494  0.5986560031902556  0.4026729738567331
  0.3993948154171354  0.6005911276797393  0.7966813903478601
  0.4020134558210471  0.7953230094646773  0.1967374274254953
  0.3967765811636325  0.7990858888221007  0.3997652738393331
  0.4001933091885746  0.7961718707816541  0.6043816919327816
  0.4004832621136249  0.7988941465463713  0.8058227066438330
  0.5998049781771873  0.0000293638413591  0.0075362980515047
  0.5989772594790259  0.0005667359198016  0.5968487410534062
  0.6052989550980682  0.0015141858770969  0.7992865351467286
  0.6010202547171555  0.1991836481797966  0.9991480408837714
  0.5981983920816802  0.1976162443720979  0.1979346231332630
  0.6006106965636577  0.1963035582585453  0.4001013393634756
  0.5991416008472716  0.2009371626779340  0.5994903500286183
  0.6011249619984194  0.2014128891989268  0.7994338915245927
  0.5993932793625462  0.3986985306292025  0.0006369092165468
  0.6010763856861625  0.3977241550843363  0.3985392065266055
  0.6004992532910803  0.4002156567304112  0.5996660934277311
  0.5969600472890962  0.5989088707340391  0.0004443957496732
  0.5994365603502195  0.5984240536160476  0.2021483310333172
  0.5989441684063883  0.6008464268983773  0.4002627447619090
  0.5968181467728503  0.6010365360784794  0.5997346847397439
  0.6013213260849389  0.5996297275276106  0.8001876185390324
  0.6009014410575751  0.7995851251395871  0.0002185317952754
  0.5997406178627709  0.8028145305543525  0.2012561527755418
  0.6040050031516647  0.8032738977632561  0.4008929916409728
  0.6000482152654858  0.8006135057812532  0.6020723148180487
  0.6007995785698489  0.8020239953540488  0.8006807146457746
  0.7991868482274039  0.9956409698303929  0.0013825390009543
  0.7953131226078348  0.0021069101365530  0.2004338582870559
  0.7979326382535371  0.9968403094412283  0.4008060393406798
  0.7999582109487100  0.0000204885550250  0.6011718469328426
  0.7999701780368182  0.9999894580659665  0.8002049825353031
  0.8000512020451888  0.1995919438282122  0.9986078414718595
  0.8003806434154336  0.1992980448793925  0.4000547984666620
  0.8000585695523578  0.2004511821678485  0.6010299736708298
  0.8003093008181986  0.2004186522162128  0.8002041135337765
  0.7995942604838728  0.4001469164613753  0.0003885752146910
  0.7991653944298192  0.4004063377811914  0.1988480044757572
  0.7992385060275462  0.3994995111092645  0.3998173441398209
  0.7989900410003612  0.4012310458435634  0.6006825691587361
  0.7997274713401450  0.4013455074571222  0.8012978140714937
  0.7991846123821333  0.5989062621348690  0.2025839257295091
  0.7994322942165081  0.6006778793890596  0.7978999616845491
  0.8008522853208483  0.7983723558250304  0.2009861023883476
  0.8007484428918755  0.7996668520332992  0.5975901180395777
  0.9985474630033463  0.0004004322127147  0.4008244975109042
  0.9997914209958042  0.3998628745995542  0.0003077911303035
  0.0001316137226464  0.7998360876087601  0.6019930624654253
  0.2003035052068209  0.5960773646922692  0.2016271324543881
  0.1989191678582934  0.8008270791774768  0.8002606684143871
  0.4005995485553231  0.4029259631213034  0.9987120458317480
  0.5997089614305566  0.3981092520574624  0.1995256352308611
  0.6004788332563109  0.4004586341806964  0.8003740452800310
  0.7995188585203185  0.2004555094359015  0.1995328782461495
  0.8000089225982387  0.6003661947184263  0.4011285528237810
  0.7994218415479131  0.6005838370166624  0.5997127709545012
  0.8003713835739313  0.7998995245629812  0.7997637329441273
  0.2002873447696841  0.8015648721407311  0.4030054030560449
  0.3999790017298945  0.6001358525280678  0.6013104078728077
  0.4003973091206021  0.7951503839814600  0.0008836571854616
  0.5989449338514848  0.0000870760206544  0.2050335433089567
  0.5999678197546640  0.0006881198322926  0.3975134586261361
  0.7992646713476025  0.8022234881370803  0.0038326012834853
  0.7995475471844927  0.8019741355520026  0.3982872648056298
