Zr V  Cr
 1.0000000000000000
    15.5176564344983579    0.0055358052127085    0.0009235349890332
     0.0055289702635454   15.5339659065587714   -0.0041197367383691
     0.0009253811786535   -0.0041210125583897   15.5341853465245965
 Zr  V   Cr 
   5 117   2
Direct
  0.0000201818166908  0.4007720784485431  0.0005632252802590
  0.3746665095077873  0.2024963177858184  0.1973979483443553
  0.6003285158581717  0.2009312010499515  0.1994721447917556
  0.6075987482331386  0.7929402742527809  0.7995324218149327
  0.7942676319826453  0.6066485706005824  0.8003871352062124
  0.0015350465926429  0.0001199496072722  0.0006515789263880
  0.0010269479200748  0.9995734004165259  0.2008341069499467
  0.0016015645621806  0.0006417750339986  0.3996116342928064
  0.0011904282039623  0.0001712941673875  0.6003400538887205
  0.0023889553255976  0.0010348068873157  0.8002406938678713
  0.0004233305525538  0.1965488026332132  0.9995756566005921
  0.0016154584762930  0.1997827363015133  0.2008763560106404
  0.0005365016935121  0.1998085322730139  0.4009810145990304
  0.0012794409235646  0.2007042973013855  0.5996502228075380
  0.0012389580892665  0.2003820695934819  0.7997857571404297
  0.9999042856052510  0.4014217747382376  0.2044313734652159
  0.0008420289178774  0.4000451054996758  0.4006345670794768
  0.9999756704843228  0.4010114702564763  0.5992598785049098
  0.0001342564513346  0.4011857235854541  0.7958562448848013
  0.0000662623985233  0.6050630577999843  0.9998633444775866
  0.0007696786024999  0.6008628217907068  0.2006571889232608
  0.0006686841747992  0.6006374376564110  0.4002082189159813
  0.0000581627119582  0.6007653300970451  0.5996799157111783
  0.0021395035999701  0.6008571496493004  0.7996084438790746
  0.0014940376950863  0.8010840628346994  0.0004242981451395
  0.0017597133777738  0.8008320670936064  0.2005841934553182
  0.0011020520590106  0.8001829506772490  0.4002356060992547
  0.0017810574641770  0.8001244029033971  0.5993880631811817
  0.0040768497693688  0.8014819658158442  0.7998320443444391
  0.2017078306866812  0.9997661222098558  0.0001812496222378
  0.1999014921820362  0.9994664747088271  0.2007648331190496
  0.2009376034736892  0.0003080489521465  0.5999031500813448
  0.2010921537151486  0.0010663233040205  0.8013587175832965
  0.2004644587576240  0.1993725849017540  0.0006065238721191
  0.1995453049950424  0.1997385025703205  0.4009097596939392
  0.1993852408693308  0.2003084311648100  0.6006133086408602
  0.1999415022933087  0.2002552947424673  0.8002348009815380
  0.2041901689337392  0.4001204651850650  0.0003871136681728
  0.2001704899891648  0.4000796472985111  0.2010646063127601
  0.2006201516914121  0.4002082917334295  0.4003743297446467
  0.2004440534296906  0.3997773644016436  0.5994040149359791
  0.2006608454889492  0.3993634082596571  0.8001674157840083
  0.2012668539232192  0.6004225734412193  0.0009275886781435
  0.1993553251742158  0.6000939260921115  0.2000668511975550
  0.2002257638744421  0.5992540262241562  0.3993765783208228
  0.2001557988690426  0.6001837236607329  0.5997921779142829
  0.1993405662262329  0.5994697471836986  0.8004276120462366
  0.2010940868488874  0.8007448729861870  0.0010660735424648
  0.1999698390203936  0.7996144987678309  0.2003818247637867
  0.2011246160305506  0.8003689839933243  0.3997191848547260
  0.2003775253593620  0.7997879437855376  0.5997004234614888
  0.2012621683717309  0.8003978915744480  0.8003023808740054
  0.4012596656885672  0.9997840480040490  0.0005457931047849
  0.4005128650778387  0.9955817911695521  0.1998370096617927
  0.4017777327309919  0.9996990334498402  0.4008371045785906
  0.3985990983822894  0.9993642996343036  0.6000036578964665
  0.4026218091647052  0.9989282217831857  0.7982658773512104
  0.4013841037714646  0.1995385709324753  0.9934606715962996
  0.4003613927105922  0.1996617177393478  0.4041908458300694
  0.4002807256689012  0.1984975944938348  0.6008041955771242
  0.3990079402903319  0.1999454611086973  0.7984044057867729
  0.4014950956597995  0.4002065011853301  0.9998406140947971
  0.4010850525683900  0.4064651747609538  0.1999966949356719
  0.4006463032823091  0.3997261523444846  0.3999027938190619
  0.3999403426809652  0.4008327195701022  0.6002290080806308
  0.3994643887926733  0.3993529104473285  0.7995512716979990
  0.4001134679982233  0.6008597302386240  0.9998072814575749
  0.3988424627141791  0.6015304061240704  0.1996187500685755
  0.3998782630848723  0.6005121516698256  0.4002437745595523
  0.3989952922755397  0.5999444937918106  0.5997229959186033
  0.3964578379630649  0.5993135484046357  0.7997887999509570
  0.4011660854662490  0.7999737825761841  0.9995880126127751
  0.3994380213760862  0.7990255662375950  0.2004740418986744
  0.4005460802249874  0.7999791134445695  0.4001285168940847
  0.4017913656490882  0.8011636475188164  0.5998444304976360
  0.3988296496656398  0.7997135978955123  0.8001100524645466
  0.6008275514781395  0.9992628742747321  0.0002050246005826
  0.6015491968040497  0.9948949052087876  0.1998557809902261
  0.6009961112587187  0.9999700165865644  0.3968592906237496
  0.6007733565753485  0.0015000417437008  0.8032682599802791
  0.6013595674874244  0.2003440474878349  0.9942063477933037
  0.6009832346733643  0.1983717545761357  0.4065729402939486
  0.6010845766551783  0.2032475803578003  0.6012424576768114
  0.6007673342407098  0.1985584781716336  0.7971040346488160
  0.5993664203721627  0.3999354813436560  0.0000695530310678
  0.6010631247509427  0.4060220722725414  0.2001207966313431
  0.6003265131272575  0.4001763680401488  0.3998605143949305
  0.6002649221434553  0.4002544692370099  0.5994646829690988
  0.5991806509731934  0.3970235402746228  0.7998452699164759
  0.5983852708103758  0.5991703553594840  0.0011988361920079
  0.6003799334261026  0.6013057564885392  0.2004395640504137
  0.5996154142289282  0.5992288142319313  0.3988774278655060
  0.5988294838662308  0.5983256100785388  0.5982104525699227
  0.5909536231490342  0.5900580678206674  0.8001305218458592
  0.6013221623394609  0.7992985243325761  0.0042614855447818
  0.6016044255460093  0.7977251343198293  0.2005067946886718
  0.6008185631880073  0.8007676720256507  0.3999698406706425
  0.6011063364846817  0.7953376068433727  0.5952953381676540
  0.8007020542085369  0.0009951194102130  0.0009882301422488
  0.8019481644856042  0.0006783462629305  0.1998074589647310
  0.7994664193756111  0.0006806909315928  0.4009893656307354
  0.8030461260084328  0.0010191814674247  0.5997815682744481
  0.8006759051276799  0.0036495798455369  0.7991294811374379
  0.8006610292028292  0.1999664059412003  0.9999591320937309
  0.8054347381059557  0.2010099525885087  0.1999189034741981
  0.8014192594575835  0.2005747957545404  0.4000346908184679
  0.8004241187652488  0.1996564121691196  0.6001231880856016
  0.8018263757879118  0.2011679892490620  0.7998677288714470
  0.7957977079150803  0.4010487901533464  0.0001545167468586
  0.8004872070337221  0.4008366277689852  0.2005444362310070
  0.8000345530225732  0.4001194258290136  0.3998302798067247
  0.8004681293396422  0.4012568548446496  0.5994110125895853
  0.7999488572755586  0.3987422815363462  0.7996188652926163
  0.7988619460832730  0.6019337902750287  0.0043217287956791
  0.8010346254300461  0.6009976180827103  0.2006013467867473
  0.8003273557528190  0.6006465933074868  0.3990351471654417
  0.8003014653120769  0.6009306808157933  0.5958842827771980
  0.8022540002957330  0.8026743941737244  0.0018655073334366
  0.8022600110373689  0.8005033264510054  0.2006134158787267
  0.8012933468300946  0.8012039450071158  0.3991152969274170
  0.8014026581148760  0.8033664346525001  0.5976145568360839
  0.8105675804930603  0.8100774215289773  0.8004000704309485
  0.2005619186585680  0.9995411886759378  0.4006437918661940
  0.1914748603318422  0.2000089272531098  0.2003913737906740
