ALGO = Fast
EDIFF = 1e-06
EDIFFG = -0.01
ENCUT = 520
IBRION = 2
ISIF = 3
ISMEAR = 1
LCHARG = .FALSE.
LORBIT = 11
LREAL = .FALSE.
LWAVE = .FALSE.
NBANDS = 640
NELM = 100
NELMIN = 5
NSW = 300
PREC = Normal
SIGMA = 0.2
