Zr Ti V  Cr W 
 1.0000000000000000
    15.3161674756862691   -0.0038639056753981   -0.0081742366427040
    -0.0038625530149281   15.3180417040563182   -0.0084288121243241
    -0.0081714294601317   -0.0084252347079361   15.3251398317997438
 Zr  Ti  V   Cr  W  
   1   2 101   1  19
Direct
  0.0005639059509281  0.4052319607789485  0.6030680053682470
  0.4073460022116636  0.9898074026860096  0.3982574041088135
  0.3949866412541443  0.7963641203834673  0.6147962537972994
  0.9964221796654174  0.0009984605176292  0.9988164169043149
  0.0003057419521735  0.0006563227034775  0.2004126280255286
  0.9960841927612155  0.0056002646092839  0.3992595824558850
  0.0009938873982166  0.9980313035024218  0.6000229279951786
  0.9981392159976482  0.9991821509343398  0.7996633589022486
  0.9991985287908738  0.2039071128328479  0.9985646066958660
  0.0043524770337109  0.2026612321286572  0.2040567842649895
  0.9979834373225459  0.1971855631434066  0.5950563503051635
  0.9993234874683751  0.2037638949440325  0.7965711893522107
  0.9977924745265759  0.4025312003310284  0.1949926750644116
  0.9983219921764480  0.3970401201178406  0.3951833853564147
  0.0000022001400589  0.4047156078638957  0.8083668934410696
  0.0001660323065868  0.5990971609018212  0.9967444094002301
  0.0051815082764541  0.6003078324412934  0.2011898069332197
  0.0004449734054521  0.5988423565608858  0.4019148231348056
  0.0031381424628840  0.6094897213652454  0.6020544852308832
  0.9974676868593830  0.8003006316720621  0.9972634035226858
  0.0013124744967399  0.7998700733289523  0.2011005085803255
  0.9980367906702402  0.8011604435842818  0.4035006761586183
  0.0063189660350471  0.7957105694884299  0.7980132611591438
  0.1966697807370641  0.0010066902831485  0.9998541441427878
  0.2006465395484508  0.0052241818727492  0.2021063551867227
  0.2000179739254140  0.0000934689323598  0.4031945691426956
  0.1988106708777164  0.0033070121440481  0.7971239397996103
  0.1994302016087587  0.1990690321264710  0.0036840152122135
  0.1980532498734411  0.2000138023604328  0.3964881727473880
  0.2026466161596309  0.1964835333779814  0.5990032199232046
  0.2013503571805227  0.2011354551817793  0.7994769894291704
  0.1963970868059623  0.3996664318743537  0.0013405669013203
  0.2024188753462620  0.4006005199694438  0.1992119147433591
  0.1986667487537104  0.3997238723241845  0.3993182963317496
  0.2061007402628465  0.3974160309762441  0.5996181703426541
  0.2003949428827481  0.3998224298787367  0.8015945999656140
  0.2009701110838301  0.6014040401748607  0.0066051732220680
  0.2042838585992411  0.5998113407902177  0.3975071636764815
  0.2074821331325105  0.6040693265999524  0.5971151152499786
  0.1978228704552478  0.5996373079920015  0.7992933507692862
  0.2013432361054207  0.8030681606383793  0.0018776863438442
  0.1998654826540073  0.7977401276417199  0.1999137543131631
  0.1983825997689258  0.8027474184316170  0.3991059311744815
  0.1941909978883580  0.8066104127238936  0.5995570640672276
  0.2034436546451634  0.8010755328788804  0.8017799743956397
  0.4006993600999825  0.9965049600078106  0.0001378481420446
  0.3998995553871106  0.9989767759291985  0.1968906909644030
  0.3945653561597817  0.9996882847703292  0.6026951169501815
  0.3991608791132396  0.9962356047690138  0.8004632690059097
  0.3992647359430387  0.1980051751846690  0.9990077545247559
  0.3967110081391975  0.2016876151113622  0.1999037977461186
  0.3983228932506052  0.2037111859177994  0.4008867117329545
  0.4019981764823975  0.2008943461326046  0.5993970821672322
  0.4023561200222307  0.2003316207223004  0.8012646647364385
  0.3988398139831264  0.4026572266836168  0.9986651049727955
  0.4040177161251185  0.4018007564076161  0.1982799500857948
  0.3995477108004959  0.4034680512925730  0.4005520842155631
  0.4009655164076358  0.4025667305509865  0.6019100224340218
  0.3987937846009481  0.4022256085472012  0.8030433944067541
  0.4002608486064963  0.6039719907184780  0.9990249454440374
  0.4005836790629426  0.6005990592269479  0.2059946915547468
  0.3988458289824697  0.6021962626297054  0.7977074874072508
  0.3992639564933890  0.7997335316103114  0.1950524023531814
  0.3986334782993843  0.7943432078099587  0.3989868549145782
  0.6023139162238413  0.0009801469537891  0.0017168875125524
  0.5975265609440860  0.0031716990888484  0.2055499783223513
  0.5967018324778531  0.0042066663073441  0.5945232308788190
  0.5994160704416563  0.0026739351121154  0.7977381892831265
  0.5984293398010091  0.1995383707761639  0.9966396891347115
  0.5973717209093600  0.2045883046441358  0.2019949991394133
  0.5979112967459440  0.1971132268367781  0.4041502089330858
  0.6013261839817617  0.3996981260856260  0.0029435700784275
  0.6021476966615998  0.3960282025000709  0.3960974100017454
  0.5994389828121567  0.3990448957963811  0.5988709250694831
  0.5997846536605254  0.3970819147910518  0.8034493930182433
  0.5997699053573550  0.5997247764963832  0.0042755946511062
  0.5958990874720698  0.5993424474480621  0.4012338685313172
  0.6036609117782118  0.5987273472728356  0.7957934102721953
  0.5993454038866366  0.8005506278081206  0.9997696980377978
  0.5981095036482735  0.7938115613925526  0.1998015777690730
  0.5992141542638204  0.8030079630357645  0.4001055219978026
  0.6045923208843305  0.7968935569709075  0.6025151453303869
  0.5942611170045151  0.8015729559583212  0.7993941489677586
  0.7988770459604829  0.0007860914838441  0.1953017250251441
  0.7974799453336902  0.9988255510071582  0.3960017803577257
  0.7988861655276458  0.9972927429847764  0.6029713124522478
  0.7986169386498219  0.0032672858070194  0.8026125454660079
  0.7999020502459275  0.1952449845543847  0.9996492355684056
  0.7984638054568189  0.2001069831000086  0.1980889608718718
  0.7956692251006446  0.1991914534830317  0.5992954428691560
  0.7955291857805278  0.1999881393598100  0.7989850031514061
  0.8035444920100766  0.3980005439172228  0.0010488194592842
  0.7971623156007995  0.4006536233890663  0.1978017093948067
  0.8015563109947579  0.4008158682947330  0.3975796443237477
  0.7949738762483269  0.4010865502091689  0.5983667599618725
  0.7996962210907563  0.3996908188046785  0.8024106036095991
  0.7990265363192413  0.6055181510869383  0.9990138496029773
  0.7947071830586940  0.6007945213952383  0.2014639265844920
  0.7995900333979651  0.6012007837663326  0.3995243424276910
  0.7931879322695369  0.6028565428706121  0.5996737414201034
  0.8029847133655738  0.5968275972140703  0.7994558059471981
  0.7992973659439453  0.7994463598242155  0.1955321407560031
  0.8011644320220823  0.8011358354178173  0.3969525928597480
  0.8019069734118334  0.8015657777473360  0.5962053993433518
  0.8002023894490325  0.1995540445587075  0.3985337028871169
  0.0018666092022546  0.2021290648132773  0.4000517509015851
  0.9979681073559833  0.4014463294142336  0.0007219321888589
  0.0007705840861247  0.6002414060819987  0.7976975239813109
  0.9980118641081073  0.8026722479933741  0.6022539194913016
  0.1983346432533063  0.0021411996945716  0.5991769498434268
  0.2014672099867908  0.2024633535277311  0.2006293157054248
  0.2030360449673679  0.5988638829414072  0.2033134493012278
  0.3995750784411777  0.6003045397335108  0.4043928987880390
  0.4056888166004833  0.5977885340952636  0.5989022694449071
  0.3994181591214745  0.8009400432077300  0.9976226509829927
  0.4001278153076485  0.7984671484812752  0.8083296169626074
  0.6037047595579154  0.9996525232338840  0.4005642935776641
  0.5982244828834148  0.2017054053096768  0.6027367295449806
  0.5978087501321904  0.2012734249254786  0.7963223798460636
  0.6008029091159697  0.4010711495532679  0.2001303087492896
  0.5974886784383254  0.5955796077135488  0.2041551069508484
  0.5966861894576286  0.5984687065672444  0.5979393449018624
  0.7992032565740322  0.8039896274338841  0.0032633218765943
  0.7990430992585853  0.9975864783018846  0.9992409659577054
