Zr Ti V  Cr W 
 1.0000000000000000
    12.6128815926243281    0.0234685826786297   -4.4344140666059095
    -6.2877553547250917   10.8672251432124742   -4.4389833404549988
    -0.0077673655809811   -0.0189816716911543   13.2813963684852467
 Zr  Ti  V   Cr  W  
   9   9  92   5   9
Direct
  0.9872135543955706  0.1969365371923966  0.5975528261156755
  0.9903301410611217  0.4097340225832119  0.8068133646797516
  0.2109426701054416  0.0239789142214371  0.4150970948063696
  0.1925430514741084  0.1920614731273792  0.7885617474964409
  0.1968933265620148  0.7963894988181418  0.3959514298059868
  0.4094509327413473  0.2092631754047551  0.4075355950720548
  0.7946520977041585  0.1941988176777164  0.1988934776642784
  0.8012987077020420  0.6035058567168167  0.1718497346947571
  0.8000384237722027  0.7809691021363628  0.8006218064449667
  0.9963551529273987  0.1929493825953548  0.1883977116657176
  0.4004808078862955  0.1969385809226842  0.1845532991850939
  0.4501761869057735  0.2426196120274275  0.6631106694129860
  0.3900343364607815  0.4029660875123352  0.5940988403661901
  0.6067673947626602  0.4070533635952163  0.4006195872129106
  0.6360343146685613  0.4325223851380856  0.6380639570983038
  0.5948882232098540  0.5994542914568928  0.2029209801235972
  0.5990909408225642  0.7964868527430328  0.5984944662280721
  0.9077895032098648  0.5987058308536760  0.9936464407038950
  0.0017422011349885  0.0001539607884654  0.0008481530745848
  0.9942147832641425  0.9916878138176474  0.1942464991208007
  0.9921615206684259  0.0037319495913090  0.4003036061738869
  0.9783848384691173  0.9769250817153912  0.5928908323926279
  0.9944435500471119  0.9890373632365548  0.7979896992409471
  0.9942327536335018  0.1941039146010388  0.9914437110265265
  0.9940968013979554  0.2079358482412648  0.3981346205296259
  0.9853342637940736  0.1896291544676591  0.8108523956573502
  0.9944685423390738  0.3906725667842100  0.0056334828684166
  0.9952896454335890  0.4000952258871647  0.1988629523768428
  0.9919148662806739  0.4104862306815843  0.5905187187182157
  0.9986409466942006  0.5790875204706777  0.1899697061196446
  0.9929715165920460  0.5925101247912430  0.3952102200074687
  0.9946667053083659  0.6006220619773578  0.5960894352490018
  0.0749828350347402  0.6832961187084339  0.8669941903331712
  0.0150130378599736  0.8097148333326932  0.0048727291372800
  0.0032458470636818  0.8120869215408375  0.2001804773756820
  0.9964713312734045  0.7936389738804895  0.5993561025599309
  0.1959553029584317  0.9909222728874781  0.9908427135189756
  0.1961933058629164  0.9942411330564517  0.1869600514837155
  0.1965864622385585  0.9900144642322950  0.6058015545846958
  0.2003352825900248  0.9907370582295539  0.7994031412940272
  0.1787470439682345  0.2110073023688468  0.3880462485767299
  0.2028872029165462  0.2150538000257682  0.5894184691181699
  0.1972528829790803  0.4002722684134629  0.0006654868529021
  0.1947965134963794  0.3990186135756271  0.1932775329921826
  0.1928242695083068  0.4047673753266587  0.3965952391835364
  0.1912704302320507  0.4038166833473236  0.5990185292331421
  0.2058078339062143  0.6124487161553792  0.0083730300957790
  0.1968789063643474  0.5925305364616518  0.1934161753937622
  0.1952697833971879  0.5888430075176229  0.3935237418940229
  0.1976760481964944  0.6048369080998098  0.8020680530605091
  0.2024039935166851  0.7989094920132277  0.1841395662946744
  0.1960120240492733  0.7974585811948384  0.6035559807626840
  0.1968709847171035  0.8007836674818076  0.8017288057082815
  0.3996824732440843  0.0033215936175360  0.9985256278738153
  0.3975840984205137  0.9933725141942665  0.1910193410629910
  0.4080630994105236  0.9897102470959496  0.3930484747955763
  0.4117599504965707  0.0023752580042952  0.6173142127727365
  0.3978927136343451  0.9947668862941947  0.8011269720830320
  0.4061436440901279  0.1925668507122081  0.8161251886139003
  0.4004888773497626  0.3993373505901751  0.0034704445237626
  0.4007018187617060  0.4053632952709902  0.1946325685448347
  0.3900547187786919  0.4067592340609800  0.3856517587337379
  0.4012961094141866  0.4084364750518926  0.8083999830680566
  0.3967965873103585  0.6022531143438575  0.0030361694974824
  0.3901603130226511  0.5929221324054783  0.1931389287036975
  0.3932550696040892  0.5951669619855195  0.3933453756952739
  0.3976851747962197  0.6047716540091838  0.5957988738305403
  0.3955592536760639  0.8026567359026444  0.0009240346024605
  0.3974922163695044  0.7966884842315107  0.1950418216600543
  0.3974421121448884  0.7988290016618779  0.6003841944284039
  0.5910616020267138  0.9896997434368542  0.9941752295696827
  0.5926892962660860  0.9954085260640899  0.1948674522193142
  0.5965262664136002  0.9944956273776184  0.3938783378494710
  0.5972221235055123  0.9938950725757368  0.6008625817503770
  0.5989684004734566  0.9960641463053740  0.8019250180848819
  0.5955972458880515  0.1934211737352319  0.9976740465402667
  0.5964390025424997  0.1990566711104953  0.1964381180553378
  0.6037274830247109  0.1927226662940252  0.3897567597415341
  0.5864734263079426  0.3881386169326397  0.9931587644831078
  0.5930542205478271  0.3902563210189630  0.1881663775231086
  0.6498760945004596  0.4658132548787758  0.8645597805802548
  0.5923295873798342  0.6066074471423683  0.9995114734246766
  0.5977594455843330  0.6029752904263807  0.4031704287251006
  0.5830469055889500  0.5854713527726838  0.5802249616896904
  0.5920746272810873  0.6036179314940486  0.7998281447268591
  0.5967396717306043  0.8015144630478342  0.0019680553255131
  0.5919291292073404  0.8018926936498484  0.1967740175451761
  0.5972844019376590  0.7946586258879970  0.3946745623321646
  0.5947972557439518  0.8015969360659777  0.8028345822687338
  0.7904663966251220  0.9871791911184040  0.9901373069822063
  0.7919118232980006  0.9870182222963689  0.1953019614229468
  0.7830912781570545  0.9880402302186601  0.3922768629742228
  0.7900668535593230  0.9901910668800691  0.6016707799132940
  0.8010246842138090  0.0016314789109098  0.8045654527278869
  0.7960936254182570  0.1901612310637216  0.9923621405764963
  0.7900826244312568  0.2008511328683363  0.4060547150881224
  0.7788107039902749  0.1890732822265426  0.5932813588577333
  0.7917773337048911  0.1921152280502217  0.8014922848296984
  0.7893453535906592  0.3816321874458612  0.9961019944509816
  0.7936623657859090  0.4001513743317078  0.1951357334057344
  0.8028849639848249  0.4041839940911995  0.3966739772992238
  0.8005931612001981  0.4005904388809450  0.5943208951437424
  0.7746033185297133  0.3856185101287161  0.7979934531364541
  0.7961778694467051  0.5964099066739376  0.3998833776570013
  0.8073331999016051  0.6027133206191239  0.6018726103502585
  0.8772870830906319  0.6063322261291024  0.8158634678883175
  0.8034072148901817  0.7801353637697785  0.0117127530459796
  0.7980374450839323  0.8167208975131393  0.2059343771814797
  0.7999354388830715  0.8014893248267277  0.4052024503812817
  0.7995863795141627  0.7934314728898493  0.5910607029440833
  0.9974347059593464  0.4062847852064695  0.4024611683943979
  0.0077639044524440  0.7999630913841966  0.7984631750134070
  0.1445239880901922  0.7408903170905613  0.9994913006591906
  0.3984475811942017  0.1961580888084784  0.9934657108989281
  0.5992575252763017  0.1874320313092430  0.8079483071097548
  0.9967595768890614  0.8049965579029088  0.4042361268225488
  0.1981530460507681  0.1965031076828183  0.9973027997413083
  0.1984938642553265  0.1984966534260533  0.1943675111549698
  0.2047076412188459  0.4131899714019060  0.8078945774291479
  0.1931927241606500  0.5992499659703603  0.5952034568410061
  0.3985689535481170  0.6031381507409143  0.8014214334057647
  0.4034585727899660  0.7946623530882129  0.3977370275316784
  0.3972926103742201  0.8019789994017070  0.8013531962989542
  0.5979872598004506  0.1891494843384776  0.5976409473192523
