Zr Ti V  W 
 1.0000000000000000
    15.3704372863088707    0.0041087699184726    0.0045828320708022
     0.0041071823098185   15.3593176205705255    0.0049868964281650
     0.0045832368054306    0.0049883200619353   15.3853693029952101
 Zr  Ti  V   W  
   2   2 106  14
Direct
  0.1972278416018297  0.9848556924900240  0.1742383523433157
  0.7919526911056608  0.4011222241824352  0.8103523260539590
  0.4073124167994914  0.7975122681551509  0.8085035829611614
  0.6127098845554334  0.4027452325354491  0.9884678303472408
  0.0012899290793712  0.9994959031224065  0.0033802070235789
  0.9906977369893879  0.0036911124257104  0.2023477840216032
  0.9998733545266755  0.9964365937148952  0.4004351037509710
  0.9933658432469377  0.0005128728024406  0.6027897195806757
  0.0012324177309895  0.9994024266073096  0.8011102724739040
  0.0007206957456165  0.1994536484987070  0.0009263854708377
  0.0009781715920041  0.2029810010414508  0.2032081188132347
  0.0011411009230105  0.1995167603818756  0.4009713079385969
  0.0030854086429777  0.2006492842114943  0.5991019008418371
  0.9993060685701591  0.2010366714000294  0.8015720416351976
  0.0044631893770803  0.3988845936190190  0.0062592313109563
  0.9992849969530749  0.4007000580965258  0.3971074291127304
  0.9974798272100114  0.3999351309914767  0.5999805289216732
  0.9994629102378575  0.4007271623407588  0.8029274391671634
  0.9979331455753261  0.6043802989374252  0.0009495616862808
  0.0014297329741886  0.5953454478302949  0.2010586236663122
  0.0000725799013308  0.6028445077089378  0.4023879187877961
  0.9992501637687505  0.5994907559507293  0.6015977237123390
  0.0017807557777851  0.5999414253350485  0.7998594081289871
  0.0056787802942166  0.8013147126398247  0.2025421003777715
  0.9998454016003995  0.8001041240522848  0.5958622301918192
  0.9987119672980524  0.7995149598021761  0.8071424103145253
  0.2002747429892835  0.0005816822316119  0.9807326034813113
  0.1978990092646476  0.9991295575296226  0.4088041684648724
  0.1984507807199286  0.0029087148488560  0.6048527865817050
  0.2006551911267629  0.2023993990795507  0.9977722654228068
  0.2005291581125665  0.2001040709003806  0.1999666982586864
  0.2024732472507678  0.1986881910917101  0.4036884084558389
  0.2007747967475484  0.1960889880927301  0.7957049251431051
  0.1958596609771658  0.4043699673257368  0.1947700911957444
  0.1995729079021983  0.4020279717419501  0.4001996841968938
  0.1976289158189546  0.3968971768003671  0.6018508441139211
  0.1975564122471472  0.4054124927862252  0.8046302486955582
  0.2005733605992294  0.5979546429676521  0.9954822929385545
  0.2011401914670002  0.6000996122339987  0.4018125177557654
  0.1995913338242114  0.5997588757427644  0.6053698933630781
  0.1970153308717707  0.8010363859062194  0.3952489321484926
  0.1988451622718562  0.8005059260504864  0.6023758085759405
  0.1971508004831448  0.7983334278926505  0.8015232425358976
  0.3975670638743175  0.9994662983561717  0.0023518463468807
  0.4037401240015627  0.0021220227051999  0.2002330836000655
  0.3993101624668245  0.0015011611357808  0.3981232398384388
  0.4020096432796683  0.9997048186203709  0.6009259915012368
  0.3984719987855072  0.0022819881321725  0.7997757511348896
  0.4008347528443250  0.2000882909474317  0.0015938718766224
  0.3999651124292442  0.1993591289946510  0.2046683144204441
  0.3961346880076035  0.2004039216013561  0.5954608497474478
  0.4001288935684251  0.2005939580126743  0.7993478049777732
  0.3947193093835313  0.3971642538102272  0.0003403487156161
  0.4033123340342808  0.3990958260596386  0.1984853160473280
  0.3995205808606556  0.3962196101363555  0.3983317430041752
  0.3991597225527778  0.3997186971473758  0.5985806914860887
  0.3966045944164619  0.3987293909784818  0.7999412943159340
  0.4009105822066906  0.6004200962699497  0.0010187034574625
  0.3995337568063224  0.5954421203825832  0.2006623166479242
  0.3995406799490260  0.6011110323392830  0.3991046407075430
  0.3988456096805935  0.5993510416918780  0.5986316096599398
  0.3966040041541461  0.5970577417377871  0.7986206597622407
  0.3975181806345444  0.8003989945624889  0.0008457963002935
  0.3998709595013212  0.8019375072097811  0.4001076986290723
  0.3994754274497722  0.8014543371478863  0.5953248385158536
  0.6002570012518748  0.9994155821574009  0.9984508395674585
  0.6019831040529018  0.9991521233373107  0.1982887951669663
  0.5984395904437116  0.0000258654417993  0.4007858720058292
  0.6019574860782440  0.0006653750909779  0.6022057316967623
  0.5980752874324875  0.9992925417639447  0.8015734391513305
  0.5991325080392302  0.1982505527453721  0.9989716977183301
  0.6001079886393362  0.2033125816793517  0.1986775936019646
  0.5950484960654153  0.2009658223368833  0.4010764177946154
  0.5983859999685313  0.2010082692260599  0.6010740071682557
  0.5971341533094102  0.2013474172431659  0.8000515783673020
  0.6041877970455500  0.4011063953007183  0.1988448102014811
  0.6008650797408061  0.4017185140571659  0.3986378020540417
  0.5999366576720592  0.4006866253539892  0.5994140462128364
  0.5900449048381773  0.4009748344489534  0.7950394611438094
  0.6000395957116478  0.6029158563799601  0.9988990669013492
  0.5978961213420816  0.6000311309462941  0.1980845194915918
  0.5984827882359205  0.6003498886028845  0.4012769582580320
  0.5984608655346844  0.6003451602120657  0.6014793915293961
  0.5958666636147930  0.6008830702926463  0.7999896794673057
  0.5975513096335169  0.7999488535231840  0.0008354450212769
  0.6027065537118901  0.7993136136207364  0.1990553680262089
  0.6013680218854067  0.7993178285570501  0.3976679035848264
  0.6002936656631670  0.7996405129352295  0.6009113516974958
  0.6039397995817640  0.7994938104861362  0.8011841344868422
  0.7998712215312335  0.9995632940961435  0.0044150003761651
  0.7972936377191440  0.9968350084003416  0.4015205284084706
  0.7994089729906603  0.9994997178459779  0.7977576080675605
  0.8005587648409697  0.1990661819113451  0.0009841257898673
  0.7989641893599282  0.1969911781832409  0.2025666974871693
  0.7986052818069910  0.1986116189430943  0.4019576591964472
  0.7994241327359107  0.1964649824072099  0.6004302817915602
  0.7996402417667712  0.1955345436588762  0.8008140353732091
  0.8081101434833430  0.4001069114622163  0.0105061399873503
  0.8045441604461669  0.3999426046981002  0.2044336475925725
  0.7999990108923777  0.4002255942924015  0.4019407394418376
  0.7995148026025437  0.3987256357614425  0.5995436100220989
  0.8000616386471634  0.6025689220263659  0.0012137521325957
  0.7988171462697591  0.6004464797163350  0.2012152415560736
  0.7976903249577946  0.6049944773697031  0.4018044812575596
  0.7985799946516575  0.6001644749490640  0.6027007233705994
  0.7989067158334792  0.6062096629272827  0.7994067668705528
  0.8083196769914718  0.8017479096444201  0.0026842047870938
  0.8005890726494550  0.8042089391034121  0.2042926252071800
  0.8004255121904492  0.8049431390870857  0.5967195725754956
  0.8013444738775706  0.8016515170693074  0.8013463576414075
  0.0005642109997570  0.4006296759330069  0.2021011143119016
  0.0035949028637527  0.8003469057950670  0.0044193859181138
  0.9976189023243304  0.7982395083660067  0.4002436768145184
  0.2002366966335287  0.9972107949946521  0.7955848353144080
  0.1994238515156318  0.2013103290871028  0.6017538287074063
  0.1996384561497830  0.4005718211225628  0.9985131653902564
  0.2044442511113460  0.5986915028303806  0.1954376306085685
  0.2007059182106672  0.6018560522093290  0.8001772991114501
  0.1960887634505021  0.7837010744893246  0.1972996040079951
  0.3989046575531345  0.2000576441141872  0.4000366521663149
  0.2286504609874731  0.8015790287343389  0.0355243251474040
  0.7968091032790928  0.0022454071117941  0.2019729497529379
  0.7982345128245051  0.0008596745199912  0.6009048550269432
  0.8038749001236604  0.8010882015972758  0.4000019063913531
