Zr Ti V  Cr
 1.0000000000000000
    15.3990340272275770   -0.0170018773457157   -0.0022529018582575
    -0.0170107766548915   15.3787801482628375    0.0165544931564424
    -0.0022517709109467    0.0165430754876648   15.4057927644380346
 Zr  Ti  V   Cr 
   3  13 107   1
Direct
  0.1965478099852165  0.2024192263257569  0.3707655524300800
  0.2043261118179049  0.6215268904355722  0.3840907711086314
  0.3870397337747926  0.7947814266752695  0.3904300648325260
  0.0005685230625661  0.0034356708370434  0.0019788676837216
  0.0008385253570344  0.1973152915067441  0.8045721908866892
  0.2028905833682760  0.2005931824062631  0.1737585431153042
  0.2026893473354302  0.5932379537017971  0.1840899686128200
  0.2113399999846862  0.8037384932501193  0.2153639122971337
  0.3888051638702374  0.2053410273638850  0.6007386277626279
  0.6088151275249472  0.0135298471761471  0.5930683357467923
  0.6044855601429124  0.1919359199767783  0.4126097745661698
  0.5888770497784928  0.2028638784659206  0.8122204942927379
  0.7963515202296618  0.1976841609630069  0.1974046044616611
  0.7832287645252072  0.1955891770227262  0.5932614458746672
  0.7972962868203963  0.1987934902315036  0.8028982525119399
  0.8023284792078862  0.8024298523644507  0.2000538475152902
  0.0023530671322607  0.9997366289783317  0.2041831703876815
  0.9991018453484268  0.0013643937825194  0.6005956752325599
  0.0014792969498022  0.9982548856448461  0.7983474499052184
  0.0007668919302610  0.2025162353781060  0.0054812966517507
  0.0032086774163771  0.1997500013005968  0.2022526317670651
  0.9941077906314816  0.2022934607418506  0.4012134607662448
  0.9983077976392182  0.1995162051838780  0.5978176280404075
  0.0004399090215843  0.3997841301276419  0.0021516754475912
  0.0003981900635967  0.3994320313233335  0.2023171071462881
  0.0007322757276302  0.4007489491008342  0.4012751017930381
  0.9984620102952553  0.3994596245722066  0.6011268875901764
  0.0007925459243685  0.4006225255348962  0.8009119212398592
  0.0012595352821438  0.5996009643666312  0.0017404093088832
  0.0006715175089396  0.5995301835674725  0.1999608857016116
  0.9961907257910122  0.6000860585945041  0.3997493707932621
  0.0010424363206902  0.5996348807961719  0.5992402463550823
  0.0000645233124874  0.5997584109190092  0.8017701486517274
  0.0026576285394502  0.7985748553043819  0.0034241006948774
  0.0028335494679193  0.8006652165839663  0.2023737869969816
  0.9939665267522543  0.7983690945684520  0.4013380843841510
  0.0004370677633467  0.8010503663882138  0.6014034022217898
  0.0004603184978775  0.7992885303124467  0.8013864187234805
  0.2026387901407671  0.0000695461932923  0.0000845402988765
  0.2022059219026577  0.0053430840080375  0.2013777572751018
  0.2004445289717159  0.0011559370585752  0.4002158105260321
  0.0670551118769559  0.0030797457541016  0.4677864225442399
  0.2009843483007936  0.0000745631014389  0.8004292131785831
  0.1992969019608695  0.1997530347973156  0.9865894597982353
  0.1945721516761057  0.2011897212938409  0.5957812245112059
  0.2013316752561384  0.1979779168434796  0.7945128099173738
  0.2001598298264069  0.3983892299530851  0.9991405858292666
  0.2014752373902304  0.3974418333116830  0.2001742975283370
  0.2000574828336210  0.4071866808861193  0.4010787488180625
  0.1990624784585751  0.4009566088283636  0.5988537380324627
  0.2001462720760055  0.3992550374795326  0.8001529310643614
  0.2008289785823317  0.5995889971510180  0.9939330415441519
  0.2002797416832015  0.6008811633088987  0.6002124485013099
  0.2012043111930090  0.5993824377399206  0.7987645343367522
  0.2014178318844813  0.7999049112360610  0.0005472720614364
  0.1856003295005447  0.8218998650591562  0.4122363670931244
  0.2000070824812754  0.7986589077831173  0.6039138065808486
  0.2005913593620346  0.8028068738580562  0.8015995900148656
  0.4012554650537579  0.9995848313265658  0.0023162695452832
  0.4017722231258909  0.9971841204172128  0.2010011174769212
  0.4005719426121742  0.0043442722876531  0.4009344906930533
  0.4011865613731752  0.9997558196348165  0.7978016424358615
  0.3994077473989973  0.1985573838858662  0.0018189964636135
  0.4002779722936693  0.1985659125952108  0.2013929156495640
  0.4012445024288182  0.1984128393255077  0.4000701725727407
  0.3957573852173181  0.1990702397880625  0.8047019125537882
  0.4007819009305161  0.3985479404365084  0.0021628115009134
  0.4018853073719503  0.3978028427110877  0.2018808000577223
  0.4009290567815460  0.3945057855683215  0.4012812783338534
  0.3995391077686344  0.4011417471668533  0.6010018450048248
  0.4006598170948105  0.3991132540462237  0.8007127553977579
  0.4009611034505038  0.5986860733603934  0.0008671085993888
  0.4042703406632011  0.5970561453272434  0.1999535446692831
  0.4089804010133991  0.5897471100043923  0.4001763687935688
  0.4009738348133590  0.5978184669933747  0.5994777795611408
  0.4013224798262877  0.5997260719809339  0.8014598293153378
  0.4003006170992144  0.7992888110780817  0.9976020517605613
  0.4062479853443686  0.7993694337311796  0.1910586058442355
  0.3998904660119003  0.8004030255417561  0.6019933400248776
  0.4011500382753050  0.8001878826929227  0.7990432079325794
  0.6012489085654315  0.0002246887511150  0.0001944189798172
  0.6014846225197282  0.9998353646394715  0.2015109950597824
  0.5975132363163435  0.9944547684694970  0.3981121406293669
  0.6002844383703565  0.0003639001211256  0.8012400436317977
  0.6000944704887864  0.1996540506496516  0.0075299037804672
  0.5976198110402453  0.1979828628130184  0.2021469164759976
  0.5904874291321891  0.2058387127254407  0.6089786475387752
  0.6016837035665548  0.3991424340784573  0.0014555114453796
  0.6008556418818247  0.3971278407442807  0.2029200162494067
  0.6017582096208509  0.3988669637869996  0.4023385366036026
  0.6000625414731158  0.4020697306472960  0.6024986196396521
  0.6005339727223277  0.4020377933685846  0.8021566712427153
  0.6014921890992704  0.5993382518875511  0.0014191182516435
  0.6029273499054713  0.5993429270200489  0.2002003402846753
  0.6026550722016903  0.5983990005089763  0.4000967677544155
  0.6004538540201737  0.6021193853751809  0.6008461295531520
  0.6009118624780413  0.6004212059297677  0.8011160668276656
  0.6019027992641283  0.7999192638017367  0.0007574413440927
  0.6002840345215448  0.7990613350966459  0.2001093267596900
  0.5997833209731513  0.7992726078144260  0.3999923206553712
  0.5989399374653158  0.8014994843597586  0.5994887665676926
  0.6004720389379364  0.8019163234760429  0.8003048688127892
  0.7996754227578816  0.9996643870260931  0.0006387266337730
  0.8012636922426917  0.0001797173712265  0.1994961719230034
  0.8139061087026349  0.9964662351308564  0.3958961326341908
  0.8048319567356260  0.9964781745777073  0.5988485022109503
  0.8004941268800388  0.9982631324680161  0.7993357416911376
  0.8010484063559986  0.1991882578696285  0.9989082722573689
  0.8014713978836617  0.1975527869476924  0.3964247722326885
  0.8013334873761042  0.3982616732232164  0.0007817215130204
  0.8013392181471114  0.3990424859983520  0.2006509361001807
  0.8003269467898976  0.3978629289398816  0.4002624807602241
  0.7994783613654262  0.4003128369460340  0.6001302873225268
  0.8003827499663112  0.3995459552679068  0.7994189776882501
  0.8016873640171230  0.5987189724658638  0.0001553064549340
  0.8010039023886623  0.5969674970198413  0.1995100080691029
  0.7994589534905910  0.5996035735038938  0.3993027548090235
  0.7999663191926589  0.5987561298202604  0.6002745183303296
  0.8006011450548366  0.5998982461001874  0.8006716438679936
  0.8019379459713191  0.7997372399205404  0.9975579293459512
  0.7979926989291675  0.7997087550924328  0.4029953378691274
  0.7993867813362405  0.7987021442390874  0.6016578121901957
  0.8007062761017533  0.8000081037243807  0.8002866711688962
  0.3954716876174591  0.9977324665501823  0.5982756888460885
