Zr Ti V  Cr W 
 1.0000000000000000
    15.5087483082677728    0.0011241511672532   -0.0011658627052895
     0.0010760835604324   15.5496415199413960    0.0093654870697751
    -0.0010458555872954    0.0094419591705861   15.5080119952370001
 Zr  Ti  V   Cr  W  
  15   2 102   1   4
Direct
  0.9806123459933487  0.2253925686062900  0.6178409189338808
  0.9671090039630520  0.3944732333840672  0.4217406777476876
  0.1993298827600434  0.3702219677146098  0.7583263265258892
  0.1708575515348541  0.7928484600873443  0.6042171047755146
  0.4064577827844254  0.0395147447374100  0.9983095677789472
  0.4250759494536729  0.9445107535443444  0.2104906896123738
  0.3882710654347989  0.2457324990229501  0.6179054044779529
  0.4309949617888637  0.4079508341363106  0.7793478392389998
  0.4097947979703585  0.8074350279919439  0.0137145430920375
  0.4004963318100832  0.8007601657053086  0.6014623422975416
  0.6026893112391274  0.3832031923320972  0.6040411265307133
  0.5982881694272725  0.7965074976673835  0.1887959045407257
  0.6276911739034292  0.8007509638066206  0.6011880119133864
  0.7638296176341476  0.2048501874245016  0.5714067277595726
  0.7475837432950714  0.3897613000347258  0.4118204919781867
  0.0016038492445302  0.7973388758177611  0.4153867498300519
  0.4020041313781890  0.3921228432905483  0.2055044132471887
  0.0018329023593209  0.0021347436574515  0.9981500961354520
  0.0027218601674172  0.9957474590691658  0.1972228338952529
  0.0052576142168841  0.9993581278469847  0.4019028860005600
  0.0006717773994909  0.0057602229845986  0.5999387317437468
  0.0036817109755384  0.0009712635485826  0.7986714166932330
  0.0065934139875894  0.2022622741859783  0.0028667917393728
  0.0047179990182149  0.1997716852294719  0.1919962960469904
  0.0088432752151892  0.1929514460793823  0.3845321991575105
  0.0063441253182674  0.1974490984254476  0.8144597631353989
  0.0001958852140613  0.4034485318550045  0.0010634824943061
  0.9982156487096711  0.3979575218830634  0.2040730393569265
  0.0029139329047820  0.4201135189869690  0.6180476294008649
  0.9996179142313877  0.4048415631684303  0.8080394175120991
  0.0025916006110339  0.6015350463588790  0.0030114633378080
  0.0043279594247628  0.5975412238544698  0.2039571770770875
  0.0014853518078251  0.6009082965591540  0.4029024421078020
  0.0041921857101976  0.6083108965931666  0.6030970270930485
  0.0051129713647542  0.6034224482458534  0.8048216404452166
  0.0032119398318695  0.8027123466928713  0.0012659780242730
  0.9992268779718571  0.7965911868591410  0.2003241474115175
  0.9824841555871651  0.8039495049328347  0.6107775106905030
  0.0042527937407060  0.8037652082301997  0.8055199879964211
  0.2040679560928963  0.2085581599669595  0.9962024901665435
  0.1970936835185291  0.9972869226186272  0.2053032978791147
  0.1994991669434846  0.0033507245480301  0.5900007105252720
  0.2019987486045817  0.9917081446906838  0.7858169357228428
  0.2031006905260145  0.1933071476391475  0.1907427983515733
  0.2007149157047031  0.1939875736562960  0.3920770418693486
  0.1891592925501063  0.1937944769811382  0.5931671394464092
  0.1943735952364332  0.1812154614024533  0.8006869693881669
  0.2006728160938614  0.4043442824234695  0.9943931380560151
  0.1947502725789769  0.3995988571092402  0.1938510594252460
  0.1982748224249329  0.3947102263192448  0.3834040804254660
  0.1558575128605463  0.3789632736445578  0.5645122862343458
  0.2044961351001429  0.6014289088020449  0.0054906809822119
  0.2037086030529227  0.5966214362970141  0.3947789495568577
  0.2019530332427922  0.5860021431764884  0.5995380478901561
  0.2050791288028010  0.6035994355304016  0.8058357061499699
  0.2000290579519344  0.8018777423996252  0.0032889125782569
  0.1959104619391636  0.7907540606845471  0.2003293150771980
  0.2036720432781908  0.8062238341551321  0.3987376433679573
  0.2051426369125315  0.8006752400502202  0.8095221292375467
  0.3946223441353100  0.0001838358187634  0.4076460506407329
  0.4017022790965871  0.0086298439290620  0.5981712417190651
  0.4028735452897462  0.0010051748793631  0.7947810260497270
  0.4024515279005303  0.2345294846876570  0.0012327472784759
  0.4013933109471369  0.2053370043198966  0.1928851458225005
  0.3937304876864193  0.1952607391811212  0.3861025388544417
  0.3794716705300255  0.1940699703135309  0.8126093644661433
  0.4047293340449251  0.4067883831428508  0.9910238317480182
  0.3922165359412542  0.4017257238404807  0.4107539965941925
  0.3357556582953246  0.4231733880577882  0.5979946321986533
  0.4035902161053021  0.5984109144066939  0.0017277431007043
  0.3952168370647677  0.5853482754609322  0.2086133018872355
  0.4037180785584611  0.5962028010012884  0.5993219072239135
  0.4038464115911559  0.6115626992271763  0.8024570428493468
  0.3919708995779493  0.7621856740866547  0.2087281242836139
  0.4014374347171159  0.7933948765661114  0.3959319732131230
  0.4043646907982327  0.8043764339088728  0.8065944377039218
  0.6100219055418696  0.0074988285108775  0.9940592045109925
  0.6146376529269749  0.0086153532094457  0.1970958089607371
  0.5985250406433521  0.0000397171668476  0.3952987720805490
  0.6028310799734778  0.0074537144227014  0.5977066439960963
  0.6026101694794143  0.0040197074197447  0.7970478493431957
  0.6016588501697125  0.2046129271626081  0.9960864654116341
  0.6039362611201512  0.2010486488681330  0.1969450510622807
  0.5825253049510347  0.1968813059444051  0.3948036245395325
  0.5794752741186758  0.1898765411308196  0.5993161868082449
  0.6213189081471510  0.2074522276529755  0.7931900608702338
  0.6037192492280705  0.4025021995141577  0.9965209148327158
  0.6060612350870278  0.3976058710078986  0.2008586456433731
  0.5638848032723067  0.3976982621357301  0.3985857867851428
  0.6024972055809954  0.6017281026550256  0.0032246362721884
  0.6019638822418749  0.5915349672184682  0.2015961931966312
  0.5913642872987733  0.5974819952508025  0.4013077117390290
  0.6017147417448638  0.5948806694194362  0.6001768830280535
  0.6029410978573627  0.6001537998406025  0.8000728123658888
  0.6152090952223811  0.8013962341392898  0.9900558171788406
  0.5988775346376422  0.8001301666701766  0.3988896678859560
  0.6029576624534990  0.8028750328842391  0.8022071320781285
  0.8061192014577088  0.0021456261823469  0.9985182931998464
  0.8057406803535335  0.9971781670368218  0.2014766922898563
  0.8011495632707206  0.9980987349317990  0.3983050009491972
  0.8007929806208446  0.0008339134819422  0.5954923007156913
  0.8042326100443673  0.0013804150041194  0.7962918757964690
  0.8037801924888379  0.2021312080712972  0.9991169300277180
  0.8018697248877943  0.1991115178728673  0.1954331227716318
  0.8310910177925308  0.1947925185273165  0.3880385459762984
  0.8029622993014283  0.4023297462269522  0.0050857046910514
  0.8016273442149580  0.3997024249051264  0.2044379818016548
  0.8162804855860049  0.4059494892712738  0.6104182414964913
  0.8050923894411370  0.4040763684500543  0.8051920019393584
  0.8033884033704760  0.6020782461827553  0.0040223568585460
  0.8010293734286730  0.5990426937092924  0.2047553930947114
  0.8044672286625761  0.5965489662654317  0.4022140319623818
  0.8007373757428902  0.6017387212979890  0.6011315897769584
  0.8040820905792354  0.6043148909112860  0.8022227315841614
  0.8066442851876652  0.8014501862845677  0.0013057580842701
  0.8055079800129096  0.7977073216827240  0.2024903629172443
  0.7938501738774558  0.7982620428411702  0.3993956134146550
  0.8160089562413337  0.8008122790834704  0.5999852096960501
  0.8032896147421970  0.8011764396984346  0.8008660355437576
  0.8121236095866641  0.2012709333716256  0.8047509832352513
  0.2027596233161686  0.9983065242523507  0.3953636614919223
  0.1990119571424078  0.5946988252208716  0.2019476620033130
  0.3983073837056078  0.6009042071142613  0.4058552685290965
  0.6232955578700643  0.4054193163118380  0.8059074626079957
