Zr Ti V  Cr
 1.0000000000000000
    15.3990340272275770   -0.0170018773457157   -0.0022529018582575
    -0.0170107766548915   15.3787801482628375    0.0165544931564424
    -0.0022517709109467    0.0165430754876648   15.4057927644380346
 Zr  Ti  V   Cr 
   3  13 107   1
Direct
  0.1980722265454257  0.1952902405588519  0.3710052215851487
  0.1922835402043947  0.6407562100840962  0.4131246440733836
  0.3622460814856828  0.8049202911736316  0.4073610345026911
  0.0016545500165790  0.0061826602028510  0.9946846154766704
  0.0014039868797586  0.1933561877229063  0.8067341774349097
  0.2031997934201741  0.1978204169844758  0.1732617351162960
  0.1991731658302675  0.5698805961656869  0.1984845280896139
  0.1944391487342560  0.8062325182713832  0.2360055595122811
  0.3928812142743033  0.2053756647408366  0.6063481341924094
  0.6113904282678401  0.0161442226837112  0.5938626814513505
  0.6060898088257352  0.1955610255603219  0.4141134142665508
  0.5918462692037836  0.2041615740536409  0.8133555585449939
  0.7959371803572827  0.1991010885972795  0.1954693294385028
  0.7878650110748503  0.1949432120497891  0.5935985551352773
  0.7986116009420470  0.1983897394538786  0.8025682659318389
  0.8021919837229813  0.8026837097769516  0.1978320119995363
  0.0019949915391446  0.9991939299992539  0.1987800262731337
  0.0033446679972392  0.9997565564518299  0.5963953411281882
  0.0020854724119506  0.9964672515126138  0.7952462319564837
  0.0011527283011015  0.2024988000877781  0.0045618126568656
  0.0019852941069995  0.1984811848825992  0.2011814682468097
  0.9956747584644020  0.1977445144865101  0.3998764850748038
  0.9995277096835146  0.1986614428910784  0.5975214032516204
  0.0004908007594664  0.3995598877670477  0.0001080373121916
  0.9993083352580000  0.3972612408227973  0.2004194308067601
  0.0001607225832172  0.3986833310985668  0.3993427595815235
  0.0004190186489995  0.3974999941521379  0.5988157306429551
  0.0008919696436833  0.3992976010572601  0.7990575928851598
  0.0005489363927706  0.6003200520586071  0.0007414757942196
  0.9969383341789032  0.5961455019699164  0.1979514912491731
  0.9925111186871417  0.5981094892598280  0.3978872745501341
  0.0030305693563364  0.5982941030694011  0.5973155201135760
  0.0000332244509068  0.5987983784676667  0.7999073042314579
  0.0017149469736354  0.7986773866224908  0.9991663085405986
  0.9982826798823491  0.7996686690215917  0.1976192640718557
  0.9992433341497454  0.7972584466884292  0.3976120626269917
  0.0047519953559139  0.8000198488652007  0.5964829303469761
  0.0005682433856995  0.7979129396818128  0.7970951940320726
  0.2035104957096723  0.9989061831025006  0.9967587590208189
  0.2022680345390984  0.0052532666592158  0.1976726562648645
  0.2052865801067586  0.9914058224039179  0.3995103291189460
  0.2027344357684053  0.9998468613963387  0.5955774103376742
  0.2028582388874562  0.9994315206857236  0.7946886671540219
  0.1994230450453623  0.1984534911930499  0.9843161527790879
  0.1973520406871656  0.1996754660629683  0.5933844574576597
  0.2021028096209940  0.1980939981318830  0.7931206851123648
  0.1998202323922882  0.3964263493936438  0.9963595438684242
  0.2008289773561504  0.3837831168770179  0.1983029376623569
  0.1996915723068497  0.4073424565620856  0.3988876080048085
  0.2007865361003612  0.4009315117454026  0.5970502304741959
  0.2002179315041036  0.3984328208457955  0.7981835141390854
  0.2001772830026305  0.5988285233884135  0.0000684815987497
  0.2011370580277970  0.5991046062521707  0.6101605253391111
  0.2008314542930989  0.5982547754775005  0.8025818322087471
  0.1992191236560130  0.8002602884924382  0.9954921901528750
  0.0060492261046626  0.9975001159951927  0.3980656966647130
  0.2037795540608670  0.8014325762816149  0.6024750802671183
  0.2010567968609143  0.8007064629400303  0.7997146016486443
  0.4014151585766693  0.0010480752918394  0.0011547228801556
  0.4041276627522780  0.0012165816766174  0.1998037935676404
  0.4044576579918459  0.0088782002060838  0.3996238052080133
  0.4032380079529587  0.0010636729327937  0.7985595564420154
  0.3998095158261141  0.1994276013389846  0.0014159327108349
  0.4020322998322104  0.2007545360898483  0.2020522756248036
  0.4026808718156642  0.2020367273538396  0.4015181893072882
  0.3970534894142212  0.1996237646277552  0.8053161795048215
  0.4001341081674242  0.3992689268717483  0.0015083836874725
  0.4014300581779287  0.3994136862504382  0.2009506490229900
  0.4002134524972571  0.3999624283187095  0.4007915846392915
  0.4001817961015432  0.4024154685525673  0.6003416703377925
  0.4013508255422853  0.3989872627744716  0.8000623739124676
  0.3997586423053878  0.6001142501544980  0.0019386254238583
  0.4017089017257631  0.5984472059336465  0.2006922304968872
  0.4020163468651207  0.5979967890521570  0.4022867382893967
  0.4016318010131001  0.5999766099366999  0.6024747188271773
  0.4014740324180677  0.5999686666246546  0.8031651109523879
  0.3980188727257426  0.8008526544841232  0.0022868656005366
  0.4016240253024773  0.8019470790556784  0.1988361844542215
  0.4039344445779373  0.8023744305484559  0.6091791343295120
  0.4017603571480833  0.8007354550899271  0.8033474112655840
  0.6016099843889789  0.0009218272738432  0.9995735667448847
  0.6027213301668061  0.0012948197655502  0.2007448460663382
  0.6019236513525129  0.9961544515579158  0.3981543083997883
  0.6021350503721300  0.0011390239051068  0.8008376430175103
  0.6002868418156777  0.2005853791388085  0.0075883418476342
  0.5988666670089150  0.1995255418067746  0.2023371552791043
  0.5944018703087978  0.2077926572921570  0.6098667647098565
  0.6010565847669884  0.4001021757374456  0.0010080214390734
  0.6003113521488858  0.3984430637311716  0.2026636466737318
  0.6013882669412083  0.4008445526290210  0.4016941509756302
  0.6002381141976657  0.4034701740561903  0.6013037891453425
  0.6010027666623010  0.4026831707535723  0.8015921143847935
  0.6005479118194251  0.6005603663437896  0.0015025646942574
  0.6010733155513481  0.5999248827830398  0.2007136856860621
  0.5988081448950073  0.6012275342664607  0.4006338656583595
  0.6014607121476426  0.6028824409806355  0.6015969366793711
  0.6014236288421440  0.6007457652349907  0.8015618529895369
  0.6008841153369574  0.8010507077661965  0.0011725133258844
  0.5977531582257468  0.8002308783543874  0.2015728957361890
  0.5983609912965951  0.8008471293039828  0.4011338784019673
  0.6003930254398148  0.8022139109165095  0.5992572765463291
  0.6011122861647080  0.8024367523055447  0.8007508935116509
  0.7996618069249991  0.0006000192442885  0.9981084736694028
  0.8017738286888026  0.0007271614627788  0.1979416566231333
  0.8077883336520305  0.9961023120308317  0.3948054331739386
  0.8067901268953418  0.9959807231661164  0.5978432081923455
  0.8015511373726553  0.9974855077019444  0.7968088638066648
  0.8012016699761167  0.1995327295483211  0.9974057380789982
  0.8028515748933770  0.1973592209597604  0.3961340937737640
  0.8011700572327548  0.3983865718596972  0.9993741090887467
  0.8002615102527751  0.3987146456107181  0.1995130347911137
  0.7998699398767236  0.3976894554828033  0.3993666101905344
  0.8006297326728580  0.4007010301451541  0.5989652099440855
  0.8009675664405702  0.3991450901154269  0.7976090301066887
  0.8005663597530369  0.5986752742179856  0.9987691313460216
  0.7982357035585657  0.5965813695331378  0.1989448943085964
  0.7979530980900248  0.5999049907077523  0.3991766741378362
  0.8010660889674802  0.5991837283690880  0.5997801601954450
  0.8010997553777726  0.5995903719567286  0.7998599882729773
  0.8004998914525265  0.8005574703872299  0.9961288044552642
  0.8000465476029851  0.7993467064245771  0.4018865792340927
  0.8028978706659425  0.7985420841813717  0.6002856611954789
  0.8011175750164418  0.7997894008796678  0.7986029649249673
  0.4027405795699973  0.0004121220544940  0.5996093302205466
