Zr Ti V  W 
 1.0000000000000000
    15.3251724423404525    0.0070128769391973   -0.0004714545103314
     0.0070165878469139   15.3328247917111025   -0.0066220456422159
    -0.0004713462084994   -0.0066216079972265   15.3468382774047818
 Zr  Ti  V   W  
   2   2 106  14
Direct
  0.2302317576584508  0.6361159959824737  0.9990810743818137
  0.4000443858840715  0.7998126670342830  0.0018669174027237
  0.9952941560757776  0.0062630321506227  0.5946092393197577
  0.7947234235536049  0.4046402488095732  0.2046849835950227
  0.9989473153962080  0.0067636705130832  0.0046866688776286
  0.9990213486867554  0.9984789161598816  0.8021032352927463
  0.0003955774159779  0.2043169248052445  0.0004881073046621
  0.9989001650926107  0.1962834971470050  0.1992851080856823
  0.0047668421803060  0.1963950860712601  0.4000792668840925
  0.9994237151074948  0.2029873950639013  0.5999293300748676
  0.0005903899748182  0.1980070833296112  0.7986314421907651
  0.9985328824119701  0.4008998240222916  0.1978991875450630
  0.9981460136457975  0.3955324814900796  0.3970219376816188
  0.9953136747025956  0.4001883287760574  0.6000692336201994
  0.9978578831087132  0.4004180339930530  0.8036643642553920
  0.0086682755112211  0.5941089269915402  0.0036027734735903
  0.0039399670098152  0.6000135612112828  0.2019059014947688
  0.9967747737302619  0.7671388075843728  0.2332466837581495
  0.0015587484256488  0.5979208396582182  0.5963725665726546
  0.0016873999870657  0.5998446370404026  0.7995888366245507
  0.9997806669849901  0.7977867182555721  0.0001397465482578
  0.0008373145009259  0.8059134315584268  0.4023456909919882
  0.9992439262998792  0.7968879822005781  0.6003142999290010
  0.9983456354321563  0.7990154862067613  0.8022030042956363
  0.1985008685439366  0.0090024329605378  0.9994460627127292
  0.1968386070369673  0.9982079738503203  0.1984679219024753
  0.1963234403216356  0.0019266750788474  0.3991129675094074
  0.2011583320273019  0.9999864210294288  0.5991673306444728
  0.1984559563951781  0.9941089966020570  0.7978836975547883
  0.2018720696833812  0.2017937186058283  0.9968525360853482
  0.2025537647392887  0.1995566709939214  0.2055682132145417
  0.2041978389979855  0.2008383115234244  0.5969146493966151
  0.2006912308898051  0.1964314969603092  0.7960883279708796
  0.1950147308904360  0.3968727559378907  0.9978751665413815
  0.1981351066570856  0.4010417511569415  0.1981302276995072
  0.1951866036222212  0.3976758799366283  0.4010811774532551
  0.1976510064317567  0.3999961127325010  0.6025561392110071
  0.1987207821311784  0.4036330930819348  0.7997139998228504
  0.2030986372812693  0.6009818787132364  0.2066345355796163
  0.2051449475651306  0.6009108922212212  0.4007692986177256
  0.2005510907850268  0.5995254805238406  0.5978138843498192
  0.2003274024267400  0.6054619658471914  0.7934319968570178
  0.1902049836285408  0.8228424009483842  0.9928454785022169
  0.1992045728855220  0.7992537775755297  0.1923603222250382
  0.1974113824835966  0.8002502884497231  0.4037308548423852
  0.1996813220584292  0.8020012698498986  0.6070849194877662
  0.3993553114507449  0.0065356159706285  0.0018279606162737
  0.3985399192762574  0.9960785437365061  0.1999023153786847
  0.3979610719948761  0.9972675080221796  0.3969847110261335
  0.4002206600169639  0.0038351872211346  0.5964664653825509
  0.3994874104942130  0.9977210750966466  0.8004649019212777
  0.4003763895160806  0.2016735514996790  0.0005958487504645
  0.4005870154445272  0.2015893948975663  0.2011152848387558
  0.3960409559432807  0.2008249414035999  0.4013930553572627
  0.3985072698347868  0.1985173704658433  0.7952589050421220
  0.3967997829846028  0.3977514637050084  0.9995511947023595
  0.3989389390657560  0.4042347675397310  0.1981547354741231
  0.4005638844940622  0.4030633629782225  0.3991457976895536
  0.3994497370051389  0.3971416762899302  0.6007687249754127
  0.4023022482925879  0.4019128179290494  0.8011882304476117
  0.4175032677924921  0.5888186593372432  0.0078207062753623
  0.4001958380076170  0.5962603172607394  0.5922874148132602
  0.3982083737877609  0.6000855643136986  0.8059075058244309
  0.4018509375845034  0.7965832586610677  0.2063582401904101
  0.3990510052905634  0.7974241005922197  0.4016102651196142
  0.4008320923249152  0.7993270315658553  0.5992439776879782
  0.3997881776760860  0.7988584091928987  0.7937743841021393
  0.5993790216291728  0.0017175433350456  0.9995957098212637
  0.5996744186455403  0.9986170461243342  0.1995554197306824
  0.6000326037983708  0.9991718660411487  0.3992938471674099
  0.5997417756788885  0.0038634543922201  0.6000338470107932
  0.5986590106759493  0.9929823224286921  0.8008923791008061
  0.5999738901523600  0.1996888675970568  0.9981742564974702
  0.5984025630864734  0.1983205844174807  0.2007027984263618
  0.5985131327300294  0.1985487110440598  0.4033018843123758
  0.5988028474988385  0.2020313680422811  0.7971560091824836
  0.6048438215381369  0.3967398159816294  0.9942645575441820
  0.5993217424538781  0.3989605922420437  0.1986083481328988
  0.6016633881250456  0.3977880386582835  0.3997877211955468
  0.6047111283570986  0.3955450073231238  0.6062049893448960
  0.6065186093016145  0.5970093108910093  0.0009774211833751
  0.5951043948523196  0.6005815767891265  0.1999239568032811
  0.5957384731489497  0.5990847009366415  0.4011451537701760
  0.5976878648299347  0.5975341542896642  0.6000226852920866
  0.5979952191958713  0.6010880223430102  0.8005265523486157
  0.6052291197790406  0.8000272016690613  0.9945675945806361
  0.6034926592974267  0.8002303780839475  0.1981588925241866
  0.6016101608553850  0.8013696720015897  0.4052340347498521
  0.6002315110614395  0.8002068207276580  0.6054445515215442
  0.8008763995372375  0.0020494215919744  0.0004279800129934
  0.8014670359368742  0.9941602834171749  0.1991316336115123
  0.8044856129234141  0.9984892031995261  0.4003021399781973
  0.7976083915313592  0.0001309708199359  0.5984392048522247
  0.8003268918414720  0.9940946280490799  0.8008202573630060
  0.7999099816411026  0.2004573692705383  0.9992731774709245
  0.7975072578875371  0.1973661638789960  0.2020394911478008
  0.7991301723818014  0.1993196589301990  0.4002249075744373
  0.7958910742112749  0.2019928303386181  0.5994485020403686
  0.7987024416368962  0.1955105766695845  0.7986862698573453
  0.8043202240008992  0.3997877110362842  0.9967254528453661
  0.8013982503979393  0.4009272975479518  0.4056243862051389
  0.7965497768661629  0.4026710037908041  0.7966319086373803
  0.8048958842673969  0.5983716761170840  0.0025719511416427
  0.7992243242068351  0.6060422004278474  0.2025492216213022
  0.7962515425842279  0.5994742912624724  0.3986314603166883
  0.8014254919611363  0.5961135684457918  0.5956667264547540
  0.8008138563581531  0.6048380540254265  0.7991493691567820
  0.8024540481087745  0.7994591409510280  0.9986626465347499
  0.8006548128931904  0.7970346592818505  0.3992627417126559
  0.7998416547966903  0.7985566284139065  0.6054945905659774
  0.9993518002690708  0.9985452194307216  0.1990165703816865
  0.0007292963099326  0.0011112901130286  0.3919275841104681
  0.9997677336340948  0.3992434706002372  0.9999401956450895
  0.2016759835025364  0.2003973214228233  0.4011176458842899
  0.2029729637662966  0.7973738317024663  0.8047075546052732
  0.4027055132390522  0.2004011575798438  0.5975541512090488
  0.3974480099334883  0.6025181315845167  0.1982963526919463
  0.3996791168151422  0.5988323951680196  0.3959514094825737
  0.5965855027260043  0.1999143288679660  0.6005867985202132
  0.5996376137917260  0.4028572369753728  0.8009003501170423
  0.5994776608382210  0.7973631790098834  0.8009624487398407
  0.7998209654713950  0.3991800050563934  0.6014528889573895
  0.7981214419481523  0.7986900624354968  0.1985695294383403
  0.7974549993600536  0.7981518765741137  0.8012353150965406
