Zr Ti V  Cr W 
 1.0000000000000000
    15.3205282173675101    0.0002014824685806   -0.0032720455521328
     0.0002023707323046   15.3277042438828079    0.0007193262014022
    -0.0032728540049734    0.0007198926617368   15.3420216939870571
 Zr  Ti  V   Cr  W  
   1   2 101   1  19
Direct
  0.3971646345212494  0.4197474108778583  0.8176178737123587
  0.6126005660722774  0.6057069378261954  0.0058632831305696
  0.7905358777382231  0.7825693040755363  0.0101992403379226
  0.9968617230958823  0.9979640747970833  0.9956493675191171
  0.9993046925986777  0.9987333711052784  0.1987696663563516
  0.9996773606608377  0.9980387090352942  0.3990315863136192
  0.9995295548916228  0.9956562215289749  0.6061662074548757
  0.0011403380886038  0.1999472924152216  0.9990927359901192
  0.9981445441508905  0.2001278006934386  0.1999809519701840
  0.9993016688856693  0.1987248643267535  0.4033516540663166
  0.0001396404586452  0.1993314204470910  0.6017213088261197
  0.9965839619375029  0.2109821165094847  0.8003112047178033
  0.9973390458891247  0.3996175723185268  0.1971912285631239
  0.0003927254241041  0.4011420275931037  0.3984945788118490
  0.0013138114406888  0.4037408531065380  0.6043545245283810
  0.0023205086651452  0.6006664949702484  0.9942385860058562
  0.9983679978045105  0.5973817209749637  0.1964401270167117
  0.9951876011904178  0.5987435497542036  0.4055020007101910
  0.0032656156130286  0.7977882540447238  0.9994449674130771
  0.9950736760239806  0.7987628209441457  0.1992884317403434
  0.0027441725010299  0.7989235830929963  0.4042596477198291
  0.0017892273245006  0.7949463335347895  0.7970126858568911
  0.2003175886573635  0.0019230683513540  0.0007307738021150
  0.1983533896038710  0.0000784251277083  0.1985463623292519
  0.2038727907955979  0.9957365497881211  0.3985717341473710
  0.2002202089396603  0.0055792034112404  0.5999059935328532
  0.1953480336341970  0.0000157544117196  0.8005645067646108
  0.1991172580703617  0.1992438862445060  0.9995476805404059
  0.1984373826671363  0.2005021562668236  0.2021199614390132
  0.1994394540704683  0.1997250905270645  0.4048362889651527
  0.2003187859711895  0.2002903554732400  0.7953514970209994
  0.2074765273118832  0.3983101762434634  0.9993740775876095
  0.1982777108554434  0.3997078580370412  0.1994461955590405
  0.2005301530237383  0.4001730260825170  0.3974446364993081
  0.2006075316278386  0.3948261341152512  0.5988199128856749
  0.1915189769960904  0.3992760734764184  0.8004502492958691
  0.1973030607751074  0.6000724934881517  0.0001016631436400
  0.1984530001679979  0.5988978791373156  0.1999313337913823
  0.2010197137764685  0.6028556619630657  0.4000337088887186
  0.1970144562790677  0.5973640699632130  0.5984092052779586
  0.2118334216238525  0.5969478164468289  0.7984038128537320
  0.2002963587472006  0.8007081820707286  0.0019592576339535
  0.1992824163106076  0.7984160860072126  0.2032753670820346
  0.1974169277144744  0.8006261594371725  0.5945383677186034
  0.2032651457046827  0.7987669391555506  0.7990260446518676
  0.3998751420903400  0.0013026744406066  0.0014632704046424
  0.4011739165443595  0.9993692569551527  0.2012474403832329
  0.4001885614639113  0.9995549100474967  0.5966695476214274
  0.4006791916959840  0.9963275672882032  0.8021209893552954
  0.3997722975020729  0.2024843291180476  0.9980590556272380
  0.3995898784534738  0.1995824674936971  0.2019670465817702
  0.3994999146036448  0.1956324525220849  0.4022154248230542
  0.4008406232378871  0.2003922430453217  0.6025293512633730
  0.4013828502013745  0.1986406451130998  0.7993570798681089
  0.4032524497212588  0.4011428499987023  0.2033357400752556
  0.3986306014447676  0.4022502456415266  0.4006728710685035
  0.3995247556965627  0.3994339098718019  0.6018626115370032
  0.3999284295152132  0.5987184292699468  0.9966145884231237
  0.4012048453222448  0.6012503024171004  0.1998210055756775
  0.4004871452679862  0.6008533896766045  0.4035861893125801
  0.4007239871003347  0.5987148674291932  0.6048581182684137
  0.3984564722523508  0.8010816242780012  0.9982450436969015
  0.4016235393895038  0.7977634110545954  0.1969030507050411
  0.3994324585242067  0.8009164192985267  0.6026405741252280
  0.6015183082942901  0.0028713187644258  0.0003722889456210
  0.5998138621914342  0.0008856111991877  0.1997813697540750
  0.5957932350618338  0.9986923874217756  0.3985471705510241
  0.6007208082337407  0.0038881631317064  0.6006306835209818
  0.6014097084473363  0.9987933250600280  0.8005681084852381
  0.5995811935960167  0.2001166636712963  0.9987467066644153
  0.6019083810722307  0.2023731660512278  0.2021469469061645
  0.5994518397439897  0.2001270596678626  0.4057711208794605
  0.6041951817424713  0.2005069852868462  0.7965062364419038
  0.5923001684227259  0.3973323890391857  0.0044480003886941
  0.5974753517449124  0.3990139907687106  0.3958316576692253
  0.5970339955526666  0.3948907072612892  0.5999609018850128
  0.6043923863790065  0.4010600935254690  0.8029366857950742
  0.5999876482456903  0.5956442610091562  0.2052523983224849
  0.6025067534341031  0.5997533294831203  0.4040960669691377
  0.6021036457771543  0.5979864237899475  0.5988992218647169
  0.6029731482192863  0.5998074653561364  0.7960101081740731
  0.5946420826251388  0.8040887994360827  0.0001169917577129
  0.6017345485107067  0.7990071257126972  0.2004688099264960
  0.5992390879411975  0.7992211222844486  0.4012998777272540
  0.6013528230475154  0.8020863505692303  0.5983176901720635
  0.5990907057437349  0.8021508521157847  0.7976721073581077
  0.7993904072435404  0.9951312786722023  0.1958912270148565
  0.7989540750851024  0.9979409979670405  0.3987229850111990
  0.8008055086304312  0.0024998127105942  0.5994454167717708
  0.8038068756388594  0.9995730473145383  0.8061087053780093
  0.8007066244159857  0.2011000341995131  0.9955432819559022
  0.8000425511640471  0.1996647221407089  0.2034907786607876
  0.8004860337440810  0.1978859475598424  0.4051812234955594
  0.8635193649415512  0.3979429423124518  0.0022785468915552
  0.7957536832457942  0.3995330560570803  0.2001026457804361
  0.7995453948268959  0.4030992717988796  0.3993818250544757
  0.7992900040343084  0.3947994098815975  0.5978028454171037
  0.8014862136671581  0.3988763663889196  0.8031450465390566
  0.8049333517803194  0.5900125744534612  0.9947685901955822
  0.8001463827387156  0.6026381307488690  0.2047385532735782
  0.8017174735301255  0.5961691591688257  0.5989860948332384
  0.7987168436071355  0.7964217768538413  0.3983552015590928
  0.8030828532310265  0.8031133796576402  0.5984684476591168
  0.7966988068231489  0.7934463613502625  0.7982110969122889
  0.3995908180484309  0.7991565280194115  0.4000388160310794
  0.9995036924677155  0.9856823461684128  0.8010491302509054
  0.9979140035371489  0.4088682245945905  0.7999553580407612
  0.0003555377983366  0.6032043266531489  0.6034506941368012
  0.9883013264152262  0.5980602803849687  0.7952048879052174
  0.0013424632816528  0.7967488230279044  0.5998507083731792
  0.1992093462432107  0.1997653104862168  0.5996004609296538
  0.1973149571603280  0.7998362725503646  0.3986783716176385
  0.3998551550402022  0.9995015648497492  0.3983072557522164
  0.4000962225788440  0.4004640054245944  0.0131627876437499
  0.4067410857836649  0.6164154322789590  0.8007201743764564
  0.4002958694049760  0.8019836860067930  0.7998890235048112
  0.6027138802544245  0.2005002613634728  0.6013499056356045
  0.5993750713504915  0.3984720466973068  0.2008085116429483
  0.7994766618126630  0.0089897247437591  0.0004441626547544
  0.7983394974727196  0.1990223976665697  0.6038273215628142
  0.8018642496977455  0.2008631422855017  0.7962171075387368
  0.7997749789260296  0.5999892252321460  0.4029173066042645
  0.7984401891411288  0.5961531309620842  0.7959264238070342
  0.7991844625782470  0.7999152847124573  0.2055857743760052
