Ti V  Cr W 
 1.0000000000000000
    15.3720038313806135    0.0023998420144863    0.0001449001601191
     0.0024007571799185   15.3633006247875361   -0.0006442210894229
     0.0001450310074229   -0.0006449824026597   15.3697544548857330
 Ti  V   Cr  W  
  15 105   1   3
Direct
  0.0059291433300404  0.3933321041564841  0.6012943442484733
  0.9906911484371747  0.8001760493462213  0.2041250818252523
  0.0088867450622945  0.7980383043270523  0.6021741764986014
  0.2010703937023160  0.2046640446273957  0.3928785529799270
  0.1966048765755565  0.2057271085804134  0.6039486881286390
  0.1980156600833704  0.3953101159220426  0.2024970376294871
  0.2017224488357646  0.7991012664028732  0.1993221597640328
  0.4036024817093596  0.9964456739663905  0.8068769588993223
  0.4022048517072802  0.5984317745003127  0.8011635585696283
  0.5932215978998351  0.9961119192349267  0.9955264071363075
  0.7920916125418408  0.1979772068174359  0.7954659645589998
  0.7995261994793194  0.4043015575949198  0.1931982624198402
  0.8019743788870614  0.5932392230798392  0.0028757873895210
  0.8066925885045044  0.7979158957276553  0.3918020395967362
  0.7983297373937697  0.7967095635838337  0.6042953972514548
  0.9990862653028019  0.0010019045555185  0.0010578307074380
  0.9989120980605082  0.0014575094663642  0.2012412598439351
  0.9980599150601966  0.0004389247802696  0.4011611177983365
  0.0001957080427805  0.0006262650543447  0.5991871074813451
  0.0005321565253922  0.9996732550205074  0.7997807220816555
  0.9990591927115146  0.1988062164876240  0.9998043982963424
  0.9986105728163401  0.1994641438169210  0.2007552932167195
  0.9976074729847670  0.1965835888363999  0.5981708106451177
  0.0013555938797087  0.1990688028110796  0.8001160128074246
  0.9967079824789760  0.3989638455042500  0.0004694586194165
  0.9998131797776116  0.3989713086210421  0.2008186732984344
  0.0002148947888136  0.3983658652873630  0.3977846322494613
  0.9999856586130683  0.3984532584085364  0.8018071613086908
  0.0021252807476617  0.6000644632878247  0.0018534482265999
  0.9995450429468764  0.5974901770589468  0.2015065450533055
  0.9999941791763977  0.5989023639684000  0.4006283173769742
  0.0008053238613154  0.5984714753826290  0.5987152175349291
  0.9994370326632835  0.6002228178405508  0.7993194893167702
  0.0003348576910116  0.7999061236902882  0.9997535251540250
  0.0031196603142083  0.7997544459217673  0.4015405972000612
  0.9993300456118639  0.8002654132665030  0.8027816792060664
  0.1984314721883213  0.1001530099421288  0.9998721879071358
  0.1974294599522130  0.0000892417063895  0.2023149325096771
  0.1992731313402875  0.9995040213829898  0.4007635337865955
  0.2003977462603612  0.9996104124626394  0.5998605833175712
  0.1995346261039832  0.0007459517893121  0.7998330905088176
  0.1990471934164256  0.1960412903899592  0.1980663591315081
  0.2011824273469517  0.1986760925581906  0.8016715752090287
  0.1984518393192662  0.4012434442454821  0.9992400622222096
  0.1992747500514105  0.4031447499515882  0.4053531096847472
  0.2039211916263463  0.4044892841872028  0.6025820125086772
  0.2001791176685553  0.4005598284723481  0.8018342848074446
  0.1990043140123549  0.5994897806502854  0.0007183809989177
  0.1988843835714398  0.5999502212370819  0.2019656852573509
  0.1986754659934951  0.6012017686329929  0.4005894957744603
  0.2005118207638295  0.6021748938793107  0.6010227044348273
  0.1974131161826976  0.6000853226998015  0.7998009304581841
  0.1992677424392508  0.7984898643797786  0.9987053268474936
  0.2004863674473007  0.8006945443897189  0.4038002470039915
  0.2052874102556131  0.8003810684309777  0.6022899873380392
  0.2007125550591800  0.8004407515166355  0.8010115968344593
  0.3967576558905898  0.0009567785870476  0.0041064119193593
  0.3972263975787914  0.0001998773277199  0.2008182517181395
  0.4026300451677346  0.0000930681101483  0.4002926316756992
  0.3997080435539889  0.0001879288438082  0.5982802521181144
  0.4001096625286357  0.1999862037781824  0.9997533480831247
  0.3987752283774376  0.2004832025517553  0.1971798403055545
  0.4018890822910277  0.2010221056392641  0.3995871191153346
  0.4003834662121321  0.2002710355456024  0.5998952497356438
  0.4022602382940029  0.2019726288365166  0.8006415221420176
  0.3983284777801301  0.4006475890221963  0.0011233286717224
  0.4018552414810446  0.3996739127953057  0.2006364026185618
  0.4002523513456702  0.4002590998622698  0.4002551750101929
  0.4013562438798300  0.4011891975297001  0.6001595476310069
  0.4008175496785811  0.3991165433744290  0.8008907263843825
  0.3993974628463220  0.5990264104849534  0.0036756093872279
  0.3995071775090019  0.5997733449392637  0.2013168767142930
  0.3996032069759407  0.6001783015672121  0.3994541273911362
  0.4012538800832028  0.6001761243154278  0.5968124913306213
  0.3983713254968778  0.7998570902544593  0.0004376229621865
  0.4010938999651246  0.7996821143687994  0.1994465258019509
  0.3997608534435403  0.7996213739500018  0.3990533685878689
  0.4009449214437608  0.7993961564973662  0.6014101403289396
  0.4016647172324339  0.7991590472381691  0.8009488587077279
  0.5989060528580250  0.9994228566418378  0.2045390642428984
  0.6008018241446967  0.9999988508856886  0.5942762679964201
  0.6046451380999813  0.0044351089742989  0.7935952682457571
  0.5990404867052394  0.2022162969031970  0.9944036819318902
  0.5990189435546334  0.1994738351270925  0.1976558523929088
  0.6002875504862593  0.1972533115122051  0.4004482259137053
  0.6007855333749283  0.2005716184237084  0.6029407515358520
  0.6040798674892000  0.4012850380401439  0.9996126390833650
  0.5974947333121379  0.4007686422396133  0.2000631950150944
  0.6010534191453641  0.3987352927858153  0.4002767629010442
  0.6009168025157094  0.4008760711284670  0.5997547275503363
  0.6008634101335081  0.3973233516064987  0.7992912605525803
  0.5969938966424242  0.6001638997023614  0.9995977491215500
  0.6001352450423255  0.6013635545740235  0.2017903204732036
  0.6018558460270939  0.6018185674549813  0.4000611258479452
  0.6011890515828402  0.6006152977409448  0.5988788468908711
  0.6036069739458162  0.6006105504212429  0.7988363838269569
  0.5994870124639105  0.7972082423802996  0.9982514985022001
  0.5987194959163769  0.8003661993523500  0.1978747890148359
  0.5990412312571693  0.8044009048384864  0.4000785477620262
  0.5992552676675591  0.8005350445247759  0.6002567646884542
  0.6008905842348385  0.8024047716273893  0.7996264316468227
  0.8014112210100482  0.9995044509931680  0.9992400100294980
  0.7984893530400829  0.0002567244061569  0.1983998900360177
  0.7965513915847612  0.0015572407173710  0.3989552091611024
  0.8022179574605244  0.0000524947585300  0.5980750733106123
  0.8013194398479575  0.9971675993628177  0.7987621944660874
  0.7991608288976841  0.2023270805338795  0.0012430653624761
  0.7980899225656841  0.1988934248002710  0.1983127745069913
  0.7994172556352314  0.2018198589742144  0.3973667613684694
  0.8007807351273059  0.2015966517756610  0.5961944839967791
  0.8005408660735752  0.4001969827939530  0.4006495831597119
  0.8005061184694294  0.3996341378130366  0.6003645711460838
  0.8008786595171938  0.4035342517564819  0.8014799427467523
  0.7990734053455205  0.6039382590901352  0.2032215887560254
  0.8016483175457291  0.5971490496773934  0.4002075950224810
  0.8020983906557567  0.5972767505337342  0.5993073255741841
  0.8011254055062276  0.6009555321647322  0.7974693959266550
  0.7989274438371704  0.7999938873025370  0.9988904040592683
  0.7949619318425458  0.8001302371760093  0.1937388745518536
  0.8001477333997894  0.7990215630542407  0.8027986212533758
  0.9962475198006417  0.1998916221422585  0.3990617807561605
  0.6003073972074789  0.0010253810612075  0.3993221947887682
  0.5976793234035586  0.2006851462409821  0.7973010478159136
  0.8001589706265899  0.3984139547218984  0.9957521915076966
