Zr Ti V  Cr W 
 1.0000000000000000
    12.2882735461728885    0.0000000000000000   -4.3445607757035454
    -6.1441367710433559   10.6419570608175889   -4.3445607757035454
     0.0000000000000000    0.0000000000000000   13.0336823299999995
 Zr  Ti  V   Cr  W  
  11  13  88  10   2
Direct
  0.0065795262395533  0.4085546375084489  0.2076653978727199
  0.9982956958975271  0.8026572787073546  0.4062396402523547
  0.1963761550467706  0.1965704804173547  0.0038234372626864
  0.2053508927995290  0.1716401460468313  0.2130350552806428
  0.1975164461690685  0.3934775698171028  0.7988733616861082
  0.2075749013998074  0.6006833410884669  0.6042439628443435
  0.4091465284152115  0.5895928748019242  0.8097591402209674
  0.4011074077556244  0.8087476433904750  0.1849935549406665
  0.4054814420015571  0.8139355738054391  0.4039350147262799
  0.4312352511032466  0.8178253543443593  0.8515439774101237
  0.5984127095834771  0.1942860823965696  0.5997359586397347
  0.9960271051038905  0.1904135080921276  0.1893230846988644
  0.9984746440078593  0.2065089299363014  0.4028264646418050
  0.9946928853437210  0.3963343183673914  0.5910639170874243
  0.9821495847652726  0.3970837263604178  0.7975227081987907
  0.0942458395145431  0.9032833206740368  0.0940277985225111
  0.1993127558488862  0.1926094209549430  0.6002216626861940
  0.1951048973850977  0.8308336759094656  0.1948309250455166
  0.4078614832691799  0.2000888118523885  0.4053404099980077
  0.6053926042058635  0.5951325255661096  0.0009313867268687
  0.6021217343387300  0.5979808153938406  0.2036344755835084
  0.6863208415524209  0.7997313108152186  0.9953764935252843
  0.7975873833314604  0.9955125808496211  0.3982467406223839
  0.7999741803232654  0.4034674963772970  0.3968338750133444
  0.9820390784101295  0.9936918655029864  0.9911036097729510
  0.9889940292997157  0.9899824885556531  0.1960973653295889
  0.0008326620185579  0.0023410742436847  0.3949915792606029
  0.9993979553929387  0.0010734922213817  0.6056289317109421
  0.9894638197694199  0.9901918805724236  0.7952505825649565
  0.9851158858431619  0.1957152798534335  0.9870252653143456
  0.9891449857899158  0.1877319795163932  0.6073525299402193
  0.9933202635328884  0.1937951436249399  0.8015571281819263
  0.9923562189851857  0.4032069816933980  0.9993190767820629
  0.9968527791078273  0.6038771178268423  0.0005505155547252
  0.0026926478408816  0.6119932362781254  0.2012514797126478
  0.0017246305475120  0.5991446791773660  0.4029071064849193
  0.9947458439849096  0.6074096617864607  0.8015327122643899
  0.8918586500974288  0.7968069772327252  0.9908909790394358
  0.9920475920504226  0.7999593507527680  0.1927317241724216
  0.9985570865514277  0.8046066353907976  0.6149150805646751
  0.1925893806326087  0.9847169161641030  0.9926975775349304
  0.2047575588559546  0.0044193695565065  0.4038387904177744
  0.2089706563760745  0.0041480252551248  0.6111041176813764
  0.2031588990860801  0.0024128939204661  0.8040773990507134
  0.2011616091410312  0.2020556090240841  0.4098236061638861
  0.1966542792289931  0.1874676021138752  0.7979912155462721
  0.1960420606711905  0.4058730160118043  0.0101351274338009
  0.2090995751205917  0.4062755134400221  0.2028717627481813
  0.2099133699993430  0.4033601078838620  0.4021832571900840
  0.2135749299125738  0.3901331219504094  0.5831702071459944
  0.1877028463786779  0.5982398952429540  0.9971766666471842
  0.1943501451532104  0.5983301758882116  0.1924137796263771
  0.2186150759715342  0.6195741835691048  0.4051548962729429
  0.1867130727060805  0.6030851243286994  0.8111821574191067
  0.2015671893126370  0.8074321962760448  0.4106772546293500
  0.2065998875914681  0.8150674606286419  0.6135732554176870
  0.1961793762880955  0.8063638927027241  0.8108588535102980
  0.3994368693102870  0.0141038495893511  0.9996265580742342
  0.3999786575134963  0.0170561571932080  0.2004604006858009
  0.3999276660691927  0.0013958958027815  0.6082026038258547
  0.4120110279319267  0.2077238896900031  0.1971590759411085
  0.3995131869900528  0.1943383672726922  0.6085327367878200
  0.3983948433118578  0.3888354183261052  0.9996489803217544
  0.4093978656303737  0.4059145994190994  0.2075215002591153
  0.4114227662554879  0.4063665343454549  0.4051185820266477
  0.4080687472081961  0.3935125269749584  0.5983842117367253
  0.4124590603625813  0.3798858044644305  0.8025739212213706
  0.4024817766278444  0.5942898574312736  0.0182551862162589
  0.3974122618346763  0.5940040091597893  0.2017700636701035
  0.4042115187769889  0.5992224105030545  0.3998127858484522
  0.4176956628218892  0.5994163809042412  0.5975196415402713
  0.4017067685791463  0.8066363484560718  0.0113876743633773
  0.4048521606300708  0.8039587740317908  0.6085421733228162
  0.6116328370365280  0.0288070180128524  0.0074459861047030
  0.6071565749444031  0.0143928896908652  0.2024665717004366
  0.6039442440222703  0.0088501230340414  0.4028483939793282
  0.6078981968892081  0.9985178738946245  0.6118178288432499
  0.5975547956779873  0.0054512903378532  0.8000025435445608
  0.5942519810796346  0.2021153028895854  0.9918156140325346
  0.5993340788093027  0.2045352664248490  0.1954988589809606
  0.6050799940975694  0.2054803486075997  0.3928335972720859
  0.6027858836223308  0.3932204276513055  0.9987682298330131
  0.5982098943934274  0.3969773888091032  0.1971137147538561
  0.6018500196687586  0.4039632311445839  0.4003210499898943
  0.6070375751656721  0.4104767146710006  0.6033331577323218
  0.6028272887447897  0.3955086773929376  0.8027815790879997
  0.6019483596248939  0.6011675035143135  0.4069971211055762
  0.6079786963254203  0.5927719079789521  0.7901680129351574
  0.6075007457169724  0.7945495302099972  0.1834174171557892
  0.6086822281942986  0.7996045042980927  0.3976620855926622
  0.6025518501230436  0.7994608742981758  0.6013433337700522
  0.6056903700214855  0.7988909745877365  0.7925931157832886
  0.7907775212932933  0.9978112989791554  0.9881876215728463
  0.7955153000895042  0.9964701708794048  0.6026131249472733
  0.7948093370276003  0.9976711365735864  0.7982687873581177
  0.7945532889163796  0.2003889445751108  0.9920527436447419
  0.8005482028246571  0.2088949098138829  0.2028435685782941
  0.7888977799715388  0.1980601508078590  0.3978839698212611
  0.7976559760554199  0.1908877587090027  0.5935983142166256
  0.7957593242746062  0.1994110930052963  0.8015881537947709
  0.7955914238173948  0.4065738303145138  0.1914585914172772
  0.7934912154629219  0.3997938900411424  0.6009338206170097
  0.7964333072636864  0.4058729880596845  0.8124799338480376
  0.8045313085864852  0.5967033331906758  0.9994288725942249
  0.8003117331325748  0.5932052466786754  0.1958366009919257
  0.7965016825386090  0.6021924404928692  0.3997604132370373
  0.7960255014862812  0.6028142509749685  0.6012089637131650
  0.7987147330717170  0.5983942566187646  0.7994359287593777
  0.8044362731510183  0.7989274115518398  0.2029854355958432
  0.7944697996248554  0.7993006899491576  0.4075373423878568
  0.7974113094508993  0.8014161611872311  0.6012041124051850
  0.7954418027802846  0.7956849152919424  0.7938084084189053
  0.9956391346775189  0.3991131841021264  0.3941649064877305
  0.9934629480999658  0.8026654228760016  0.7982697764105170
  0.1954581225885578  0.8056285079309056  0.9925192492540568
  0.3919428988581795  0.0064317715313109  0.3913495239244456
  0.4010736414582664  0.0077161710585106  0.8044618199075387
  0.4025420180816833  0.2015520004733858  0.9973908676474207
  0.4006851548330696  0.1936497627229618  0.8010962761975654
  0.5979336390259616  0.1994826363849769  0.8058009264286818
  0.6034161060056433  0.6005396908776458  0.5994015576913100
  0.7988230199897068  0.3994908221659078  0.9986586195820358
  0.9961172172443585  0.6071904629739936  0.6035926013676353
  0.7950058872552224  0.9972276465351823  0.1903708245681823
