Zr Ti V  Cr
 1.0000000000000000
    15.5054759955686290   -0.0026938295988576    0.0222345561511436
    -0.0026911951043345   15.4937529874400166   -0.0133710719798359
     0.0222461462953622   -0.0133733789628594   15.4975574155639322
 Zr  Ti  V   Cr 
   5   5 111   3
Direct
  0.0061853404382836  0.6393878054725834  0.1861112688679446
  0.3996124397228189  0.3993371293664696  0.6002432530130951
  0.5997139894846496  0.1999789083334255  0.2003669094157518
  0.6104213677257589  0.7985047088067478  0.9915363056990867
  0.7921524671479093  0.7967327000512185  0.8109850708968008
  0.9990457357403841  0.7950395251324269  0.3718118291661227
  0.1873086106485494  0.6008390018491827  0.0129150344904445
  0.2066703550478749  0.7975197040000944  0.3990147192680941
  0.5967249990173717  0.2016228820614605  0.7981834325622511
  0.8221811148601179  0.8010109332045481  0.0220184911615266
  0.9995002949329809  0.0009142806544764  0.9939597057726951
  0.9997258701868657  0.0008250647684701  0.4029975583148458
  0.9986975389631658  0.9972127378552309  0.5989047751985616
  0.9984569868450556  0.9984078922773247  0.7988703782177453
  0.0011217456271327  0.1971131664051071  0.9998366734817685
  0.0012293536505470  0.1992326685260186  0.1985199923576548
  0.0003893489985246  0.1975201466052478  0.3984383519931998
  0.9992179413947962  0.1990342285573739  0.5997629504973335
  0.0000212369063286  0.2001274294241596  0.7986126755810161
  0.9997896266451337  0.3995373676058330  0.9990288078132975
  0.0007299003732988  0.3997263034659433  0.1986534867737681
  0.9997646686376923  0.3993533961257117  0.3977433107185385
  0.9982718461874092  0.3991459928889107  0.6001615598170407
  0.9995129814604645  0.4001919331535564  0.8001051220669807
  0.9928263682599047  0.5983389407583163  0.9901017080890301
  0.0000185414005118  0.5960693775233183  0.4002263801265774
  0.9979974788718636  0.6007877446181266  0.5984269325787552
  0.9973626638333147  0.5994037728147467  0.7969634245071437
  0.0092648585887271  0.7989036175789246  0.9958145944987197
  0.0034925536689390  0.8667379806651930  0.1917988404825875
  0.9985298038996530  0.7992081307156723  0.6053558653145379
  0.0016400772320477  0.7987189890304567  0.7995792276706255
  0.1998247842616403  0.0011167573563606  0.0007624327436306
  0.2059257408408042  0.0005146278049964  0.1999596612063074
  0.1995597243343052  0.0014096137879966  0.3997739631474105
  0.1990089951248268  0.9988212278715443  0.6005823208169906
  0.1994760586524147  0.9991487342672690  0.7994140119675704
  0.1995994929051617  0.2002767824243724  0.9992837267029531
  0.1660126627906750  0.1645158711196498  0.2002017672409909
  0.2001830076306212  0.2002766492536126  0.4009359422669208
  0.1984075866372754  0.1984187917614292  0.6003322022248855
  0.1986298749534184  0.1995810752585013  0.7995707109252997
  0.1992326678059687  0.3969826541891287  0.0011459573556057
  0.1998158332195688  0.4010140147633773  0.2002739187557974
  0.1996329586872071  0.3975834481913135  0.3997014171777934
  0.1948555485793796  0.3992071273913466  0.6002743978100701
  0.1984104437932573  0.4007284942572216  0.8013710363449861
  0.2065136567997531  0.5980291707399117  0.2061020459161351
  0.2011293042144699  0.5955736703908023  0.4028799080646888
  0.1980831767052401  0.5999334339142814  0.6008884371034829
  0.1979744264614500  0.5995831449802813  0.7994268452498529
  0.2021570430354292  0.8018082729097915  0.0004928423070152
  0.1994905414392941  0.7973825790428810  0.2008114898991914
  0.1977428819187820  0.7997287141595325  0.5990210542546724
  0.2002371754586545  0.7987545646626019  0.8007644527395800
  0.4017125323848557  0.9996744934006101  0.9987216393690680
  0.4012446766967629  0.9973276826213076  0.1988440655415460
  0.4017370032842281  0.9992772439947266  0.3995921865121487
  0.3993722021228217  0.9978852923862753  0.5991877557191142
  0.3990869195661959  0.9992421221088754  0.7999351183455401
  0.3988181970482745  0.1990474932627072  0.9996723382857829
  0.3961123138112566  0.1995653290731459  0.1990038904659464
  0.3994823923638955  0.1984224076089492  0.3993921950165856
  0.3990351611127504  0.1943942503233945  0.6002481346166557
  0.3962492507596856  0.1991058454581299  0.8001821842339513
  0.3997122658105421  0.3996792214878150  0.0006737999414428
  0.3991910384259938  0.4001610013115326  0.1981181151261697
  0.4004400745498492  0.3987990978383179  0.3954090071406146
  0.3981623752847038  0.4001111689935263  0.8049313392890783
  0.4019006507377768  0.5997708746319258  0.0011957004593139
  0.4023776656041120  0.6002487894321918  0.1996866103293944
  0.4014179014353347  0.5989568669214528  0.3994695591148359
  0.3992305443312084  0.6040878101558174  0.5999703390916666
  0.3964302561618832  0.5998816091595985  0.8028462704013430
  0.3987314677343253  0.7993222121819235  0.9995764032538016
  0.4013577855897917  0.7981654540786611  0.1984319380852694
  0.4023500414344341  0.7992576835497730  0.3990152588109397
  0.3988642037612818  0.8003883949195668  0.5996378631957467
  0.3955894611072591  0.7992200924809073  0.7991695625852427
  0.6005986648095338  0.0032226271109599  0.9969556678173636
  0.6000709591636629  0.9937677656607167  0.1980836356640635
  0.5998014679172846  0.9982086157449067  0.3995814479622812
  0.5977967956729267  0.9982084889940477  0.7968377788946762
  0.6000847609408479  0.2002249184006877  0.9956997928882966
  0.5999476348096795  0.1986278737227119  0.4042344481915870
  0.6001302325527028  0.1976275637143324  0.5988978342995175
  0.6010359490295395  0.3990836970075964  0.9995682141714918
  0.6000031817257330  0.4039284893379977  0.1994980692629889
  0.6005126816538556  0.3992263560279735  0.3991063095430458
  0.6041090687313353  0.3995709798665356  0.5995715487080019
  0.5988598576726945  0.4018472405472691  0.7995435923559572
  0.5997828850897334  0.5947954406526895  0.9981971411151134
  0.5995863398276351  0.5982794183901469  0.4002652988769350
  0.5996264987901270  0.5999889476579564  0.5992543714241306
  0.5970455661028797  0.5987389086439885  0.7976179516537207
  0.5996849460766059  0.7980728886527011  0.2004619210936386
  0.5985448781203364  0.7990584323573818  0.5959881308788895
  0.5894236957734248  0.7986449383370410  0.7891597742964062
  0.8015652301775718  0.0042809770442075  0.0017804506871033
  0.7944948161334995  0.9991326242192827  0.2001292074427479
  0.7999180334324033  0.9990692488210678  0.3998687050880397
  0.7983761171971198  0.9983340351431610  0.6001724408781537
  0.7974473492519615  0.0030039391552967  0.7991727587294571
  0.8017032199489209  0.2008414370291681  0.0002318450767429
  0.8056850281688694  0.1962762404402310  0.2005817510231467
  0.8001701731601056  0.1996095805985348  0.4004851284804503
  0.7999629925117345  0.1979043716117887  0.6001788352177790
  0.8013151001002393  0.1999342608493690  0.7997310305342964
  0.8001711259644064  0.3970359233143083  0.0008026777912193
  0.8020147948431323  0.4007346237335843  0.2000123295649136
  0.7999381302279587  0.3978916236146377  0.3994096856987877
  0.8004644423609862  0.3984882891880791  0.5999316022326374
  0.7991971692195895  0.3977988400591200  0.8006003415271159
  0.7992890666808815  0.5942729333489934  0.0026467439155340
  0.7978637123531886  0.5988572050783935  0.1997591846289027
  0.7990493609708704  0.5970549606943920  0.4000823117732055
  0.7986016266634220  0.5995307183585367  0.5999450220913063
  0.7969560204929613  0.5937803178073384  0.7992036901726037
  0.8050897252818893  0.7967532188739659  0.2088837155684392
  0.7973958512087452  0.7984291871557795  0.4021157499258046
  0.7999313338863343  0.7996538029056197  0.5984454291746760
  0.5994125692912811  0.9979054939580069  0.5979525395023626
  0.6007495644555477  0.6004097243517337  0.1997322065734220
  0.6000894638776988  0.7983699505629367  0.3987840893481041
