Zr Ti V  Cr W 
 1.0000000000000000
    15.4219977637485020   -0.0153525296692176    0.0018800521315798
    -0.0153399539639544   15.4042384266248558    0.0149563524432868
     0.0018828811446291    0.0149768248118706   15.4308175709018371
 Zr  Ti  V   Cr  W  
   2   1 100  10  11
Direct
  0.5996044755927818  0.9876344614951362  0.7914295156346711
  0.8062816986229222  0.4055412144539152  0.2021686144091448
  0.5974663123652130  0.4042563617401165  0.1978773103245666
  0.0011940425069409  0.0014314142486276  0.0003527126823212
  0.0007933504030645  0.0000721811624945  0.6006122045650102
  0.0005673852426522  0.0000563319016505  0.7995843965708139
  0.0058903900462359  0.2000826779386170  0.0009065853920909
  0.0013920596486374  0.2026044867181078  0.2005925396748160
  0.9971077249587802  0.1994031137642372  0.3998601267366009
  0.0016025174899119  0.1996598899100301  0.6005086337496577
  0.9993091723234859  0.3986078644801151  0.0040260505101126
  0.0009656419768539  0.3997652921845611  0.3980777263370127
  0.0010018781919947  0.3998680890684444  0.5993474494499367
  0.9994366552640629  0.3993814072231722  0.7990950524445599
  0.0026201447350031  0.6000803476219280  0.0010749493313884
  0.0015503729217242  0.5988355388299175  0.2003546125499733
  0.9999066033180640  0.5993582676661748  0.3994962842321063
  0.9991826790585745  0.5986822228908303  0.5988655434825157
  0.9995760100113444  0.5992048326637439  0.8007806379858112
  0.0000292905106110  0.8012943093973541  0.0003571164534549
  0.0010622412816153  0.7994430406006892  0.2006430233013682
  0.9995530491768301  0.7995188009809846  0.3990425149319811
  0.0028946211000920  0.8002502057107350  0.5995890521076721
  0.9969724736345976  0.8005306907363403  0.8000780688491115
  0.1986017247689833  0.0055739338607936  0.9994832941067979
  0.2022978921778768  0.9987490918514180  0.2002623092768380
  0.2007480303896869  0.0007220614691737  0.3998889940555008
  0.2009754950047729  0.9966430565824045  0.6004808870969695
  0.1988184006464397  0.9988355663322140  0.7995361089453794
  0.2000104310162689  0.1995396558793383  0.4009441366416186
  0.2003118031378684  0.1988414703386944  0.5997729630130323
  0.2004598170445879  0.3974198137921051  0.9993881682098527
  0.1996535238520971  0.4007291347547453  0.2021150855432841
  0.2000079197393985  0.3993981755752023  0.4018149114330758
  0.1996871876731356  0.4049906781679077  0.7982509711355967
  0.2044844742648285  0.6014968080583216  0.1957563702309839
  0.1995478981515859  0.5988364854555515  0.4015164965214598
  0.2010966768578217  0.6025155642474892  0.6048108038275467
  0.2012918751806809  0.7990478808775011  0.9981678822450456
  0.1994690562487103  0.8009332970431777  0.2009187548038381
  0.1996690326553527  0.7995168402229942  0.4039563764101876
  0.1999464043741980  0.7964209450600450  0.7961230524713564
  0.4011739678046696  0.9989060274539269  0.2011994475159243
  0.4012617726713529  0.0018342978060624  0.3979162416311747
  0.4030074667131925  0.0013030705182632  0.5982049135912038
  0.3938514807571926  0.0021595412977310  0.7985755792010175
  0.3995723602746826  0.2027468410184902  0.0003772125612840
  0.4023790252958168  0.2012859201282984  0.2012714817275543
  0.4020248954497814  0.2017119143592831  0.3989824679807210
  0.3996217867984007  0.2008607428921505  0.5990932791595723
  0.4003079863413524  0.2015019169996431  0.7992093021026806
  0.3995076012588988  0.3998442352948601  0.9993478668010258
  0.3971700814743139  0.4063715074967503  0.2023134984676223
  0.4003757470956845  0.3995158484955526  0.4002946138894536
  0.4000436435012816  0.3995983630411958  0.5987154099850605
  0.3993701258669051  0.4001265393521881  0.7973729633571832
  0.3958081417877685  0.5992809226221140  0.0027746700672979
  0.4009390675091124  0.8024212044238895  0.9989981314360821
  0.4008829008799659  0.7976630277673854  0.1999761614421618
  0.4014615937693136  0.8004524754009326  0.3997552440360017
  0.3958403466799073  0.7997160646061888  0.5974592991609846
  0.4021742462001894  0.8028108029719166  0.8001919163812887
  0.5003394339529164  0.0031368804758413  0.0011614348328768
  0.5995418309684539  0.9987334248384016  0.2001119127195639
  0.6010631079790104  0.9993919791779508  0.4007289951325023
  0.6000538303315149  0.1983639018197262  0.1947747968401104
  0.6052145558093656  0.2008268449760069  0.3985437700326904
  0.5998894292869762  0.1955752577443675  0.6034814851126857
  0.6008121011893178  0.2017561596362078  0.8030536216767666
  0.5995649594618155  0.3963750523377636  0.9959773860237748
  0.6005274949715396  0.4005969316115231  0.4034483742920682
  0.5993366688303275  0.3999362877915028  0.6004261079964153
  0.5998631453460492  0.4057462524992828  0.7974363127053645
  0.5989765231341047  0.5974032817985704  0.9957975847975636
  0.5945544071900070  0.6049115309875406  0.1973920358550200
  0.6010405876386554  0.6001149389874070  0.3999845506017743
  0.5994172591082343  0.5998266272882162  0.6024125177826561
  0.5993523585719428  0.8005764412048969  0.9949298947602746
  0.6007637662582672  0.8021020535468473  0.1973512279055714
  0.6016218138560483  0.7994172963504768  0.4006987066622960
  0.5984621302480493  0.8012055149506107  0.6007878529955858
  0.8049712146842183  0.0013502103117886  0.0008296483539154
  0.8015426468103383  0.9990603622528851  0.2003008268098425
  0.8015700926091822  0.0033624819172844  0.3995622094127455
  0.7979549697123040  0.9996267426887103  0.5997966396988033
  0.8064551274295447  0.0006509907067450  0.7998429855069512
  0.7957874347662736  0.1994148169212846  0.0003584666697621
  0.8010541193379693  0.1963104401726834  0.2040239614731550
  0.8007399264468718  0.1998293708987135  0.5968813034254712
  0.8011342346160635  0.2007602057054797  0.7994565073823875
  0.8018192537963056  0.3990263266737090  0.9967591611154135
  0.8001059223248911  0.3954984968257570  0.4065678244805423
  0.8006515064627583  0.3988700324514331  0.6016476379554092
  0.8008987579688632  0.5998838386420552  0.0002276116109685
  0.7979510814157224  0.6073298907024759  0.1994096903450420
  0.7989504424656829  0.5988603388657741  0.3999235108770645
  0.8007156068463835  0.5996090227417366  0.5989095418579925
  0.8003434729503690  0.5990998256063724  0.8001323030192778
  0.7999573136094695  0.8011430084766783  0.0000556927977908
  0.8005787279813580  0.8024800708910337  0.1998545067822581
  0.8008792099091905  0.8001301718796687  0.4002206124844803
  0.8028167103686669  0.7993979316462633  0.5984106676283548
  0.7990299562557871  0.7995231214664793  0.7992691891887785
  0.0021475592388129  0.0002421071689322  0.2008099026191933
  0.0009210643274897  0.0000827471014262  0.3998905046127502
  0.0006323284702328  0.2007874801588221  0.8004486100252822
  0.2017420838767090  0.2000804667731343  0.2012927718492031
  0.1999378320164400  0.2017126874826326  0.7995441524989669
  0.2004793276314823  0.4005116359753661  0.6000504017891848
  0.4003393241615837  0.5998350331995582  0.3996717139436883
  0.4003303096557474  0.6000863670425767  0.5994835515370823
  0.3990614248270218  0.6003683084609657  0.7999676666992545
  0.8014889190090909  0.3997146721054473  0.7989985373617685
  0.0070839089698953  0.4025080615789611  0.2017599631879911
  0.2031401462667813  0.2012194155565628  0.0007921860602191
  0.1992220524177856  0.5985863247983747  0.9972898466666553
  0.1941818095505034  0.6015394427322455  0.8052430767004310
  0.2006222706402318  0.8000315026795513  0.6005632455149443
  0.3987868595063825  0.6022673289776956  0.1971274831667176
  0.5996402000787442  0.9978403308824538  0.5948131127127443
  0.5980651155664867  0.2024462333962189  0.9978176399932243
  0.6032188091201578  0.6021231771918707  0.7998231917968901
  0.6003668333460614  0.7876897526932439  0.7977874168296691
  0.8003692744127107  0.1998967089829440  0.3999218366831260
