Zr Ti V  Cr W 
 1.0000000000000000
    15.4863295998759050    0.0024137293282322    0.0105674120120943
     0.0024156779473548   15.5040449564505511   -0.0174543962439357
     0.0105707746262879   -0.0174578174046017   15.4782021514271442
 Zr  Ti  V   Cr  W  
  10   1 106   6   1
Direct
  0.0027969223857416  0.9699858601476404  0.7585527534681559
  0.0080116516700672  0.2121464540675980  0.6061898168949810
  0.0000967313296751  0.4348328914512707  0.0374513624405490
  0.0035101155736414  0.5771757121704270  0.2208699203843028
  0.9623803750233237  0.7914975168913961  0.1943732728747348
  0.0026386318393488  0.7996885021877513  0.5980799893719683
  0.1912617251186123  0.6264044669955838  0.5976797240744348
  0.3613017885076609  0.8133381703003559  0.1957077544047514
  0.8327141946277736  0.4299300444895390  0.3982907466686408
  0.7513363677582164  0.7890080221583432  0.1988270426620230
  0.1897701003941162  0.3879125197207740  0.6019372436908188
  0.0001167984469759  0.0066507235053907  0.9985049684567530
  0.0033633210288975  0.9982486883252826  0.3952438115882980
  0.9998429220622167  0.0074400642752244  0.5723138771108767
  0.0004379339278149  0.2000425496327087  0.2023774651770361
  0.0007994428668430  0.2010393671063387  0.3984963499957795
  0.0000409711715081  0.2042980462160233  0.8099658079976848
  0.9989034477470374  0.3864996962133566  0.2279680724458160
  0.0203224711455116  0.3998353934284871  0.4104191770518972
  0.9927144523379828  0.4100796718859188  0.6003954378629609
  0.0006773712322965  0.3966453064604568  0.8006440050825216
  0.0002382028846823  0.6237504799801230  0.0129771762886930
  0.0069253892307595  0.6031184037208890  0.4189705020921482
  0.9905417238920408  0.5984970055765850  0.6109752659664692
  0.9988030412442944  0.5909364158475697  0.8107775224271619
  0.0016211292988249  0.8117706808302257  0.9921784035003471
  0.0033936470154692  0.7986099276770307  0.3957710835262697
  0.0006909138024556  0.7822909707709322  0.8031679667828628
  0.1976133575112422  0.0023571226250023  0.9977647376948618
  0.1986077785738916  0.0026752093225662  0.1985784652146337
  0.2011143947310061  0.9990764310788314  0.3967565551547960
  0.2011948929587142  0.0038382424364971  0.5970746223847574
  0.2050186842316218  0.9994127641981305  0.8017746807868000
  0.2021316646252622  0.2003107197017146  0.0009479685136509
  0.2010117573461433  0.2002720714936454  0.1995893601256092
  0.2038461715359625  0.1985360352265764  0.3993124295274088
  0.2027116075425473  0.1982048730105416  0.8016222437761940
  0.2020403191022165  0.4005212726800581  0.9995388962754383
  0.1974416285362095  0.3990057478019126  0.1988626303993138
  0.2059820517493300  0.4018076719993084  0.3983916795514988
  0.2000750916692634  0.3984397773187908  0.8030302591524540
  0.2000112136695067  0.6019056599397311  0.0014355429127063
  0.2068704125089069  0.6011061698652663  0.1992927421545418
  0.2028714122258424  0.5998050247453994  0.3930250358296926
  0.2000475588278756  0.5977820833588513  0.8046401577844926
  0.1994811729234839  0.8028504639033833  0.9988539327923390
  0.1735401457114976  0.7960431639162560  0.1983667002174412
  0.2002706673958550  0.7994381474949283  0.3984863651949910
  0.2085834846670665  0.8141707399295108  0.5985906205653196
  0.1996771022482889  0.7981468202516140  0.7979036708301194
  0.4021096414917060  0.0036492527975749  0.1695714051278210
  0.4001439643275239  0.9981444324970933  0.3994346920891640
  0.4039986236928714  0.9993151597752624  0.5978744987138267
  0.4006287085043849  0.9985979370771316  0.7939199781292694
  0.4004719038525957  0.2018465631965423  0.9990271746202231
  0.4008228682691676  0.2005261430848344  0.1991586781649186
  0.4016630847566946  0.1990953735540938  0.3994148004909201
  0.4046432616124023  0.1987602680887267  0.5991143022528616
  0.3997719826016208  0.4000277281013326  0.9997957577338086
  0.3991325004436653  0.3977434321280799  0.1998195806328901
  0.4008959181780388  0.3992045823552319  0.4009967061182517
  0.4006210144331826  0.3977946278466391  0.6004939235450361
  0.4004167344147069  0.3996965322333985  0.7985977791352471
  0.4018676238934603  0.5999955815863729  0.9996766751708970
  0.4036922985224613  0.5945565978576210  0.2003942413472576
  0.4018044853943357  0.6000285631588204  0.3997800570649935
  0.4008325351060034  0.5968675154029623  0.5986842122330664
  0.4000509286785887  0.5977802749015938  0.7995458780997881
  0.3992292863947398  0.7970664517274448  0.9933844162189891
  0.4005305882382978  0.7980025096659189  0.4022614501930959
  0.4010478984744569  0.7990524009284209  0.5999436392229205
  0.4006234518825355  0.7980668833830901  0.7986939890647706
  0.6016770183837453  0.9982952642844384  0.9989921661348747
  0.6008208200194425  0.9958443010054473  0.1987607803296834
  0.6018912371191617  0.9972334038841301  0.3980869864404596
  0.6020368197247093  0.9987249394714924  0.5967573475393648
  0.6002560114906704  0.9969484644466864  0.7991977369654581
  0.5978344094831936  0.1964821685408299  0.9999261688167906
  0.6010118012005317  0.1990939059980956  0.1987922713777688
  0.6021278796503304  0.1985339283824580  0.5992387999319736
  0.6011844435133127  0.1987565269331894  0.8000031173872082
  0.6005947414618352  0.3986814739169399  0.9988808096462989
  0.6014516207663905  0.3994002582277786  0.1997928143365338
  0.6012427042399705  0.3977214226010840  0.3985302150744993
  0.6009800866278254  0.3987517235501271  0.5983363722234074
  0.6002063012224303  0.3991616083466372  0.7993233203856788
  0.6025696219995399  0.5990627515633478  0.0040173429167845
  0.6048885505547681  0.5982517044265289  0.3962174484075695
  0.5998982401805598  0.5990875880301600  0.5969532595029118
  0.6016602342004231  0.5989814978121563  0.8012937942922225
  0.6000256978144562  0.7999677055303992  0.9984770915490879
  0.5650861354222445  0.7888308278855449  0.2012747519278247
  0.6000686447985771  0.7989024526149344  0.3994479929154489
  0.6008249863833125  0.7986167188171959  0.5990596593353996
  0.5999500286565784  0.7972017423386839  0.7988188188325495
  0.8012784002788202  0.0008290569878164  0.9971346447425058
  0.8013622790103452  0.9970330232392423  0.1989598224615180
  0.8011527838564806  0.9998774114525258  0.3983441002689699
  0.8020622628972656  0.0007690464166966  0.5989138049562711
  0.7998089049629171  0.9992112531626872  0.7981365140363689
  0.7992488046721256  0.2003638694290971  0.9996023204713265
  0.7987680960559153  0.1989971064559864  0.1988879161684435
  0.8009794755180484  0.1966836114408184  0.3993732802511498
  0.7991966657278052  0.2018641313520330  0.5997214786021030
  0.8013322985695750  0.1986253055334742  0.8005695709567427
  0.8032524921758861  0.3970030546487354  0.1946186384412913
  0.7974836150525819  0.4000080182076839  0.6010203616327587
  0.7996113156042332  0.3997462578010934  0.8004670859954280
  0.8032093702161879  0.6004008682179997  0.9997138587406517
  0.7942424110923828  0.5925011394535540  0.2093030863859744
  0.8035679933198103  0.6175190209579073  0.4042326500866056
  0.7967321772238588  0.6007806910464359  0.6003362675239713
  0.8007170001338966  0.5987265861560114  0.8018586935934202
  0.8030320635868712  0.8014178979449925  0.9973926313701459
  0.8075213881234229  0.8051686724201944  0.4015849449505498
  0.7959521058551701  0.8003595894296036  0.6005902716415598
  0.8007111122196684  0.7980537368980941  0.7988039688066629
  0.9990394903147882  0.0030680387359501  0.1978610918472296
  0.0005993460323789  0.2015882165635455  0.0039610616421003
  0.2095538263304053  0.1952692615999196  0.6004695352163446
  0.4025003779944165  0.1993491506837506  0.7998646783144613
  0.6007844424212643  0.1981112356371407  0.3983357397480500
  0.7979395369757050  0.3994872650377025  0.9981001290615569
  0.6014223092605608  0.5966675344062410  0.1991406306995054
