Zr Ti V  Cr W 
 1.0000000000000000
    14.6931264743195609   -0.0418914435529454   -0.0865466858222386
    -0.0421314091287652   14.9181159915822761    0.0350684463372300
    -0.0878027903360856    0.0348297458047336   14.8690250798703243
 Zr  Ti  V   Cr  W  
   4   3 106   4   7
Selective dynamics
Cartesian
  3.1316654326306033  9.1461027554281706  3.8297820851275644   T   T   T
  5.7928083242771224 -0.8006937005880210  8.7796301747968215   T   T   T
  5.6843795879714847  9.8441508976172081  1.7590246730031660   T   T   T
 11.4731438321742267  8.5212194035602344 -0.3030406808161524   T   T   T
 -0.4908643782937060  3.1180158030901222  3.1290953104077786   T   T   T
  2.5039025654397311  1.0972735921953429  8.8264663695317438   T   T   T
 11.8328790833424975  8.3607305315166851  3.5766250375101434   T   T   T
  0.3826721537203191  0.2148287428011055  0.3788073373268698   T   T   T
 -0.5917508146046769 -0.6707556470735933  2.6262290179611991   T   T   T
  0.8139307812687309 -0.4300517014818708  6.0634496113329766   T   T   T
 -1.0159593447703192 -0.3447161858643803  8.4134723297929774   T   T   T
  0.7378316717976419 -0.4702225282962715 12.1729985380854906   T   T   T
  0.8248792301778239  2.6850846945312279 -0.5058677488955504   T   T   T
 -0.2174511152150547  2.3217466667393780  6.2210528369026985   T   T   T
 -0.0181559509558493  4.1088310569498097  8.6878446885045442   T   T   T
  0.1351470355107151  2.3852211792582567 11.5598790419020467   T   T   T
  0.7054663175898250  6.6785299451068560  2.2683770176780347   T   T   T
  0.3281141196128949  6.4701553216347225  5.6880084027428577   T   T   T
 -0.1408164431384392  6.4447485457863545  9.6353587658037778   T   T   T
 -0.2205227694618162  5.2667040239762182 12.4961160840626846   T   T   T
  0.4747523597646162  8.1185697119616176 -0.9184193652653889   T   T   T
 -0.3785178924716244  9.0792967585779518  2.3516093936685287   T   T   T
  0.3172189062477361  9.4115276119494702  5.3693726101269199   T   T   T
 -0.7452545704881628  9.2525666380546188 12.0814460031947633   T   T   T
 -0.6947096135991784 12.1687900608828663  0.4505841315667221   T   T   T
  0.1095696781634159 11.4110338284507300  3.4374377180982734   T   T   T
 -0.4142581250479802 11.6292188842624107  7.2025386619483243   T   T   T
 -0.8727593095434149 12.7367551515116801 10.9608555939408348   T   T   T
  3.7020559301554856 -0.2095005951608422 -0.0754804362954557   T   T   T
  3.0087035931101589  0.6329065593529148  3.3850038534629889   T   T   T
  3.0419763726385303 -0.9118027923780354 11.2192446263510917   T   T   T
  2.9868656547230206  4.3051516105223913  0.0665356166651214   T   T   T
  3.5090334949596937  3.0138348137181694  2.7602794739547334   T   T   T
  2.4307138703282867  2.9622900659610560  6.1674098980879277   T   T   T
  4.2291989987839163  4.1347939630797583  8.7725403122232422   T   T   T
  2.6524569489879877  2.4255880765653179 11.6910641917339007   T   T   T
  2.8818343041917571  7.0033180760875560  0.5940167356142877   T   T   T
  2.4043787575407789  5.4529772021279150  3.8102261120713052   T   T   T
  3.1711919313951640  6.6503479930267577  6.6340430685155685   T   T   T
  2.9918700988132469  5.9874272493147886 10.1387822504108289   T   T   T
  1.6028889316080843  5.3972732499842468 12.3214075027581735   T   T   T
  2.9735341149090946  9.3157853879462582 -0.6349420434075207   T   T   T
  2.1150644040293245 10.3775550149363820  7.5947129817319450   T   T   T
  1.8440145540733974  8.5426501200738354  9.5739198790328075   T   T   T
  3.6201948609678238  8.5517174541796379 11.8349788369293130   T   T   T
  3.2986766524829227 12.2148508419818320  1.3924483448766556   T   T   T
  4.0291205916216439 12.7725891107461820  3.9360342452577659   T   T   T
  2.1812318321560586 12.8170989367270884  8.6183259159281924   T   T   T
  1.5852347380318439 11.8623761461995709 11.2523040523416729   T   T   T
  7.1474065432107956 -0.8687544729059800 -1.0683682777338346   T   T   T
  6.8557503982466876  0.5796949956888927  2.9976821657318871   T   T   T
  5.7974654653547359 -0.3403276619339321  5.0073153537275923   T   T   T
  6.2950598803884734  0.8853151362882828 12.1249552344678513   T   T   T
  6.5520950145511136  3.5034616816950184  0.2473011162277498   T   T   T
  5.8489266720515092  3.3382261943027789  3.5054357547637496   T   T   T
  4.7269015668892029  1.8160371936020707  6.5820307497998582   T   T   T
  6.3166476786147658  2.4930383941098393  9.4503183098635901   T   T   T
  4.9172331771203330  3.5389277807064241 12.8740789190107936   T   T   T
  6.5446096306746426  6.3205469911766148  1.4354027272655823   T   T   T
  6.1296603311538718  6.9547994792052155  4.3023617814922401   T   T   T
  7.2588964751039580  6.1256085700891054 10.2862592041116514   T   T   T
  5.3160018417182844  6.0025967346415765 11.9155040350999570   T   T   T
  5.7853489000916731  8.4395578871747361  6.4139018113431367   T   T   T
  5.1149756175534433  7.9873198033727002  9.0647927218793605   T   T   T
  7.0551723822060621  9.4646721247943351 12.1837036300415367   T   T   T
  6.8866112065129172 10.9309180555318282 -0.7011161134048746   T   T   T
  6.0639664095228838 13.0272733885001735  1.2515428039297252   T   T   T
  4.6010957791273874 11.7504625604843973  6.2058577311851844   T   T   T
  5.2169596594076744 10.5762316010325339  9.8296368999409136   T   T   T
  4.3848773541494843 12.1768780860952983 12.2260599048984755   T   T   T
  9.3710084189352365  0.5024599115049657 -0.0634764151073453   T   T   T
  8.8751827608055986 -0.7067780800680058  2.3611641508324013   T   T   T
  8.2558264703261646 -0.8102761670951741  6.1409015779990321   T   T   T
  9.2520863364910895  0.6211379624386855  9.7179041253575882   T   T   T
 10.0491373416444922  2.6646200227174743 -1.3194951978707847   T   T   T
  8.6947768761086301  3.0868097881355303  2.7189243896736075   T   T   T
  8.4537225257796109  2.3648918942962847  6.3160960533989812   T   T   T
  8.4432506576817037  2.1465955932778362 11.7569774540891192   T   T   T
  9.6931870816617245  5.5712810209779828  0.0343032100671263   T   T   T
  9.2827471388634741  6.8479983174729124  2.2653124541594054   T   T   T
  8.7430727381888271  7.5023431005689281  5.9788960017197308   T   T   T
  9.7439052761336526  5.5662806117483470  9.5089910003839577   T   T   T
  8.4160617729146523  4.6906795482634109 12.2650335270784794   T   T   T
  8.8920193353186878  9.4325694580894286  2.5179089011355673   T   T   T
  8.0393797112168670  9.7771096372331616  7.1973853644758652   T   T   T
  8.8146683170875963  9.3031617850912554  9.5232247581004650   T   T   T
  8.3272929939098503  7.3678434387467311 12.4847329256310502   T   T   T
  7.9021935619202930 11.9546360845399082  3.1030169248752006   T   T   T
  9.0076731410401223 11.6103937281303349  5.4405155293870724   T   T   T
  8.9118401682004098 12.9725892871806341 10.1427606432679962   T   T   T
  7.6309508243088260 12.3570994860667227 11.3521672385194634   T   T   T
 11.5620947169749044 -0.8276119596486680 -0.3944731222483380   T   T   T
 11.5834212086542401  0.5580117751662470  2.0055052829150735   T   T   T
 11.9398313843345480 -1.0609361132510955  5.2337934857136235   T   T   T
 11.4434681246330676  0.6964511160651380  7.9997911894958342   T   T   T
 12.0233548741779579  0.0828100838091846 11.8689287165649109   T   T   T
 12.9349162111536540  3.3185813568597791 -0.3239413367054413   T   T   T
 11.1836414025034383  3.1020933854465147  1.8848703030550329   T   T   T
 11.1427441660202948  3.2102091432580986  5.1488374341500975   T   T   T
 12.0586977517279532  3.4007543477358944  7.3914509461239453   T   T   T
 12.0393404634617500  2.5395781718441701 10.1938355980383246   T   T   T
 12.6636097936659873  5.5762632037701589  1.3154832072562963   T   T   T
 11.7599522262367877  5.0648520263716783  3.5713310122036890   T   T   T
 10.6131427255366813  5.8142072896967409  6.0284009397602620   T   T   T
 12.1874684641414479  6.0335509804084309  8.4284620996803845   T   T   T
 11.8266613088245691  6.0254533002227024 11.8623305594260415   T   T   T
 11.7594951433273316  9.2429633989233331  7.3433728049458677   T   T   T
 12.5898655547013103  9.0790436747209728  9.6159535081602456   T   T   T
 10.1582169074911697 10.0842688699391836 11.4456384708125647   T   T   T
 12.1018246343592821 11.0768212102265338  2.1002910115074558   T   T   T
 11.6846309359555143 11.3749794268268722  5.9792882704905166   T   T   T
 12.8317350869387639 11.8258825635409046  9.0163536032592013   T   T   T
 11.3133716999252965 12.1469835101484982 12.1578307285763536   T   T   T
  4.9188028033133326  5.6093733950016942 -0.2831553602735433   T   T   T
  7.7811877039407946  4.9223545158828923  8.3940450784433658   T   T   T
  8.9226252234412247 11.0836486331452004  0.0375616615890293   T   T   T
 11.5874423609559578 11.7050563864143378 -0.1791955365017353   T   T   T
  0.4737382825202767  5.3515924573794056  0.0900920510766938   T   T   T
 -0.2166531404165787  8.5624741287932924  7.8251304830783219   T   T   T
  3.4805220358710178 -0.5635799374682343  6.2782049118504508   T   T   T
  1.8820084929211212 12.0427617722888822  5.4598723664202646   T   T   T
  5.4266803351634785  8.0845721029085524 -0.8937770422675039   T   T   T
  9.3784135987024513 -0.4458191227191824 12.3508315013511840   T   T   T
  8.0143620020668678  8.3434840898016756  0.0646836704813370   T   T   T
