Zr Ti V  W 
 1.0000000000000000
    15.3251724423404525    0.0070128769391973   -0.0004714545103314
     0.0070165878469139   15.3328247917111025   -0.0066220456422159
    -0.0004713462084994   -0.0066216079972265   15.3468382774047818
 Zr  Ti  V   W  
   2   2 106  14
Direct
  0.2297444022997591  0.6332705975605780  0.0003566867650078
  0.3999589155432319  0.7970443052143538  0.0017429223401868
  0.9953111780291798  0.0036529626835957  0.5913479214744416
  0.7962669664797652  0.4054212029054592  0.2063199695330368
  0.9993846410491531  0.9984263545882149  0.8022074058596168
  0.9978249014686569  0.2055767709729394  0.0004696258717813
  0.9996322573681027  0.1973727958906815  0.1993385518007961
  0.0039693293751357  0.1962035009560132  0.4008437429643112
  0.9991500768153122  0.2025580961511465  0.5995774354160675
  0.0015578392813835  0.1975989253082597  0.8000619717408657
  0.9984181482272527  0.4000333079083405  0.1971646581903657
  0.9990002850589277  0.3991947762871754  0.3971503368757592
  0.9951577503435213  0.3995123212301828  0.6026508249414176
  0.9979882125583880  0.4006683468942167  0.8032988565068480
  0.0071968484039997  0.5943374320681588  0.0025847781249866
  0.0039440247797577  0.6010864455161360  0.2022353648069093
  0.0031547045796301  0.6002789173919364  0.3984721961626413
  0.0010151927152125  0.5980164211705183  0.5956531987046910
  0.0019234688506733  0.6004196479656901  0.7994763219351814
  0.9993834734586625  0.7934897525140568  0.0002280496987861
  0.9952803633512760  0.8016895558300591  0.1979655184107843
  0.0009092315976460  0.8030028766532626  0.4011044058834612
  0.9987642014804838  0.7979125029623446  0.6013089240570934
  0.9981918680996897  0.7997409702171729  0.8022884960191332
  0.1994240995312809  0.0036354336459377  0.9983256390814542
  0.1968627219873715  0.9996459622090207  0.1976032213494535
  0.1960940869959746  0.0012264126339675  0.3991093905689745
  0.2010365494433582  0.9995142166068763  0.5984204239567472
  0.1980010035310401  0.9941856301202222  0.7973022572355828
  0.0333603850418079  0.0426997385227657  0.0028950787473545
  0.2017495583100049  0.2002184960316813  0.2071518663194319
  0.2042780900665068  0.2005442637590043  0.5974819376552448
  0.2002965299916455  0.1966922374573042  0.7953762373556015
  0.1960752253409235  0.4064256712582805  0.9983122337691871
  0.1984836382618934  0.4008062810747076  0.1972321996911061
  0.1968702653432953  0.3967140135859117  0.4021468646852816
  0.1974773048745070  0.4003181000073820  0.6026715093174061
  0.1994549042753441  0.4018029694463938  0.8015695332821432
  0.2034199523916531  0.6014829532257585  0.2062145681734526
  0.2035634020447116  0.6013660357611834  0.4009374802732433
  0.2016448518383792  0.5992460372768144  0.5991049837387341
  0.2000024667412054  0.6056559668233650  0.7931860476019357
  0.1901684868190634  0.8249674184887991  0.9928877772001868
  0.1983362648828234  0.7988261040238935  0.1926432175294382
  0.1990837563594617  0.8015749783364013  0.4050335043940885
  0.1993064582480372  0.8014007628229297  0.6073830419989424
  0.3985674393211571  0.0062824868498608  0.0013761251784943
  0.3983752406243827  0.9963272196800359  0.1998502188023236
  0.3981629639332747  0.9969824129597916  0.3966703005555771
  0.4003404571761559  0.0036368243706582  0.5962144159662759
  0.3991920111267035  0.9971553827280628  0.7998022521753831
  0.4005179547629432  0.2007527218995095  0.0002315160789075
  0.3991002349332535  0.2019656015339965  0.2004319008387554
  0.3961372417468977  0.2004814091605835  0.4018525351642173
  0.3971270310697518  0.1983568869634129  0.7965075586818690
  0.3943731085277109  0.3958659100285488  0.9995085239723246
  0.4001446868408825  0.4038100852365938  0.1987137180759017
  0.3999911733017809  0.4035719443535860  0.3992494709409077
  0.4004196918701630  0.3975568807334549  0.6012781933571830
  0.4030145921520696  0.4017938058796830  0.8005257401538799
  0.4179221245897718  0.5869699523550196  0.0078249373496466
  0.4001436653014667  0.5963880655032514  0.5907780194387097
  0.3977245818893952  0.6002438747871018  0.8074832667888123
  0.4018164233934493  0.7970353724958618  0.2063237823423962
  0.3988572360716439  0.7969002899080528  0.4015461114325190
  0.4011424923041780  0.7987436615910791  0.5994966533408549
  0.3997803732112106  0.7988061586665253  0.7936251704987994
  0.5993671518977584  0.0013793155316928  0.9995630102042833
  0.5996082091630227  0.9986369314712323  0.1997498495892856
  0.6001272954652078  0.9989910077424148  0.3992901188406833
  0.6001643524210440  0.0037633051128485  0.5996193926114963
  0.5984013267460105  0.9929309956607189  0.8006577537353484
  0.5991207909173923  0.1998159005573733  0.9983586024079253
  0.5983618964130204  0.1985873224652424  0.2012072889472207
  0.5985631049806389  0.1987931547402757  0.4031531717624811
  0.5990453334200855  0.2019566859947004  0.7969269035171535
  0.6066710677770608  0.3969016567763811  0.9945471507050418
  0.5992780848369004  0.3992007282446713  0.1987215440755526
  0.6019031175956546  0.3986287482898493  0.3998564699468368
  0.6046572770621353  0.3957158949577242  0.6061072807731787
  0.6064030864802061  0.5966468835543782  0.0009233055141642
  0.5950677457513015  0.6009097698767275  0.2002100314194984
  0.5955334999266564  0.5991922562997160  0.4008384400808757
  0.5977430284832712  0.5978589222856848  0.5996114067226550
  0.5977255561121304  0.6011840981205557  0.8004295643039394
  0.6054806163892470  0.7995867662947347  0.9947852369134004
  0.6032984341770925  0.8002680881035823  0.1978330867106340
  0.6015587008692798  0.8008259842369060  0.4053888222674207
  0.6001321950033619  0.8002148456215280  0.6055887533690946
  0.8006905523486734  0.0013326502941771  0.0004461838400085
  0.8023166342695379  0.9944894318121005  0.1988346234603139
  0.8047065083931689  0.9980335569310799  0.4000273908128162
  0.7979002007605683  0.0000387821020480  0.5982428341470761
  0.8009295958562886  0.9941824907513468  0.8008685203775102
  0.7997829216614750  0.2001428396663264  0.9998909297668570
  0.7970894938029781  0.1971448726393894  0.2026072337694814
  0.7996471445523312  0.1993942118940453  0.4002508285556451
  0.7959530987186889  0.2020864241722503  0.5995053725401663
  0.7986471834080769  0.1954786478310435  0.7984909408466234
  0.8050095712208905  0.3998954814842766  0.9968403555696274
  0.8009190920834676  0.4004586993069987  0.4061370489697484
  0.7967584636795952  0.4028290402892682  0.7969426723971567
  0.8047264964492360  0.5982782242290693  0.0025162869486386
  0.7973824847201807  0.6063653729192416  0.2013053172582641
  0.8001322004702274  0.6003530204110532  0.3987562874249825
  0.7999492170641114  0.5962163477676974  0.5969873961172905
  0.8009404586342657  0.6051033620217985  0.7990101012644940
  0.8023820386494761  0.7998984614416530  0.9986371676761290
  0.7993977956479522  0.7981991418349720  0.3982720803049838
  0.7996876111033114  0.7978929346567080  0.6052149855930168
  0.0001766101726151  0.9978746620094551  0.1993189807250768
  0.0008743937520106  0.0007720645034360  0.3914287012300948
  0.0012192486518829  0.3995124053427417  0.0000055220906424
  0.2011073788004054  0.2006891050306779  0.4011052469115792
  0.2033155354262348  0.7962483062675541  0.8050557228917856
  0.4028935940882463  0.2004989031066768  0.5974117312791021
  0.3960253889516282  0.6025439469839254  0.1970144814498218
  0.3998224773187685  0.5990006737230391  0.3947710019958615
  0.5967155131904359  0.2001231967316744  0.6003094299126992
  0.5994598091893474  0.4032773726955666  0.8010000566925680
  0.5996692631930507  0.7971331020755559  0.8010466267528690
  0.7994065369270827  0.3994766321625625  0.6015799674077147
  0.7988069951728132  0.7993390722294610  0.1986706477035925
  0.7973204641122678  0.7984444043714807  0.8014486903360745
