Zr Ti V  Cr W 
 1.0000000000000000
    15.4183382732746566   -0.0042241751332824    0.0074453837453094
    -0.0042178102236809   15.4603498173954410    0.0002173660853659
     0.0074739898451631    0.0002197516182385   15.4879399768426929
 Zr  Ti  V   Cr  W  
   4   3 107   3   7
Direct
  0.0050551549086693  0.9950963175861135  0.6207480377223417
  0.9924579842176617  0.3906998527097261  0.3988919112097891
  0.1983978248828089  0.6354524621106777  0.6295880441796593
  0.4032515893081678  0.9956418987411179  0.2023585419650632
  0.4010235700875007  0.4040183767142275  0.9889604065905387
  0.5996930195244240  0.0026551407655197  0.8009017028537438
  0.8112090825354533  0.2164489322842942  0.4028521225228074
  0.9992127540731366  0.9983059467071834  0.0013904241635714
  0.9982740797417192  0.9979511142736770  0.2007230884669223
  0.0014943065797479  0.9953620968142453  0.4009089612491123
  0.9078451403548746  0.9990129595907137  0.7979763906569094
  0.0023437946895504  0.1973477419404031  0.9985138963316412
  0.9981443456917096  0.1980629738607523  0.1989439960112137
  0.0071922272809162  0.1893649198067802  0.3993305708433315
  0.0010692306949005  0.2011344307362369  0.5996331751389982
  0.0001773452859783  0.2006609600325738  0.7989290330080521
  0.9988058133592881  0.3994981663611439  0.9965559489004117
  0.0003972582109598  0.3992811212829004  0.7985632803342182
  0.9984662660231893  0.6000147718121223  0.9991368589164522
  0.9983460491071087  0.5974506140555546  0.1973284884479580
  0.9986510968054205  0.5987898064329277  0.3983339575227737
  0.9959316685622389  0.5954454381664621  0.5982189997969315
  0.0059642643606514  0.5981284316439359  0.7983642134135244
  0.9989670909374435  0.8001117275387677  0.9990245269338313
  0.9988206157990611  0.7975105332775769  0.1990727081980264
  0.9988612390602317  0.7967180440222336  0.3980711736809712
  0.0041310274336808  0.7910655384173217  0.5988532363292070
  0.9980666496493158  0.7984542954796933  0.7995705041681110
  0.1993475664281550  0.0039761572286984  0.9990386087523331
  0.1978474788298669  0.0003866212900845  0.1988961819877462
  0.2014557516517878  0.0028592221148296  0.3969340630345086
  0.2086220523035953  0.0053070146964272  0.6008415360959993
  0.2030776017894909  0.0000637013154521  0.7999067266383846
  0.2014741818091121  0.1996947375073771  0.1948308087152600
  0.2018410502269667  0.1994405662142339  0.3949690541811812
  0.2004170697903775  0.1994435931860855  0.6003685072551246
  0.1998945828938290  0.1992696761036435  0.8055639434697530
  0.1983285637008722  0.3943140675135591  0.9997039880783791
  0.1999757744766800  0.3982554852213669  0.1975931725055476
  0.2008753234610042  0.3994819224114823  0.3997826155895478
  0.2025127535108922  0.3956460860546729  0.5980879126560998
  0.2050202477862118  0.4036937238004327  0.8009764181849313
  0.1988749366112068  0.5999016467569025  0.0054249495545893
  0.1994340855644894  0.5979041236498509  0.1993711364935027
  0.1974747636383933  0.5973296300470936  0.3942713902035612
  0.1995451408418500  0.8029377977366435  0.0042859410868205
  0.1985171874932293  0.7995329902919166  0.1994395345368200
  0.1997038039368302  0.8015066581696457  0.3972088001262545
  0.1996578960196069  0.8008868101867789  0.8107763403372963
  0.4007600000889679  0.9993626770851171  0.9945825088464986
  0.4015458308651762  0.0001014233934218  0.4061159805290800
  0.4052984806288273  0.0021661093277421  0.6021409116423037
  0.4012155907419983  0.0000354907495710  0.7974490326842262
  0.3959753335996364  0.1986317691873009  0.9987717229563833
  0.4035167842608708  0.2047224452355830  0.1985107765295412
  0.3992860871484027  0.2003437050752902  0.4009467064628478
  0.4008770428356558  0.2029390260832603  0.5996666698012586
  0.4003551958154232  0.2048966040150094  0.7998936656366917
  0.3997035295362567  0.4018323105769572  0.2023707493294763
  0.3975245095140335  0.4011860747025904  0.4043780967073146
  0.4000435788228623  0.6023365223473183  0.9990525994918786
  0.4001362563110042  0.5974119032777411  0.1988957940029133
  0.3987116785076347  0.5998227763657219  0.4004641249092146
  0.4015747941437272  0.5956946015760802  0.5982453630177081
  0.3937378234625030  0.5954746593287513  0.7981671600861285
  0.3993317202693124  0.7992829859153741  0.9984750532358692
  0.3995640289408562  0.7931909109981961  0.1997470456653166
  0.3994884042567221  0.7985796875927000  0.4003518322769757
  0.3928003334457285  0.7971712525098371  0.6009756600166853
  0.4001768879303355  0.7986061991137177  0.7993909707844660
  0.6018695982292216  0.9997851219461918  0.0004746133375608
  0.6073996171550917  0.0045152728503209  0.2003103177654847
  0.6030118754930717  0.0017829709121803  0.3991678830817923
  0.6010697390621899  0.0001267842113468  0.5968468699233167
  0.5985088489316585  0.2002673950613245  0.0057307265652155
  0.5986271190879979  0.2011728030195104  0.3933212153108149
  0.5995184113429031  0.1999421144868861  0.5974421197734677
  0.6007211450108866  0.2014590673875051  0.8028321472323832
  0.6011778564909390  0.4002290115561717  0.9988079862808515
  0.5993873187435549  0.3961260169808059  0.1995574571655209
  0.5956771289972164  0.4011500045488682  0.3996674999014135
  0.5970782750647591  0.3987270041848366  0.5982296587979398
  0.5957614788051858  0.4003646815887916  0.7995165928974159
  0.5991249488091844  0.5999023359089218  0.0000772637839306
  0.5994677179674728  0.5978809524666525  0.1987060359860573
  0.5987319396045523  0.6012393954235266  0.3974772308967692
  0.5996948700964673  0.6009671784461131  0.5991367044422300
  0.5988030644933999  0.5999247340993757  0.8004549399597001
  0.5991015558306786  0.8005742518830824  0.0009235187658989
  0.5997739628028961  0.8007804471174438  0.1995007776242150
  0.5980814939785610  0.8004539440444450  0.3985044466233146
  0.5959084485004593  0.7999046758003782  0.5987999582754386
  0.5977687251212521  0.7967182959355867  0.7989132312554140
  0.8018230452164791  0.9990498571299956  0.9961053280273036
  0.8028166248111825  0.9983647080717750  0.4035295119755061
  0.8012895577886299  0.1983043351489411  0.9978298748318589
  0.7976923578754905  0.1991370332634579  0.1974125030495024
  0.7988738044422591  0.1962160453031739  0.6024932231389242
  0.7999888738919864  0.2029141508906864  0.7998458552561988
  0.7995558898984760  0.3995566568362300  0.9969516426863017
  0.7984179121468957  0.3995314552259105  0.1979512704762361
  0.7893459817520790  0.4076627274903088  0.4000373046738871
  0.7967243143362144  0.3987250807903119  0.5995157298104680
  0.7986970975063143  0.4007654266200856  0.7979477127148625
  0.8002265083702901  0.5994748021793462  0.9984905268523521
  0.7987142089063898  0.5988335305214819  0.1979342110480266
  0.7985744333376985  0.6016747068891842  0.3989260852330012
  0.7988505840987553  0.6005505171638372  0.5997702864236517
  0.7996417150824648  0.5983626142156634  0.7983774955493118
  0.7981412222735573  0.8006739453980517  0.9967699939459594
  0.7991192757458585  0.7989900957322293  0.1992725210592203
  0.7991700734645107  0.7993634099822033  0.3990292963797724
  0.7989142051294729  0.8014651067938725  0.5994296527642762
  0.7999446081642256  0.7959362793053736  0.7980357238308861
  0.9988571183694568  0.3985215235990259  0.1939675108973140
  0.0008779565757611  0.3993353935678697  0.6036159909831408
  0.8017333406950135  0.9987782477465107  0.1997524018005317
  0.1981752512724224  0.1994799603598290  0.0005602792047190
  0.1996528554187679  0.5981223636346110  0.8198944594629989
  0.1962902012092868  0.8284178646010391  0.5877176297672129
  0.3994234365519739  0.4005188917785258  0.5997841331331507
  0.4005650628683685  0.4002542114191555  0.7909649654761162
  0.5994525920482746  0.2002444998367493  0.1999478405148492
  0.7951659614836690  0.9989035815024165  0.5955939649160263
