Ti V  Cr W 
 1.0000000000000000
    15.4464656596279237    0.0026393324307650   -0.0051499977500449
     0.0026392792308168   15.4360610524716844    0.0041620633854494
    -0.0051482900175055    0.0041619794273236   15.4439029048304732
 Ti  V   Cr  W  
   3  99  15   7
Direct
  0.0012592339775841  0.9961497777682720  0.2023825901754159
  0.0063312733934809  0.3968121893991211  0.4041147175321568
  0.2034083870380515  0.2089917298490217  0.0024094132865137
  0.9993022630525658  0.0002891906342046  0.4064609427275404
  0.9976986611533966  0.1978607801207321  0.0010998982327591
  0.9988203939502212  0.1980302697499290  0.3983950893014859
  0.9982224721640630  0.1962128341247611  0.5987780837012068
  0.9999468709495518  0.1953662733427720  0.8005332888840586
  0.9992820248744285  0.3988161618200677  0.2005501110489874
  0.0001438163982663  0.3979003272911192  0.6031320347044715
  0.0003663756389978  0.3977328623388717  0.7992596917626248
  0.9999401160822683  0.6002394983905318  0.2012930879184998
  0.0001182567054598  0.6031344937951497  0.4003727922053603
  0.9991698209909700  0.6011456076873659  0.5999244196190738
  0.0004735922567267  0.6008270511163529  0.7992774234858265
  0.9995981105689523  0.7999418961240885  0.9986722126945612
  0.0004259416283394  0.8011335787649734  0.4006190196969550
  0.9983706983484305  0.8036798713666606  0.5992972125177661
  0.9993571306516792  0.8040696579331792  0.8007504164048658
  0.1999952963088198  0.9988626996082242  0.0001468939077470
  0.1999878083726725  0.0023659653850436  0.2001848361708684
  0.2005153279271004  0.0002628361603818  0.3997578040726447
  0.1985473793493538  0.0003840185363992  0.5991641448860452
  0.1980382376795662  0.0007470622960208  0.8005931639962670
  0.1999497945906084  0.2002464946431408  0.2024645205477076
  0.1992841029127050  0.2007804060042883  0.3989719366271285
  0.2001942063277106  0.2012335125312564  0.5993208278539859
  0.2004541879020218  0.2006810952998726  0.7985477769975377
  0.1993583840891351  0.4002966275122551  0.1959094573065610
  0.2063105105120203  0.4011280668825292  0.3995412124011309
  0.1991707145245668  0.4004479058076511  0.6019325041828543
  0.1997285277008596  0.3994104404788943  0.8045301418817705
  0.1994770183491232  0.5979440502996871  0.0010739137192785
  0.1985544056278013  0.6005476955191198  0.1999193420133797
  0.1992130751733895  0.6016470183253492  0.3985511301614609
  0.1991547662850905  0.5996084924061058  0.6002777410485114
  0.1995499313664824  0.5999451107103339  0.8000093996186582
  0.2001109677840870  0.7990927794569274  0.0009556759036915
  0.0998073636744927  0.8005018535488656  0.1990490691161012
  0.2006978208295692  0.8002545592554379  0.3986260869380366
  0.2014836227088233  0.7992167275753571  0.5993101630905476
  0.2013149586698763  0.7990666779770286  0.8017599634397841
  0.3985713147960598  0.9998799421635529  0.9986837600168252
  0.3979521818379534  0.9994543407166790  0.1996688275317521
  0.3982254207327994  0.0009048076807399  0.6003023288436554
  0.4033450963751656  0.1995769788906379  0.9994970063157198
  0.4025294186222062  0.1987210426313024  0.1998056315784386
  0.3991352899208607  0.2026643288668695  0.4010727733495837
  0.4001148490573819  0.1991482043012552  0.6004940733488400
  0.4004047272445414  0.1997116509840598  0.7999377026857006
  0.3987346387176603  0.4010943990704942  0.9994074449155766
  0.3997671201074419  0.4007537710937174  0.2046558594034356
  0.3996178255877777  0.4002859297811648  0.5973134990200490
  0.3995543516496707  0.6008164230103643  0.1993977679329839
  0.3998682742723934  0.6003750077639850  0.6001305228759550
  0.3993163146006677  0.5994335123560453  0.7991339159521609
  0.4035071937281261  0.7997466850771737  0.0005863469184860
  0.4002478727487966  0.8006010276354680  0.2001618839748296
  0.4001165022544742  0.8011423159319498  0.3985729562198173
  0.4004384655040689  0.8008800520029927  0.5993212663458013
  0.3991829923447179  0.8005827089419878  0.7985094675772137
  0.6007880716223742  0.9965590210614543  0.9992151516768939
  0.6001825677727614  0.0041667675424134  0.1997951006862865
  0.5997897295735314  0.9993632892922306  0.4005150818276265
  0.6003329065478276  0.0015452111063941  0.7987454463285040
  0.5998547345928357  0.1979891272162703  0.0045449172890704
  0.6004213581001646  0.1984515021071355  0.3958589595594699
  0.6000852031607833  0.1996055159065735  0.5995891608297876
  0.5998715707068218  0.1988605474017695  0.8010436234442971
  0.6007444232536884  0.4018972303225541  0.9993832201889195
  0.5988516103899567  0.3962405534879309  0.1992657014168401
  0.5959150164241775  0.4014898202717538  0.4002055641112514
  0.6004349816937535  0.4001292744108132  0.6007445545853485
  0.5981673083652971  0.3994014957171390  0.8002278703240912
  0.5983870204916288  0.6045416218392646  0.0001801004528557
  0.6001193844983702  0.5992793653644273  0.2002018634827121
  0.6005044409989873  0.6018736409532297  0.3991130181267036
  0.6007105194618172  0.6005234397886717  0.5997902573394398
  0.5991574017153610  0.5994247022141190  0.7986252602862197
  0.5990586415753367  0.8012998577018461  0.3998864378747460
  0.5998069182922047  0.8010522554292492  0.5999732333500202
  0.5997650500016118  0.8015143948000658  0.8017425137113993
  0.8013051865318912  0.0011779730001136  0.9993746147262562
  0.8008290985922910  0.9994073399538035  0.2004823419142154
  0.7995055183970561  0.0008830487802165  0.4001569707065465
  0.8031587625796633  0.0006197004505638  0.7992425059497921
  0.8006192756101753  0.2038492289791854  0.0003488559588189
  0.7988709062462676  0.2016952507568408  0.3998574769252042
  0.7988729884748533  0.2013731630980836  0.5988325074500832
  0.7988055758305983  0.1999382653557331  0.7998400982137449
  0.8003512682736719  0.4005903033512541  0.1972184058681694
  0.7978461101254728  0.4005648222124492  0.3998126702898901
  0.7999202652843432  0.4001598451451417  0.6007577453480588
  0.8009501127965565  0.3991898045938101  0.8039673907017436
  0.8007751912445401  0.5960725745515626  0.0007340871002595
  0.8005560772292796  0.6008228840778902  0.2010905379741768
  0.8003747437041610  0.5995320047951783  0.5992655237395529
  0.8010408415576183  0.5995976840282686  0.7989997094760251
  0.7963678124028571  0.7980217795268358  0.0011774955789917
  0.8000427612580422  0.8001441603934999  0.1994378726048598
  0.7984289195279829  0.7991183498465279  0.5996725746024488
  0.7994083113688905  0.7992596088626409  0.7996571197361907
  0.0001663192442598  0.0000480523068383  0.9966856164246420
  0.9991825717988280  0.2000893498401287  0.1998271389559158
  0.9993995372226921  0.4006441286314115  0.0000226178280460
  0.9994905292478523  0.6003685066889047  0.9996875189711711
  0.3995984968863146  0.0011390050230495  0.4003404853370292
  0.3989641420573175  0.0002240097155079  0.7995251663450980
  0.4002290749423350  0.3998783492405698  0.7986252712047633
  0.3998780844924446  0.6004671410593574  0.9996512939831832
  0.3998301397264260  0.6009956871380489  0.4000024935866676
  0.5993087567631009  0.0003647835441758  0.5998609890243612
  0.6002262380257621  0.8015756604073223  0.1998893985255228
  0.7992065340918840  0.0002578198925942  0.5993419418054738
  0.7996592081273209  0.1999558437814800  0.2003785981913435
  0.7999335291456474  0.6007363826662330  0.3996883204908158
  0.7990122799635158  0.8002387583108973  0.3996745883943342
  0.0031756843631892  0.9998979756082016  0.6027056205423043
  0.0006127376130012  0.0001232755719514  0.7933736121806277
  0.2017109681927162  0.4014959696601750  0.0011783246607275
  0.3998728232443948  0.3984199846197070  0.4008638000589844
  0.5971841342138637  0.1993135028108795  0.2003789687972143
  0.6004763606265282  0.8016663750802849  0.9958840552563728
  0.7961167391338901  0.4005117935922800  0.9993908789460789
