Zr Ti V  Cr W 
 1.0000000000000000
    15.4708467865148371   -0.0457987880927962   -0.0198442725602326
    -0.0454938160247508   15.3995902028152862   -0.0270542228467451
    -0.0197944236660485   -0.0273036633962630   15.3709555907435735
 Zr  Ti  V   Cr  W  
  16   2 101   1   4
Direct
  0.9915708180731976  0.2202846638327012  0.2003084783471473
  0.0246219602564268  0.5840461947871982  0.3775831259366690
  0.1929178505834013  0.2321956484218441  0.9866157449348889
  0.2235226900567254  0.6237908449574974  0.0079070543409376
  0.1954388129483335  0.7748878711014482  0.2248575088923937
  0.2021557005497891  0.7887659359822073  0.6309113219384701
  0.3583919000054896  0.4373550427103384  0.0004686262973383
  0.4090094880643962  0.4061443123378536  0.7777740023662031
  0.5963931630809474  0.9943592039885008  0.3841007707605635
  0.6530973075961225  0.6203247199178986  0.2246659989488322
  0.5764136699135889  0.5769686903747498  0.6636253591030552
  0.5740520789696179  0.5658537073121902  0.8953504381302185
  0.5904879890402133  0.7583696290570592  0.0381345361260566
  0.5990781340835519  0.7785211001218761  0.7983863572941243
  0.8213543649877098  0.4559738294676695  0.1987558200242852
  0.7813864409422842  0.6104858176388367  0.0222415630466617
  0.0145528654942086  0.2019452777235402  0.8087864977593130
  0.7909671399136309  0.8091586085201109  0.1626867748618000
  0.9954425953480128  0.0067423887250794  0.9910187089152873
  0.9995286238176995  0.0020910516369577  0.1910269556993273
  0.0018292877467030  0.9981838438401958  0.3875608184303855
  0.9998815648216551  0.9976194574967471  0.5926654608669285
  0.0038236931525661  0.9972495903057504  0.7932809938044119
  0.9887153969181253  0.2041133560838702  0.9981856520133666
  0.0019599719532961  0.1963181268581456  0.4022316982090223
  0.0008876149507091  0.1952857671610511  0.5961750847825282
  0.9845496050432332  0.4090704638122000  0.0050854549714914
  0.0155566246243563  0.4201422991468413  0.2011185362016731
  0.9994974720189900  0.3952998351992283  0.5891862608379337
  0.9980665623731230  0.4001383591251847  0.7897399147584993
  0.9871799021092353  0.6077239911948039  0.9884147296866844
  0.0239169273065624  0.6105728070247365  0.1751510193770040
  0.0041832916088270  0.5966312201987881  0.5874537615156037
  0.9978903310722999  0.5956445677086916  0.7955070940090834
  0.9911481364067493  0.8029103372526452  0.9911732211888548
  0.9967938687588159  0.8061981575459859  0.1865486111200287
  0.0052273042197115  0.7981639077213512  0.3862520888688076
  0.9984422122811583  0.7953348961302897  0.5886412148196273
  0.0068694012492023  0.7978213407022253  0.7910473168479334
  0.1964691096078153  0.0101272667152070  0.9927233415218446
  0.1994308648710313  0.0080609943185558  0.1906026061087050
  0.1978996559197412  0.9956674251669477  0.3926795365317746
  0.2019724788839299  0.9985240616438800  0.5925514574471890
  0.2001149799035282  0.9956797479114213  0.7922115462673178
  0.2035313102786056  0.2010009340649506  0.1991693111054497
  0.2036885485169526  0.1993841645538336  0.3960940212440112
  0.2045144904008379  0.1968455999978349  0.5937530470413047
  0.2097484933877904  0.1971313583966623  0.7860560228481251
  0.1725437632352239  0.4274761550387236  0.9944015827851532
  0.2046362559242330  0.3941213569741844  0.1879572227679946
  0.1969412390525497  0.3994615297438245  0.4015878796693152
  0.2003334540699860  0.3925185383311210  0.6000533887127965
  0.1954929967215566  0.3976390143244969  0.7992888313807361
  0.2089846796363911  0.5859557207882131  0.2101782118015430
  0.2199369027330605  0.5970664269068506  0.4056077997944159
  0.1988095695973485  0.5884934556028352  0.6028354839526379
  0.1919264947160812  0.5992947409985694  0.7988831108154695
  0.1889822259327838  0.8175453947614089  0.0107749213487947
  0.1990824124083794  0.7974051003715961  0.4197622184986949
  0.1951843682716896  0.7952970169560087  0.8219408072171974
  0.3973594576345392  0.9992440379514268  0.9946480030442008
  0.3984780517884029  0.0002821358116154  0.1930644144228503
  0.3925376839692398  0.9948573020209057  0.3931987832195845
  0.4018116798350974  0.9946068575578073  0.5926687446059138
  0.3984028381930277  0.9938766036990159  0.7949348862705770
  0.4025178624977422  0.1974836447862772  0.9941043430302487
  0.4006257134292179  0.2027405507336602  0.1938518779519667
  0.4016137568866478  0.1986851391332142  0.3941868190594235
  0.4088304191379659  0.1977063655462898  0.5935041783844877
  0.4016251300888831  0.1968595878397751  0.7942711980056097
  0.4012930540289323  0.4013210863417654  0.2021750544601585
  0.3992067377656309  0.4061824469904654  0.3918839447682579
  0.3979471618372998  0.3960508618757770  0.5847529718524214
  0.4199194456980271  0.6310093061941690  0.0142266962240700
  0.3955574601347468  0.6080592841780618  0.2104431124657566
  0.3910062032824949  0.5991381414857828  0.6037170221713405
  0.3828020814392551  0.6031182162435645  0.8191534988397258
  0.3850348326966908  0.8046445108748114  0.0064230190575632
  0.4011845148355641  0.8040136459357300  0.2028956104223963
  0.3962484404421189  0.7912381040272117  0.3991751353017977
  0.4064991428666966  0.7971775109329232  0.6003879443219127
  0.3905699846717419  0.7996679842592935  0.8019394276067299
  0.5977823069808523  0.9984341337377353  0.9895281494454431
  0.6012743170489789  0.0038622960924890  0.1823615425326482
  0.6025594605386869  0.9965955572732632  0.5980507329713409
  0.5943449481559071  0.9884443934767108  0.7966114592130664
  0.5948185178579671  0.1982640785373112  0.9942032222108744
  0.5968750140884681  0.2002914192237299  0.1963797673483244
  0.6000854830923580  0.2011648883377914  0.3998310513402191
  0.6055291941944102  0.1875677250879198  0.7927388849131425
  0.6162719546280593  0.3912344479352353  0.0035630614681958
  0.5937624873692217  0.3927153702778615  0.2003255768548767
  0.6044089739715637  0.3986400417870232  0.3991853653359450
  0.6018630319445325  0.3838526243246446  0.5992883543358387
  0.6074103657484237  0.3806737418382080  0.8044741611495446
  0.5195347969035253  0.5220160222498252  0.1007546242413584
  0.5968982847442799  0.5941356325762943  0.4315439965489046
  0.5950593240321362  0.8208605491497902  0.2274673527669971
  0.6016165212348508  0.7900423400387078  0.3963115454708526
  0.7961751553441462  0.0042318561686644  0.9569590730098945
  0.8004561415443322  0.0091683314841339  0.1882690416759103
  0.8048849496119875  0.9974014156164125  0.3879384436028779
  0.8006977701283282  0.9918541429368529  0.5873786455142106
  0.7969549155981605  0.2056004175868573  0.9989907129791652
  0.7895117444442333  0.2069331968906326  0.1961640605324746
  0.8005834254957657  0.2000057211842580  0.3925025961666215
  0.7991008569373435  0.1928542924186642  0.5996866807030822
  0.8037734433613596  0.1980404383345270  0.7996236275460352
  0.7944187557724565  0.4058186341154270  0.9926478655634712
  0.8081705715105806  0.3979265465719193  0.4001518250096314
  0.8010309506860025  0.4014789335199320  0.5953571673676068
  0.8032555383247049  0.4001788576020146  0.7946873068164522
  0.8814428762204722  0.6852570977636776  0.2735400031447230
  0.7880631855733786  0.5949581314337182  0.3922940791141544
  0.8047438185888172  0.6024642925787917  0.5888143268560126
  0.8001703924309622  0.5983860544878069  0.7850412617374666
  0.7997341962557059  0.8234715089925173  0.9756756354988210
  0.8031319989928372  0.7994680482974817  0.4026124281670385
  0.8082918635497148  0.7945379576720458  0.7869392063564247
  0.6050976026919997  0.7996146015408576  0.5917269045845578
  0.9998290089219232  0.3838529466593336  0.3881406611463061
  0.4120056931959484  0.5982290397699974  0.4067444689913778
  0.6036405672391298  0.1902179004821203  0.5951549924042686
  0.8048543712756704  0.7971334660466997  0.5944057021697344
