Ti V  Cr W 
 1.0000000000000000
    15.4464656596279237    0.0026393324307650   -0.0051499977500449
     0.0026392792308168   15.4360610524716844    0.0041620633854494
    -0.0051482900175055    0.0041619794273236   15.4439029048304732
 Ti  V   Cr  W  
   3  99  15   7
Direct
  0.9985996927924891  0.9997757060980365  0.2035203696763065
  0.0069607421471419  0.3978843081991973  0.4026667050926402
  0.2044240272675515  0.2088080681090796  0.0029385144884727
  0.9996479435033665  0.0003125436351608  0.4063184084801003
  0.9969187854039189  0.1968494159809323  0.0011143587552273
  0.9988512497784590  0.1985220053722278  0.3985339703403113
  0.9982266489621683  0.1966149666099899  0.5986024139802898
  0.9995916817574505  0.1951408967157477  0.8017449520928615
  0.9992985872624075  0.3994024281975543  0.2005731686866065
  0.0004247901237999  0.3980517388906220  0.6030675273875081
  0.0004162433469959  0.3981063806455686  0.7991725220793618
  0.9995432594322636  0.6006514723032782  0.2012716970382572
  0.9999759238234524  0.6015765760001852  0.4013220997177216
  0.9992884770285805  0.6013737339802671  0.5999218422291476
  0.0005929425520788  0.6013464171314300  0.7994825538984087
  0.9984600880529405  0.8002170822430805  0.9998195005371777
  0.9994850490674190  0.7999811048200479  0.1991863443570129
  0.0000544546755783  0.8000531728177361  0.3997518215024206
  0.9984800933414115  0.8029049960985825  0.5987661930286813
  0.9997807547462721  0.8039073769894963  0.8012446566101601
  0.1998949137279196  0.9988639198149958  0.9991823567794731
  0.2002504355720337  0.0012653124997397  0.1998608919502225
  0.2004782860064007  0.0005926931361131  0.4001355584827657
  0.1984942064786388  0.0001649208727217  0.5993442035723840
  0.1982887775434783  0.0007601295723481  0.8003343646427590
  0.1996310247279360  0.1999483595569481  0.2023612286334845
  0.1991275232981366  0.2005851724823222  0.3987211525614262
  0.2000237429453693  0.2011936699004424  0.5991372849506308
  0.2008479447331852  0.2008981190146608  0.7981037350561161
  0.1993640256025738  0.4006939050768925  0.1960174039664936
  0.2063025681733313  0.4008471644384783  0.3994169157552190
  0.1991390186557630  0.4004553932680898  0.6017708216591913
  0.1998543263615493  0.3995415222221007  0.8043870462387556
  0.1997044838812435  0.5977244250998287  0.0003530238857291
  0.1991355445132770  0.6004247668353170  0.2003646973599961
  0.1993169586976854  0.6007085884651556  0.3994883354175212
  0.1991070931208349  0.5997755224653317  0.6002972475952747
  0.1996360533720990  0.5999653422637292  0.7997515791199117
  0.2019408574277143  0.7983767613401155  0.0006353776939774
  0.2001928455022556  0.7996775953170635  0.1989270533839352
  0.2012965184133821  0.7999613570831405  0.3984748942097701
  0.2010267314514026  0.7992462779328456  0.5988769460308084
  0.2009530776479208  0.7989851513202114  0.8020347081237266
  0.3985514885136222  0.9997706374195080  0.9986777232920631
  0.3983650617148065  0.9999349673174907  0.2000760867325810
  0.3980329200118221  0.0008002909896987  0.6002531933289661
  0.4032036842241105  0.1998368075471854  0.9996465240410233
  0.4024858811451481  0.1988034948648657  0.1999589279759141
  0.3989430384430748  0.2027961167767096  0.4009289725449552
  0.3999987388889755  0.1991803029102015  0.6002581512446674
  0.4004896312509557  0.1998364290968822  0.7997771190637705
  0.3985494456298279  0.4012256247388697  0.9995506259617859
  0.3997249967555256  0.4008634057920510  0.2047715993569692
  0.3993721957021352  0.4005059209020173  0.5971666491441701
  0.4001702515350217  0.6003991597481818  0.1994890294829745
  0.3995913648317662  0.6005156096722065  0.6000852578819202
  0.3992814770708384  0.5995073143127883  0.7989178672531564
  0.4042306059704228  0.7995301153056232  0.0004027388761216
  0.4002320430256561  0.8007231918384318  0.2005785959829241
  0.4004963969467190  0.8009864650570521  0.3989717174857234
  0.4000677531830379  0.8008502892592199  0.5991004879804688
  0.3990926156251919  0.8005901160798847  0.7982372275400167
  0.5992036584498660  0.9963086497303668  0.9994503608925637
  0.6011897389155373  0.0039703697196885  0.1992696280905314
  0.5994022481576442  0.9991626745897949  0.4006656241265225
  0.6010648272372734  0.0015314572329153  0.7991369758916055
  0.5996630235412077  0.1971166418775298  0.0042879414432109
  0.6002978099547022  0.1983371498155571  0.3955837874872263
  0.5999193801290595  0.1997989380706325  0.5994134915998408
  0.6002806900528163  0.1988166358407316  0.8015565588907366
  0.5999243523876352  0.4024616924196610  0.9995485377641750
  0.5990025410317993  0.3956346222394636  0.1991720494430040
  0.5957963287908385  0.4015388238108113  0.3998886094097043
  0.6001405542095866  0.4002533704811853  0.6005873105167574
  0.5982410381714229  0.3991645067347399  0.8003725378872489
  0.5979934917880280  0.6047365340125739  0.0003304233465582
  0.6001755106748184  0.5996788428010873  0.2004721287505059
  0.6002922758179523  0.6019916938091782  0.3990428752173769
  0.6004117695754183  0.6004440486851280  0.5996205517708235
  0.5992384620765157  0.5995941452838460  0.7984946763116769
  0.5990632614202839  0.8012581102612131  0.3996898191759911
  0.5998681871552562  0.8009017903597759  0.5999506402576762
  0.5997655494792615  0.8016250351227026  0.8013845099552295
  0.8001159394089224  0.9997959755925226  0.2029251994846541
  0.7994638814968069  0.0004249980986721  0.4005826837004285
  0.8035609844516575  0.0004971637462576  0.7989637845984043
  0.8011328166921338  0.1372058627741083  0.0004920750083521
  0.7988461291589918  0.2018978563645451  0.3999763953609841
  0.7988830636683092  0.2012989480652991  0.5984192658580060
  0.7988927466517554  0.1993268177909499  0.7995656899221760
  0.8005257695767435  0.4011733403305074  0.1977551897738705
  0.7977443222855876  0.4009367255801397  0.4004255601918459
  0.8000254846347944  0.4002477857771590  0.6005201082451472
  0.8010480330464536  0.3992601553339892  0.8031901964579408
  0.8007588265958671  0.5964384606135582  0.0007760616743438
  0.7998681311020494  0.6003124463693258  0.2019265808418199
  0.8003868393266269  0.5998421596948195  0.5993231326048423
  0.8010578812620387  0.5995918340651673  0.7984275270914689
  0.7959211862877609  0.7950612951046465  0.0009006755766557
  0.8008012393009374  0.8004803276829080  0.1989758420569666
  0.7986569194740010  0.7989757245139580  0.5993123608741872
  0.7998985589563716  0.7995762960974272  0.8004850979077441
  0.9992159267992519  0.9996957571116951  0.9961287096665093
  0.9986094316480580  0.2011331388650806  0.1999319965576497
  0.0000141156419597  0.4005436496272818  0.9999866079126581
  0.9997314014307660  0.6003366154245671  0.9996462466496943
  0.3995018781795146  0.0011953027067955  0.4004321524214452
  0.3990564105037158  0.0002995801446162  0.7993048495666253
  0.4002854911257505  0.3999671504030489  0.7985501426050896
  0.3999874061478488  0.6004067500466812  0.9995873938461526
  0.3999492093425824  0.6009106941423551  0.4001146053348111
  0.5992117391126226  0.0003843220001226  0.5998754343945174
  0.6004733347504301  0.8017184267594044  0.2000610303125904
  0.7992279314305558  0.0000666635663900  0.5992556233783173
  0.7997678362175857  0.2003977551288611  0.2001284608831221
  0.7997558007434167  0.6006550803471541  0.4000613775200776
  0.7990083403009249  0.7997865596740100  0.3995993985927727
  0.0031825693677034  0.9994333157105937  0.6021535545218456
  0.0010447458524185  0.9996242810235099  0.7915274064114788
  0.2020549482483718  0.4020961144160862  0.0013163910205458
  0.3997207035515090  0.3984815278908659  0.4008046577994244
  0.5978447279629331  0.1987311522249566  0.1999453478536374
  0.6008088390275391  0.8016842590148638  0.9965023280496742
  0.7955678334596432  0.4031252401025137  0.9995737021939407
