Zr Ti V  W 
 1.0000000000000000
    15.3704372863088707    0.0041087699184726    0.0045828320708022
     0.0041071823098185   15.3593176205705255    0.0049868964281650
     0.0045832368054306    0.0049883200619353   15.3853693029952101
 Zr  Ti  V   W  
   1   2 107  14
Direct
  0.7915442417828097  0.4018749468891270  0.8097872989235334
  0.4089255864428367  0.7974614535426482  0.8047292207733148
  0.6130521789483213  0.4014147771717674  0.9886803352049300
  0.0655078455351414  0.9978544011348977  0.0665390199702007
  0.9933099645171908  0.0023941014724533  0.2022377443494067
  0.0008320404770688  0.9968364282631567  0.3989816722964690
  0.9943805947384627  0.0000974600866339  0.6019381018209028
  0.0027593090674147  0.9985463362292413  0.7999525288679554
  0.0000944407303037  0.1999558233643409  0.0010751356043492
  0.0013443983862752  0.2020220619999946  0.2020946727494240
  0.0005983419544164  0.2002566236287229  0.4007519393926554
  0.0028186720764098  0.2009214299995166  0.5989478938214972
  0.9995314720513040  0.2005646927235955  0.8020507272791385
  0.0039248398994292  0.3991816230493802  0.0060764586430226
  0.9986709389027010  0.4012254522742090  0.3969700598278427
  0.9975503968665340  0.4000855793964088  0.6000728160274091
  0.9993785597609260  0.4010964876950736  0.8027179454626785
  0.9983975832868339  0.6052872677943566  0.0002815937116884
  0.0029782955575612  0.5963653539041910  0.2007713901522916
  0.9997576710869469  0.6028831834912892  0.4021907549531958
  0.9994374017637229  0.5995352484990475  0.6013680789861825
  0.0026915927989064  0.6006951359217813  0.8001096159048157
  0.0032463935703370  0.7999466598405480  0.2016732515416347
  0.9991699520667895  0.7995286982888669  0.5946756749581845
  0.9995773691893286  0.7994020795268838  0.8058632796907363
  0.2011595366375978  0.0017006088298513  0.9933546120856249
  0.1984893135008735  0.9990859964872790  0.4057648247135236
  0.1983913426141714  0.0028465485128690  0.6058754493366811
  0.1999931140483027  0.2025173392824764  0.0000284324661134
  0.2002490283029882  0.2008563504519132  0.2007053114634255
  0.2025227866021533  0.1983209862777572  0.4030917629223100
  0.2011031899996577  0.1962643834263017  0.7956905744411988
  0.1962090063671916  0.4046066650794339  0.1954678692728234
  0.1995405610784711  0.4015839982317386  0.3998653538342403
  0.1978580144869096  0.3966134137679725  0.6010216472570369
  0.1978112185465761  0.4043644922144695  0.8047090811321101
  0.2007610682938213  0.5964724068636357  0.9960126362186714
  0.2010245159534588  0.5994027870913203  0.3999064616562963
  0.1996696834003331  0.5989235543895153  0.6048620768556943
  0.1965035574667921  0.8005526978414422  0.0022008207474182
  0.1964534242325343  0.8007422165104053  0.3987902592188859
  0.1995410220028290  0.8001299379881430  0.6000697113757881
  0.1985635755924867  0.7988100866461388  0.7999760632823769
  0.3991510426271294  0.0008558284085194  0.0007156504070712
  0.4031461541474469  0.9963277225620193  0.1994056773596903
  0.3995592857898598  0.0023187008245174  0.3988920528549006
  0.4009536461036100  0.9986362971276119  0.6000509632655310
  0.3972561933297694  0.0005189427753640  0.8001831222530277
  0.4011677194870480  0.2006300692931333  0.0021331727062241
  0.3977976007284491  0.1969620259457386  0.2036664401306230
  0.3964094082097037  0.2002822427208583  0.5949651760596353
  0.4000243093839900  0.2003456992519445  0.7991637667705744
  0.3958159300618961  0.3983348487686985  0.0002863916158368
  0.4022451836675927  0.4010398798339990  0.1982226199274040
  0.4001225581833344  0.3967999768585613  0.3976821896282887
  0.3992522945394223  0.3997714510631132  0.5982446550452959
  0.3965771135490741  0.3992295750739127  0.7996053339085276
  0.4014701973478861  0.5993986148573748  0.9988975115194609
  0.3980158710739340  0.6028212926172403  0.2005832073562366
  0.4002922099288219  0.5987893454358485  0.4008956289925518
  0.3985046353149895  0.5997578097812566  0.5987617136674275
  0.3957774530731701  0.5990679357509119  0.7995553131868826
  0.4019707476760923  0.8008321436018934  0.0073605906357655
  0.4014514152806263  0.8012383121592592  0.3963348783120954
  0.4003297484936404  0.8007569075257223  0.5938349857290813
  0.6005859639073035  0.0005152390465688  0.9971689189582058
  0.6028654361836083  0.0000135504284644  0.1981641615886048
  0.5993862572616059  0.0003954113670439  0.4012124999380600
  0.6019653241418643  0.0008254762152767  0.6024124151475365
  0.5975298043419753  0.9991435753912609  0.8004835351002455
  0.5991765684019843  0.1996036797084171  0.9989416479509958
  0.5982317108414246  0.2026256053053522  0.1988114264354733
  0.5946730658563130  0.2014449009004223  0.4010160118790490
  0.5979856991428720  0.2010220375880101  0.6008001916298932
  0.5969902391856280  0.2012271440436127  0.7997536787561125
  0.6022246585944476  0.4013745624814042  0.1991061151464716
  0.6011940153060887  0.4012381581190833  0.3985143725219179
  0.5997617671554116  0.4005903285693270  0.5990907594510394
  0.5897591668526347  0.4012040008093448  0.7943548489786163
  0.6001139803606701  0.6013618924639565  0.9982072697420257
  0.5980987747696522  0.5986763979017067  0.1978759645359309
  0.5993954309380159  0.5992463753131401  0.4017951582554330
  0.5984561467671118  0.5999957750289120  0.6019075013770481
  0.5954369834137944  0.6010070467783457  0.7998389898221534
  0.6013795070932617  0.7994342167785755  0.9993904834963845
  0.5959682822421115  0.7990110956958025  0.1996248775984158
  0.6033638010170653  0.7984988822232988  0.3992007148550487
  0.5996692188411197  0.7995118432773829  0.5997959144793586
  0.6029965622478708  0.7995357087214875  0.8003182832558755
  0.7979358540862997  0.0001901745047976  0.0036924382258270
  0.7981709307690132  0.9971483545651907  0.4022173623229501
  0.8003937545956372  0.9994262840167946  0.7981313853948586
  0.8001943559044743  0.1992328807844249  0.0013238665000723
  0.7978730435751559  0.1969470013657140  0.2028386660964281
  0.7983111585099492  0.1988092479629013  0.4017840766552688
  0.7992680376953499  0.1965314289823454  0.6005076561766782
  0.7997432832417092  0.1956711851012576  0.8008294222435350
  0.8079998255218773  0.4001373762497883  0.0106870465851434
  0.8040809758686176  0.4000150312270882  0.2046282796943978
  0.7997960867736715  0.4003954309996769  0.4017967660937779
  0.7993220153008342  0.3988467992738360  0.5992120339292542
  0.7995072389487141  0.6012549952768241  0.0012011727058141
  0.7978245628330742  0.6009926239993066  0.2011246613848397
  0.7983728849176280  0.6049078512930773  0.4017038322878821
  0.7986509971849827  0.6001224654252781  0.6028205900772271
  0.7992833277206981  0.6065396311093192  0.7994478772466681
  0.8031400023998447  0.8015247293150315  0.0031152581905286
  0.7978221805807366  0.8036098880036855  0.2051487424875017
  0.7999063226860536  0.8050049281460463  0.5964119609257438
  0.8008620859459126  0.8016365862013818  0.8001412320947610
  0.0005558483635468  0.4015413036665612  0.2019422178292932
  0.9982703688579136  0.7987309840557948  0.0043869656658504
  0.9981293458552797  0.7988678590785830  0.3986880285379795
  0.1998137016390016  0.9978076858959722  0.8001498963540895
  0.1994470930833442  0.2005292214777427  0.6009835543909802
  0.1998537814256075  0.4007842094536191  0.9995246860841772
  0.2019622020629780  0.6022313227477587  0.1978107351807067
  0.2005827715025106  0.6009514019035752  0.7996844392257694
  0.2025056877167307  0.7906072424753471  0.1997584600050566
  0.3987419439705502  0.1994282066803807  0.3986314209037387
  0.3974082102839580  0.8004983223400524  0.2018881070375396
  0.7985677342251541  0.0014447163011303  0.2008518346233398
  0.7984310816935215  0.0008979815032011  0.6011763806287987
  0.8033411717351370  0.8010215397104986  0.3998153874139032
