Zr Ti V  Cr W 
 1.0000000000000000
    15.3362684426656841    0.0286063939447292    0.0100888851728505
     0.0285570835036612   15.2525043034926107    0.0067029472812579
     0.0100493414934988    0.0065575850713642   15.4101896179899747
 Zr  Ti  V   Cr  W  
  11  18  73  14   8
Direct
  0.2123674133621783  0.0155571374349738  0.9883036798500353
  0.1774184197491556  0.0041780111327123  0.5732090174827695
  0.2406806609482167  0.5926577012939113  0.0173270531393047
  0.4308091882106040  0.9829430971120976  0.0180714247363957
  0.3927175103488578  0.0150247374906746  0.6252686579954816
  0.3899499242184874  0.1560338812735575  0.8533816783834011
  0.6342666587918179  0.0060310713620171  0.9416899373310397
  0.6240690569189882  0.0033587218027216  0.1626932594303850
  0.5349384756138333  0.2007092558989982  0.0414045246657621
  0.7508150754306032  0.1899856627708460  0.0232338001715977
  0.7974369160523126  0.6203716404598384  0.3712958659172809
  0.9925679572035775  0.4058275662267241  0.9937822501121804
  0.0086695767325284  0.7990179683579001  0.8001667412789248
  0.1768026739192363  0.2313814486436456  0.9930465198674379
  0.2082505034451855  0.1973190101352379  0.4074945169944116
  0.2074069534421579  0.3906509204020005  0.7986940454678959
  0.2137226638373534  0.5977424027246956  0.5972149817904638
  0.3805169088902290  0.3817336298294584  0.9742789765200784
  0.4012061018653025  0.3829170023058451  0.1931223296658812
  0.3934418988175844  0.3850451390658864  0.4005134218672670
  0.4168348483687953  0.5927680152099351  0.1788340035335563
  0.3962924304317058  0.5903493615478260  0.4000161661013075
  0.4013299484559862  0.8021781625777996  0.3923883687868733
  0.5731975059631456  0.0321765086291531  0.7599318388037614
  0.6023506292094258  0.5889138908761912  0.0082780660461903
  0.6151271703361589  0.6009057694314115  0.2154609831167261
  0.5685488110464103  0.7910512950598348  0.1988307845550709
  0.7743685414561589  0.8058827208954189  0.2018828548967305
  0.8094575909455392  0.8190168558343733  0.3998123383968574
  0.0043342695647111  0.0014949281692574  0.9983902533622255
  0.0060127633882763  0.0070138463869329  0.1957467977720610
  0.0007376178197704  0.9978714960777804  0.3941354057691890
  0.9897681756386942  0.0041115705395245  0.5993878485832363
  0.0072431488628826  0.9993806395350292  0.7995980284046830
  0.0044566155297276  0.2018276429061334  0.3957749414232284
  0.0079599571560921  0.2039303224519021  0.5954424084056988
  0.9979315597519727  0.4043592236306039  0.1987015077360351
  0.0026780908200820  0.4032914292396483  0.4009061124953783
  0.9993840297236017  0.3999987416629855  0.7911226313207250
  0.0011974608668812  0.5996731863970546  0.2023734785957573
  0.0084588901791935  0.6056825217548455  0.3987474530395567
  0.0031124633080903  0.5954653638081622  0.5987843598139400
  0.0068822895350759  0.5932591433155876  0.8015160714126778
  0.9929572247050112  0.7987650668537221  0.5959654375888062
  0.1944742208779896  0.0000891396599339  0.1948005280495515
  0.2010273245600294  0.9965312411053113  0.3868672674647418
  0.2051957739720189  0.9891776127876883  0.7833251051342836
  0.2097867775862360  0.2034711733946182  0.1975569039088047
  0.1958666882603179  0.1883156817812078  0.8027324171213625
  0.1856117379322703  0.4094459568848791  0.9984051841580712
  0.1964545305293998  0.4024262628353745  0.1976111752178678
  0.1986242247328451  0.4017469478881847  0.3959862820327358
  0.2024582209871173  0.3954176665291357  0.5920957266873732
  0.2007880168754538  0.6012047311169287  0.2082744608870713
  0.2055826090650571  0.6028052453752425  0.3951403904663405
  0.2012382235809673  0.5974375012319950  0.8039429914121518
  0.2012451389662401  0.7966335972758852  0.9946550944984277
  0.1861851233205374  0.8001923632972630  0.1905091700844836
  0.1922083154937364  0.8020873126415440  0.4022313938373362
  0.2007043772655112  0.7986934066515734  0.6046940092771779
  0.3879591248547239  0.0010080520525146  0.2157612795583465
  0.4002889441455329  0.9933347882980249  0.4089712571821719
  0.3553721670922479  0.1838814678649682  0.0460176161377184
  0.4070714935734036  0.1892379556109059  0.4265551852863663
  0.4078311584673412  0.3822486013173160  0.7780826680281453
  0.4217312777043440  0.5840926231322142  0.9940695513798325
  0.4083364653529592  0.6013534244762658  0.6060499042847999
  0.4010364874977732  0.5817432015130610  0.8035415230039040
  0.3982984143298507  0.7778739727208536  0.0035187141765927
  0.3812508101153651  0.8031887439326940  0.1962091151003587
  0.4004252348780323  0.7931074281120731  0.6016711950085545
  0.3947557203664331  0.7848653437390193  0.8038685822136347
  0.6001658515824994  0.0055720662574805  0.3947282224472580
  0.6008864369597828  0.0016262327827374  0.5845950228275066
  0.5976211030082619  0.2066095809956109  0.2232606785759239
  0.6102775033159259  0.2101053698980261  0.6003933495603090
  0.6212623822947257  0.2106626527710182  0.8005230557123042
  0.5925754094426909  0.3882430205264584  0.9947452723567047
  0.5979872893276147  0.4053257422358752  0.2004940139799373
  0.6043517483709625  0.4080673061100015  0.5975489826282195
  0.5923228858456243  0.5987072434925437  0.4072783706862578
  0.6043897290417332  0.6054299281222908  0.6011821171791998
  0.6022248740525221  0.5961423381297806  0.8021686621394554
  0.5922430923426946  0.7994239417267611  0.9966719275732182
  0.5992573443824887  0.7995432820507054  0.4022080815989337
  0.5952366785649414  0.7936069921778338  0.8012131299201373
  0.8212091189052048  0.9943382981319461  0.9973575382664395
  0.8155756968583886  0.0096649330269413  0.1974944052930301
  0.7959430414399326  0.9975623022130806  0.5997310510344100
  0.8071834547047513  0.0041051530067861  0.7990295082655302
  0.7999713159997874  0.2065737653085170  0.2092682684414454
  0.8080972393864656  0.2035115339242773  0.6001318214265292
  0.8132745525154859  0.2022121881984314  0.7912417948564666
  0.7889068897801547  0.4042060033211093  0.9990617883772333
  0.7979095379073320  0.4037463057606028  0.1962000609918834
  0.8069258922369174  0.4071517770300065  0.5972457591752360
  0.8035571628366872  0.4020461751074303  0.8041119999427250
  0.8089500322119340  0.6086962801279827  0.9990772350072410
  0.8061287760659243  0.6024741775184399  0.1802635597913212
  0.8018111161523501  0.6068954957791279  0.6060012877379669
  0.8056817289476220  0.6042421498409764  0.8059013958105730
  0.7823605403795358  0.8033992369510182  0.9996029227920084
  0.9864863714616069  0.2023984495897694  0.9984490194722228
  0.0005692998869546  0.2066215435961296  0.1998288493770535
  0.0048254508519494  0.1995074312830247  0.7964532529714213
  0.0038996979972952  0.6242837840364073  0.0036789402769748
  0.9900513571559286  0.7994826227721158  0.1849822518322315
  0.2071610909710458  0.2031880471394073  0.6101018076803203
  0.4109125192791629  0.2206264320753072  0.6242333404771635
  0.6020018854113269  0.4015181631412500  0.4015531609548797
  0.6049311677089565  0.4019046235731896  0.7956656089244267
  0.5988298799738726  0.8033795615158059  0.6014302231691894
  0.8022820507262561  0.0091287124245831  0.3970103043987784
  0.8034317533678337  0.2047053613756748  0.4030361377200303
  0.8018361824472008  0.4054931305499623  0.3981263909793734
  0.7980044735313390  0.8024621305074331  0.8012845288975815
  0.0039285087733942  0.4012185346728661  0.5961372661970440
  0.9989669583735635  0.7987201677474987  0.4024258115081464
  0.1996511943735990  0.7911146232948579  0.8036599827851389
  0.3916250475927934  0.9605822085989412  0.8241564071766030
  0.4074919125367402  0.1948631855285843  0.2324839211243946
  0.3982214124043212  0.4196880415643534  0.5918639682198519
  0.6012617049980725  0.2027605730072405  0.4081624621550213
  0.7974476175744172  0.8011570947711819  0.6024125432732524
