Zr2 Ta1 Ti3 V111 Cr3 W5
1.0
  -7.5249999999999995    7.5249999999999995    7.5249999999999995
   7.5249999999999995   -7.5249999999999995    7.5249999999999995
   7.5249999999999995    7.5249999999999995   -7.5249999999999995
Zr Ta Ti V Cr W
2 1 3 111 3 5
direct
   0.6018545541582705    0.4054118929267327    0.8006335452754041 Zr
   0.6069521384621287    0.6035464586686895    0.8078713265222526 Zr
   0.7924969937377708    0.9974829628566418    0.3964182991108113 Ta
   0.7974111250365800    0.2004033065413803    0.9999936549325966 Ti
   0.5983279041772280    0.5961603427229083    0.3991654471350682 Ti
   0.1976524970013039    0.8044662042872485    0.2044548691710662 Ti
   0.8028594920674446    0.0028879352854997    0.9999285866694627 V
   0.5975712208647788    0.9993973216417458    0.0008140627884829 V
   0.7990247789376111    0.9975199253169194    0.1976053737936984 V
   0.4055591717442180    0.0061198488228061    0.0021558538004476 V
   0.6004250072477029    0.2010969992726309    0.0001063133770516 V
   0.7920733191721069    0.3976958585564134    0.9978492067650003 V
   0.6057634735582202    0.0061637314252816    0.2015347665508994 V
   0.7981063001391275    0.2046526261373883    0.2049234235834927 V
   0.4013615486981326    0.2046190237009444    0.0007530444756053 V
   0.6030613705325658    0.3953539195287051    0.0009858919659834 V
   0.4007433294977230    0.9991501769362918    0.1990541605100190 V
   0.6005544648616297    0.1983644185150599    0.2027516741735192 V
   0.8044029253070332    0.3998289501556088    0.2054099083329199 V
   0.5956495136892366    0.9964096695282872    0.3933354236465286 V
   0.7939923392841794    0.1914361232948898    0.3935306333340021 V
   0.8034583173656833    0.0018177607058545    0.6087266341875435 V
   0.9952889548574780    0.9981394535992807    0.9993010404505279 V
   0.2016669891274909    0.2009691213370616    0.0009593467539365 V
   0.4008497804179462    0.3987013668956382    0.9982407108066522 V
   0.6040639084782652    0.6025543321242605    0.0041314628289120 V
   0.7950161866812493    0.7975463659108154    0.0007078461870452 V
   0.2018242130598170    0.0013474976207161    0.2010170320826876 V
   0.4005961856618406    0.1994788017670824    0.2011510546639707 V
   0.6019054701811570    0.3984747195645542    0.1985387593893005 V
   0.7996561441111423    0.5976979498364540    0.1929969208392786 V
   0.3923962797652730    0.9952465520875662    0.3984483294008563 V
   0.5987211298830031    0.1945286523196162    0.3921129965699189 V
   0.8005349022302037    0.3982172721649755    0.4018959071052721 V
   0.5957240624256668    0.9973587831283065    0.5963650053180790 V
   0.7993733603728289    0.2025449725394524    0.6009368095222575 V
   0.7961349458953947    0.9997935314519567    0.7973465801846925 V
   0.9977926303914929    0.1988719690160228    0.0010590671720871 V
   0.2053769105075640    0.4069603799304850    0.0001262312430901 V
   0.4008617912617582    0.6003888916023584    0.0009089023017257 V
   0.5935114323602366    0.7982711993517085    0.9964039092127691 V
   0.9963438180382358    0.0017417758347854    0.1997830671885504 V
   0.2002103836094221    0.2024940255960743    0.2025617229373573 V
   0.3996090374426342    0.4022894760197652    0.2032918763213378 V
   0.5985013320670887    0.6011028288242609    0.1998893554998020 V
   0.7983098957278210    0.7970761400574069    0.1961701740380219 V
   0.2000316076293925    0.0005813548133840    0.3995400557803215 V
   0.4049332372362999    0.1992232193981929    0.4009523951810003 V
   0.5981065444681544    0.4017146469022475    0.3929120177019217 V
   0.7987056331558454    0.6002458259562439    0.4017789291782041 V
   0.3986306195816472    0.0015030747277463    0.5949510459577385 V
   0.6017489380857189    0.2022484312707037    0.6018489060069837 V
   0.8040275716892726    0.3988452993610965    0.6011591309112256 V
   0.5969172220049963    0.9917085421282876    0.7967388085829367 V
   0.7935710280508724    0.1960614921829819    0.7963698666911856 V
   0.0060321287976370    0.4008872245318387    0.0066675119438508 V
   0.1917573003117983    0.5947179222801127    0.9988292107132599 V
   0.3992939088228866    0.7959267314498273    0.9993025026599047 V
   0.9991409524404649    0.2018177098581467    0.2018558536973983 V
   0.1962425943939260    0.3986363297107002    0.1980349852941558 V
   0.3981684498141496    0.5994788328939092    0.1999706509423039 V
   0.5983578215627765    0.7991435761722200    0.2000898533608417 V
   0.9983530625100270    0.0024639969506526    0.4054323351890742 V
   0.2032090689179009    0.1983299819449238    0.3983594879966104 V
   0.4001066005529997    0.4010533505550588    0.4001036790543678 V
   0.7973436679354248    0.8011722530700667    0.4018255018630673 V
   0.1987231951920376    0.0005856088688031    0.5944424228713415 V
   0.4032967511401802    0.1991088159622027    0.6052346234919849 V
   0.6023623050297091    0.3990376363568835    0.6034677331623132 V
   0.7948303167976724    0.5967282280454638    0.5980256818714240 V
   0.3974461710029590    0.0016698292246034    0.8017709652121030 V
   0.6039305938122537    0.2003666545581892    0.8078304133133368 V
   0.8004132476166246    0.3945259549862999    0.8012159488075208 V
   0.9966730415031750    0.6032401116464652    0.0013129475278575 V
   0.1984055967344256    0.7980788948806412    0.9982534150156939 V
   0.9993529642715725    0.3986544620881225    0.1980210515347239 V
   0.1991988396414907    0.5962811279032546    0.1977584074876865 V
   0.4008574247256512    0.8055410654820698    0.1993113603465485 V
   0.9999870203671387    0.2044309333044801    0.4002016561222788 V
   0.2065419505076077    0.4018741615986600    0.4032949768033431 V
   0.3992114314448582    0.5975970669244792    0.4006088681017207 V
   0.6044088603645338    0.8036292266928771    0.4071232420876419 V
   0.9965128718775963    0.0011405885867355    0.5945859058016696 V
   0.4010213523487376    0.3999614624417049    0.5991779937757006 V
   0.6012055278563871    0.6048304642061684    0.5987057114405419 V
   0.7986094832453974    0.8012517217638545    0.5994008279841880 V
   0.1978323098912628    0.9978685637289564    0.7968578843261063 V
   0.8063584989657405    0.6023461525124332    0.8026450756125443 V
   0.0036310746191802    0.6005710591780523    0.2016424490910267 V
   0.9972582635233915    0.3967724348441530    0.3986512436427541 V
   0.1963462198093475    0.5930718734268265    0.3986240881333704 V
   0.3991144073750356    0.7981299081069152    0.3993754727433121 V
   0.9986841961018789    0.2022148553694631    0.5979228574688444 V
   0.2037284322129375    0.4029320730282613    0.6087364122397217 V
   0.3996028821537924    0.6013076852324570    0.6004821412766557 V
   0.5913318709829738    0.7977337885327065    0.5962972079789274 V
   0.0069542945287829    0.0050363506459473    0.8036132859964374 V
   0.2013597091476116    0.1973604616734129    0.7951140322313150 V
   0.4008614665891873    0.4046241636962449    0.8050851584947807 V
   0.7991516066423838    0.8059591256980061    0.7976807717757768 V
   0.0002724967033252    0.8038740818252681    0.2005087827943149 V
   0.9931940185851891    0.6009864772952641    0.3990380747677108 V
   0.2021680814654977    0.8028655497467025    0.4039412691595222 V
   0.9996422380874985    0.4013468004806778    0.5994920297455121 V
   0.1997256237918696    0.6000711894274059    0.6074028633201457 V
   0.3999052105909725    0.7957250775022842    0.5987058062334775 V
   0.9974391917825050    0.2008594559617504    0.8026757170620011 V
   0.1998100599561871    0.4013802781276749    0.7997807415110973 V
   0.3998306040016800    0.5981539502992886    0.7975004159069633 V
   0.6021133542159556    0.8007539010476810    0.8012230773145466 V
   0.0072934489771356    0.8008288038467124    0.4005713519327819 V
   0.9956750731267827    0.6024843725430474    0.6039943272858098 V
   0.2009066136549665    0.8012520000810446    0.6003192668735788 V
   0.9995663488529778    0.4030030037173505    0.8018770415060441 V
   0.2003168846027248    0.5995499466331107    0.7991131637430613 V
   0.0007816616094868    0.8053312787225984    0.6065459397695044 V
   0.9962978236605559    0.5969143035274477    0.7966224181454340 V
   0.2009180173655563    0.0025432143811337    0.0015495468938583 Cr
   0.1998060767230068    0.7986599604288003    0.8007254367569104 Cr
   0.9983081622277211    0.7976938286401226    0.8000481655840852 Cr
   0.8003429247771588    0.5990342275534949    0.0007196220369501 W
   0.1919785132516414    0.1988666883382698    0.5979644907774914 W
   0.4013919792184145    0.1936859902545925    0.7999522680923365 W
   0.9977560278367245    0.8002365313080864    0.9976884699173418 W
   0.4002646708959487    0.8002165792313434    0.8014536797141925 W
