Zr Ti V  Cr W 
 1.0000000000000000
    15.4218125631900325   -0.0059686382723848    0.0062585989012477
    -0.0059677460242910   15.4281327699692579    0.0068346148581175
     0.0062604253005019    0.0068382331099848   15.4329886035241781
 Zr  Ti  V   Cr  W  
   1   3 110   3   7
Direct
  0.3990296678688579  0.8024483245685402  0.5978992369858727
  0.2020710934326053  0.6062821715073099  0.1906721883359607
  0.1987575775879550  0.7907834647275527  0.0074949675609755
  0.6000807442555485  0.5978413692580998  0.5805016709292461
  0.0022152024956896  0.9979343968840533  0.0000197333764247
  0.0004066159019081  0.0031311708022623  0.1996821348182552
  0.0008057422486800  0.9946515342079573  0.4000292885525499
  0.9992260711282994  0.0015359883425831  0.6013001850876426
  0.0000731171522483  0.9981065146083257  0.8011557967138068
  0.0003595945370891  0.1990105616594315  0.0038529019819025
  0.0000438769501284  0.1996284743897313  0.3970015171431987
  0.0022095882028020  0.1995567977379112  0.5984130009630454
  0.9987623696811392  0.1988423759723301  0.8010958256006183
  0.0042968973736332  0.4013994206515388  0.9998872004229781
  0.0013240170665446  0.3970671488207613  0.2009853450066698
  0.0011646592560899  0.4034074379731904  0.3992624136188858
  0.0006028608834284  0.3993574363328695  0.5989804289819597
  0.9990792893923006  0.4002583804928895  0.8006829626938745
  0.0011962114008545  0.5999026699500908  0.9997648436266401
  0.9962527027764150  0.5989364376311469  0.1982512174853991
  0.0014164822949963  0.6039553190994255  0.3986643292300516
  0.0010077682942258  0.5986339202877903  0.6003577438864395
  0.9980284926003486  0.6009869911281567  0.8002939665296294
  0.9972807419996071  0.7977582099367401  0.0015010663582880
  0.9995093135260296  0.8001976529746934  0.5971241978866947
  0.0001613751610796  0.7991246211792171  0.8002167905042512
  0.2007444055695296  0.0012034998033285  0.9994630158816264
  0.2001631110784457  0.0013487342202076  0.1998356706186452
  0.2008738195881360  0.9993018246138289  0.4008661555768516
  0.1999904731725792  0.0053456979869201  0.6009483750097165
  0.2006397457870477  0.9983024706952488  0.8012243255664634
  0.2001129252880814  0.2019157017119565  0.9985997566767746
  0.1951872271285351  0.1995957864346314  0.2018003994772288
  0.1998554858974491  0.1997703960914385  0.4032017422362949
  0.2002186131477159  0.1987949612051927  0.7958754015087885
  0.2003130801613154  0.3973537214889770  0.1956183006175769
  0.2005980975355663  0.4021804153115323  0.3985817169963738
  0.1999965053088403  0.3946642629801225  0.6002548483559906
  0.2005825700369707  0.3994732015506530  0.8021563370362612
  0.2009280601296529  0.5908967450005763  0.9933017904086074
  0.1999116174771048  0.5964130220507626  0.5999762141423085
  0.2014588200683517  0.5991078367760098  0.7970518091699162
  0.1989855085337595  0.8034029369796676  0.2039708572725453
  0.1946342003634383  0.7985969056260492  0.4004779424533045
  0.1956723931273918  0.8007356202338761  0.6009613675992314
  0.1996091043522384  0.7977683020512135  0.7989751339220855
  0.3988735287593813  0.9989327869856768  0.0005971211393868
  0.3997725255439832  0.0006376478784050  0.1991965725764030
  0.3989217589031897  0.9978018734917081  0.3984628206704713
  0.3995559063962870  0.0045961270430373  0.6005375123590866
  0.4006513249993645  0.9976577944717079  0.8021007422601248
  0.4005032476915506  0.1990351887813280  0.0008354731983098
  0.4006788193450819  0.1985177005688355  0.2008217920552144
  0.3993247324957911  0.2006459898025636  0.3977911153295655
  0.3996402370296656  0.2007295930045659  0.5990803471185664
  0.4011832010579078  0.1988795877257334  0.8009127952388275
  0.3959117417609114  0.3986896453714667  0.0005468687321663
  0.4001447318763319  0.3994475196685572  0.2006968361518481
  0.3992212348979770  0.4015876092508976  0.3980943782666901
  0.3989758647096201  0.3990975150469558  0.6002158470134341
  0.4009170552834903  0.3997969592206072  0.8001905802609837
  0.3990949374312319  0.5993205328025513  0.0013003352024042
  0.4017336760483389  0.6005630831588701  0.2001958817192872
  0.3984121490569102  0.5997620365398482  0.3989896353606069
  0.3976396327736059  0.5956208363117222  0.5998579501414291
  0.4057491129860952  0.5999472823903116  0.7990611215935047
  0.4008056230096834  0.7989930476533311  0.0021288816527330
  0.4005796760219839  0.8009493224465533  0.2004640919654397
  0.3980879903264694  0.7979993636055769  0.3949056515494387
  0.3997589714179146  0.7992296034122850  0.8043227996069514
  0.5986851222011802  0.9993345601796183  0.9985362004013697
  0.5994016466683260  0.0003316700717562  0.2004575313836932
  0.5986429186987616  0.9983217378865754  0.4008817614623435
  0.5999640320350620  0.0049559164835272  0.6008334612413112
  0.6001721893521081  0.9976487102305739  0.8004336574146258
  0.5998870739384236  0.1999945735561996  0.9988505022954821
  0.6043383782168973  0.2000176404810053  0.2017496476599844
  0.5997170566799909  0.1996920012835016  0.4032907223838910
  0.6006193432024568  0.1994846668364221  0.7965644132170322
  0.5989830775261967  0.3991945821418651  0.0006222848767419
  0.6001723136156986  0.3986030348483537  0.2001146891978665
  0.5989798470436480  0.4019016839018131  0.4009460871276180
  0.5999309813385355  0.3930410061139777  0.6003285217151308
  0.6009572064718863  0.4026493216319200  0.8001212710137721
  0.5969885369877401  0.5984850069994530  0.0015412479701108
  0.6020960153562475  0.5994920473960988  0.1984607107623740
  0.5996445357320379  0.6005158333506591  0.3951746465831906
  0.6015217964091328  0.7984919575774084  0.0026461994898533
  0.6016027927824840  0.8012031942742386  0.2012526582010798
  0.6007590705213552  0.7992677890520727  0.4006044087992771
  0.6045816335576468  0.8037127537147057  0.5998668076309918
  0.6014651361161558  0.7954337606610394  0.7997606460946503
  0.7996624982452957  0.9994162720102352  0.9996999164398618
  0.7993918953871579  0.0040621913468892  0.1998608789190626
  0.7989337733054925  0.9987045441675301  0.4004727644288715
  0.8005771158356745  0.0019997810682244  0.6008151622246953
  0.8000640939882372  0.9990451914869102  0.8012160195744595
  0.8000773995583359  0.1994621733663329  0.0028360548823392
  0.8002612297000405  0.2002468922923757  0.3972716970331311
  0.7976484790034599  0.1998127422487297  0.5989451748763774
  0.7996384308331804  0.3972535043636001  0.1990978994558716
  0.8008911853001188  0.4015142739490513  0.4007018704820884
  0.8016459579432074  0.3975045228122733  0.6008133399735089
  0.8014498851818481  0.4001034965123630  0.8013734069493210
  0.8015218057703539  0.4318368211860169  0.9997035869740585
  0.8007297593645094  0.5979210185969308  0.2001752286832402
  0.7993417341717232  0.5997231489203103  0.3998471171862503
  0.8019487705478013  0.5981116972425301  0.5995496411667448
  0.7964191219532049  0.5993658787999009  0.7966283259013472
  0.8012095964762499  0.8017649256745196  0.0014878965695360
  0.7995715158592533  0.8001569175552931  0.1996139558967668
  0.8034630505930260  0.7993655147767144  0.3996668494952438
  0.8007402159813189  0.8012135742271781  0.6017042938469209
  0.8010846741412104  0.7983279251514896  0.8012067119902309
  0.9988260851004157  0.8013101484625480  0.2013307873480795
  0.1998507732328452  0.5994544516857350  0.4010499927484418
  0.8002608240977084  0.1996322553348674  0.8011695597286752
  0.9966952177310119  0.1991597223343659  0.2013603481762079
  0.9979756575639002  0.8003725706751007  0.4019619342392207
  0.2002811798561872  0.2005811201508701  0.5996403617262759
  0.2009510812085293  0.3966367390405640  0.9978960395191790
  0.5986133897512697  0.1996864612864341  0.5987913186933718
  0.6016577886243520  0.5990185332595366  0.8084402593736041
  0.8025406641996377  0.1999770965560969  0.2008620688106142
