Zr Ti V  Cr
 1.0000000000000000
    15.5054759955686290   -0.0026938295988576    0.0222345561511436
    -0.0026911951043345   15.4937529874400166   -0.0133710719798359
     0.0222461462953622   -0.0133733789628594   15.4975574155639322
 Zr  Ti  V   Cr 
   5   5 111   3
Direct
  0.0109939110011251  0.6195560420405815  0.1961721479393586
  0.3995718144700840  0.3997864305311949  0.5999376531871922
  0.5998687398271019  0.2005203242120140  0.2009157815851596
  0.6103581458004195  0.7984548386687539  0.9912325451441349
  0.7920161257669751  0.7964966877187147  0.8097549022434806
  0.9966525738878719  0.7884742417862138  0.3797804048329879
  0.1881730090027594  0.5985059657790089  0.0164215530961008
  0.2049533551434712  0.7976120722317451  0.3985081670511798
  0.5966145240478998  0.2030202937162066  0.7980958488041532
  0.8220811164767389  0.8109552572750645  0.0176361479329115
  0.0015030622163982  0.0033470548915293  0.1669537448177560
  0.9992934792079102  0.0003425578803191  0.3995789358126595
  0.9988012667506353  0.9974471206712217  0.5981465617529840
  0.9974378095324482  0.9977505398628858  0.7968716464911103
  0.0002211195929391  0.2008134273345689  0.9994604480609358
  0.0016607628477432  0.2005238119112590  0.1982765304955530
  0.0000536838983177  0.1993470048494543  0.4003275883831668
  0.9992441155813127  0.1990098265895291  0.5993930950048176
  0.9999178233530600  0.1986340122588560  0.7999435787577306
  0.9991286072787849  0.3997513162680194  0.9987618681458122
  0.0008515819113573  0.4015023949739211  0.1999596017055460
  0.9995598824448236  0.3985710649540818  0.3989594241979045
  0.9982182812414585  0.3991562377950879  0.6009279799056795
  0.9995181210486320  0.4006323725097549  0.7999495059857520
  0.9934071736345742  0.5995743630941793  0.9920245062642929
  0.0000840019935183  0.5938662370006401  0.4046827007096825
  0.9983603418086437  0.6001319874086954  0.6001072699400261
  0.9976935923422626  0.5997312178444903  0.7976925026280812
  0.0093428734098452  0.7978294191480984  0.9936884782329732
  0.0033958546395787  0.8248445014069614  0.1889956190910196
  0.9989194314841080  0.7988285948531253  0.6001521451409663
  0.0012552953051594  0.7997131301728866  0.7979301464404196
  0.2014346020332924  0.9997729230670475  0.0006893609246224
  0.2010049220901399  0.9998728616179777  0.1995507643374595
  0.1999599659727333  0.0003882922423475  0.4000132135915940
  0.1988694446723184  0.9992204426829929  0.5998494682544930
  0.1972820582202696  0.9999051893788221  0.8009284584736662
  0.1982171007082820  0.1988487585558532  0.0001545926075207
  0.1995862702278436  0.1992986858612495  0.2006380007502414
  0.2000681273897879  0.2001200802496835  0.4001206456706318
  0.1984137091142396  0.1985739229681000  0.6003047549708288
  0.1982692406643441  0.1998816922637556  0.7997248402374540
  0.1995081812464256  0.3976603235727907  0.0011600076434172
  0.2004417815166942  0.4010150820772738  0.2003161771131106
  0.1998253555449423  0.3981618979827966  0.3999831751601951
  0.1950267772916920  0.3991351014977073  0.5999044336054483
  0.1982370397548409  0.4008030364430709  0.8015927420997618
  0.2111574066312565  0.5985775186540170  0.2086793953353495
  0.2010390058860463  0.5961469683144978  0.4033716888247931
  0.1984845686425747  0.6001339950570063  0.6010838744382598
  0.1981707737236931  0.5996334326868771  0.7996526697827269
  0.2025575087617137  0.8025315986227484  0.9990895150771161
  0.2019284656789510  0.7983718685478789  0.1978265341408761
  0.1981980356574314  0.8001446357057537  0.5991461717194397
  0.1998174191129350  0.7985720410257711  0.7996452735417028
  0.4007740231794262  0.0004937876576872  0.9991304962144946
  0.4007054491188757  0.9980712463655989  0.1992235924432220
  0.4011779231604438  0.9996286225920104  0.3988883315270601
  0.3990607656511808  0.9983859174082943  0.5987682103638391
  0.3986649768946809  0.9997587940202227  0.7992612479788697
  0.3988550354622039  0.2001017538781519  0.9994024542722466
  0.3954999527713356  0.1996670620234176  0.1989663377649022
  0.3995447434782689  0.1989015531004755  0.3994880653674566
  0.3988739084340442  0.1948669035186204  0.5999863188481748
  0.3956841601106259  0.1996835478032672  0.7999995650788120
  0.3996038311817042  0.4001754963964621  0.0005318827308594
  0.3998395898561772  0.4009911262814295  0.1980908019799681
  0.4003552267820337  0.3992264756191298  0.3953293045392086
  0.3980303344175997  0.4006312522910169  0.8046830721539263
  0.4017382924582182  0.6001007372331083  0.0016450051853918
  0.4041116940807070  0.6011096560417964  0.2003188710167181
  0.4016878413122175  0.5994707608279134  0.3997326315196078
  0.3994200157634002  0.6043736863673550  0.5999116074246837
  0.3962990346985996  0.6005289297628641  0.8030428212171473
  0.3993932087079618  0.7991838838249288  0.9988422475577569
  0.4019605054247735  0.7993856528613784  0.1979775425115710
  0.4022450483209400  0.7994951397384212  0.3985150565758395
  0.3989281669022754  0.8008169875056597  0.5988223290768159
  0.3955842638008154  0.7999464986939726  0.7985416894834639
  0.5997902249764390  0.0041509241857683  0.9971886388548831
  0.6004815200565060  0.9949763794725482  0.1981873128004943
  0.5999636350366544  0.9986293464473835  0.3989737592175198
  0.5973023708731947  0.9989092122604988  0.7962140181103367
  0.5993391972583961  0.2013583211614486  0.9959587155879034
  0.5995940089222540  0.1993583605369808  0.4042951962406712
  0.5999363353122353  0.1982376415429086  0.5987283167032771
  0.6011334207630648  0.4000071060982404  0.9996532841631735
  0.5999745038324470  0.4046224103934373  0.1996996000033454
  0.6006390091361898  0.3999384170593760  0.3991507892143504
  0.6039555993795279  0.4001744742781140  0.5995092631282206
  0.5985778781002337  0.4027503137206840  0.7992929425250460
  0.5993785049473108  0.5951247139503860  0.9984953294555564
  0.5999807098856182  0.5987359293111324  0.4005501401971721
  0.5996252560504409  0.6005214064317097  0.5993752559012779
  0.5970085972875505  0.5995580935017729  0.7977165350808738
  0.6008805331256585  0.7992525790417205  0.2000118821174290
  0.5986245363805877  0.7995709673181201  0.5953995148393687
  0.5894348254056515  0.7997988415063676  0.7886810280827861
  0.7979135316700680  0.0045243536486360  0.9994215067412584
  0.8002475869843149  0.9993417641915746  0.1990878265174574
  0.7990614060828541  0.9993674024113283  0.3998958740193098
  0.7983666931257082  0.9988237941853965  0.5989835366208779
  0.7981444001174555  0.0036360246054384  0.7991952823738363
  0.8021986338853331  0.2005434360386204  0.9996632121193394
  0.8048710793323633  0.1986839432832444  0.1999270959224759
  0.8001093859535778  0.1996916019455359  0.3998804466217637
  0.7997910915044240  0.1984636986239957  0.6000305014208767
  0.8011826108942020  0.2004387453619546  0.7993863125299925
  0.7994844050893231  0.3991298527698691  0.0007691868835960
  0.8019475501150344  0.4013470559924167  0.1997587631086848
  0.7996666571764380  0.3986764219022326  0.3993424558279232
  0.8002293284156684  0.3988144564149338  0.5998027640805317
  0.7991559457898110  0.3984409825457562  0.8005811454191176
  0.7987154499385253  0.5985888687657014  0.0021370357649884
  0.7993575771130865  0.6001972097927646  0.2000290925153377
  0.7992446272335590  0.5977656330479576  0.4006173823632010
  0.7988499073549683  0.6002323685120815  0.5999762253491269
  0.7972443802660613  0.5942279745271796  0.7991644430184487
  0.8031580407662815  0.7989543107830507  0.2081717936860769
  0.7974368444342997  0.7988006196815512  0.4009835293335511
  0.7995662657972067  0.8003437250044160  0.5981627036592464
  0.5990982170247374  0.9984609573816303  0.5972411184328905
  0.6016361578862642  0.6011518265841947  0.1998572202833081
  0.5998535655517820  0.7987587829929395  0.3983970164726700
