Zr Ti V  Cr W 
 1.0000000000000000
    15.7158854917930118    0.0424966629098852    0.0148409627212210
     0.0411830069389624   15.3323084803074661   -0.0160946220336397
     0.0148959253048745   -0.0159922465770031   15.6047261891567377
 Zr  Ti  V   Cr  W  
  13   2  81  13  15
Direct
  0.9813525162899864  0.1880339106198730  0.1945956888750982
  0.9922294238580425  0.8294327427683321  0.0211756282030799
  0.1866690952746374  0.8007699149255291  0.1853545899513421
  0.4475006353600958  0.0108357777517860  0.3787691058666735
  0.6333761211204538  0.9920922943913796  0.5424050682303012
  0.5746503788552739  0.0228814860324917  0.7565541860457792
  0.5925761712341150  0.2128602755349415  0.6132384674924732
  0.6009391057710451  0.4399993911744154  0.6240135714249430
  0.5538997567729446  0.5821623807604035  0.8057608689304280
  0.6434858824339724  0.7946431113506680  0.7693857833386258
  0.8345943398245960  0.0004107735294828  0.2235142397140302
  0.7660995550001344  0.5893031967170590  0.7659789067663263
  0.8530045974323770  0.7911856438028364  0.8458264951811971
  0.2138192895515195  0.1991764135788485  0.2094932549507614
  0.2092228043704274  0.6210664420404181  0.0158377919757813
  0.9892046350106964  0.0245289994092864  0.0120093541062656
  0.0039124971745373  0.0039886708319555  0.4004096758900753
  0.9902258323107156  0.2038078318319896  0.9918017961046804
  0.9997551570595519  0.2005488763362073  0.4090024871546576
  0.0042797221871805  0.2008548936485715  0.6035781391040310
  0.9951431970160202  0.1929559400092622  0.8016756019033388
  0.9994361054149447  0.3984926761419611  0.3993481531638641
  0.9995295238538329  0.4010271148608447  0.6023264418458960
  0.9960178710818246  0.4081219654225172  0.8035518027680780
  0.9983079795860846  0.5941608878073007  0.2028828537328432
  0.0026373616620277  0.6010332464094578  0.4006151434530907
  0.9992547181421561  0.6030454289671792  0.5956035057360098
  0.9826687176636684  0.7920482847187876  0.2218268425273744
  0.0028226897337060  0.9637829913616213  0.5603019260139707
  0.0083646161066222  0.8005269420860566  0.5988156668296705
  0.0264646303415605  0.8055925293761769  0.7889110266805019
  0.1802533770204806  0.9974607092962556  0.0134743173159539
  0.1928117934739319  0.9925766336575774  0.3970845212458529
  0.1973606058259169  0.0026673374685938  0.5995236575538345
  0.1939917609565500  0.9978115972940040  0.8023209104076233
  0.2010955207533003  0.2010534964092817  0.9966896705041252
  0.2083470922834889  0.1979306338200376  0.4119009043334242
  0.1902701606387006  0.1984511475419220  0.7972477662718584
  0.1965074259495851  0.3979629395592620  0.0082659630445394
  0.2009871186989082  0.3984678662472900  0.4007255678636162
  0.1954146993240833  0.3957250413559728  0.6016385842115169
  0.1870808792845902  0.3980010396478887  0.8033058141496121
  0.2024249312859842  0.5854810782055884  0.2080731780233377
  0.2015554931599721  0.5994933080805741  0.4030252083171156
  0.1969318187244982  0.5934640322999080  0.5987720216423459
  0.2004851807593290  0.8020254959019703  0.9908462395251869
  0.2053533745175294  0.7974241087800378  0.4012371144856239
  0.3835510323470030  0.0006457783635638  0.1818342979150880
  0.3894858882744566  0.9961142134126132  0.6118835759470830
  0.4043093910368123  0.1965610160321160  0.9916754986168017
  0.3888850065817316  0.1985632617311757  0.6003557776491012
  0.3869156402223996  0.2006688927775276  0.8008124994429963
  0.4159427578367470  0.3955638179079773  0.1967473747949030
  0.4052472915721530  0.4021096532966360  0.4108056569875256
  0.3972423878282835  0.3975689211384803  0.6069827668110567
  0.3738013410876329  0.4006593126671840  0.8075026621871274
  0.4024181279684402  0.5996895002726514  0.9991242444943284
  0.4002603249484001  0.5954399787163199  0.2032655479763438
  0.4018621740349325  0.5991100442857554  0.4020886345555986
  0.3941367171846384  0.5960898744332019  0.6149699150967174
  0.4015380222120389  0.8041891303339591  0.0015632575215941
  0.4038077468607053  0.7981556197475034  0.2002526030673909
  0.3953735533641003  0.7982727145962946  0.3975082204635253
  0.3984502011220638  0.7968049721081868  0.5987849850506458
  0.3922355692795549  0.7969856232972666  0.8011685327961395
  0.6006802687407207  0.9999668614788555  0.9972230628165076
  0.6238223914216192  0.9995493832701811  0.1898042001729148
  0.6365135109428151  0.0029153882726433  0.3618276070506021
  0.5973884193156803  0.2055817812136235  0.1972206735192991
  0.6026572437462906  0.1960977352069467  0.4010096688319017
  0.6049494151760859  0.2151664139822547  0.8161646877148184
  0.6150780048525442  0.3916106164437246  0.8157162864406075
  0.5985785809016023  0.6044208883616077  0.0008261374330361
  0.5953663736360698  0.8019157168857411  0.0021559015751003
  0.5978101380940508  0.7964115911555381  0.1962936606400454
  0.6004198224284711  0.8073920701478876  0.3893695359523755
  0.5673588849078368  0.8081469647979406  0.5819917096739128
  0.7948863577706288  0.9968488727074047  0.9884913178529026
  0.8091766752526518  0.9979114314899089  0.4179248213269046
  0.8078947382498631  0.9932731623161541  0.7935726113001327
  0.7883266273600568  0.1986162111580458  0.9986198314507632
  0.7889862977338410  0.2025441723991406  0.1981090937500470
  0.8024433050875517  0.1995169223857513  0.3997378219857257
  0.8037827178199841  0.1973071356985024  0.5991975080760127
  0.7982787934734049  0.1934006887026851  0.7965666271784443
  0.8031263831368849  0.4051817455818591  0.0001181325583071
  0.8019811695719007  0.3981087538870520  0.2003023923292920
  0.8006021630332396  0.3993802873327734  0.3996865958860856
  0.8063503095013266  0.3955534487935195  0.5955748716164811
  0.8053643639867892  0.3916606925274914  0.8059939066985802
  0.7957700086927822  0.6039825981325533  0.0002034315170432
  0.8014489109090210  0.6014810682996484  0.3926224256664418
  0.8052303067584131  0.6014267904923196  0.5742274587827458
  0.7919355454310820  0.7956729594826993  0.1990050030232730
  0.7984708570716718  0.8010967868308756  0.3941577622161999
  0.8188417809542862  0.8001886588168337  0.5897589564119184
  0.0154357334551250  0.9884212507498993  0.2050014122072597
  0.9970334569472402  0.4007531647552148  0.0014768196408334
  0.0000306287432316  0.6003563779274650  0.0006026081838054
  0.1888719700613487  0.6007588883421043  0.8025331332321736
  0.2036446382452061  0.7983801683523387  0.5979300050075715
  0.3990797090246676  0.3994160747008534  0.0012582778810787
  0.6000987012336955  0.4014850589917588  0.0084515126595898
  0.6037213349040067  0.4004965649157757  0.3963604501994236
  0.6002591175584986  0.5966530965154216  0.1991031580139691
  0.6015201256365204  0.6035591356398848  0.3959741359460027
  0.8147062460712604  0.9964788829827794  0.6038912569644498
  0.7993841605900548  0.5968581354033341  0.1974403653044761
  0.7894653108284128  0.8014473381345036  0.0128335979855065
  0.9937360911203476  0.9903959562393346  0.8305730788577368
  0.9974690786838419  0.3949873412535177  0.2045355410070198
  0.9896231655541510  0.6111509854624557  0.7855012778402432
  0.2033499050345596  0.0076552771058421  0.2069133940001421
  0.1966721753194859  0.1983041925670830  0.6034920647558625
  0.1815631237320044  0.3919094142891281  0.2056179523144515
  0.2022930370321284  0.8035793722341665  0.8019385748534633
  0.4133541710600838  0.9991590632214710  0.9876608507002846
  0.3831256416229928  0.9977552690017765  0.8037367395552358
  0.4069749613298219  0.1937524063735522  0.2285430472494958
  0.4060261385067915  0.2055395411967695  0.4111546279833574
  0.3658913609161150  0.5990997380858613  0.8058133224114048
  0.5972111595063738  0.1927272140863282  0.0054329861371594
  0.6077853092218600  0.3970325887099244  0.2040474308182952
  0.6215221126079113  0.6390918492515661  0.5983833263670398
