Zr Ti V  Cr W 
 1.0000000000000000
    14.8186846689213727    0.0817698269230215   -0.1517096491152380
     0.0807214775769104   14.9053635645254001   -0.0089705160914547
    -0.1529715253506121   -0.0080823732768896   14.9172254832098936
 Zr  Ti  V   Cr  W  
   3   9 101   5   6
Selective dynamics
Cartesian
 -0.2101409446383690 11.9581851208398717 11.6629218388912470   F   F   F
  5.6248729315390422 15.5278317098154837  8.0831009803673464   F   F   F
 12.0011531616419660  5.7848207477433196  5.4562297488553790   F   F   F
 14.4594094713340713  3.1755923686757264  8.6032755850738756   F   F   F
  3.0542619498596220  8.9046828777989298  3.5589948628983965   F   F   F
  2.8313728309743551 12.6682942279658644  3.1996244134461538   F   F   F
  5.9894049978382800  3.1154201274267166  5.9506122030386912   F   F   F
  5.6016010738556226  5.7594366653889422  8.5968913663367257   F   F   F
  6.5286542521705035  7.8560908606131701  2.7810198528072458   F   F   F
  5.4906653888343975  8.7730448817891347 10.9031688580865325   F   F   F
  8.3481907554084973  2.3994644082275491  3.0883728214619697   F   F   F
  8.6331721549269940 12.0001382634865443 -0.4234361954773148   F   F   F
 -0.4687625374316640 14.4159195772039848 14.6897951848350026   F   F   F
 -0.3740332267557788 -0.2539118414761776  6.9819751481390293   F   F   F
  0.0187093803555941 14.2954966113696269  9.5897670856092088   F   F   F
 -0.9408930682219575  0.7690505992133229 11.6042544832886829   F   F   F
 16.5770306138688852  1.8859550840229580 -0.0800193892649953   F   F   F
  0.7232124329720871  3.4478322193626010  1.9084667683052374   F   F   F
 -0.3819129155606607  2.8658110449912124  6.0796549596095462   F   F   F
  0.3190257513407996  3.3527031384785273 12.8085780651448502   F   F   F
 -0.6821046112706666  6.5838241945896678 14.9996059337536387   F   F   F
 14.5943372596569692  5.6949181064725147  2.6029808910667827   F   F   F
 -0.1154405934295994  4.9297564275671872  5.4027488081318324   F   F   F
 -0.1969626178474774  5.9296268821386606 11.3267531772809225   F   F   F
 -0.5204314229419992  9.7549311863686832 -0.2432737698531148   F   F   F
 -0.9714236879514030  9.4106031757690509  2.3868546167482805   F   F   F
 15.0153537580677536  8.0216520110865854  5.6019479225060875   F   F   F
 14.7635231833600180  9.1866706627986279  9.0330942186400751   F   F   F
 14.3816350036519669  8.0013120348487980 12.7555149252978364   F   F   F
 -0.5065708154084781 12.2826902758791014 16.2850436364768640   F   F   F
 14.6884178731643100 12.6482411501655569  5.3574391598344970   F   F   F
  0.1371174191139004 10.8234322576701967  8.0286297073122093   F   F   F
  3.1285652071152983 -0.3494475131628592  0.9294811159799176   F   F   F
  3.8638624545145936 16.3370601466778105  2.3328760634546715   F   F   F
  3.0570909442951772 -0.3364363296908075  5.4517617174580106   F   F   F
  2.7932046618778066 15.8376944852186483  9.4726723233871972   F   F   F
  2.4605636191626230 -0.4365707202192625 12.1614275630276811   F   F   F
  3.9338347520029950  2.1989716390908542 14.2761287527402718   F   F   F
  2.8705838586751038  3.0051002922016194  3.9599925379966150   F   F   F
  2.3445171968868723  2.3940463120084723  6.2176599730321005   F   F   F
  2.1711942743744630  3.0792137500850383 10.9481580633191413   F   F   F
  3.0822660094422951  6.9646708561220816 15.3728371970984714   F   F   F
  3.3374509776011112  5.9759843023055303  3.3912512154855849   F   F   F
  3.4721734268987472  6.0000348704369930  5.6514749446432591   F   F   F
  1.8822636783025062  5.9693490627353043  8.2957074779900619   F   F   F
  3.5210024826994775  5.6496166485407322 11.7048112854288675   F   F   F
  3.6935428580803835  9.5399129328302585  0.7804643847048410   F   F   F
  2.6037473371185555  8.0199005485845944  8.5621705731481264   F   F   F
  1.8917750280318462  8.8288352447353038 12.2721698458921722   F   F   F
  2.0079237295883208 11.6528118225207979 14.5572508105434490   F   F   F
  3.4371475381822654 10.9305222009659779  6.4744579921182552   F   F   F
  3.0806529816200543 11.5002193791732683 10.0683265724315429   F   F   F
  3.4252297158934155 11.4936062032302342 12.5711718107868844   F   F   F
  6.6963014981915130 15.0782053243500869 15.4572423436453352   F   F   F
  6.1203509881949243 -0.5724340664060065  2.3690621198271899   F   F   F
  4.9867846313145865  0.9591527844676042  5.1195309476241162   F   F   F
  6.0129033358417123  0.1942071318943690 11.8184614789318143   F   F   F
  5.7663237950350767  2.4285728784636627  3.3334205536716102   F   F   F
  5.8501984351326941  3.4875183043374651  9.8511926903512919   F   F   F
  6.6265748373368840  2.5831090664087224 12.8031263847373751   F   F   F
  5.2786164695511193  5.6426458848265595 14.8456984224161417   F   F   F
  5.8967986864540913  4.9820331457859286  2.5963925337203073   F   F   F
  5.9860193726128497  6.3591044764027984 12.3242980362956729   F   F   F
  5.9239429007622366  9.3146894438523518 -0.4205558186037343   F   F   F
  5.5460996793631843  8.8093038188297488  6.3038952633396219   F   F   F
  5.6129448321126114  9.5752267584532493  8.4039856045863157   F   F   F
  6.1978997075533817 11.7639723762790300  2.4844447044987810   F   F   F
  6.0274439012869161 12.3872401015221740  5.4727915615321514   F   F   F
  5.9241986533209801 12.1552023059111018  9.2736626956120052   F   F   F
  5.6090999849800109 12.4678062880196876 12.4865505741443545   F   F   F
 10.4530188137252509 13.8562390098340202  0.0972236012082090   F   F   F
  8.4650728069326089  0.1645522418670780  6.0499367435831886   F   F   F
  8.8241959125591585 -0.4987618672836412  9.6225009340202377   F   F   F
  9.4236874300969671  2.8611002883619299  0.3567658539283399   F   F   F
  9.7576633749494590  3.6753340684289939  6.0801655014583025   F   F   F
  8.2159680207985151  3.0409920517876601  8.5399852819705870   F   F   F
  8.9513759784956619  2.7356107350823287 11.4626392478183714   F   F   F
  8.3713501899499114  5.5479748770788460 -0.8077325170150281   F   F   F
  9.7008428500664543  5.7675725587037485  2.5985387778394458   F   F   F
  8.2384040498275368  5.7678306612900068  5.9484462480229405   F   F   F
  9.4332373549735973  5.7252113134561951  8.2500383894728806   F   F   F
  8.5900992886829446  6.7451241811267488 11.9254358531909386   F   F   F
  8.9833856898076796  8.0358720677973778 -0.2969271875121320   F   F   F
  8.8765504677465419  9.3041744036893608  1.9517716022673330   F   F   F
  9.0994656256790094  7.9951205874753519  5.4645645549554454   F   F   F
  8.3933064171406535  8.3487923142627540  8.6157601093544720   F   F   F
  8.9631455698989821  9.0658462948982290 12.3510353907174348   F   F   F
  8.7546824250412119 12.9089968064149652  3.1133405376284675   F   F   F
  9.3493042278668419 11.5107570908752557  6.5595642814291528   F   F   F
  8.2868111435567080 11.5358259219878896 10.6885256483391426   F   F   F
 13.0562900456079287  1.3969695058002052  0.0192362203872655   F   F   F
 12.1019753806708827 15.2429210696883768  5.1160317807472868   F   F   F
 11.3794711310984606 15.8259933716384129  8.6846424202449075   F   F   F
 11.9976644611490233 14.8442530183880503 11.6402894415077327   F   F   F
 11.6871408291665198  3.7745500970900903 -0.6278272542976484   F   F   F
 12.0449817835627311  2.9530101859933859  3.0215762061247102   F   F   F
 11.4809415239420485  2.1765881816223289  6.6679645545252884   F   F   F
 11.7293459468376398  3.0637984415044150  9.6959263060113763   F   F   F
 12.7206156890914794  3.5856018318997340 11.8492636993830285   F   F   F
 11.2456217861971819  7.6353857224168289 14.7618482494787138   F   F   F
 12.0018140992862659  4.7528449386339560  1.9555066765029836   F   F   F
 11.7137686389054334  6.6433151596850113  9.1532048395649142   F   F   F
 10.9063368348346650  6.0677808339979888 11.5274555577906348   F   F   F
 11.5476024863660864  9.7068408598284783  0.3200751155482347   F   F   F
 12.1135867695346136  8.4657655742238767  3.2448482742510194   F   F   F
 12.4525232459167459  9.5812809929386642  5.6492530621102715   F   F   F
 12.0824665600668570  8.6234842147715902  7.8266350353151877   F   F   F
 11.9939749784215497  9.4917023627074002 11.5950712285913493   F   F   F
 12.4327316903153093 12.6004838069818419 -0.3125533701856218   F   F   F
 11.2308976291953879 12.2620203802700445  3.2838614772771275   F   F   F
 12.0929432811769679 13.4017641201638096  6.8655575384372476   F   F   F
 11.8733729259142589 12.2629790568929078  9.0661832239404223   F   F   F
 11.0434595005174572 11.6686096202199145 11.9229885178766555   F   F   F
 15.0334660467093251 15.6434124359735343  3.0556996687083462   F   F   F
  0.3204370580214974 11.5504380568619460  3.5200310895840232   F   F   F
  2.3227579497737145  8.8004956852541820  6.1390402826846007   F   F   F
  8.3764193086569882 15.0889934999715738 12.1030187078191656   F   F   F
  8.2090261019365744 12.4468638691144893  8.4868260794893722   F   F   F
 14.1648611530544937  6.2926369405554663  8.1681474445846050   F   F   F
  3.5364264598419264  3.5979297586858077  8.6747023849736600   F   F   F
  6.3778150829166007  3.2520457282032833 15.6219071010743988   F   F   F
  5.9160753217599122  6.2168102296827765  4.9063160811851327   F   F   F
  4.7001561388397848 12.4375043853760037  0.2950674157353798   F   F   F
 12.4714909498228348 -0.2334542575186895  1.9467537077378914   F   F   F
