Zr Ti V  Cr W 
 1.0000000000000000
    15.4774007178547244   -0.0057270445464663    0.0060485456842571
    -0.0057275938548885   15.4869400142696509   -0.0016006725836938
     0.0060484205712483   -0.0016004018593464   15.4828342852602923
 Zr  Ti  V   Cr  W  
   2   1 107  10   4
Direct
  0.0023679591307808  0.4011980903965505  0.0007934415438033
  0.4012130344712129  0.5969478645044790  0.8025856553520446
  0.7995191289698008  0.1934096461150249  0.5998128489215394
  0.9996425044436597  0.0001518671817844  0.2046773719996788
  0.9998396232589637  0.9999650322020751  0.3999911352867992
  0.9969217145802299  0.9995211637382390  0.5993187228537478
  0.0007325065277728  0.9998298667127976  0.7964787494954803
  0.0009926472488954  0.1951021008667628  0.0018496510289603
  0.0001909521545826  0.1983413285311511  0.1995680185059956
  0.0001673678254638  0.2005236180368395  0.3996928016342840
  0.0035718500338543  0.2002062443012065  0.5981347237470157
  0.0014517048446932  0.1641352363045049  0.8341073935557183
  0.9995232559196596  0.3996462902229341  0.2051676461780391
  0.9998858141930332  0.4000377242622186  0.4017375192731664
  0.0015233728524384  0.4004115614869294  0.5985008316190092
  0.9950316476057626  0.4012320717133572  0.7945016308297370
  0.9999944574086531  0.6078244708974654  0.0005412092884776
  0.0000906469583022  0.5998987779437489  0.2012708137741525
  0.9992863549051504  0.6002789062389932  0.3998460327578621
  0.0004826625276102  0.6013044638570492  0.5988735789593375
  0.0005594635284583  0.6009559905807884  0.7979605937935691
  0.0002476147066852  0.8014508847208410  0.1971550571322714
  0.0002599386348220  0.8000173849262637  0.3994193492431139
  0.0015556874943605  0.7985001794577152  0.6002450863105308
  0.9995918215219143  0.8014267318524065  0.8022523510198313
  0.2036999753986679  0.9995613743378384  0.9990895142842021
  0.1994228962708654  0.0001148453903972  0.1990226704260019
  0.2001371433601555  0.0001756410751703  0.4012418546689578
  0.1987591448619633  0.0006618997533030  0.7995709763990301
  0.2006889519562695  0.1985819175747685  0.0000095051079443
  0.2009566831529012  0.2006791804454823  0.1999669266227906
  0.2002242007979279  0.1996411669846233  0.3995076836207606
  0.1998779039846957  0.1987428555244993  0.6004388293522892
  0.1998308129134470  0.1998746881282064  0.8006064181309678
  0.2059510269120598  0.4007916544898459  0.9993879288685144
  0.2020144619704912  0.4001448539701366  0.2016714013688376
  0.2000398057767186  0.4004183446006385  0.4010003339095953
  0.2048894217540118  0.4004271269604645  0.6004971368056327
  0.1976345121263082  0.3987317614638231  0.7991372030634398
  0.2010939824421440  0.6011909003105239  0.9999908277797197
  0.2002281535083058  0.5991599085321863  0.2002644120707227
  0.1991317085643477  0.6004490826788599  0.3993083055326225
  0.1964519358918973  0.5996272519659616  0.7996837850845023
  0.1983279339809521  0.8012986637413337  0.9989100003654851
  0.2008707190597445  0.7997985896133698  0.1997819030331434
  0.2002071718602991  0.8003804966781077  0.4003327074772743
  0.2001761325586967  0.8002071431984245  0.5999103379766887
  0.4012199637266753  0.0007029358377478  0.0001985377897391
  0.4008042254090555  0.0003431454561200  0.2010640726690008
  0.4005619660836139  0.0006198457931954  0.4012722055631239
  0.4007261999671325  0.0006471946234498  0.5996103258674479
  0.4005465420377661  0.0005793805885748  0.7979173992557451
  0.4009003402358582  0.2005271182676134  0.0005017399470990
  0.4007633032690079  0.2004963196545698  0.2002071878850736
  0.4000066060494127  0.1999515697842146  0.3992956848141249
  0.4001614283799566  0.2026560187482085  0.5993597864846847
  0.4000683451387584  0.1986291501190727  0.8008126913655379
  0.4019896290450988  0.3985725054484923  0.0000269012186982
  0.4008471838265230  0.3998723724317808  0.4040992558346013
  0.4024719967116281  0.3939321176637484  0.7951796421260051
  0.4002151118596605  0.6009013799436411  0.0055618606761146
  0.4002361951701877  0.5994664610373848  0.2020323558719518
  0.3997638473769405  0.6007561102200288  0.3996533027227944
  0.3999348242270072  0.5967071444297896  0.5964158537831123
  0.3998408316417661  0.8014458944259384  0.0009478491584542
  0.3999734256894925  0.8005591691112243  0.2002288477752709
  0.3997205662063911  0.8002819699522484  0.4000251199378399
  0.6004751228458691  0.9995223976803473  0.9992957327628911
  0.6007671561889338  0.0007967613030231  0.2004336540374365
  0.6003857883887277  0.0002911112814747  0.3994941530310875
  0.6030595153062878  0.9992009025596215  0.5996526764226731
  0.5997636228668991  0.0007434894217591  0.7996921037917084
  0.6005247587017316  0.2002433726603512  0.1993694930325763
  0.6009427048992363  0.2003504268724402  0.3982078490322353
  0.5984218274025954  0.1988627128661933  0.5987437277455999
  0.5995961500931325  0.1987957561321555  0.8009282964511706
  0.5982857341477986  0.4010024469522742  0.0000011920652507
  0.6005394729458464  0.3995251699911680  0.2002404316452272
  0.6011521153217098  0.3998373858813128  0.3998071129239018
  0.5962788319414410  0.4006819916451909  0.5996386714258710
  0.6061958852847626  0.3990487111474408  0.8002253643774517
  0.6003990099189230  0.6014356034801613  0.0015141071926364
  0.6004570355147717  0.5995751209967072  0.2003517065225701
  0.6010178419657509  0.6002861055522459  0.3992664230606484
  0.6004304746179487  0.6023031988421493  0.5989839231391781
  0.6049685087506959  0.6014533339833765  0.8000763757813939
  0.6000358995210868  0.7998324997785352  0.9997088239610694
  0.6000532034617313  0.8003870469819951  0.1993698629393056
  0.5995347172110984  0.8006050399982686  0.3997413113163982
  0.5986446908504814  0.7988332403196002  0.6004851009527142
  0.6011586985259556  0.8011120633723060  0.8003438263316222
  0.7963514681197574  0.0008529340174268  0.9987022916861855
  0.7999177210292878  0.0006541332578390  0.4033650527683799
  0.8015675416652178  0.0022451808453266  0.7970254339035043
  0.8011256488592142  0.1967245979612481  0.0008622827313440
  0.8001650816731968  0.2006359822387603  0.1988858842827604
  0.7997758116886785  0.2030733800415731  0.8025479065014706
  0.7951904982211981  0.4006031756624205  0.9948405166650914
  0.7996610089729250  0.3997739256375120  0.1989244465541266
  0.7996926489883798  0.3991358683527444  0.4020021164647032
  0.7987531767713517  0.4012036668720460  0.6036389697950423
  0.7993329360677606  0.6003921768134146  0.0004995661343477
  0.8000843823889043  0.5988494259920164  0.2004055392397192
  0.8002509850933650  0.5997514530626119  0.4001681479850926
  0.7999374882113441  0.6006610628940067  0.5986384031696442
  0.8019238247525434  0.8023060048273173  0.9990498428566109
  0.7996883741797700  0.8000976448533320  0.2005221887423269
  0.8000220185905026  0.7995298093448552  0.3989294932753680
  0.8002989096867437  0.8014809037707190  0.6006007770683750
  0.8001491976412646  0.8004306616103614  0.8000598609625859
  0.2003817226872894  0.9993365737242293  0.6001155359970708
  0.1997903101748173  0.6007677873458468  0.5995348367297677
  0.2001026794547457  0.8006217939871380  0.7989764542054777
  0.4012815831912184  0.3999093294917617  0.2018389763347340
  0.3994185162797779  0.7997858308617544  0.6000059950494410
  0.3998336243363324  0.8030502942159440  0.7998184782856149
  0.5996670807589473  0.2000569657070865  0.0005965706531399
  0.8002137481473675  0.0001087787964185  0.2000571650932043
  0.8004615801521230  0.2001373994081568  0.3971142401416938
  0.8013333912978753  0.6007765880062389  0.7991710416646169
  0.9986218514842206  0.7977541450369096  0.0000947331617711
  0.4008971276925617  0.3993285028694580  0.6004670663532713
  0.7996693655867497  0.9956819956807486  0.6004165199164323
  0.8005210434047175  0.3958453959031453  0.7994829190300250
