Zr V  Cr
 1.0000000000000000
    15.5364267418827353    0.0141760265446098   -0.0034442262972265
     0.0141671620811882   15.5240745923983035    0.0049821264813726
    -0.0034426786392167    0.0049831204927505   15.5354998368454975
 Zr  V   Cr 
   5 117   2
Direct
  0.9509436259919335  0.4082143412764930  0.4000786618249023
  0.1984130173973397  0.5996006855610319  0.5603833901103461
  0.2227027344776138  0.7964217096616744  0.2036659937032004
  0.8004849729778021  0.1991964993589384  0.4005567510252769
  0.8052326103185893  0.5956548030460096  0.4004741938729280
  0.9996526896869774  0.9996741592044261  0.0005318958024716
  0.0000328926058853  0.9998688739064001  0.2002199954556295
  0.0004446481976821  0.0008096614848689  0.4005920751598169
  0.9993141097129100  0.0004665663149064  0.6005823353546853
  0.0004383278774782  0.9996942422818904  0.8006617849086772
  0.0003616627918883  0.1990884908617077  0.9995323716300937
  0.0061303699119242  0.1983162750009594  0.4002704500117572
  0.0008037313008148  0.1995269236205479  0.8011731458195473
  0.9995716632773545  0.3996079286683001  0.9995314877497228
  0.0008446773461900  0.3996324065634588  0.1960500185609528
  0.0002488559957072  0.3999594804521536  0.6050235867708410
  0.9996885354308029  0.3999786464148165  0.8003178462919712
  0.9994343615755756  0.6003188736720972  0.0001393870719175
  0.0028479816878517  0.6000652518750154  0.1980791818225837
  0.0124854653869491  0.6077818683999435  0.4002165402018365
  0.9978218933451659  0.6012973775114416  0.6029261416460311
  0.0020093328228190  0.6003521595552049  0.8009521739828910
  0.0011405041484829  0.7997852616120741  0.0004286684319628
  0.0032225924379715  0.8002483422446394  0.2011127302878647
  0.0004081491237364  0.8031987318214937  0.4015068920891700
  0.9990009536303531  0.8015061809460882  0.6021567735836596
  0.0005180464373113  0.7996493175865048  0.8000925799195060
  0.1995929517487917  0.0005473436038370  0.9996948260203188
  0.1998304013421963  0.0024896484822743  0.2011558580294795
  0.1996995759258255  0.0006854215508674  0.4006327971765477
  0.2001586388590323  0.0016442895261075  0.5997502106186231
  0.2002391938432220  0.0005994684100677  0.7997969906012350
  0.2000282128097675  0.1999899690751818  0.9998914023632397
  0.1999688088874394  0.2003281692622426  0.2002229108513556
  0.1984505724806274  0.2032130116615780  0.3999381783185454
  0.1996872265600783  0.2005522130180645  0.5995661197509259
  0.2000458608681948  0.2001158370416943  0.7996473032101061
  0.2002301842163864  0.3981472477186301  0.9998468951296853
  0.1989491309273121  0.3963111982610201  0.2002664698714222
  0.2057893670129727  0.4043776233225370  0.3998243675037548
  0.1982263841238068  0.3964179491205496  0.5987579565586596
  0.2001238535313734  0.4006732639916857  0.7995174369433212
  0.2007358810587666  0.5984042839826414  0.9992054568317452
  0.2017436588408457  0.5934011891922958  0.1941560329903775
  0.2037437107247307  0.6031920547245642  0.3694968845684192
  0.2011610176886388  0.5991451700097085  0.8036414015136977
  0.2000589311896715  0.8006155516544951  0.9980722028897524
  0.2009680726560104  0.8001536167381378  0.4067511629544293
  0.2004784624622293  0.8042261104999910  0.6028801193838866
  0.2005468464511334  0.7987851850001133  0.7993612486991348
  0.4008143363626105  0.9992669863289984  0.0002616228844914
  0.4004612000660064  0.9993531032681685  0.2000777586937581
  0.3992317986290314  0.9990968383802351  0.4007769745038591
  0.4006643476617830  0.0005348914624030  0.6006863597750219
  0.4001648778679294  0.9993926034983172  0.8005454444882442
  0.3999840285503209  0.1990374538750173  0.9997763254509795
  0.3994779288268246  0.1996262595369693  0.1999017137683591
  0.3970481614313305  0.1988585589122943  0.4003587991023919
  0.3995149096760516  0.1996924390122657  0.6003053207598430
  0.3997955785485470  0.1995751729770828  0.8003232287036168
  0.3996551130723864  0.3993884413431120  0.9991339667170842
  0.4006452258214370  0.3981872986979743  0.1988028720050279
  0.3996283701658546  0.3998906903687540  0.4000982558355691
  0.4003030451445849  0.3988998185287096  0.6023467696647338
  0.3996640055941396  0.3997917934586661  0.7996822011725048
  0.4026011940421464  0.5992370752586379  0.0000867009954205
  0.4036628160172615  0.5967021850316093  0.1983099402306108
  0.3997507582382837  0.6011049129031564  0.3997673884631345
  0.4032198083450367  0.5987935980018896  0.6005702367699506
  0.3994610713562920  0.5995472058449411  0.7993143235006299
  0.4000906778314849  0.7991187904344415  0.0003887870547636
  0.4011631198453623  0.8003677010812502  0.4021319296845582
  0.4014023932540260  0.8000262093984065  0.6020008233798430
  0.4003825554571219  0.7991481987223924  0.7997972054756174
  0.6003641960834827  0.9986124278674787  0.0009713014878405
  0.5996515461481983  0.9997003259450922  0.2005648738635009
  0.5984651343706582  0.9973390314545872  0.3996993838231666
  0.6008985077798196  0.9996559566658327  0.6003824916299199
  0.6005434194850408  0.9993593267162674  0.8000163123933803
  0.5998675303264255  0.1990446578811657  0.9996632326343980
  0.5995595548800251  0.1991670440890154  0.1999385675077123
  0.5936464272007288  0.1965384660841600  0.4003793470235643
  0.5993216699742594  0.1993026083329469  0.6004726746989063
  0.5996694891372353  0.1992524280697174  0.8003557412300873
  0.6003830334572237  0.3986299953346805  0.9996903969763612
  0.5999387989083872  0.3984160628544731  0.1986255314340939
  0.5916161617412551  0.3996462637246685  0.4003126904134365
  0.5993482814228556  0.3989320463509473  0.6012618747756272
  0.6000590600020173  0.3994809920310859  0.8001430071012915
  0.6003613817536428  0.5998343166024471  0.0003174612668028
  0.6014200710223373  0.5970219053441408  0.2003431490591028
  0.5968849076284183  0.6020187247116345  0.3986637716786247
  0.6011833842492548  0.5985237459669307  0.5995184435022269
  0.6004691389930321  0.5990672776983467  0.8001406109231818
  0.5996242583991954  0.7990706353944109  0.9999668032810635
  0.5044247971370764  0.7989778556630711  0.2007820836705786
  0.5991099658271580  0.7985050758452999  0.4014729718057681
  0.6016038947883158  0.7994844180827221  0.6004576581678315
  0.6007226312457568  0.7988785573610483  0.8001601358597845
  0.8002078168657860  0.9988741953143535  0.0001289189344102
  0.7999731403453293  0.9989646849549535  0.1999765802068725
  0.7995579533387597  0.9954265760313912  0.4003207985180224
  0.8005042509221448  0.0001256414757268  0.6008009396273053
  0.8004652479483196  0.9990059077952477  0.8006408569191886
  0.8005843125995192  0.1994101300140123  0.9997465116513371
  0.8003925097045753  0.1980152948542320  0.1953759673719817
  0.7999796591943350  0.1985294316648535  0.6054326643220687
  0.8007917829244404  0.1998048859712315  0.8005808253498442
  0.7994945877876452  0.3988412782495407  0.9992843131126301
  0.8002776629605420  0.3971920186660129  0.1996965114569322
  0.7646967025676745  0.3979292906115934  0.4003589554205904
  0.7995249121405146  0.3976864718179335  0.6003828373717549
  0.7998040996362659  0.3994155810145305  0.8008889605700725
  0.8008551173958954  0.5985551096244249  0.9996244031146037
  0.8012738953410813  0.5995259379466564  0.1951448375188268
  0.8000690920546591  0.5997529757169405  0.6054361103250987
  0.8003116795313558  0.5985683119846730  0.8010757800170349
  0.7995111166080854  0.7995019801968137  0.0006422943125672
  0.8024926707893021  0.7981843593540412  0.2009182277713272
  0.7997540153292538  0.8005940757159945  0.4004991416886329
  0.8004094526685637  0.7990679038225601  0.6006503328409233
  0.8007646830327884  0.7991740521785895  0.8011740507998535
  0.0008970218976079  0.2000078178863479  0.1987557957375632
  0.0008552368990671  0.1998872437045776  0.6017771429303319
