Zr Ti V  Cr W 
 1.0000000000000000
    15.3185418189025757   -0.0058579337440910    0.0011531853961578
    -0.0058580518235424   15.3152820885503385    0.0003427542276612
     0.0011540796390519    0.0003423374486165   15.3446139054441577
 Zr  Ti  V   Cr  W  
   1   2 102   1  18
Direct
  0.6018784886411825  0.0002498984146025  0.7990267885366353
  0.1981239657528218  0.7954520320263797  0.2101900068931921
  0.3994454733330577  0.7998330097108516  0.6097576141658192
  0.0000705408256767  0.0003640515241345  0.3963132920140318
  0.9992447483760513  0.0017475327220879  0.5975293622039967
  0.0020036817832791  0.0003436715353065  0.8000913089391962
  0.0045381170314323  0.2023032704954250  0.9981864789206600
  0.9992028646894929  0.1990261113633800  0.2000105366346747
  0.0001446809804524  0.2050462490986076  0.4004649024521942
  0.0044148740980107  0.2028007708474867  0.5997891975264015
  0.0011779180772543  0.2060170897058106  0.7997121696570879
  0.0000355767909858  0.3993123679867198  0.9940712501457246
  0.0028153460994382  0.3988843556167063  0.2068058914621607
  0.0023071563105256  0.6003686222773912  0.0001318068255226
  0.9958964471495843  0.6007925191249862  0.1987182635429390
  0.9998963392138238  0.5973494596037590  0.3999655831001857
  0.9991332365487330  0.5973008536098667  0.5985312907876535
  0.0005747712931869  0.5983103634413647  0.8001272733396972
  0.9993339174004375  0.9011304533829331  0.0012686488651803
  0.9995490979635551  0.8024455843174522  0.2036121705897217
  0.0022140874059369  0.7987995983593227  0.4027585704254085
  0.9999657537629487  0.7993920777779002  0.6008814524164600
  0.0014340566404047  0.8000408768839840  0.7986315187750795
  0.2002334345646176  0.9974328715423583  0.0022121379766900
  0.1960619308491402  0.0023119878344281  0.2017572009606414
  0.2005254343588903  0.0002779247320286  0.3996377824355095
  0.1960305199808162  0.0044657948127593  0.5986320079994329
  0.1970751262130516  0.0003963828949358  0.8013246159697655
  0.2007945903988415  0.2034428821948190  0.1940408827274808
  0.2034079363891970  0.1997995544110922  0.4056189237606331
  0.2046289482525938  0.2034314546151249  0.8013425253665110
  0.2031649371177664  0.4070411006040533  0.0012006695063066
  0.1989436800054163  0.4002023573302305  0.3947976180014349
  0.1974137863283489  0.3960156039958865  0.6055101824168255
  0.1985009292153805  0.5938552020091442  0.1961838291579857
  0.2005879404275206  0.5998835489997385  0.3988625572285462
  0.1982337636424616  0.5998436642279693  0.5979749112836852
  0.2005774795921421  0.5985143899094362  0.8058313630408441
  0.2057115027808535  0.7991438748542624  0.4053951112592602
  0.1973303150650998  0.8001709381148489  0.6015431487557393
  0.2047142662168822  0.8003496876315407  0.7993346064293941
  0.3988082549390695  0.9997132323951451  0.0008755489140209
  0.3985823156626571  0.0008971083890916  0.1990143627997193
  0.4004487429208814  0.9949400497156073  0.3999894187634271
  0.3992655822506321  0.0016011524619517  0.5990391324034533
  0.3948478279456570  0.0013747330014546  0.7986609945368641
  0.3959264062846353  0.2006032237052982  0.9924989053261859
  0.3999183569514792  0.1986799415894599  0.2002239609359679
  0.3998265455751326  0.1981259973429667  0.4017712562799388
  0.3961937441572573  0.1984874364248148  0.6048620088468430
  0.4005108332399537  0.3996516497967832  0.1949333050451383
  0.4024944755807414  0.4016509146349622  0.4026341029743065
  0.3988703686908500  0.4001364872480938  0.6026756624514360
  0.3945931402232819  0.5992938963386100  0.9990010903984675
  0.3992406806607182  0.6008207193037132  0.1981539416916721
  0.3996390699977583  0.6037849722250751  0.4005282225856935
  0.3985804989193478  0.5970783753714998  0.5998124462251522
  0.3999846791756990  0.6030091892869802  0.7968959514154011
  0.4030246858688010  0.8006982073634555  0.9961805667194460
  0.4022046674325154  0.7994414123041033  0.1998619779310098
  0.5999451550802147  0.9963629850483984  0.0079269750738449
  0.6027276824147123  0.0019679223650623  0.2031085468879781
  0.5998888868654022  0.0006850219846546  0.3977421502377744
  0.6018548782097165  0.0008281927721068  0.5927367404282124
  0.5993330482431249  0.1981282346511924  0.0000391103349617
  0.5998470066594557  0.2035913900574156  0.1994710132634030
  0.5981391276211145  0.2037968885885364  0.4001814494502045
  0.6004119308401606  0.2006230725867520  0.5987933603058353
  0.5955677818421109  0.2058247058588126  0.7994804731128008
  0.5939463688909881  0.4012242123519625  0.0042950207873107
  0.6012325189705870  0.3996868843499298  0.5957260377442088
  0.5971134482720718  0.4024602655621733  0.7988652997382067
  0.5998572607083168  0.6037467652753700  0.0014169168144735
  0.6043183100387419  0.5951970724421793  0.2001921069683651
  0.5992847065789813  0.5958128931730758  0.3991239571416021
  0.6024009323613705  0.5981791071423033  0.5974409649714814
  0.6000608863597051  0.5967147733006605  0.7995733194374700
  0.6004131162248085  0.7988899196578078  0.1959994855529649
  0.5943420051977154  0.7982935224330038  0.4000187129026953
  0.6019156514311569  0.7985048274481429  0.5996012175900591
  0.5959075369268273  0.7932728257338211  0.8038213007666445
  0.7994966782139485  0.9991817937382242  0.0007659780320684
  0.8044944262296253  0.0003245539170673  0.2002927492023233
  0.7991246855561753  0.9993433292681460  0.3992934015550705
  0.8024425765786237  0.0003268743447780  0.5993665421504057
  0.8073505186505058  0.0010840081588575  0.8010922883036015
  0.8002924753720664  0.1985893121815692  0.9986834004885805
  0.8001474133537737  0.2003249640027578  0.1973974848168119
  0.7990004370414274  0.1993632471703919  0.4004013895210102
  0.8000110887184486  0.1980749376600530  0.6016161463014434
  0.7994932670252094  0.2016902773389684  0.8004691896180774
  0.7997244726071000  0.4000381752781409  0.9992768431493050
  0.7978162819766671  0.4030928333540077  0.1987392302697880
  0.8003302031508258  0.4003556937861026  0.4009272268748846
  0.8028972225196132  0.4000223470378372  0.6001450281078556
  0.8026937711084261  0.4014033663784583  0.8004790600635940
  0.8018088280655628  0.6020545416968758  0.0027934663613046
  0.7993827188235940  0.6026081884852762  0.3948641056976915
  0.8001864129166719  0.6026326762046607  0.6004969933855856
  0.7998250247565435  0.5998318407804680  0.8012894552403836
  0.7941403021599476  0.8014414263678385  0.9989593924915063
  0.8000086748362604  0.7965920491618275  0.2005325644107067
  0.7967091808794128  0.7998471321662080  0.4015398597076467
  0.7996707179053939  0.8007250765997620  0.6011185194643897
  0.8003967309562153  0.7988432369464099  0.8006798529895395
  0.1993663384053352  0.7999018519637271  0.9992575459292248
  0.0001353653674778  0.0000217545265120  0.2019268835459970
  0.0000733156518075  0.4014286620014815  0.4042758721646368
  0.0010046741286013  0.4001303024710166  0.6000851825025112
  0.0047575872629325  0.4022044243362060  0.7952237607215719
  0.2004327892863408  0.1901852110003894  0.9988893138906085
  0.2007561769826129  0.1989366134723218  0.6020398608378351
  0.1999359301995088  0.3977559922448664  0.1990480714348478
  0.2016276207158567  0.4013769436323693  0.8013750762738124
  0.1978914810362691  0.6019172406360660  0.0023258793841946
  0.4001336127534053  0.2030386706609272  0.7983334155202172
  0.3985913458361225  0.4001625834037937  0.9945386682252354
  0.3968737758838504  0.3990416791481245  0.8019527479738360
  0.4009694348654353  0.7994478086755642  0.3948117932970192
  0.4023453739844286  0.8034214051919869  0.8028475479235554
  0.5992768717453111  0.4000055873381735  0.2030241235042979
  0.5989397884173486  0.3997267888758663  0.3976151752600320
  0.5984082462709702  0.7998866598160453  0.9998925002435136
  0.8010474890710997  0.6004437942988546  0.1981448194057434
