Zr Ti V  Cr
 1.0000000000000000
    15.3990340272275770   -0.0170018773457157   -0.0022529018582575
    -0.0170107766548915   15.3787801482628375    0.0165544931564424
    -0.0022517709109467    0.0165430754876648   15.4057927644380346
 Zr  Ti  V   Cr 
   3  13 107   1
Direct
  0.1900936730243063  0.2037608292216704  0.3748902176625002
  0.2040807572855698  0.6169918389052198  0.3837434663042172
  0.3831822598564237  0.7945785876887884  0.3904724702356938
  0.0013093091003091  0.0060823843281206  0.9968470507456799
  0.0016719169913093  0.1947751361742632  0.8068309106111040
  0.2041555840269010  0.1992866751485337  0.1766669458673339
  0.2029345393274027  0.5903423194610044  0.1837087830928285
  0.2086406640940053  0.8004020318798447  0.2144700624246176
  0.3930003251883494  0.2032345927788532  0.6018128581359157
  0.6108964808710492  0.0132638365089377  0.5895894009983828
  0.6059288450983925  0.1909746805526896  0.4110782393452767
  0.5912180778197442  0.2018788712209340  0.8106570388347973
  0.7996623911519012  0.1967600092064857  0.1979439089930307
  0.7882627241080170  0.1932418565909123  0.5907921573225118
  0.7982878821016990  0.1981454268120497  0.8015592034387666
  0.8027188660076819  0.8051951593534998  0.2030446203706424
  0.0007085984647235  0.9998879100123711  0.2038209026527250
  0.0013592139338506  0.0012810360192185  0.5997765654267473
  0.0019070187115989  0.9976172677832609  0.7982643767266225
  0.0013858471141779  0.2032987179969142  0.0058435459229805
  0.0039507308865817  0.2002143874340924  0.2021972366453929
  0.9890199257537372  0.2004977658410685  0.4014377064275047
  0.9996778268912991  0.2000580616226142  0.5980430955210985
  0.0005871424391533  0.4002833790992434  0.0021349906229370
  0.0009951805543578  0.3998385735196306  0.2022628779863433
  0.0008824961097902  0.3999726130282322  0.4015118873891439
  0.9995351645724569  0.3990025999030447  0.6015592068165994
  0.0011067018666573  0.4006420634344474  0.8012170055843238
  0.0012702281709529  0.6002122357261604  0.0018606583512422
  0.0006835821585618  0.6000184866366526  0.2003734165338683
  0.9959932370552366  0.5999999180611033  0.3996334177966794
  0.0017652631723897  0.6002271509172582  0.5988205255661159
  0.0004173173300297  0.5996108187472874  0.8017692013344406
  0.0024680256245872  0.7991997677648814  0.0031587046667172
  0.0027374846024626  0.8011387953710711  0.2019849188106065
  0.9899821432126553  0.8035881197997444  0.4019129002719852
  0.0001314104489224  0.8004321817527813  0.6019243040618825
  0.0007317756837284  0.7990912841461565  0.8012520174402105
  0.2025172053410924  0.0001037568066860  0.9998607406097525
  0.2014825943712170  0.0034233068226202  0.2009167901475929
  0.1979130281402261  0.0029641965217089  0.4014676360747211
  0.2026102693809515  0.0034747504173687  0.6003518336176088
  0.2019370701432506  0.0005105068561685  0.7985830217769001
  0.1996339853042449  0.1998198977065773  0.9882436433717698
  0.1965752390467906  0.2010081324373371  0.5962799412452204
  0.2021952849490980  0.1995088641274126  0.7959042365971083
  0.2002364160396759  0.3981550009374932  0.9996799290033020
  0.2017758467091401  0.3956429866291173  0.2010583191184819
  0.2000054391759886  0.4057591884629270  0.4020109030758636
  0.2003816292484841  0.4012313196634420  0.5993988348175754
  0.2003709533401496  0.3994059532615181  0.8002432777562121
  0.2007679178238941  0.5994435862234915  0.9936523611896628
  0.2010470805441042  0.6009182494981783  0.5997803880511491
  0.2012937686130050  0.5996651161562787  0.7983488554557849
  0.2008795894267252  0.8000309733729023  0.9999860989978560
  0.1826222317468834  0.8157420454833945  0.4105566461739845
  0.1993824573439178  0.8013982459713639  0.6033340256292379
  0.2006518214917060  0.8022363067407985  0.8018883160824826
  0.4007903613196581  0.9996924753443990  0.0015376550117670
  0.4005187228464135  0.9975418977202345  0.2004999570599946
  0.3978125084561461  0.0039112941494889  0.3998809840172456
  0.4020106577785834  0.0000611107320001  0.7986815675550504
  0.3994088532076056  0.1987640287578482  0.0014788539609418
  0.4015872221972795  0.1984613347489389  0.2010318142071745
  0.3990386907529050  0.1987123056768978  0.3998292555705247
  0.3966964246998535  0.1993890293643228  0.8046756868695149
  0.4007027815835161  0.3987985547221100  0.0019663224773934
  0.4016899513563891  0.3977498311856847  0.2019905053866966
  0.4002431378297588  0.3950732766669488  0.4016748475415826
  0.4001076827971515  0.4010817106372460  0.6013933148816175
  0.4007977898623414  0.3994533676886354  0.8007417260355009
  0.4006564789821236  0.5989443023698463  0.0008054831037025
  0.4041404073374777  0.5968666224527660  0.1995615948561680
  0.4090701820811811  0.5899603788142883  0.3999443387296956
  0.4010403391744890  0.5987142004447296  0.5995421585018080
  0.4014443627265789  0.5998347187793619  0.8013360692649102
  0.3994511188117140  0.7997066359142958  0.9976211062215328
  0.4047190661385622  0.7991620266562431  0.1911217125853862
  0.4001472988526024  0.8003965223137265  0.6019547700687311
  0.4005655485199572  0.7999107003751939  0.7997010264455505
  0.6009427710733040  0.0004890295974400  0.9996835553963287
  0.6014469220736972  0.9997343299875880  0.2015573260741380
  0.5936282315957526  0.9940622155217951  0.3966297315941238
  0.6011122025761377  0.0004584702027821  0.8005132138916529
  0.6000724260628937  0.2001341633850325  0.0062586422464886
  0.5981485769276431  0.1984804284193375  0.2010010591899623
  0.5938846168758157  0.2054156126064428  0.6079249996674819
  0.6016639325543772  0.3995799949315930  0.0015415249988907
  0.6009790147278962  0.3975211392735130  0.2028276061552329
  0.6013699023501756  0.3985928020439683  0.4023062013489803
  0.6001231282602756  0.4016232338722553  0.6025905077982892
  0.6008141186635867  0.4020009291731352  0.8023315585227654
  0.6013897657544179  0.5997317813295437  0.0013568416201995
  0.6027825409213098  0.5996605345400550  0.2001059915712280
  0.6022852484380323  0.5980748090723760  0.4002660771225754
  0.6007075067674499  0.6020706400813582  0.6009727655519548
  0.6008941530663352  0.6002822001769397  0.8011825124135211
  0.6010989375817226  0.8002029584773842  0.0009552840262645
  0.5987884453437462  0.7991041858438520  0.2002098247989716
  0.5981149231122665  0.7992944825547416  0.4000013036452095
  0.5988779180976678  0.8012947077170998  0.5998069115516461
  0.6002686524270378  0.8018185314952222  0.8004464891860543
  0.7992971761611367  0.0004664245980590  0.0005603246618045
  0.8009565551845390  0.0011201187797304  0.1990580239978330
  0.9718904842241606  0.0036512268972623  0.3999073224851660
  0.8060263627293233  0.9957965508931649  0.6003950286243965
  0.8011891284615255  0.9974865364727108  0.7988097716581342
  0.8014116607299068  0.1995801299957045  0.9986056662077366
  0.8007477635207871  0.1995086495222997  0.3953668666864019
  0.8014706109416520  0.3986723450039660  0.0011957157174027
  0.8017803692660945  0.3998375218442681  0.2009672798922312
  0.8001626145439756  0.3983613096261621  0.4007397304416415
  0.8002368364114038  0.4004083158405081  0.6004799847335457
  0.8010033962142142  0.4002173838752372  0.7999467984897640
  0.8017556650932079  0.5994798352942908  0.0008198141356364
  0.8009251224804331  0.5975936004582023  0.1999456279859856
  0.7994515511433420  0.6003825737784690  0.4001160935613540
  0.8002130448657165  0.5986734991050923  0.6010121755871269
  0.8010668612096510  0.6003027495400751  0.8011517325011582
  0.8017029299984949  0.8006677358800028  0.9986925307903682
  0.7956182762044574  0.7996248489001272  0.4037297995599015
  0.7999347954551970  0.7997106685107808  0.6017749471037325
  0.8006678977375613  0.7998086350332226  0.8014611329667197
  0.3995523492476715  0.9977330871877658  0.5983222690796620
