Zr Ti V  Cr
 1.0000000000000000
    15.3990340272275770   -0.0170018773457157   -0.0022529018582575
    -0.0170107766548915   15.3787801482628375    0.0165544931564424
    -0.0022517709109467    0.0165430754876648   15.4057927644380346
 Zr  Ti  V   Cr 
   3  13 107   1
Direct
  0.1936771947759965  0.2013693248733162  0.3721668429352556
  0.2041255878620966  0.6205704564052565  0.3833190162009981
  0.3852637164299763  0.7946672566514811  0.3901477410146165
  0.0012816820746999  0.0047438776141348  0.9993255373255721
  0.0005506016335135  0.1962282340936104  0.8073255514734460
  0.2030271043685273  0.2000555491239218  0.1748705947983518
  0.2024699950148283  0.5921704753012358  0.1835723943879877
  0.2105804923211896  0.8024246911121805  0.2136936706525070
  0.3907625251967582  0.2050035469875660  0.6020570979608753
  0.6093886855363144  0.0137967341924194  0.5925023739776147
  0.6049253989147623  0.1913827797989437  0.4123554240415174
  0.5893892436437828  0.2025867493272122  0.8123455888908953
  0.7956168226479575  0.1970196744386488  0.1966788939275231
  0.7835226683450149  0.1957641934144495  0.5933418254757163
  0.7974182360614561  0.1989254441368936  0.8026752467749038
  0.8004160618341655  0.8025585364911508  0.1985877327130555
  0.0033586408668058  0.9994655109161705  0.2054913699707770
  0.0004696507363551  0.0013365655219533  0.6013557158429280
  0.0017331446860047  0.9978106368827867  0.7982991237934555
  0.0006852256011241  0.2028234320177426  0.0066013192897265
  0.0022355492258139  0.1988192994510151  0.2025545785293263
  0.9930115682779252  0.2034223665913991  0.4014093384342061
  0.9983341590271925  0.1990791349252824  0.5974394558835197
  0.0004414346674166  0.3998741772677033  0.0021654150612055
  0.0001506017229812  0.3990153808901506  0.2020995277087546
  0.0007266226033800  0.4006905904965452  0.4013416459639639
  0.9986682165006898  0.3992456257737059  0.6016000377476773
  0.0008227231457978  0.4004694153216529  0.8010973253122056
  0.0012028104395354  0.5997665340841229  0.0016293703590560
  0.0004321451775231  0.5991531738081272  0.1997077676047494
  0.9959082562626524  0.5995039803429765  0.3996020496850916
  0.0010867482021914  0.5996765004265184  0.5992225998902827
  0.0000256794172574  0.5996458166753658  0.8016420897182617
  0.0024816884767450  0.7988521427193971  0.0031288752997063
  0.0022630924418910  0.8008889833066686  0.2019458332952420
  0.9934961250648531  0.7964131437555927  0.4006038028200535
  0.9999526172834101  0.8012881877242435  0.6004799716556796
  0.0003093384743438  0.7989558165480835  0.8011540455320713
  0.2029809673785075  0.0000809659586203  0.0000538523753764
  0.2018607527274693  0.0043512249438777  0.2014551343520748
  0.2011600999459460  0.0011809334967596  0.4012136112440255
  0.1338251893173786  0.0032915839694583  0.5340163830258846
  0.2018495162385018  0.0003593672537576  0.7997968546325920
  0.1992234903832543  0.1997699959797378  0.9875643059557493
  0.1952237763938022  0.2011081666380057  0.5961654541936128
  0.2013052802751690  0.1988055483923436  0.7953604519484665
  0.2000847441360553  0.3983775449106190  0.9992528715827520
  0.2012848665931314  0.3967251832290808  0.2005409825490051
  0.2000389872226706  0.4068386738865710  0.4013213992206662
  0.1993252590307515  0.4011128892679548  0.5989834253610182
  0.2001345685390423  0.3994334696136456  0.8000977190998120
  0.2007314759879772  0.5996177524037110  0.9935790282520490
  0.2001872362570500  0.6013192945885114  0.5999042556948950
  0.2011221574606934  0.5996072669414089  0.7984392040027025
  0.2011730456560541  0.8000723442241524  0.0000344025875955
  0.1836349258999813  0.8209362909791857  0.4104385400984670
  0.1998383025841876  0.8001949820024414  0.6033926669117696
  0.2004422561867362  0.8025216068083344  0.8014498518009210
  0.4015061032281947  0.9996635848189096  0.0023661921223839
  0.4017656135380276  0.9973953447125872  0.2012714727572771
  0.3998220656986974  0.0043098492608388  0.4010357318743573
  0.4018192701298566  0.0000159700814559  0.7982546237683700
  0.3993510625789378  0.1985730971519359  0.0020877896431758
  0.4008108048022329  0.1984161364987863  0.2015820964837845
  0.4001483818796212  0.1989851185531658  0.4003195309362609
  0.3958635860595943  0.1992623872182402  0.8053351893633741
  0.4006251472806295  0.3986090117275043  0.0021834075222762
  0.4016210509635000  0.3976426265379647  0.2019424973479310
  0.4005202383305168  0.3947753325968062  0.4015248385746970
  0.3995519863737787  0.4014025701063461  0.6012724317149387
  0.4006361911164827  0.3992404531393166  0.8007630150490745
  0.4007065602774808  0.5988625363178737  0.0008965616031082
  0.4039028424507115  0.5970081103687448  0.1999615822107612
  0.4089236490633764  0.5899984228917058  0.4002467742933273
  0.4007768138292952  0.5983205579793407  0.5995428146909048
  0.4012379195373225  0.5998297588540238  0.8014214980218318
  0.4000530715082775  0.7995271329022955  0.9975056621420583
  0.4059666588876716  0.7995103342275581  0.1909582252748799
  0.4000759025888647  0.8005047348636800  0.6019376820309796
  0.4009437347856365  0.8001097477563174  0.7993482592446693
  0.6015392542319419  0.0003018324885562  0.0004512824742854
  0.6023806210875923  0.9997302993865592  0.2025642245187352
  0.5957150825595444  0.9945245827222809  0.3983215009815785
  0.6006215165495210  0.0004054400333754  0.8012958950823450
  0.6000274781008906  0.1996723280615985  0.0075021165346221
  0.5976218379289472  0.1980601276900688  0.2019884438660519
  0.5910417907038920  0.2059047699206942  0.6089003782738314
  0.6015664614855575  0.3992855235289219  0.0014744839503662
  0.6006735552788902  0.3972822340296036  0.2029321252859701
  0.6014834951747062  0.3988525811833348  0.4023243173499388
  0.5999227341047436  0.4021057120839490  0.6024898864031959
  0.6005527176143695  0.4021038970498696  0.8021999566761017
  0.6013505039337466  0.5994918425456620  0.0013850177822611
  0.6026079211262108  0.5993550050451993  0.2002441961170903
  0.6024433935863517  0.5985536907940529  0.4001149282803706
  0.6003990902540226  0.6022529685733754  0.6007438518536899
  0.6008173683565132  0.6005095914485242  0.8010159560103075
  0.6016090966767075  0.8001543847165870  0.0006491172680547
  0.5996433710901706  0.7988404085632833  0.1998086310596160
  0.5996075507719282  0.7998540114608695  0.3997542473794040
  0.5988791214823678  0.8014644484539555  0.5994863911870898
  0.6002769726145900  0.8020009364854839  0.8003734270036473
  0.8000731874913406  0.9998369646385045  0.0007817085038712
  0.8021881595749772  0.9999097411503389  0.2001049033879123
  0.8237601402496907  0.9970044635220128  0.3969891565889145
  0.8056809890029196  0.9968069480817929  0.5986128704373511
  0.8006932062720347  0.9982223886327964  0.7989474469708611
  0.8009487907572939  0.1993791017648740  0.9985611399884312
  0.8013532199468856  0.1974384373246193  0.3963909293025653
  0.8012197380736837  0.3983751022800437  0.0006541446287769
  0.8011690349294446  0.3989584397732460  0.2005857646909957
  0.8000152138321182  0.3981365353413545  0.4002198008505790
  0.7995839795844446  0.4005416448683153  0.6000983419493000
  0.8004158898239705  0.3997127874857225  0.7992221025957789
  0.8015814313452302  0.5987723840706817  0.9999193164043573
  0.8007599374651732  0.5969206775418655  0.1993127263634149
  0.7991753675762582  0.5998204683183441  0.3992014198994807
  0.8000279342139405  0.5990296200578378  0.6001613520845286
  0.8005138333878047  0.6000244166013895  0.8005480768878598
  0.8017456767077870  0.7998610225138397  0.9972138636544181
  0.7976301507436100  0.8004601786905094  0.4024809149779792
  0.7989207414324997  0.7991252766730355  0.6013193367985592
  0.8006488973210003  0.8000925460764786  0.8000468634876716
  0.3970244925668970  0.9979072657211399  0.5987831017478914
