Zr V  Cr
 1.0000000000000000
    15.5176564344983579    0.0055358052127085    0.0009235349890332
     0.0055289702635454   15.5339659065587714   -0.0041197367383691
     0.0009253811786535   -0.0041210125583897   15.5341853465245965
 Zr  V   Cr 
   5 117   2
Direct
  0.9997247083584255  0.3999706207952872  0.0012939387880949
  0.3751198093746234  0.2028040733299521  0.1974536641150678
  0.6005891113305121  0.2005407879481646  0.1998729775455530
  0.6106015414406250  0.7933268458938264  0.7998933731406734
  0.7951778674804257  0.6083340300468257  0.8001110479388996
  0.0012269610696756  0.9990143813108290  0.9995219985319769
  0.0007734973630624  0.0001326098855337  0.2011204944782956
  0.0010747756583672  0.0011838149718282  0.3996596602071041
  0.0006146218464873  0.9987775807453702  0.6014165062668091
  0.0005994829121261  0.0034652763473916  0.7999130124175206
  0.0003412238342910  0.1963422511611783  0.0000475972399384
  0.0018083077394114  0.1995391133738827  0.2011054289914016
  0.0006474523136951  0.1997710647558726  0.4009401689832470
  0.0009704809265845  0.2003080626300585  0.5989287595873897
  0.0013806062653383  0.2001677547738004  0.7996406307961806
  0.0000384440991904  0.4011190729234169  0.2046499517065288
  0.0007920200036875  0.3997024122460602  0.4005222350667688
  0.9999541244832378  0.4001849234030982  0.5984414725199222
  0.9999613295794733  0.3992860494775370  0.7958253692581804
  0.0001089049220959  0.6062086193781083  0.9983451844268704
  0.0007421451199304  0.6002209870167132  0.2008958302332284
  0.0004858242586043  0.5999366150077446  0.3998480704677425
  0.0001640299427524  0.6013942947600621  0.6007492271394502
  0.0026458995372349  0.5942172239390057  0.7995428233673826
  0.0008055528112584  0.8009230647963425  0.0038602331339983
  0.0016415702763288  0.8008336203093828  0.2011216624111545
  0.0010033876278219  0.8000137291869736  0.3996840761072159
  0.0009454688416835  0.8000474295575147  0.5954008122033729
  0.2019815780515280  0.8003334165241074  0.8002883696387275
  0.2015093587397368  0.9997564449503925  0.0002172334914454
  0.1998639405628728  0.9995069489216327  0.2006390366308902
  0.2009611614684131  0.0002172608813276  0.6000517586088331
  0.1992833517094178  0.9997458920720382  0.8009314861994346
  0.2007490499251000  0.1990439495109803  0.0006273989261694
  0.1997490881876766  0.1996621016588369  0.4009607855942322
  0.1998050016519353  0.1997040796991995  0.6004760771304608
  0.2004483885427463  0.2005126842795326  0.8000949957398298
  0.2042309151365032  0.4003260075538339  0.0003409485573240
  0.2005199216841368  0.4000371198202060  0.2011054245775213
  0.2009830152580760  0.4000825699382916  0.4003881397142874
  0.2006343176750256  0.3999898145474408  0.5992080489026770
  0.2015484562908141  0.3986975795959636  0.8000089681130358
  0.2012639741004160  0.6006615648499330  0.0006935249568684
  0.1994537239106658  0.6001630793038052  0.1998787002275533
  0.2003612691880268  0.5993095295520297  0.3997451341722032
  0.2001712193137195  0.6004070116856416  0.5999344076811753
  0.1987192009293205  0.6008591129752625  0.8001421677559423
  0.1998241084679434  0.8009079139601007  0.9999940906485708
  0.2008517026056675  0.7997749058953956  0.2010023280410457
  0.2016663128752161  0.8006408230574495  0.3993293160957026
  0.1990405411871763  0.8003687991936872  0.6007079160411214
  0.4013880991745670  0.9999085350738401  0.0003412103080833
  0.4009483244627163  0.9960048153596740  0.2003396356792836
  0.4009164854097317  0.0003045886317414  0.3998088679804553
  0.4006192822778688  0.9994543483316378  0.6000051217796074
  0.4012507628656220  0.9995666154613070  0.7997700954102919
  0.4017917107044232  0.1995251715686175  0.9936711035828528
  0.4004225219685069  0.1997332477511393  0.4041134942227299
  0.3994837047986963  0.1994810581584452  0.6006085584626020
  0.3991103056314858  0.1999328425299122  0.7984341609041213
  0.4016144728700562  0.3999810741177807  0.9999325578717672
  0.4013090570141418  0.4064829853660378  0.2002250841988110
  0.4008547414497339  0.3997199956544837  0.3998629191651746
  0.4005696898057670  0.4002932413307880  0.5999495131544273
  0.3998155274876140  0.3993989187062090  0.7993094802340834
  0.4000531459391038  0.6007995055332189  0.9999683593849303
  0.3990526840885903  0.6015302832535165  0.1998428795003213
  0.3999965267274072  0.6001862730721013  0.4001713597892642
  0.3995700249648910  0.6002812143777765  0.5995510428341067
  0.3972466419348580  0.5990343468703234  0.7998826447253169
  0.4017673074841131  0.7999622419203458  0.9998150834906535
  0.3996616384637398  0.7993762818736500  0.2004686354144863
  0.4005255024733522  0.7999586649558921  0.4001853601966122
  0.4010321618625424  0.8000223284280777  0.5996389329924664
  0.3998591344762675  0.8000425690656682  0.7998561167479172
  0.6006179582168631  0.9994636087400828  0.0000337946246269
  0.6013118658474771  0.9951020885360534  0.2005538763260774
  0.6006695205586400  0.0000327352529405  0.4000584503778954
  0.6004670842088141  0.9994819541892247  0.5997977488392000
  0.6001414902346686  0.0018043097650307  0.7997830823102903
  0.6012486924990573  0.2000339908233298  0.9945968360460248
  0.6009710666693624  0.1998098192408298  0.4051994553460253
  0.6010253479317001  0.2002700550322165  0.6011485581440684
  0.6004952769544979  0.1997193452457171  0.7981548063836897
  0.5993519118242143  0.3999406587820623  0.0000323722321769
  0.6009777965774068  0.4057889871726922  0.2002043601125974
  0.6002621209945092  0.4000029478561084  0.4002728424219048
  0.6002839452154047  0.3998749136022334  0.5994178012552643
  0.5991947079136201  0.3969198959359516  0.7993742306652580
  0.5986529203885337  0.5992571257415810  0.0012175923819722
  0.6003666111737260  0.6013092950224452  0.2005935304105334
  0.5995704514501318  0.5996090349558657  0.3994104986987536
  0.5990237751559183  0.5988071014941780  0.5982107522010729
  0.5911215483066730  0.5905081058951260  0.7999171536662283
  0.6008974126171130  0.7995933449301174  0.0044599720203226
  0.6013206863364509  0.7981905164811939  0.2010254737631264
  0.6006227208480104  0.7996522922540598  0.3993064199332957
  0.6011899480123731  0.7992222899202991  0.5953769041070001
  0.7996104984676148  0.0012495843681758  0.0008508170819076
  0.8014072205550734  0.0008475341274463  0.2001151544076613
  0.8001457615993168  0.0010589501153535  0.3999572316384565
  0.8000725321693408  0.0013214470516813  0.5992051939645292
  0.8018066205773471  0.0053363177428504  0.8004268430440928
  0.8004706417709969  0.1998568194455624  0.0004367206176370
  0.8052788079526655  0.2010879273471054  0.2001000490559477
  0.8012066233295493  0.2006646099956614  0.3999001367668628
  0.8011405741795234  0.2004229828175525  0.5997710500562827
  0.8010344949404345  0.2021005259605199  0.7997838929004758
  0.7955806905227301  0.4009675292324441  0.0002446189448448
  0.8002276777183623  0.4005344450804920  0.2008927472019651
  0.7995829001384441  0.3999924665634720  0.3996639089765898
  0.8000089831900885  0.4007515197295386  0.5991040328354011
  0.7994604941240927  0.3989330326830358  0.7994923226670364
  0.7986504536522344  0.6015170083105247  0.0046329674779988
  0.8009708137022270  0.6009162491313602  0.2006603416083967
  0.8002274274033069  0.6002485030893012  0.3990630756664256
  0.7995587561280263  0.6007307144390941  0.5953153437629508
  0.8029813009357863  0.8027160607821189  0.0024859513158648
  0.8012799059527445  0.8007413247150741  0.2012839927409433
  0.8006003764529794  0.8013095238149429  0.3985720872195172
  0.8032274859889685  0.8019831612291844  0.5977248360009120
  0.8134542898469908  0.8108906539068994  0.7999591698724934
  0.2006179971653267  0.9996495808305820  0.4011234411982625
  0.1920544960260930  0.1999588535928818  0.2005664853213992
