Zr Ti V  Cr
 1.0000000000000000
    15.3990340272275770   -0.0170018773457157   -0.0022529018582575
    -0.0170107766548915   15.3787801482628375    0.0165544931564424
    -0.0022517709109467    0.0165430754876648   15.4057927644380346
 Zr  Ti  V   Cr 
   3  13 107   1
Direct
  0.1956503442192093  0.1969666348461931  0.3718595255369095
  0.1961640481050259  0.6337088141810445  0.4029321831467106
  0.3693266206855085  0.8014645563249853  0.4015291620673631
  0.0017679803733308  0.0061391349323094  0.9953471459735878
  0.0010235505565033  0.1939511840420964  0.8078490889766741
  0.2031877374030422  0.1983862499368440  0.1741687055713304
  0.2001989914515871  0.5769547297440158  0.1933412921141277
  0.1995664273754016  0.8045253085056695  0.2280115160108141
  0.3928274383572952  0.2051391320309734  0.6053572788479805
  0.6109143666944539  0.0154506888587047  0.5932205917037128
  0.6058482851126942  0.1939838969139177  0.4134426340166556
  0.5911979919722133  0.2035442560985952  0.8130606001930135
  0.7955854952602730  0.1981857883696166  0.1956306140901302
  0.7865155314381745  0.1952752113019170  0.5935397717824400
  0.7982544623955367  0.1986122923166803  0.8025295909671818
  0.8009625373021357  0.8026848800572514  0.1975952139699645
  0.0027847325598800  0.9991940842841724  0.2014532073667133
  0.0028422640395872  0.0002739500550157  0.5983021462365575
  0.0020526457487028  0.9967669637153183  0.7962477538648864
  0.0009696719580634  0.2027094096109784  0.0056149890804778
  0.0017443364164165  0.1982836557888772  0.2017398205950689
  0.9944216209510577  0.2000134338046560  0.4004527287505916
  0.9991386465940653  0.1986549834829479  0.5973680300766243
  0.0004748539440607  0.3996946666472868  0.0007984097664010
  0.9995065612994553  0.3977070707008541  0.2009069366282471
  0.0003474715485214  0.3993329646964633  0.4000312364326456
  0.9999041533347078  0.3980105384264937  0.5999015497303629
  0.0008789465515313  0.3996371690743099  0.7997993050516239
  0.0007479861274895  0.6001907359729429  0.0010004276658893
  0.9980231470679710  0.5970223893295382  0.1984525440020778
  0.9935493413695254  0.5983802935370348  0.3984097592257297
  0.0023973995987885  0.5987687753985557  0.5979453312175452
  0.0000177614746137  0.5990433264556850  0.8004428797492372
  0.0019118807871035  0.7988280677931313  0.0003887556619109
  0.9994193317268536  0.8001500293575180  0.1989188025790713
  0.9971707972256476  0.7963246954398639  0.3983645488366465
  0.0029907191717671  0.8005219022635581  0.5975074672611738
  0.0004316150740697  0.7981496607157819  0.7983706868016025
  0.2034480453451974  0.9993015839763165  0.9978468941645048
  0.2020172175434926  0.0046219663993829  0.1989592746529256
  0.2041496103778977  0.9946725249142601  0.4004106900666369
  0.2020213794315373  0.0010657149924975  0.5971337213942925
  0.2028103873170408  0.9998357375925079  0.7961806101315482
  0.1993320562987879  0.1988979798494200  0.9857238192238130
  0.1968598274952766  0.2001258480360357  0.5944395329304463
  0.2018281681787292  0.1986070587349912  0.7941498214014295
  0.1998833744100934  0.3970728528851468  0.9973614150243618
  0.2009174835027777  0.3878582556335048  0.1991711809647957
  0.1998012120751399  0.4070585266703980  0.3997797552109623
  0.2003870372678834  0.4010440643994504  0.5977378578793219
  0.2001862426700954  0.3988258478131165  0.7988031784711446
  0.2003295131329612  0.5991011848110770  0.9977873260524819
  0.2007896156288308  0.5999888794574886  0.6066390378555674
  0.2009009707715252  0.5987805490326326  0.8010925126953823
  0.1997888355798843  0.8002534513990401  0.9968353044731683
  0.0645893248362477  0.9383243162965337  0.4015907021444118
  0.2024095436029446  0.8015320695949986  0.6026072292589758
  0.2008022489110888  0.8012164218795578  0.8002431056280882
  0.4015290195186566  0.0006128296316441  0.0015751868199319
  0.4033381098182401  0.0000132441203988  0.2003831383909713
  0.4026625015896375  0.0073439422153974  0.4001281944905626
  0.4029759982641518  0.0008011554645608  0.7986089059949698
  0.3996378031370355  0.1991480043653249  0.0017294827481359
  0.4018027456584058  0.1999251441940195  0.2019586095225374
  0.4014713349872508  0.2012102841628343  0.4012017559714525
  0.3966922552434376  0.1995673546346428  0.8055336083942012
  0.4002455366551971  0.3990693122539988  0.0017402569728613
  0.4014056369703025  0.3987699276219060  0.2013018308947066
  0.4001794416246672  0.3983232454209034  0.4011171893647079
  0.3999761523940031  0.4021647767169912  0.6007421197002124
  0.4011047387409086  0.3991140592604510  0.8003126741751088
  0.3999897672384112  0.5997558331947833  0.0016010884848481
  0.4023177158965827  0.5979514957591797  0.2004513602486712
  0.4042998636145316  0.5954144379611113  0.4016302187906264
  0.4012811316238106  0.5995919562795686  0.6015190958250078
  0.4013671413614976  0.5999569263254745  0.8025711295443672
  0.3986144237896086  0.8004902545649187  0.0006610012415427
  0.4029777943453097  0.8011817976117644  0.1961767378713224
  0.4027100761072345  0.8017851017608385  0.6067467642320353
  0.4014193818640448  0.8005008409998554  0.8021160443626424
  0.6016831895588033  0.0007408769245609  0.9999517598195077
  0.6029064266630227  0.0007382912215825  0.2017023820367881
  0.5992547438359238  0.9956344333636322  0.3982798260444555
  0.6017428984909818  0.0009083425852796  0.8010090108559710
  0.6001780564481166  0.2002871212503875  0.0075503376613485
  0.5984523996118264  0.1990628253935561  0.2021680939381049
  0.5934666309643969  0.2071853805667540  0.6095185461428669
  0.6011874629795122  0.3998776548180925  0.0011698331111665
  0.6003713909912424  0.3981075849257564  0.2027571758899990
  0.6013284382036596  0.4001757679459040  0.4018994666825118
  0.6000863850439009  0.4030273472109943  0.6016962438191416
  0.6008589986103379  0.4025121140794330  0.8018091569596918
  0.6007682141356909  0.6002553886304508  0.0014520155671312
  0.6014783744832155  0.5997389495454766  0.2005718077738765
  0.5999493349203424  0.6003878165373503  0.4004669400410149
  0.6010885835943857  0.6027171445776136  0.6012784825043234
  0.6011900439730909  0.6006965024790873  0.8013465170573412
  0.6010278749210671  0.8008303070546101  0.0009619399479284
  0.5981696747034301  0.7996937462462320  0.2008845756106400
  0.5987179210546318  0.8007098912384264  0.4005946436357905
  0.5998681187930164  0.8019524114603905  0.5993328562997150
  0.6007688262068867  0.8023196847020048  0.8006479240726024
  0.7999315220249328  0.0004031935798310  0.9990472125709250
  0.8022200947616227  0.0003646959516697  0.1988656493663626
  0.8163969463669357  0.9965824386582774  0.3958976822971719
  0.8067034250202990  0.9963657226393705  0.5980212183494811
  0.8013315201364470  0.9977175534004885  0.7973922932879713
  0.8010841717036076  0.1995451349189206  0.9976751612924967
  0.8023127305989545  0.1973475098736890  0.3962084246399900
  0.8011487010789242  0.3984205583520885  0.9997582619740091
  0.8005072907391093  0.3987678949231920  0.1998488876213460
  0.7998144535425954  0.3979296842361447  0.3996367804406676
  0.8003163543830596  0.4007241710269683  0.5993322721547480
  0.8007947208542567  0.3993899333114641  0.7980810959055616
  0.8008694060598037  0.5987254480371568  0.9990738630152746
  0.7989957932196050  0.5966788657100550  0.1990017444249732
  0.7982659926139918  0.5999491148494329  0.3991511444218701
  0.8007405757233941  0.5992235223445304  0.5998695020765392
  0.8008753441587727  0.5997771103386830  0.8000481621512268
  0.8008510634497694  0.8003665819605332  0.9963758022911378
  0.7991202325880076  0.7999683383792465  0.4019132168516721
  0.8014168142868814  0.7988775258232423  0.6005173945992934
  0.8009422228577102  0.7999185967293040  0.7990043285521272
  0.4013528188854432  0.9996354363336951  0.5995030583635959
