Zr Ti V  Cr W 
 1.0000000000000000
    15.0277518607768155    0.0388766525104742    0.0737223082411552
     0.0391987632348747   15.0328717695401437   -0.1033646809291088
     0.0729317100218346   -0.1029929491676967   15.1613062756125618
 Zr  Ti  V   Cr  W  
   5   8 106   4   1
Selective dynamics
Cartesian
  1.0529626426854721  5.6373039095999324  6.8818220318500982   T   T   T
  3.5047451635542433  0.5611233833806223  9.5607886963807278   T   T   T
  4.7354632471100269 11.7739100089839983  5.7141171040218808   T   T   T
  9.2316528382441518 -0.8190739836913089  9.4096429544479285   T   T   T
 11.8079272568166527 -0.2387651720916693 11.7438153671858689   T   T   T
  0.4614187359178105 -0.7901389174496909  3.4632981133661573   T   T   T
 -0.2991259811928369 12.4509917601293036 11.2236465036682702   T   T   T
  3.1093629578968862 -0.5146557142571727  6.0020241746127141   T   T   T
  6.6331337040221019  3.4653757745093103  7.0704497800236084   T   T   T
  5.6259740834515606 12.7743752033637623 -1.0308621190793461   T   T   T
  8.1374181213638703  5.6415248849583355  5.5783279471049072   T   T   T
 10.1922534986362816 12.3561636862090580  1.4745157180460713   T   T   T
 11.1812534252221116  5.8312125443816072  5.7227009445070340   T   T   T
 -0.0220295485676023 -0.8133338586966997 -0.5559305812411180   T   T   T
  0.4698081883599730  0.0147230276093991  7.1261442992975432   T   T   T
 -0.2954792748314612  0.0094026824952454  9.8318813134053276   T   T   T
  0.2398187020586933 -0.1264514905878904 12.1464485939813596   T   T   T
 -0.7191173778478801  3.3792764210190991 -1.6926264704405252   T   T   T
  0.3520839657731875  3.7534915621299376  4.0280925012936653   T   T   T
 -0.4988432339012930  2.2309023365928695  6.4982320103316367   T   T   T
  1.4131134875972273  3.1232705956286653  8.9400509242671475   T   T   T
  0.9067162418639795  5.2373773481289696 12.0795185298816250   T   T   T
 -0.8408096237555914  5.6490096653496868  3.6041241054719095   T   T   T
  1.1093947617744309  7.1322038341547067 10.0404531665346877   T   T   T
 -0.7744364469379390  9.4795581037654664  0.6505582046220916   T   T   T
  0.9147024757514552  8.1051680976455476  3.8421006330328238   T   T   T
 -0.1376916266916360  8.9742884517134449  5.8712195207316613   T   T   T
 -0.5438452889035753  8.2914571678353006  8.2751883966078896   T   T   T
  0.0754666239297112  7.9464110029159816 12.2290752274735688   T   T   T
  0.7436795566576455 11.4699373596796619  0.7135590537045945   T   T   T
 -0.3268025187892583 10.4957772404215390  3.5866424825439873   T   T   T
 -0.1655807445897590 11.8283860744014060  6.4445698302060865   T   T   T
  1.1095191382632485 12.0417619808701488  9.1634796456973664   T   T   T
  2.4543605894279947  0.5315934091697426 -0.0717174459504890   T   T   T
  3.3636299683656943  0.9551769043660693  2.3074624591369757   T   T   T
  2.0310113512058074  4.7992950888354500  0.6528593192779238   T   T   T
  2.3567650220040872  2.0574349988061416  7.1576444698161321   T   T   T
  4.1778824731182747  3.4473965237714350  8.7866773821943145   T   T   T
  2.8804868122272591  3.5494642943783461 11.4625364002369299   T   T   T
  2.2505129129434160  5.7648515908753177  3.7322424233132314   T   T   T
  3.7904998060290818  6.4168285340249129  6.0850092115833059   T   T   T
  2.9587432851508462  5.4655982857256147  9.7595083538240210   T   T   T
  3.0183718820990841  5.4461105925431275 13.6186009708336737   T   T   T
  3.1465653178215014  9.4618829754691642  0.1146843035974296   T   T   T
  2.9304400604155370  8.1852950211714575  2.3906785800432497   T   T   T
  3.5354940576333789  8.7753022968013177  6.9300858412802562   T   T   T
  3.7137882044866108  9.2725425108652022  9.3570984837483859   T   T   T
  2.3029324521414400  9.2851933846727910 11.5170108748150728   T   T   T
  2.5317612126122091 11.7037076933534383 -1.4014984401475938   T   T   T
  2.1889799767244709 11.7814624078054777  3.5060075073554695   T   T   T
  1.8591187235950628 10.6582821983668481  5.6229860708638801   T   T   T
  3.3470193897125085 12.0170848064520293  9.1167450530460510   T   T   T
  2.6141656745309718 13.6192442986299618 12.3678214040373966   T   T   T
  4.8617208396730618  0.3839801835000071 -0.2241314697456910   T   T   T
  5.2621899476717351 -0.8319496786644649  3.1212998771767970   T   T   T
  6.1811776456400320  0.1448733014460540  5.1944931816892428   T   T   T
  6.0921610474278021 -0.2149422789838411  7.6463795923255464   T   T   T
  5.8911012981826163  1.5231220725823724 12.1237035663240871   T   T   T
  6.6284296649129173  2.6199329472064181 -0.8020540411160247   T   T   T
  4.9121251750869988  3.0425164978462380  2.8577352165398997   T   T   T
  6.3017695706268722  1.7319949584863965  9.3310601277239620   T   T   T
  5.0517058391588812  3.8387317334174371 12.9879899009171105   T   T   T
  6.4324000993085697  4.9741889487901929  2.2390020681450293   T   T   T
  5.3360016043638545  5.7606411399985262  4.4722390365799978   T   T   T
  6.8881887107580875  6.9939815923413606  9.1557172823555550   T   T   T
  6.2486679487661538  5.6992084016702398 11.4619319557900354   T   T   T
  5.7742340738010922  9.1081279524400554 -0.1247051459009425   T   T   T
  5.2150195584670733  9.6585257204910810  2.5789588949364655   T   T   T
  5.6105930477193606  8.3891186326455838  5.1778253558283662   T   T   T
  6.0180549963556338  9.0401403742034603  7.7597371947172959   T   T   T
  6.2271654983058635  9.6466488852585837 12.6072543524170460   T   T   T
  6.2055775670527540 11.8966548615586163  2.6744915755960372   T   T   T
  5.5954036078789047 13.1371727702771484  9.2482602696338194   T   T   T
  6.6120178648357451 12.1662167805467352 11.5576451311124746   T   T   T
  9.9873145399402201  0.4841351747366370 -0.7993800899013281   T   T   T
  8.4728764860006542  0.8951632427816690  3.3421259599390174   T   T   T
  8.8276090461512542 -0.4181225308041877  5.7687397110641552   T   T   T
  8.2280757812643586 -0.4306730805982656 12.4658211052842631   T   T   T
  9.1940713700346297  2.9676536573723760 -0.1657132302251327   T   T   T
  7.3122214023063279  2.6420447072807951  1.6457514002074425   T   T   T
  9.6730235727390852  2.0575020679979419  5.0503451122576442   T   T   T
  9.9653935904342177  3.9718634158418706  8.8686022709896797   T   T   T
  8.3969716717626852  2.0165851936991475 10.7276878785791521   T   T   T
  8.5694536972695960  5.3893139792029370  0.7868075040990925   T   T   T
  9.8121464799038218  6.3496281686415479  3.1113949179589788   T   T   T
  9.3577218795190138  6.4070326747677955  9.1975391948282201   T   T   T
  8.6236570574128510  5.7616980060006675 12.3240223005495881   T   T   T
  9.8888599893942466  8.8399033576420791 -0.4359394767572033   T   T   T
  9.0445717703322845  8.4887947801067476  3.8973839219939919   T   T   T
 10.0632977332490974  9.6513499299725520  5.6460464878409073   T   T   T
  8.7427891512163018  8.7151474850278721  8.1513264917347747   T   T   T
  9.5583522875936850  8.8832194972674507 12.4169569427504829   T   T   T
 10.0155832895893955 12.0822325299030506  4.4230629061308271   T   T   T
  8.5323910425938596 12.2465704083210820  6.4442127564894118   T   T   T
  9.3236255503631842 11.2471377185453516  9.0951590220234930   T   T   T
  9.1503031836642332 11.9881895894580985 11.5227041080563808   T   T   T
 12.3907683181572477  0.0115042644431819  0.0340610823332266   T   T   T
 13.2770294721187128  0.8436651205184773  2.8199950098268580   T   T   T
 11.3067430191795406 -0.2067985642452380  6.1850069595451362   T   T   T
 12.6999185553791882  0.5894880506507461  8.4181676095982212   T   T   T
 11.8443437609130591  2.5082430102561823 -0.8613623933458850   T   T   T
 12.7737128554725636  3.3294184717921622  3.1567881548753935   T   T   T
 12.7541202331532180  3.3608067131712493  8.0644890190833980   T   T   T
 11.1006813019084927  2.0677529075299086  9.9131563946495085   T   T   T
 12.1224272297545657  3.6659778495584749 12.2520363384429984   T   T   T
 12.8725838584058589  4.9808130799109769 -0.5917020251203307   T   T   T
 12.3405222549051281  5.7915295255084072  1.9272100131636998   T   T   T
 13.2550444193162686  6.0055256222660987  7.7424407027339610   T   T   T
 10.7909478770359684  5.7525718665452299 11.3424423274345489   T   T   T
 11.8488033105868187  8.9558579218328624  1.0075248737581861   T   T   T
 12.1036839385021739  9.5291476875707453  4.1934287738822054   T   T   T
 12.3185518046337350  8.3694863877063863  6.7300130500173543   T   T   T
 11.5423705284418858  9.4150260934275050  8.9741218200343695   T   T   T
 12.6772709064656937  8.9631237033275610 12.5049356801976224   T   T   T
 12.5284187287974351 12.6570081846773643 -0.6041559365382685   T   T   T
 12.2462824230469707 11.8928215136869468  3.4056099749728257   T   T   T
 12.4208040254308081 11.4099497718377112  5.9210467671431148   T   T   T
 12.2130443187748625 11.5408811700436811  9.7620600892479210   T   T   T
 11.5107742936182529 11.1635168825628437 12.6404391796299862   T   T   T
  0.9311729571102270  2.3767061484110905 11.4494026389230346   T   T   T
  2.4529990028285815  3.4154084265197100  2.7868931346199846   T   T   T
  2.2377852718825988  7.1450483687305315  0.2628558854133985   T   T   T
  6.5193430080596571  6.5989952267667800  0.5822428864160016   T   T   T
  3.2326026538146659  1.1404342658643756 12.6618404304184740   T   T   T
