Zr V  Cr
 1.0000000000000000
    15.5364267418827353    0.0141760265446098   -0.0034442262972265
     0.0141671620811882   15.5240745923983035    0.0049821264813726
    -0.0034426786392167    0.0049831204927505   15.5354998368454975
 Zr  V   Cr 
   5 117   2
Direct
  0.9511465441607753  0.4079609239771864  0.3995241255994856
  0.1999574868296758  0.5997499093337311  0.5596989996723153
  0.1983088079980440  0.7961945291074840  0.2031616503343029
  0.8002073329254437  0.1988273663077460  0.4002071580739178
  0.8050781901128654  0.5955914890574933  0.3986037573244868
  0.0007986469894896  0.0013032752626267  0.0008814746341641
  0.9995135699704062  0.9992964099657856  0.1996617334315059
  0.0013594165452745  0.0014080222373659  0.4009500572286342
  0.9996442986468628  0.0010005721684136  0.6003849710769479
  0.0007185335106450  0.9989140804289746  0.8017196458395853
  0.0005366716171256  0.1992264025490424  0.9994009907228778
  0.0061483385083112  0.1982250091675541  0.4001625217760816
  0.0007924872836108  0.1998091027841985  0.8006997596465025
  0.9997484361431604  0.3995671185343320  0.9999246569191438
  0.0009846618334006  0.3992742459254346  0.1963679726464580
  0.0004620546245022  0.3998080421019732  0.6047573037551002
  0.9997863784888597  0.3997601744095469  0.7999195296265841
  0.0002056201539435  0.5985659835690728  0.9997282245174339
  0.0018126981682365  0.6338916414261102  0.1638875732229585
  0.0128727021223912  0.6073931750282382  0.4019035604212777
  0.9985734232698240  0.6009097106667625  0.6026524451924503
  0.0023961186131274  0.6010856009204970  0.8015711124904886
  0.9951075094167888  0.8010601463939186  0.2042808155672604
  0.9994312592265713  0.8032057457135544  0.4024584913010243
  0.9991092192651575  0.8018912479484053  0.6017400472506497
  0.0009977652096873  0.7996913611350929  0.7981782745624170
  0.1999192094975621  0.9996192316691981  0.0001890132475247
  0.2010192117279718  0.0025060631281435  0.2010973998920920
  0.2007123890993888  0.0007969094124962  0.4002603155319651
  0.2006248374382427  0.0019726290841860  0.5996748823874603
  0.2004508639399672  0.0005052473450385  0.7998671189008163
  0.2006560651774850  0.2001726660685838  0.9999287452683057
  0.2002514356363091  0.1998615609928840  0.2001846882910808
  0.1987828438929472  0.2032655708277455  0.3997360759393566
  0.2000935224181664  0.2006556981092364  0.5992755825811273
  0.2003283681308484  0.1998762338520826  0.7996594702299318
  0.2008772912236805  0.3979977771571796  0.9999216384852836
  0.1987102472691726  0.3962072077296614  0.2002226142342506
  0.2061677650632710  0.4040645904151733  0.3996373118201338
  0.1987948595153707  0.3964832787838365  0.5986357402731254
  0.2005637107744048  0.4008252222875339  0.7996051171106808
  0.2007530481015389  0.5993276264501283  0.9996430571778051
  0.2029183955984303  0.5926489132778474  0.1947120850130676
  0.2035580516114623  0.6027784160234407  0.3686941889440751
  0.2015295084845762  0.5994313721561949  0.8035451661750412
  0.2040715150135835  0.8006588405329234  0.9979380398362240
  0.2021804512292097  0.8007631958024481  0.4068578705634874
  0.2013912474998975  0.8045495680473018  0.6026128311656791
  0.2003164609811067  0.7988719537015594  0.7998580765910177
  0.4011204220248479  0.9996234599836709  0.0004932106797064
  0.4013322630008335  0.9997807293870673  0.2000495178567008
  0.3991279468256028  0.9988677966753480  0.4003778555832647
  0.4012604781239884  0.0005108733765615  0.6004064478996454
  0.4004834866540470  0.9994485045134768  0.8006401172003674
  0.4003641021865054  0.1990655559401346  0.0000297333152154
  0.3999436464959998  0.1996317510646043  0.2000595105390146
  0.3973486152118779  0.1987676160353417  0.4001508383094287
  0.3998041465704140  0.1996382072568134  0.6001106369730195
  0.4000487757604371  0.1996357289718438  0.8002636807717517
  0.4000187289296522  0.3995731311626979  0.9994826374730936
  0.4010644079402863  0.3984765784765101  0.1989629630832513
  0.3998148477409335  0.3998210580683489  0.3999723838438548
  0.4006493647391631  0.3990431891994481  0.6022790834422597
  0.3999287537310416  0.3999030530194294  0.7997257821753643
  0.4027560058166385  0.5993338356502210  0.0003436519447911
  0.4032453217042672  0.5974984081545962  0.1986121120093091
  0.3985950478072589  0.6016242546445698  0.3998425762559960
  0.4040422153610301  0.5990155520621795  0.6006130350917561
  0.3998659449725900  0.5996993376171263  0.7994842605131762
  0.4019253142142062  0.7994447488253433  0.0001792234100576
  0.4057139080536013  0.7991298103684265  0.2009611855288576
  0.4017145487166133  0.8004941036602726  0.4015486968719268
  0.4022865473087294  0.8001947949404884  0.6017480070386937
  0.4011274505173968  0.7992674207625265  0.7995826933844309
  0.6005941108159313  0.9994546631789141  0.0005889722080255
  0.6013155238215867  0.9992814829035654  0.2007669867897112
  0.5988497689389816  0.9978771279342923  0.4003149964375741
  0.6009931221831046  0.9995377785644567  0.6000963661936638
  0.6007645540322609  0.9992630191896977  0.8001997581680234
  0.5999442158011700  0.1988381102378767  0.9998684628797582
  0.5994480583993408  0.1990779188158517  0.2001209011040836
  0.5935430363621891  0.1962523867541097  0.4002311331550264
  0.5994761427195483  0.1992993833541790  0.6003831203099230
  0.5996882017290069  0.1992756397439031  0.8002690348907088
  0.6003944999267767  0.3987924204494848  0.0000450556550512
  0.5997539872797313  0.3981506001212151  0.1988198073525659
  0.5915944637840707  0.3997116468500583  0.4001675023762111
  0.5994353622294325  0.3986765098514644  0.6013659843201267
  0.6001154790429490  0.3993185273645432  0.8000880306897559
  0.6001865437962154  0.5988350852996064  0.9997820737828906
  0.6020557107106257  0.5976926431139009  0.2003360645738217
  0.5963527372575093  0.6008461911501259  0.3996581586548870
  0.6014959495718381  0.5984209939928802  0.5993167979751129
  0.6006752745196113  0.5992361752462468  0.8002648750596231
  0.6009793957543851  0.7991506317323387  0.0005168515404560
  0.6019768789490263  0.7988182359231318  0.2012673292675555
  0.6004342588034448  0.7982489348814616  0.4010556551410170
  0.6017526840330986  0.7994881195421369  0.6005267374244054
  0.6006434521853831  0.7989302461835377  0.7999175806627485
  0.8015512205879171  0.9975953562933675  0.0003613333314503
  0.8008199893889617  0.9997503297437644  0.2001736001457429
  0.7998230858143676  0.9953842130188993  0.4003031293900831
  0.8006522949712225  0.9999605097110081  0.6009969797091292
  0.8006414365634812  0.9988789318702362  0.8007850169297842
  0.8003253577071232  0.1994803676159230  0.9998442181102311
  0.7999915751749787  0.1980165354664376  0.1954025040295549
  0.7999818595900642  0.1983836979112786  0.6051721114245534
  0.8006687965071476  0.1994548659075372  0.8005722429606058
  0.7992284721630448  0.3985955323318318  0.9993550945285882
  0.8000432419935883  0.3975035665170047  0.1997766240361344
  0.7647235342568115  0.3977525929896362  0.4007347864561325
  0.7995450243599054  0.3976441641325866  0.6001911551379019
  0.7997331151110609  0.3993635041636619  0.8009220361577927
  0.8016333335342224  0.5991570585770105  0.9995022206307441
  0.8012398178507720  0.5992237169966735  0.1943957019626580
  0.8004145877683585  0.5995039180663180  0.6049590590916306
  0.8004004926079142  0.5986221899467568  0.8009169058644068
  0.7981964117193541  0.7989122907055968  0.0005478338014262
  0.7998692844228549  0.7985142027923395  0.2001090175835787
  0.8000178919584328  0.8004826178907354  0.4015377773999673
  0.7999420260669534  0.7988767320298058  0.6005215167054606
  0.8014527412812090  0.7991867353012051  0.8021101420284453
  0.0009876692679911  0.1997627023957541  0.1988453729846690
  0.0009526076249597  0.2001011401622985  0.6015435278026909
