Zr Ti V  Cr W 
 1.0000000000000000
    15.4149939690695010   -0.0041197707411214    0.0051244012526811
    -0.0041210926464625   15.4234402589122102   -0.0060663359120509
     0.0051270839828618   -0.0060686626181498   15.4040961855710652
 Zr  Ti  V   Cr  W  
   3  12 107   1   1
Direct
  0.9906065651886875  0.7836798955396134  0.7959156577499207
  0.2066092362870075  0.4396525110197620  0.7991603350454458
  0.8124363420479936  0.6049705532994009  0.7931973828272618
  0.9990918480475934  0.3975343910766531  0.4084590182156602
  0.9943340674329532  0.6035148023024939  0.4052372644771640
  0.9881837444107535  0.6082375926530839  0.6230008828199917
  0.2014389283639472  0.9886159565439098  0.7983731157863807
  0.1975611025896434  0.2039067941258344  0.7982423491027222
  0.2060858810199246  0.6008972691692598  0.4088341860933429
  0.4008152374469594  0.8001621898853933  0.1990690192012142
  0.3986304676702300  0.8070170358961447  0.8041711140959433
  0.5983835999658926  0.7985855266844665  0.9887371770262905
  0.6084177152713708  0.7988854260437839  0.1991890082774465
  0.5982901527071998  0.7926594310661783  0.6004938635664220
  0.7970761654100326  0.9932551284074772  0.0017124746116211
  0.0019774514218478  0.9973411155494648  0.9984362642142736
  0.9968575649562582  0.9977002299380060  0.1994870134321284
  0.9989189944782101  0.9996907033801092  0.3998298093331215
  0.0002798326946889  0.9997870656434907  0.6009612137428476
  0.9972093700761120  0.9971549668628604  0.7997058710529437
  0.9997109544890955  0.1970640115663080  0.0003372131386018
  0.0001561294158701  0.1989857489143173  0.2001935598538491
  0.9992183353845493  0.1961814400348221  0.4006707730461331
  0.0000659631866173  0.1992814604736692  0.6011177953066258
  0.9988623778764648  0.1956179075885314  0.8008697509055596
  0.0010512354476158  0.3964890672283837  0.0024408923472252
  0.0008380183406222  0.3987609246149337  0.2009213061134530
  0.0021227491194693  0.3981029726001350  0.6054655684037585
  0.0022973908859116  0.3920685676524143  0.8029773263799527
  0.0017322359461218  0.5981619413538899  0.0072188767125911
  0.0001440380676192  0.5991623453839885  0.2029990761224350
  0.0195603144896293  0.5820513776768892  0.8174098614911572
  0.9984544739883096  0.7981317175110315  0.0059144048800555
  0.0001575047744082  0.7988007983006854  0.2006268528437728
  0.0018519223403735  0.8037147947627264  0.5909547332259176
  0.2000270604148752  0.9986152238183418  0.0019465326525594
  0.1998412148033875  0.9993558303233222  0.2004893251838194
  0.1998506706903488  0.9993554830211842  0.3998759660371627
  0.2000775981915252  0.9999336491924914  0.5978452623721966
  0.1999117590412996  0.1992237541681147  0.0015508301181810
  0.1991452802040048  0.2001716031469830  0.2013391956734493
  0.1994244876761291  0.2000379924304709  0.3996893275235756
  0.1995854507478602  0.1998962809756922  0.5983158453463716
  0.2013546805643129  0.4003795342441924  0.0045564523321240
  0.1998236965975776  0.4015780425738492  0.2024242116398902
  0.2011577294453405  0.4003609591530457  0.4010405488737513
  0.2001247422238145  0.4026693489630460  0.5955332148426563
  0.2028796306265881  0.6005906283562584  0.0007867946004456
  0.2014046264695148  0.6006434893806899  0.2014028892743203
  0.2034317701236289  0.6014914872673660  0.6058923751790960
  0.2081741911388676  0.6280039183116937  0.8021963018790114
  0.1976328911100574  0.7994264006114072  0.0004805773598723
  0.1969782508451292  0.7990912359195154  0.2019092528628957
  0.1985224136482882  0.8005375056999067  0.4020464235445186
  0.1991599918254164  0.8014978000777189  0.7989830370650978
  0.3983244833929224  0.0008615078780300  0.9992215115931806
  0.4000774893653736  0.0021344587962676  0.1996696721015168
  0.3995482945452481  0.0006342897751039  0.3997906375029891
  0.3993346796240815  0.0008323650517690  0.6009205468488309
  0.4026939200478638  0.0050832955328137  0.8000827802559740
  0.3990240582731033  0.1999219750874723  0.9996169047678959
  0.3994239260760112  0.2008931853078566  0.1994968265041270
  0.3996722355319095  0.1998745470036483  0.4004528453337913
  0.3986189288507285  0.2015683373520225  0.6002536510521124
  0.4014611560729774  0.2014919674625790  0.8001273742616356
  0.3998822230956618  0.3984315410281669  0.9999886149245647
  0.4001698296215222  0.4004560856310288  0.2004881332481941
  0.3998903782128933  0.3996287744376862  0.4001987625994667
  0.3985968465385510  0.3996324744629333  0.6016474867926944
  0.4068985095736520  0.4001890895308541  0.8008307867776570
  0.4016290898873804  0.6000079330795084  0.0004826737631145
  0.4019750291877671  0.5984010498697424  0.2002684587390551
  0.4020432633872820  0.6005223936173828  0.4016223359252506
  0.4039246394624356  0.6026988478936544  0.6023875892226150
  0.4020775313667254  0.5995266474082503  0.8018840835479795
  0.3971394473106248  0.8002667963910023  0.0031260981629975
  0.3999502390230377  0.8019287229634391  0.4012467585973878
  0.3961067280341122  0.8010984697053175  0.5983116156996523
  0.5958512951201588  0.0016540522623719  0.9980419120199607
  0.5997118372409052  0.0005197636934460  0.1975975934589599
  0.5978414724727958  0.0001221939174765  0.4004028884210276
  0.5989720137409117  0.0009972435418137  0.5989977959049538
  0.5996054029101741  0.0020575309384133  0.7980979951120094
  0.5999115654971291  0.2007617707973579  0.9986453051905720
  0.5998024769888139  0.2012768995460038  0.1990150990572602
  0.5992616136093813  0.2001426181539116  0.3995704376139428
  0.6000099711764304  0.2021627320191255  0.5999466773826697
  0.6009198351763553  0.2014508701276092  0.7990026681011002
  0.6008439878570743  0.4012819152511731  0.9990241131062759
  0.6002079355023806  0.4009028448961746  0.1995621795318267
  0.5992446165681099  0.3997552237692526  0.3995749488142741
  0.6001561336816310  0.4028375355490768  0.5999058735524476
  0.6046855806128769  0.4012623156576420  0.7995510335216379
  0.6004213399170766  0.5983597923889644  0.9963472383130226
  0.6012939421125563  0.6008655496529599  0.1998936039096978
  0.5972527965863194  0.6005391607834321  0.4046469774391277
  0.5996950044490827  0.6012296108464226  0.7952260115224921
  0.6001619286139960  0.8003248725936721  0.3967228037778157
  0.5985407800847896  0.8005668345712267  0.7959017963689304
  0.7983826591742338  0.0017690352801880  0.2000296081261789
  0.7975762232621282  0.9975895875727326  0.3982364751573977
  0.7987068969002720  0.0000012368584943  0.5976703753204595
  0.7985799690419387  0.0020262712383698  0.7959168426838229
  0.8002166147254053  0.2012363364251559  0.9995358648115655
  0.7999429977493866  0.2008550524757944  0.1997504421093096
  0.7988609420588790  0.1996568106380805  0.3997052068502840
  0.8005767604867225  0.2007454293428177  0.5985722792119889
  0.7995007668754466  0.1992409189443810  0.7988798722167453
  0.8011565919826559  0.4008827129029897  0.9985741322411150
  0.8007424921489381  0.4017294857943605  0.2002915021996295
  0.7981929028477127  0.4001590809293196  0.3995368185103246
  0.8027602001813017  0.4017756221740816  0.5982665915969030
  0.8029084768849434  0.3972193953910238  0.7993378353377918
  0.8004343182433207  0.6008523882463391  0.0039761153409276
  0.7997154133216333  0.5999353040664018  0.1999295664745232
  0.7956457360126488  0.6021259025040833  0.3962002537653757
  0.7910592468423694  0.6004433354132732  0.5901224914475859
  0.8024313789404012  0.7967654266956177  0.9889455125860130
  0.9973263300071985  0.8017205748377543  0.3973101562049885
  0.7987423052257269  0.8004911677988170  0.3990758436100921
  0.8034511412844109  0.7997572057926770  0.5957649070736540
  0.7890104961140175  0.8108442549074451  0.7942721940273184
  0.1990532880577489  0.8013512117599143  0.5993291822847391
  0.5995321530763220  0.5951723872070463  0.6011300502944056
