Zr Ti V  Cr W 
 1.0000000000000000
    15.4863295998759050    0.0024137293282322    0.0105674120120943
     0.0024156779473548   15.5040449564505511   -0.0174543962439357
     0.0105707746262879   -0.0174578174046017   15.4782021514271442
 Zr  Ti  V   Cr  W  
   9   1 107   6   1
Direct
  0.9982891312680516  0.9722558953611581  0.7685298002074802
  0.9999671949031471  0.1980796456095099  0.6051874227649708
  0.0006408956972308  0.4337683633748876  0.0362139444361539
  0.0022841135129197  0.5781225384589220  0.2172867230163683
  0.9612054071277505  0.7926669655952209  0.1947447329726746
  0.2004665585062781  0.6601744235706433  0.5923466191044342
  0.3586533619384863  0.8012789097606062  0.1938176570294440
  0.8344362761294198  0.4299360307653531  0.3975025406280814
  0.7506088391308547  0.7903319683884261  0.1972674390772375
  0.2045115574714156  0.4233228233196460  0.6019707730777908
  0.0010713735987205  0.0063314534451408  0.0024618322993092
  0.0039495151185784  0.9983040524318078  0.3957651407298723
  0.0015925477510591  0.9917944789378331  0.5803502398912619
  0.0008149402748612  0.1992964758780571  0.2030491489428373
  0.0016910977441568  0.1995491162674184  0.3999731074377501
  0.0004700094916228  0.2058428148353928  0.8098050555273872
  0.9994673293400251  0.3859320471745039  0.2266847735221092
  0.0230087156379356  0.3961235607460976  0.4134427045673972
  0.9974180793488112  0.4052576500617979  0.6024308481582717
  0.0005718287290972  0.3972058266935211  0.8028629175291288
  0.0002834311529747  0.6250967685084798  0.0104180837209880
  0.0051629759402481  0.6017000010617055  0.4141833582501655
  0.9997420980729175  0.5995198630125398  0.6069113371729441
  0.9985062293323625  0.5924590818667831  0.8072893735691621
  0.0002113357488978  0.8117910737987065  0.9906757090126895
  0.0011917362348295  0.7999449724923333  0.3995453414498367
  0.9989588028359417  0.7829963410905261  0.7967633576003486
  0.1997221159131444  0.0022729113430080  0.9982453665706689
  0.2008201074718090  0.0016781341339609  0.1991084663905737
  0.2023563573231676  0.9978277134839556  0.3988440222804753
  0.1993344101636746  0.0002216332140423  0.5985608291978206
  0.2020202723798119  0.9977986929428880  0.7979519030760742
  0.2014037757074216  0.2001534284892062  0.0008083170265297
  0.2013945625125426  0.2002466572093130  0.2000139983769324
  0.2033136122528016  0.1987803291772182  0.3998659029190426
  0.2010293025390592  0.2000052606785840  0.8011515683793062
  0.2034948881975027  0.3995536448130226  0.0012811018916503
  0.1981346914555693  0.3986142458552375  0.1988196296034205
  0.2073918693171414  0.4017394868882654  0.3985898585395930
  0.2008169167960349  0.3993198631509136  0.8040688945991763
  0.2002026594528120  0.6006978843585556  0.0011130733315315
  0.2060832269216601  0.5995837484070384  0.1985879048508397
  0.2015185525026512  0.5975683663420405  0.3939921489936025
  0.2005594917295720  0.5948246261790867  0.8034936792325421
  0.1978490274980135  0.8015843159356213  0.9973716909259959
  0.1713164832280319  0.7961855472466911  0.1951330649255019
  0.1990924394850779  0.8001408101404981  0.3899079625023414
  0.9959786160300244  0.7955205807364896  0.5972354913171045
  0.1970592096919644  0.7980067105974560  0.7988443020897324
  0.4011817242236738  0.9992681533349366  0.9988956841924594
  0.4023794963570976  0.0027364611446685  0.1987358978763572
  0.4007973711402784  0.9989011203850402  0.3994907360841781
  0.3996136882745321  0.9975401370289235  0.5991931240437013
  0.3997969882567666  0.9990273021144140  0.7978490090582426
  0.4012274351655721  0.1989888124417075  0.9993235293987515
  0.4010265864770667  0.1997357006930123  0.2001647976044395
  0.4013704976323970  0.1977992440194039  0.4002630793754861
  0.4024409189873310  0.1999887980787809  0.5997218589868092
  0.4002981900749014  0.3991594329459249  0.0002437892607522
  0.3997318651674291  0.3970001402677360  0.1995283092506853
  0.4021463157266673  0.3959869742993034  0.4003497983784619
  0.4050294629817466  0.3997747394909508  0.6013009842115263
  0.4016928491697326  0.3970296881202399  0.8002698690007808
  0.4019432124404839  0.6000975027743921  0.9995941547698836
  0.4036952473138238  0.5932286866096661  0.2003363595583675
  0.4013676710181781  0.5988653340035346  0.4000343267036220
  0.4049187118249929  0.5963604719745608  0.5990540275927299
  0.4010540166328538  0.5974963545195831  0.8005900021023976
  0.3994007162627561  0.7996283437921698  0.9926612014467969
  0.3995446567886581  0.7998763527725425  0.4021578482080125
  0.4010650874606584  0.7989025063899217  0.5997040654580034
  0.3982084232659931  0.7986392030426116  0.7974943525112193
  0.6007718607641899  0.9984829179939395  0.9995051493168214
  0.6010531675259005  0.9956222671557798  0.1995773884111400
  0.6003770862291654  0.9975523884163026  0.3989134827086346
  0.6010181627592428  0.9987758269022771  0.5980409414768655
  0.5993747545446214  0.9974074985159581  0.7986579722150833
  0.5993614051188551  0.1980094143511849  0.0004338946653002
  0.6015506185268419  0.1996789595128708  0.1993207830788918
  0.6007666200853801  0.1981791350181429  0.5996346512351425
  0.6006108160702279  0.1988723275005075  0.8003472614373974
  0.6003543965065209  0.3982530470434933  0.9992997510849754
  0.6017938692540579  0.3996941487833828  0.2000137323686352
  0.6014469445036520  0.3981472423092829  0.3984424132953172
  0.6036285468912437  0.3988166576552728  0.5980918321622839
  0.6002016230061988  0.3993114379618618  0.7997676662993815
  0.6020011133578363  0.5991316825648281  0.0039910312065352
  0.6032814665182842  0.5986021947782036  0.3956461323692962
  0.6029737879766857  0.5990673546565723  0.5968711504370960
  0.6013561673008041  0.5990161205764626  0.8015396424613215
  0.6004270674233525  0.7997568176511867  0.9980484802916276
  0.5646781631196335  0.7900817134922429  0.1994921481048915
  0.5999535158014309  0.7990723881809045  0.3984338851201676
  0.6010800667431596  0.7984293920337195  0.5988311106878202
  0.5997993875372419  0.7973819112725047  0.7987579665084581
  0.8012848663603033  0.0010587007927878  0.9983818525445382
  0.8020410581610303  0.9970921737771539  0.1991664336037906
  0.7997658196030492  0.0006777671366434  0.3990278898341075
  0.8019467423663339  0.9987991917575227  0.6009292459254195
  0.7968113051512492  0.9996322996893267  0.7999194957491292
  0.7996479105977009  0.1996064658878131  0.0000125918713680
  0.7991568299401234  0.1991093656982658  0.1995110226926589
  0.8006233912849186  0.1968173864930191  0.3994115459948482
  0.7960696690592941  0.2003565519878902  0.6002780096653039
  0.8004289266330569  0.1987897139653828  0.8016772385791965
  0.8032161595610464  0.3971507866408844  0.1948794221910773
  0.7996986859771565  0.3997419849354782  0.6008787842811374
  0.7995276059654065  0.3996942575335340  0.8007031766979864
  0.8028486736837475  0.6002325982754176  0.0005849612206843
  0.7933193432659806  0.5931026162953011  0.2065044659882807
  0.8018325875519503  0.6169940658965616  0.4028483126340889
  0.7997724383227202  0.5989220129998346  0.5999790422046198
  0.8000755993971703  0.5984296867846609  0.8024114753188958
  0.8024777236577151  0.8018894455029314  0.9967047845965917
  0.8043990399615200  0.8057208280160223  0.3998583665315312
  0.7982770742117472  0.7984180288684429  0.6000602710178171
  0.7994576630714607  0.7980690460211415  0.7989443511277969
  0.0006458953865730  0.0031387076023539  0.1996306664750865
  0.0006638842789248  0.2012097265086669  0.0049999069364646
  0.2062555255281919  0.2000319176546310  0.6002192906063868
  0.4012936199016064  0.1984833297232267  0.7997281053777984
  0.6007494267639379  0.1980456095747379  0.3989772119828769
  0.7977111072983385  0.3989784437861226  0.9984586651100638
  0.6009112818326107  0.5970649400145485  0.1989248947134370
