Zr Ti V  Cr W 
 1.0000000000000000
    15.4771126092992706   -0.0171409429028663   -0.0108832458615090
    -0.0171377985850307   15.4835452709138899    0.0089453070842751
    -0.0108770206815257    0.0089383803551370   15.5150560916889226
 Zr  Ti  V   Cr  W  
   9   1 107   6   1
Direct
  0.9981882677652244  0.0009181954003178  0.9962171833434804
  0.9923891586690529  0.3968667019425436  0.5902975819208262
  0.9979375765760685  0.8005817837722593  0.5980047777773558
  0.1711698677449265  0.0019833698784424  0.3788083116538671
  0.3962385264065523  0.9965432721893885  0.4014041565277883
  0.4022539675808667  0.2028675103536308  0.9988142377035150
  0.8088560083792524  0.3966738950199329  0.4093263601038368
  0.7729654567926966  0.4053652554633022  0.6287873220966597
  0.7999303106636561  0.6215959703258083  0.4068268251422566
  0.5978643401324362  0.8001772922099197  0.5985342996547689
  0.9843125254104796  0.9990259717616818  0.4030899964906659
  0.9990802254306671  0.0018088243527948  0.5992320236120654
  0.0009769576461425  0.9981957844754561  0.7951600610625329
  0.0009798231553351  0.2033569260632244  0.0009120226083082
  0.0007532446489673  0.2041242588979748  0.2014076047857573
  0.0020810049961917  0.1966982434366656  0.3995369793905826
  0.9998848881774365  0.1942000406837832  0.5976137359025562
  0.0019790640071873  0.4009779112928425  0.0036253485843842
  0.0121924820769461  0.3977680193437458  0.3867126863872559
  0.0011942902985189  0.4003920333697749  0.8027080865900360
  0.0006131838425499  0.5995108838014950  0.9997508135680044
  0.0009815978854940  0.5946659567162409  0.2011016367362465
  0.0044150209642386  0.5976332913197770  0.4006847538264421
  0.9991692308818098  0.6004092288683134  0.5991979088939797
  0.0017143031969951  0.5973706052288675  0.7981125861991559
  0.0009879115807592  0.7952134303069653  0.0030221867724975
  0.0002774747035154  0.7976389878153083  0.2003358415690883
  0.9984372660278017  0.7994607706297637  0.3954760955464456
  0.9991036135399177  0.7984751008335790  0.8026937702840159
  0.2042410844842543  0.9994049699604423  0.9935990071799028
  0.2043887701374892  0.9993107119507232  0.1850158488949863
  0.2012328006948347  0.0008901679155293  0.6010806874411218
  0.2006361632396137  0.9990681123852931  0.7973650406188076
  0.1976761706893564  0.1998915301283932  0.9970570242345757
  0.2017138158184712  0.1972637918398554  0.1989098209231015
  0.2022950589642817  0.2026863847580263  0.3995719817656441
  0.1994126712554681  0.1990083267460592  0.5976973539682714
  0.2012453341722952  0.4001846878614218  0.9974554920121040
  0.1987337053643797  0.3995950041008202  0.1967963981992055
  0.2043666732416244  0.4006879719684694  0.3981110689974162
  0.2014447499863488  0.3986464190124264  0.5985817927850622
  0.1984945515837441  0.3992064824336803  0.7980372420970863
  0.2016815655025678  0.6000462274993736  0.9976729204983817
  0.2014682897789538  0.6003079208105164  0.1986506289144805
  0.2010574910832334  0.6001392123922742  0.4000071315664663
  0.2005276536606118  0.5997003373473967  0.7983387371027308
  0.2008571673719068  0.7983633047511663  0.9985688345363163
  0.2005793030518497  0.8002490025971538  0.1986175187466332
  0.1987633523756498  0.7970754060300433  0.3988343089767691
  0.2031030815358158  0.8003828906078633  0.5984239017534019
  0.2001163477837233  0.7981660119862658  0.7993626956758031
  0.4028508902685288  0.9963382433211966  0.9976580630418926
  0.4000023951726023  0.9997773176163036  0.6045662503065090
  0.4012154812298859  0.9995813718079933  0.7998508912185118
  0.4013156314180030  0.2000504075185029  0.2033219441997341
  0.4006860005131445  0.2033405769542576  0.4011285168470513
  0.4001806778687070  0.2003598933574055  0.7953154140351850
  0.4006187481165644  0.4055118332893523  0.0000596151893513
  0.3995971344551875  0.4005874002071814  0.1999727254752514
  0.3997054720744183  0.4006759427927055  0.3985640408934585
  0.3959374225066277  0.4006413761589440  0.6006097077242153
  0.3993389640806650  0.3998789729304075  0.7997902881689052
  0.4013756178547710  0.6009964394715512  0.9995837490813460
  0.4002689385642986  0.5994517312906004  0.2003350196260704
  0.4002870531484704  0.5998533030823502  0.6004180112928060
  0.4007178711854243  0.5995884271036382  0.7983295138277112
  0.4011744888334355  0.7983533949921578  0.9999090938027366
  0.4006569936113187  0.7987249434301035  0.2000678752014004
  0.4001736821817956  0.7929853410883840  0.3996701066018392
  0.3990350341843824  0.7979223978368668  0.5999478549528110
  0.4002584226354711  0.7990894294635547  0.7996714151944315
  0.6015403214114704  0.9991116896752700  0.0003540202739551
  0.6002914818036380  0.0001003893764637  0.2008660412785029
  0.6007740371086405  0.0004045177951022  0.4012819229642057
  0.5988729544489564  0.0028169894035370  0.6019588706371679
  0.6000875288541516  0.0010051249461083  0.8004638298700197
  0.6061338994407742  0.2003018459194270  0.0012565716220194
  0.6020377388482663  0.1997172030937663  0.2021093723145810
  0.6004464717181066  0.2012353214416985  0.4022418233703902
  0.6005224039743641  0.2016131703669456  0.6002506055900352
  0.6019061814558754  0.2001770274406799  0.7998790694339305
  0.6018004987478124  0.4009041290717976  0.0024475708826230
  0.6024215637693243  0.3997184625171090  0.2019168068061224
  0.5983524593654429  0.3990457312172435  0.3993223512710188
  0.5847248706691961  0.3989717447123833  0.5983227816730488
  0.5985288527803845  0.3996489904531658  0.8031389933496991
  0.6008758801595953  0.5994991828308089  0.0008274689434104
  0.6005131288693447  0.5985879625967033  0.2014630974131242
  0.5965434259882061  0.5983217031939239  0.4013913935012048
  0.5999497797935539  0.5964614954914572  0.6004415000742623
  0.5997501647635479  0.5986565447801394  0.8009924465857495
  0.6006815236380688  0.7992373761878571  0.0019719620992827
  0.6005367285404999  0.7994701592624162  0.2006626263709262
  0.5996588705277889  0.7980063258408788  0.3981464605305113
  0.6017324467296213  0.7996474079803693  0.8032068415154451
  0.7974485337517644  0.9990661582708128  0.0067718682846745
  0.8009494455499346  0.0001072143828811  0.2027229562492160
  0.7954100899557850  0.0009816383579593  0.4027658051652779
  0.7978066726735857  0.9996288198406790  0.6030682684001366
  0.9330684011926601  0.1341460782917359  0.7988412772023264
  0.8018250252989632  0.1981162278518261  0.9993574366351756
  0.8015386464508356  0.1992476074712951  0.2030978463019252
  0.7999715329380443  0.1938011534124219  0.4021790934190741
  0.7997709267729330  0.1965939758152578  0.6037465333620775
  0.8008080257095880  0.2036002539885608  0.8008114344980465
  0.7999989837107991  0.4009258219955953  0.0042928877346609
  0.8053436311763109  0.3989576500571236  0.1982141061153622
  0.8037524086103199  0.3998401805239508  0.8169088807877082
  0.8000837651200446  0.6017730685965502  0.0001083151344461
  0.8009212496464336  0.6002149908697541  0.1999603545543378
  0.7985382448326788  0.6085222619650817  0.6086321582129356
  0.8013045235597590  0.6005443781087818  0.8019842590514145
  0.8001714550551831  0.8002119799245309  0.0012566638440528
  0.8010042225855033  0.7998895156816365  0.2014024864190354
  0.7975770035714814  0.8117440300721739  0.3995181953618201
  0.7938663904735688  0.8040458549001055  0.6041714083784610
  0.8001144885281356  0.7993859707751779  0.8034797257307416
  0.0010043564121867  0.0004804538685188  0.2041233258944911
  0.1990011827853809  0.1994978227960906  0.7971006663064104
  0.2001166678652554  0.5987774724038464  0.5991201344213661
  0.4015757539322936  0.9991883511089672  0.1956976153569499
  0.3995652196129377  0.1999989531999490  0.6000771812720400
  0.3989756640695227  0.5982215156082913  0.4007452620847861
  0.0020660161507957  0.3991037385226652  0.1967640725965887
