Zr Ti V  Cr W 
 1.0000000000000000
    15.3161674756862691   -0.0038639056753981   -0.0081742366427040
    -0.0038625530149281   15.3180417040563182   -0.0084288121243241
    -0.0081714294601317   -0.0084252347079361   15.3251398317997438
 Zr  Ti  V   Cr  W  
   1   2 101   1  19
Direct
  0.0004358644085540  0.4054794545014618  0.6048238164916556
  0.4072058381997174  0.9897952150295856  0.3984755800317853
  0.3972116173769106  0.7981304001849813  0.6167620829259618
  0.0001209150661423  0.0017185388671647  0.9987104735868205
  0.9998837840355268  0.0008769649576763  0.2008799174408807
  0.9971261753743366  0.0068492291125647  0.3997889959893916
  0.0021738835178299  0.9981348973717400  0.5990698525855432
  0.9996742762913970  0.0019396907738141  0.7996419670691893
  0.9986848738151888  0.2048222779887904  0.9990278778955823
  0.0033775508075049  0.2024623702783881  0.2036359467793944
  0.9979357669260717  0.1980968668364716  0.5950968113799076
  0.9977098125496610  0.2021843864283054  0.7978160969952023
  0.9976734817039006  0.4001530107441008  0.1958976216087878
  0.9986044729791128  0.3992600120654983  0.3943159355533226
  0.9990193390121975  0.4043086039943008  0.8085746471533726
  0.0008864966315059  0.5993816824440624  0.9918487487078206
  0.0016797193108771  0.5990032955516958  0.4062621647991805
  0.0056105830345117  0.6099155947768091  0.6016854872845381
  0.9971262559207428  0.7991705077077249  0.0002590006543279
  0.0001662962274511  0.8026845013010719  0.2006910334325617
  0.9978069458223593  0.7989769360603417  0.4025005738902784
  0.9950145426135215  0.7961574754827100  0.7972422959784331
  0.1983163810971326  0.0006394996429827  0.9995943911327825
  0.2014182368453261  0.0053663635791450  0.2026464680503541
  0.2003663527642190  0.9995668206061957  0.4032080936425127
  0.1990541210527768  0.0022845135670055  0.7967688526089861
  0.2001279559401186  0.1992587058528570  0.0032595591686602
  0.1979808124164951  0.2001912633325519  0.3965173480961324
  0.2022294994259205  0.1963558091957372  0.5995759593014351
  0.2013001387920491  0.2005120353020519  0.7995303212372514
  0.1970816150166068  0.3996660299777398  0.0008533882713674
  0.2008464960556243  0.3996427193415039  0.1993125453402859
  0.1989909900492129  0.3997240332116551  0.3997352032999563
  0.2059803593835705  0.3972654179713297  0.5994262956221016
  0.2011573934290332  0.3991944929385569  0.8011645106011336
  0.2002591120902303  0.6015197730679269  0.0050009079659199
  0.2032327571978082  0.6002183907413104  0.3982556747400917
  0.2077518297418568  0.6040299674247419  0.5981729936817471
  0.1973736958330812  0.6002195405855515  0.7980609404535521
  0.2005595143714045  0.8028139338078940  0.0006412695807566
  0.1986109725567765  0.7981141454798295  0.1991080566311365
  0.1986402438664433  0.8023835922310841  0.3989635061106064
  0.1939722992863883  0.8063095050758474  0.6007239832127299
  0.2025657219128467  0.8013699009365063  0.8019621315645330
  0.3994363352629938  0.9962700825850073  0.9995592522312944
  0.3999586123148758  0.9989489353470051  0.1971036420447534
  0.3944675852532490  0.0000290376227696  0.6025523785273768
  0.4000898163421311  0.9952310293659600  0.7997200883996225
  0.3994548488587864  0.1981281771225026  0.9985903398873349
  0.3971323358916731  0.2012829546303578  0.1997141784574364
  0.3985039266261663  0.2036178981561428  0.4011231583027081
  0.4018558282389914  0.2008038365237168  0.5998624565817167
  0.4033112341351962  0.1999776155904530  0.8012492334660992
  0.3985507135058929  0.4029600181416296  0.9985134431338576
  0.4044259614931531  0.4013298728532680  0.1984083195743929
  0.3996361487768424  0.4035678266597276  0.4007981374826988
  0.4007667602966838  0.4020297319469273  0.6021500393580042
  0.3997039382148924  0.4019202891007889  0.8027932474775646
  0.3998394489685129  0.6039736853420402  0.9980152826318450
  0.4000704732390090  0.6008017264894502  0.2058854071718191
  0.3999041976855881  0.6026710913023061  0.7977625959648359
  0.4001256995971713  0.8002880149398042  0.1934403295379563
  0.3991566486233684  0.7948639862701611  0.3987073050969718
  0.5987027041530130  0.0016518539575494  0.0021781622290412
  0.5975865516317683  0.0032246832386047  0.2059226398713531
  0.5956974053391872  0.0051267960558306  0.5937260732916444
  0.5985464506255762  0.0037839965122356  0.7972268000594041
  0.5990962162237236  0.1992939967146089  0.9970758075511917
  0.5982901701524153  0.2038517408828134  0.2015813458197192
  0.5982738544341604  0.1972086705516610  0.4039996945671925
  0.6011422228128930  0.3993233234594677  0.0031619459417807
  0.6027177100019521  0.3958951935565980  0.3963802112816956
  0.5990128523439370  0.3978620249141712  0.5985675146439428
  0.6008657236993897  0.3964191296922268  0.8031949060100135
  0.5981932142601183  0.5986503938467947  0.0043201378096756
  0.5945647191275979  0.5987839610596420  0.4009825396358987
  0.6011656067485742  0.5954040946886241  0.7944899060616349
  0.6004591710793086  0.8006720589219958  0.0002186086181981
  0.5993068927489636  0.7952645353462432  0.1987387976627089
  0.6005553649133195  0.8027540540311726  0.4008853692252190
  0.6027607774819740  0.7952954018358275  0.6013716391677899
  0.6007178072159089  0.8015626510780934  0.7991398460079339
  0.7992224449975004  0.9964303113900267  0.0009202931037615
  0.7984975594665984  0.0000460397811928  0.1987614215589164
  0.7976948411385950  0.9979217167795773  0.3986629771819092
  0.7990878960668408  0.9993872817507862  0.5994074006659793
  0.7982271851565305  0.9964796878701125  0.7990190482110489
  0.7997803163068615  0.1975351250659093  0.9988485494833476
  0.7980930481049893  0.1990165940221290  0.1975297898282226
  0.7959862402028689  0.1992893263725771  0.6003662302508466
  0.7961811600986656  0.1986035717253780  0.7995555637021577
  0.8030708628951596  0.4010012990119708  0.0002215331711953
  0.7974064336061406  0.4020019051779658  0.1982365937523454
  0.8018719535588378  0.4018067510395134  0.3981336632316603
  0.7950673607688568  0.4019083039288309  0.5991296512195333
  0.7994503001448336  0.4012421394943110  0.8018473805753447
  0.7991308665856008  0.6051586169489898  0.0010663151755549
  0.7913484358283998  0.6013753910602252  0.2014657288409392
  0.8010168501407804  0.6022403385585279  0.3992992701731101
  0.7913103073086244  0.6018190143356669  0.5982949411432146
  0.8012318673480189  0.6040071489576431  0.7980140566647109
  0.7998017553406925  0.7990618502540606  0.1955792989888774
  0.8013029987737433  0.8005067245350803  0.3987759086052935
  0.8015081903853297  0.8020492456408123  0.6046715059745269
  0.8004921598512345  0.2002826663804836  0.3991887504262406
  0.0017387759198171  0.2030358222445086  0.4001958208933101
  0.9989344791791327  0.4036201536295723  0.0018508710010520
  0.0003426005272320  0.5994254777990684  0.7962063174396594
  0.9981281892212386  0.8034874535817182  0.6016090154382511
  0.1990003574696443  0.0017241884236056  0.5989999557762173
  0.2014194081615352  0.2013316447726271  0.2001436286074164
  0.2077414359791940  0.5987326479432316  0.2035048856182293
  0.3990249342068009  0.6008555425435761  0.4049353686633921
  0.4049566319908969  0.5973953234192544  0.5993310123069395
  0.4007005527262361  0.8003898480996564  0.9955725200538409
  0.4015390548370877  0.7983671330719228  0.8088686286222386
  0.6031600578277463  0.9999493981729454  0.4005459560290177
  0.5981852937650353  0.2020733257979142  0.6027283760440206
  0.5995601818556818  0.1999011658098069  0.7969176032580088
  0.6005163070479960  0.4002286704936396  0.2003760049372481
  0.5967724958657173  0.5956398252051601  0.2045670714041807
  0.5949623892025546  0.5968533961986350  0.5968394237552340
  0.7989115047110792  0.8009939212417369  0.9972958853413977
  0.7987073032642371  0.8007459441843267  0.8042633322091802
