Zr Ti V  Cr W 
 1.0000000000000000
    15.4411249493602298   -0.0057725826640909    0.0015034816595225
    -0.0057736157285930   15.4404920489432147    0.0129561230258158
     0.0015050534304008    0.0129519398306557   15.4493068869615229
 Zr  Ti  V   Cr  W  
   2   1 100  10  11
Direct
  0.4024266533489221  0.1952792885520812  0.9992541688694426
  0.7964876799834938  0.3982014181934407  0.2004554232855622
  0.7923044989362754  0.3956324049373075  0.6042015926657989
  0.9958111208567511  0.0002189827523624  0.9995289299838854
  0.9973606141019967  0.9991969511724709  0.2000548924950893
  0.0007413519430022  0.9989182127759051  0.4005443626343387
  0.9987203715957000  0.9979894265525169  0.6003464359333062
  0.9999907280038649  0.0003762578353130  0.8009132565716632
  0.0005145970538885  0.2002335933380021  0.9994526634198621
  0.0012263490551430  0.2017156416841012  0.2007085258799156
  0.9944738176468265  0.2010140739609788  0.4017133048469616
  0.9998711269015552  0.2011250212390663  0.6010194162688918
  0.0000145551957151  0.2016793773094684  0.7985103696261987
  0.0033233500794547  0.4015866769468601  0.2003853726430790
  0.0011531436163028  0.4015180840874930  0.4011354144527753
  0.0033371327232402  0.4041837819662725  0.6001698346277561
  0.0012091454386298  0.3992335430330659  0.8001502688818324
  0.0003578386791134  0.6012990443753350  0.2004472826604472
  0.9992464362111260  0.5993969479014143  0.4040319163017450
  0.9964270043303907  0.5992809265648441  0.7961289283154851
  0.0025788419853650  0.8009968969898946  0.0015864192572836
  0.9991682962869850  0.7991442179047515  0.2008244285509487
  0.0009742791730458  0.8000649440393166  0.3986669618786766
  0.9999553380704364  0.7961794334711487  0.5986844843847112
  0.0001360399984380  0.7999481784766287  0.8006694292037484
  0.1991845966513768  0.0018297105574439  0.3995100753302357
  0.1987616059711577  0.0000403994068434  0.6008179906458896
  0.1984023797398510  0.9983338501676331  0.7975248789529776
  0.1957045931646532  0.2009594491246357  0.0023152462517909
  0.1987155359000946  0.1981824506671112  0.2011650101638129
  0.1978475957725741  0.1986773998116126  0.4013056823276216
  0.1988465924258595  0.1992179516572355  0.5996771932643348
  0.2008873943593791  0.4003088619592723  0.9995903466579850
  0.2001715358980075  0.3999666835481001  0.1988450535410069
  0.2040876234709719  0.3974708940473420  0.3989832562095537
  0.2004421896795341  0.3981674166516298  0.6011471311908612
  0.1998262347429648  0.3995846722635179  0.8016509049573708
  0.2007692948854967  0.6012115266413806  0.9994074847849329
  0.1987508083745443  0.5986944848462669  0.1979836948996810
  0.1987564885280655  0.6007397506363594  0.3970208051825269
  0.1980655526773230  0.5998028113987189  0.6015013427245579
  0.1993334171932597  0.5987762025177936  0.8015425448030324
  0.2018610367027221  0.7989914170808747  0.9994488362699563
  0.2009508883995929  0.8995067594705951  0.0992261882586172
  0.2038548174777002  0.8013579717623891  0.3993596479341888
  0.1993910397001470  0.8004397920992717  0.5997747935776667
  0.2001300796340914  0.8004852593264575  0.8014849016287818
  0.4000036233441849  0.9995884003529262  0.2001082407150438
  0.4000500220819724  0.9986660899655612  0.4000683599749644
  0.3997478852545987  0.9979804116762139  0.5984253320365061
  0.3996859686129991  0.1989997007125190  0.2064216788695858
  0.4007491511807794  0.2021919061974020  0.4041671797969545
  0.3980601160027948  0.4004876131767621  0.2042755471246362
  0.3984666553186585  0.4042832813746402  0.5966338573275929
  0.4007615454046997  0.6005244737049448  0.9979911003203467
  0.3999431889046821  0.5997008911211015  0.4028626136944531
  0.3998221643771296  0.5984289277369672  0.7948483542529587
  0.4024284902266824  0.8007059787457308  0.0005947833519533
  0.4013124660764156  0.7995628206582838  0.2037195769627813
  0.3992925490807173  0.7959020944440957  0.5962178314400733
  0.3999228227214498  0.7981942461754850  0.7974303685573612
  0.6013967378436701  0.9944229916312564  0.9988769324105157
  0.6052541645969834  0.0005765068861967  0.2013072718719844
  0.5984730336652880  0.0009022802790899  0.4002170658559461
  0.6005533762751188  0.9988685061682129  0.6007572042600900
  0.6028064822938608  0.9989483404337162  0.7986727642060399
  0.6071630531406822  0.2018669615699689  0.0010914310303876
  0.5992026787895411  0.2001302176407143  0.2007825460091051
  0.6044860237609099  0.2000092552710799  0.4025278085986177
  0.6001790741720731  0.1987581225169107  0.6013355496671031
  0.5973669465160315  0.2007345247121434  0.7994631735270824
  0.5991493831157063  0.4022654416735502  0.0008739795931518
  0.5935862167788383  0.4010231889663827  0.1990759406224235
  0.5940824394517616  0.4009361561941688  0.3995878044275075
  0.5969394127051082  0.3996421841996937  0.6015849943418926
  0.5999693914655025  0.3999330583982399  0.8014040207199901
  0.6000001986961293  0.6035368249200095  0.9996417429266758
  0.6020583565964295  0.6005734491243625  0.1986982949475546
  0.6018754053955050  0.5998846142434022  0.3992505329280970
  0.5966831665716709  0.6005569424336207  0.6005096013377369
  0.6038582533943743  0.5977380615148337  0.8000579451448313
  0.5993234010426263  0.7988890069637563  0.1968208804032432
  0.5958908583945053  0.7995658739380607  0.3982600204947547
  0.5996206063589598  0.8009087477592519  0.6002075105032755
  0.5988878818987327  0.7989312947994693  0.8024461247943458
  0.8005264277992284  0.9980269832938031  0.6027423558993723
  0.8003744580842840  0.0012116280229497  0.8040560704783000
  0.8017057424326656  0.1972546677231880  0.9980174762130670
  0.8012562864090315  0.1920344952158070  0.2063802275746786
  0.7999964049037441  0.1957001610781247  0.5965683124672853
  0.7996585307483771  0.2009534025580643  0.7974140777479298
  0.8000239094731033  0.3994852065433552  0.9978478254158015
  0.7974644065208015  0.3962255454736540  0.4053604099720417
  0.7995375217530870  0.4020380790326825  0.8031586027069832
  0.8014641680926607  0.6021666547791309  0.9956930892358667
  0.8025164667855437  0.6042013887395048  0.1996655207061092
  0.7992919867422283  0.5994802168269063  0.4018386931695143
  0.8035716408597371  0.6024778440105341  0.6041707715556626
  0.7947441438314738  0.8033202620506467  0.9996077465068450
  0.8000882678727319  0.8039338086514421  0.2016372142011965
  0.7969141004053336  0.8000750450900781  0.4002551398666752
  0.7984535967916858  0.8019798968097148  0.5986643919497816
  0.7995580501434153  0.7966179511938534  0.8004526570751936
  0.0004638409738038  0.4014361657554965  0.9995233813977159
  0.0002110310707207  0.6007901476407542  0.9990519281939088
  0.1983427439646478  0.9984977139809215  0.2002355560643246
  0.2010392563803131  0.1990861062442953  0.7999342131779608
  0.4000402795637615  0.9978094872943021  0.7982916744549825
  0.3992575087037026  0.1995173426793054  0.6025654023805103
  0.3999253763984975  0.4038175653671394  0.0015624320407499
  0.3996371914817798  0.3991780159276008  0.7996882291031187
  0.3997353076882928  0.6005097398295055  0.1994367144980321
  0.7997114254226876  0.9998419098837689  0.3995684682742913
  0.0005042121488502  0.5999090726348417  0.5994331042352906
  0.4045329269068907  0.9963967856829858  0.0029785517729126
  0.4030936538855304  0.1985548279183875  0.7995617248510879
  0.3995238835044593  0.4002252227424767  0.4006309273778640
  0.3983343993588991  0.6009146054104686  0.5988681023239696
  0.3990078943980623  0.8013728198489702  0.3983956060500243
  0.5978967920854074  0.7988428074511679  0.9999031213677168
  0.7995214534903307  0.9997948308651298  0.0022956036038739
  0.7997318388825863  0.9996762926509646  0.1933624354578163
  0.7994080241622320  0.2019600248850204  0.3999455504080956
  0.8004645100029152  0.5995997351483791  0.7990465619405210
