Zr Ti V  Cr W 
 1.0000000000000000
    15.5025012111675391   -0.0012340279220979    0.0009674179831964
    -0.0012333392680093   15.5032162688686519   -0.0125459656457846
     0.0009693510165960   -0.0125545265931211   15.4792246816365271
 Zr  Ti  V   Cr  W  
   7   3 108   1   5
Direct
  0.2004661393282892  0.9932461379293694  0.1982530989854427
  0.1988094502669046  0.4013865989997829  0.8001491557885111
  0.1833250706469725  0.8092901112673786  0.4162033110987338
  0.4223049110245359  0.4024014457864653  0.8002022686462598
  0.6029723242539884  0.1847334196647850  0.9986373028434071
  0.5851044172675359  0.8022628589639460  0.3981561317416014
  0.7962290843475556  0.2021720069518898  0.5988874152152234
  0.0108224261243430  0.8030770199893950  0.5937655424780700
  0.1932098616682109  0.9814810740032308  0.5962906588226353
  0.4138622843728600  0.7885274425147187  0.2166643780933450
  0.9955208542609466  0.0016110719984397  0.1996722068305269
  0.9976302652319224  0.0017878331135139  0.3975232927268956
  0.9971501373854011  0.0023505307581604  0.5987486718385456
  0.9999801441501655  0.0012791333444138  0.7978363396900203
  0.0008528792706134  0.0990183532364276  0.9991808663661516
  0.0001754417469848  0.2010077607996286  0.1999401368709495
  0.0002582489765387  0.2003444877126170  0.3994835728722890
  0.0020059921078832  0.1993510906915933  0.7982331755078854
  0.0002321324032690  0.4019130300107181  0.9999449115134056
  0.9995647702124046  0.4006641736673853  0.1994048428466303
  0.9985405521336603  0.4000283940780147  0.3989076022296767
  0.9992129841713915  0.4019623589431892  0.5978646261376893
  0.9959101116661582  0.3993874047431066  0.7991729143701559
  0.0014009614921179  0.6013553268854512  0.9999773904244840
  0.9995461467073392  0.5992247005392620  0.1999047719482921
  0.9982009496423990  0.6010540451643539  0.3995304453657677
  0.9996945213598091  0.5998398393368830  0.5995324817329750
  0.9997146869859993  0.6023969487955551  0.7982945970081715
  0.9997071575142813  0.8004084287622559  0.9996615984507391
  0.9992400814347385  0.7995695313578812  0.1977937730197234
  0.9857677137157230  0.8013324232889618  0.3938473695679291
  0.0013920259208546  0.8024264920680982  0.8031623854128744
  0.2043033949361484  0.9994849398570567  0.9970062785042905
  0.2077762077154867  0.0109848235162767  0.4017928993789547
  0.1997913854032563  0.9977931490218431  0.8021208864425727
  0.2004670282352126  0.1979981995100521  0.9990351383438314
  0.1973813540428889  0.2025600243855132  0.1979307921334565
  0.1979526513909847  0.2038804596479172  0.4007098825077570
  0.1997751226327537  0.2020539962735192  0.6004328146310608
  0.1995262911422033  0.1944648687392274  0.7991761375302412
  0.1996663307468455  0.4002756382811848  0.0046657329609292
  0.2036933120371877  0.4005387358007809  0.2012688128629656
  0.1984526905421685  0.4023022139524626  0.3989697423739879
  0.2000597612543503  0.4005187289968861  0.5948791499495590
  0.2010358368470008  0.6010894698815540  0.0011837974646136
  0.1992901464335929  0.5995909439372656  0.2015855653846849
  0.1983892854152679  0.6010900853495692  0.4011131706084509
  0.2009344764137342  0.5981590317356522  0.6008722793522776
  0.1987295200633537  0.6057286443500752  0.8021036865148403
  0.2044325467270077  0.7999658385685156  0.0046762917077782
  0.1983903760872247  0.7928587044596106  0.2028224606481858
  0.2109150803692639  0.7890031833728399  0.6159605943339032
  0.2016432944821343  0.8013385215766692  0.8073463285304353
  0.4035334054020012  0.9984447745513734  0.0042561859500392
  0.4050777740315714  0.0030276038362815  0.2089929040295409
  0.4026878512585893  0.0010719330219269  0.5957884971373585
  0.3997949967028301  0.0012174831735604  0.7965696447358529
  0.3973023133307971  0.1997807651024632  0.9997249192519155
  0.4003866234227732  0.2055681204556917  0.2003494450567038
  0.3986464795002246  0.1965086939734272  0.4006644990971633
  0.3972846253099728  0.2007341368325323  0.6002062872088803
  0.3990556979680514  0.1966110551077311  0.7992131084065011
  0.4017447533171112  0.3997316330766995  0.0081071735566807
  0.3998666142090391  0.3981236389114192  0.3961348428617671
  0.4003111385609877  0.4017134919288859  0.5925367341842633
  0.3988880892218297  0.6011989158157972  0.0005318578922353
  0.4000936708043893  0.5931379997794561  0.2011290131626800
  0.3966188645227853  0.6042921928457232  0.3999465255106692
  0.3991959159696259  0.5995405411844956  0.5990256457977323
  0.3985563868161016  0.6050704593073269  0.7992687023575907
  0.4044766070268290  0.7992465218285757  0.0008480192755261
  0.3906446898449838  0.8096398831173214  0.4090658842524540
  0.4069332509317444  0.7986818018892784  0.6045805029014586
  0.4010187050072728  0.8032655753137726  0.8022948452476927
  0.6015913241711988  0.0018380188346074  0.1946445503851372
  0.5966906271397571  0.0069842419990069  0.3993209033052748
  0.5997328771926574  0.9951139542798034  0.6005682617804092
  0.6010294890503044  0.0010075492527735  0.8017856351615893
  0.6016285206522300  0.2026577865270969  0.2023017614247492
  0.5993092380011087  0.2022205092029487  0.4003526448656354
  0.5951241024321675  0.1996864936424118  0.5993966706140977
  0.6004403876147717  0.2006964912437897  0.7948907649519213
  0.5997692198906212  0.4008029819767618  0.9969759084737291
  0.5969414055876990  0.4009579972379038  0.1984664231562988
  0.5986604082660587  0.4006512666459772  0.4000772300390070
  0.5971996150877253  0.4031442621360058  0.6006276872440004
  0.6132938053022385  0.4011303765962146  0.7990483420661704
  0.5998782320996108  0.6047939617215958  0.9981711777917304
  0.6002014751068234  0.5999366869328447  0.1976997586954649
  0.6000137317776212  0.5958526230521614  0.4002870843253366
  0.5981887858022564  0.6051030101865192  0.5988421572051594
  0.6000866377475168  0.5999441936647439  0.7991916856399233
  0.6064421523731007  0.7977664633553979  0.1897922394405023
  0.6012872502693044  0.8003568620668365  0.7991748126101221
  0.7967475490210820  0.9999025164141889  0.9986022934713492
  0.7996087679618403  0.0003332469694856  0.1991209773873220
  0.7963167804051087  0.0007699672624561  0.3978825768626305
  0.7992098466811920  0.9957896522954907  0.5979492288204957
  0.8025809083364521  0.0005497272602232  0.7980609492178855
  0.8060533177429602  0.2001230761852869  0.9998714016777426
  0.8013544284386903  0.2016416159397828  0.1985435217285863
  0.7997379747635711  0.2002975925447627  0.3950129354279115
  0.8030382461037339  0.1997381718457427  0.8033065811779058
  0.7997996855206672  0.4004291556686420  0.0006105372543590
  0.7976824697240742  0.4013800883987996  0.1990400151099694
  0.7983181793402699  0.4011450942548420  0.3983000364161443
  0.7978970364937408  0.4065953999228663  0.5975438485186361
  0.8026207222282378  0.4012710960623227  0.7992506839303660
  0.8000421680858134  0.6000845561925060  0.9984544637288940
  0.8000542713943508  0.5993905116614839  0.1995531608659882
  0.7986313314191384  0.6013502745194580  0.3984906324653881
  0.8001338298150528  0.6023383523106270  0.5986338302415974
  0.8021075564099986  0.6010766607040425  0.7986147113061082
  0.7990798554825548  0.7996668113135253  0.9978398147806906
  0.8008031456726661  0.7996722655296629  0.1974642287989579
  0.7945952585241925  0.8008532991470610  0.3977181949651546
  0.7941708512301210  0.7998725186543328  0.5979351509382639
  0.8028404039694752  0.8003164710978984  0.7979220234945790
  0.0026435244604649  0.2007289932721430  0.5986107805881018
  0.4018000437501310  0.0041256060615544  0.4017382563260858
  0.4007939625520540  0.4006263449813577  0.2029845885638156
  0.6001828568871169  0.9861779790046558  0.9977822513164710
  0.6008554672210119  0.8006722881445354  0.9945640651823973
  0.6007467675709868  0.7991743591966346  0.6054820939287391
