Zr Ti V  W 
 1.0000000000000000
    15.3251724423404525    0.0070128769391973   -0.0004714545103314
     0.0070165878469139   15.3328247917111025   -0.0066220456422159
    -0.0004713462084994   -0.0066216079972265   15.3468382774047818
 Zr  Ti  V   W  
   2   2 106  14
Direct
  0.2301216352574968  0.6345605397268509  0.0000410093998420
  0.4002323175221349  0.7981399740594955  0.0017843539088336
  0.9953655347159173  0.0034837235345146  0.5914033513281466
  0.7956591289289262  0.4062449045197174  0.2057553736183383
  0.9991901359041817  0.0096355282935516  0.0044707987512605
  0.9993089653802851  0.9988801361214324  0.8026583856039239
  0.9992942521585505  0.1966295730771836  0.2009114041043731
  0.0043426371444863  0.1961178984873237  0.4004732809101171
  0.9993199314021647  0.2025402014116317  0.5991431503314605
  0.0014671282010757  0.1977162941382320  0.7975198367808586
  0.9980771949457483  0.3986838169076047  0.1970852241177022
  0.9990223212608745  0.3992673453650415  0.3974376783116278
  0.9950236054978333  0.3996453861174082  0.6017703073191867
  0.9979487254633569  0.3997559891211679  0.8029505343959064
  0.0075820553820931  0.5943160892475888  0.0025289113444972
  0.0041261098626848  0.6009772248391323  0.2020423045129003
  0.0033100884441872  0.6004033630091611  0.3983327545477116
  0.0011068173237113  0.5981306113224043  0.5956820510871862
  0.0018639424068669  0.6002679828695137  0.7995056676885706
  0.9994753258907985  0.7966628073234057  0.0002874329713995
  0.9951630735444138  0.8015598556581693  0.1980135583789415
  0.0009190357474413  0.8031673101487320  0.4007063479403037
  0.9987489979318922  0.7980259893623990  0.6012700725364635
  0.9984278539360261  0.7993262020419067  0.8020344624707928
  0.1975736067752694  0.0065980535156152  0.9989915591486435
  0.1966918450665161  0.9986463642027741  0.1982353445602378
  0.1963494636114879  0.0014212095850470  0.3991540852971300
  0.2010994591237402  0.9998023559015289  0.5988720385411588
  0.1983459209410726  0.9939103374166504  0.7973350464395764
  0.1013824463768731  0.2037210453286069  0.9992732849989466
  0.2010496245979174  0.1998042985576078  0.2053911445233728
  0.2045180659834878  0.2005911471734386  0.5971626289123706
  0.1997757530142264  0.1968681729984390  0.7967370641001879
  0.1956951275705378  0.4018875762812409  0.9980717328841813
  0.1980274466812614  0.4010429079527071  0.1977147741843369
  0.1970057207936723  0.3964589103659069  0.4015597796969210
  0.1974929323952918  0.4002309970587463  0.6025420123702933
  0.1992012628235218  0.4028513677278298  0.8008059704422245
  0.2035570466147192  0.6010866929237947  0.2056106628745405
  0.2035950585247464  0.6016019666437437  0.4008538299041497
  0.2016603123024582  0.5993807052134459  0.5991322425776047
  0.2000215776599783  0.6054784631357611  0.7935589899404910
  0.1907312759973707  0.8240223740943526  0.9927916353636752
  0.1984045441529997  0.7987904536974614  0.1925036239823963
  0.1990159486453897  0.8016038234127372  0.4051719621036808
  0.1992404164360585  0.8015686670993106  0.6072947292973510
  0.3987090451801713  0.0059502833005753  0.0015810092783495
  0.3979955432795480  0.9962163350439772  0.1998972734235827
  0.3981333937338667  0.9969641162097082  0.3967404727928652
  0.4003143379868253  0.0035317093960523  0.5961795152545294
  0.3991245157577030  0.9973531857335491  0.8000175807929263
  0.4009364141313054  0.2008260687042448  0.0004882191115088
  0.3997642212062390  0.2019287031745025  0.2010841931924289
  0.3960693918450459  0.2004973557197276  0.4015709205021541
  0.3976362786821916  0.1983863292492588  0.7956928162965223
  0.3955896714767893  0.3966607683326787  0.9994939579000630
  0.3996438277380712  0.4039450592309005  0.1985578533616078
  0.3999351770527674  0.4036196627602135  0.3992828644378060
  0.4003558856231159  0.3975068527792580  0.6009966264873947
  0.4026023429930715  0.4018693921433893  0.8005676730968319
  0.4178924207934692  0.5878253612778052  0.0079052565416164
  0.4001046496071936  0.5963778667205203  0.5910770255156897
  0.3979512842125725  0.6001789435714223  0.8071715687967670
  0.4019412928017255  0.7967209886158952  0.2063010169752502
  0.3987182123835548  0.7969454100626434  0.4015290912078840
  0.4010743516497948  0.7988608137009435  0.5994240132672487
  0.3998167501786348  0.7986677553886812  0.7936292612190335
  0.5990715897073394  0.0011066907632580  0.9996268956980914
  0.5998858409173645  0.9985801886407661  0.1997119557235498
  0.5998733730042258  0.9988939039250152  0.3993367591795168
  0.6000212461399478  0.0036487509763588  0.5996734293304149
  0.5987647670629797  0.9931273584691962  0.8008093857415876
  0.5994628799311350  0.1995373837961830  0.9982856276204173
  0.5984616749738664  0.1984204485853200  0.2014265818013920
  0.5986228321924074  0.1986908071134469  0.4030700887047244
  0.5988340111016902  0.2018856178229494  0.7966886211367656
  0.6055255160413271  0.3970064091866041  0.9944158926749707
  0.5993146939967064  0.3990424608296629  0.1987418588819465
  0.6017230666094555  0.3985706600074165  0.3998527607585410
  0.6045395718695050  0.3956050311317312  0.6061003595789415
  0.6064417139683430  0.5970463952046755  0.0010144303994362
  0.5952617644178496  0.6007834860940752  0.2002669521563182
  0.5956208606765645  0.5991723533591344  0.4009349082375572
  0.5977883078584729  0.5978259382487464  0.5995978247851966
  0.5977398592888932  0.6012325750700149  0.8004617973623960
  0.6054520665331569  0.7997729276212203  0.9947133535669187
  0.6031824538043286  0.8002065787550273  0.1979876738337520
  0.6014805976844889  0.8008375146340402  0.4053103094425378
  0.6000724780362521  0.8002408522498609  0.6055682360347393
  0.8015132357733182  0.0020795876940667  0.0007499919547138
  0.8021127511032364  0.9938499490848101  0.1993054809048866
  0.8044781236903475  0.9980898296608050  0.4003374322546072
  0.7978104147329282  0.0001804795155434  0.5985915619409449
  0.8007041285025506  0.9939688995243920  0.8007601366447318
  0.7980203384966600  0.2004207738456378  0.9999893113819542
  0.7981922825855474  0.1972805298020822  0.2015850016818603
  0.7994224804988850  0.1993221944868337  0.4001726407112924
  0.7956536644961203  0.2021139056367680  0.5994317695864279
  0.7998374084236141  0.1959036768586403  0.7996124282462527
  0.8045608713905801  0.3992559301742746  0.9969452322200697
  0.8008644257567216  0.4003321398553529  0.4059313851285107
  0.7965472844687019  0.4033923328374748  0.7969894175532672
  0.8049042140158931  0.5981398456796440  0.0026027511122424
  0.7976244905079228  0.6061105352407423  0.2013965912389448
  0.8002592555363617  0.6003210080909354  0.3989039203914720
  0.7999882373656109  0.5961496669532432  0.5970318696078972
  0.8010227149112080  0.6049814215140374  0.7990820127372302
  0.8022731620377369  0.7993525181885854  0.9986185797964384
  0.7993400224124532  0.7981742275895347  0.3984405656797630
  0.7996815675275232  0.7978763075124398  0.6052154274168402
  0.9999659142091391  0.9976371326850036  0.1996281325759728
  0.0009152709218874  0.0007335169777478  0.3922194596281157
  0.0002177092376134  0.4010994565298304  0.9999908780946876
  0.2014430560869014  0.2005475072213820  0.4010844620275718
  0.2030913303507768  0.7967013526037146  0.8050244880686983
  0.4028811089825819  0.2004593216509366  0.5972873254180560
  0.3965722748896077  0.6024413312400356  0.1976133009198035
  0.3998369028075296  0.5990296499636595  0.3951380732573135
  0.5966194392076463  0.1999337679831620  0.6002152752826473
  0.5996480280895330  0.4031084751077662  0.8009002591307790
  0.5995905625029513  0.7972323154662618  0.8009485740987232
  0.7993714898738893  0.3993894617332199  0.6017484307943527
  0.7985067655576024  0.7988222287122221  0.1985358136485260
  0.7974467269141303  0.7983335451900182  0.8015252069118021
