Zr Ti V  Cr W 
 1.0000000000000000
    15.4218125631900325   -0.0059686382723848    0.0062585989012477
    -0.0059677460242910   15.4281327699692579    0.0068346148581175
     0.0062604253005019    0.0068382331099848   15.4329886035241781
 Zr  Ti  V   Cr  W  
   1   3 110   3   7
Direct
  0.3981844175751042  0.8025859109854385  0.5987776385353527
  0.2005438448420657  0.6064245237316803  0.1898923394770042
  0.1990449229755695  0.7902370763901095  0.0063563674373674
  0.6002751531432888  0.5976287568518811  0.5826403414964814
  0.0018662605944004  0.9983347683564037  0.9997699061783788
  0.0002889199848760  0.0030299108220231  0.1988803960669043
  0.9990776275060176  0.0011276334774458  0.6019519882340711
  0.0001428539537123  0.9982012240417998  0.8012915102229685
  0.0005178348672119  0.1994058469973138  0.0037650376244522
  0.0002394409805470  0.2013541852306234  0.3967653435277744
  0.0022683914724616  0.1994426276232562  0.5984886001894145
  0.9986368141584253  0.1989493005824930  0.8013725898811387
  0.0051119828240581  0.4002804850981869  0.9996529411618298
  0.0014428392433281  0.3972420916065429  0.2005404808309897
  0.0015266590023463  0.4028784058160189  0.3992402481574768
  0.0006029150739501  0.3991736551744223  0.5994462371875756
  0.9992334520062991  0.4004788389880729  0.8005255842715395
  0.0000915058635130  0.5999049427686853  0.9997028385660683
  0.9981891078882986  0.5991517463626387  0.1997877722453729
  0.0001151551780554  0.6027414179404850  0.3990205861089905
  0.0004757469175301  0.5986782328641199  0.6003642505745441
  0.9993858786729766  0.6008463325536288  0.7990630657328776
  0.9990944235865880  0.7988324477871491  0.0008826003656597
  0.9987005931653683  0.8002365441755280  0.5971063179882409
  0.0002584940847066  0.7988755617483912  0.8010506600672253
  0.2008663180796092  0.0012822657144848  0.9994793116258509
  0.1997834319481502  0.0013437160008367  0.1999476464750461
  0.2014029916228542  0.9998400487196594  0.4007827395555659
  0.1994002999597869  0.0052593034381195  0.6007880652678562
  0.2007201467915780  0.9983870967749424  0.8013413468588132
  0.2001953323753353  0.2020078327359261  0.9986491403902068
  0.1951807410625934  0.1997607240536244  0.2015832039753435
  0.1997375351494877  0.1998290646352920  0.4031876103530130
  0.2001648221919700  0.1990286066398818  0.7960488862413733
  0.2004572789944254  0.3974075710926200  0.1953461087785709
  0.2009419681121656  0.4020425750680527  0.3985822086640630
  0.1999802638894736  0.3947552273202865  0.6004533042741624
  0.2008546320982090  0.3994960009925491  0.8023748025124017
  0.2007078117231807  0.5909717181170772  0.9934944928596566
  0.1997517633558852  0.5965159446409477  0.6000971797862696
  0.2011764971128461  0.5989495760918915  0.7973821805139022
  0.1993661361989791  0.8033439103450909  0.2036006875041644
  0.1955133428521045  0.7989819585973738  0.4006289214151625
  0.1950480938084131  0.8004726484472490  0.6013641061675865
  0.1998880976549164  0.7976675706061225  0.7992607845414169
  0.3986338412668021  0.9990681761838647  0.0004829058380090
  0.4000434210106089  0.0006149714052700  0.1989312120685583
  0.3988915924644270  0.9981327306754942  0.3984711350139331
  0.3996577166572772  0.0046776326042937  0.6006185135500188
  0.4006672892939011  0.9976423024718560  0.8022480227448370
  0.4004913397998647  0.1991652616559225  0.0007140557648734
  0.4005782928855832  0.1987758121110840  0.2005989556401053
  0.3994891741870776  0.2007173979956827  0.3976521607094571
  0.3995440775877891  0.2008828399911244  0.5993702136555298
  0.4013117938707051  0.1991740755966118  0.8011479150576916
  0.3963267468384399  0.3991217189045376  0.0004460021956777
  0.3998579527064942  0.3994614510753847  0.2004660627207518
  0.3991474574520391  0.4017871485330720  0.3980555064730316
  0.3989421297339928  0.3989942393643891  0.6003776298058398
  0.4008025494231666  0.4000230329672491  0.8002927823521800
  0.3994172903858698  0.5991680320995786  0.0007536847015901
  0.4016577462984228  0.6005017298754920  0.1993581096386852
  0.3982395117400402  0.5995391674480358  0.3989682223776524
  0.3976465575521046  0.5955716990106480  0.5999681216612863
  0.4054097722588401  0.5998411791991272  0.7992152449606502
  0.4010067597304015  0.7985786636956820  0.0021168738201360
  0.4000160502879546  0.8007703953209745  0.1999310628418048
  0.3978887705904702  0.7979148940858852  0.3948387026582605
  0.3996349835343393  0.7989695234163480  0.8044453723046859
  0.5991973567090800  0.9992530354985636  0.9986832279103818
  0.5992997553316491  0.0008503337712367  0.1999704118598187
  0.5994020663754311  0.9973826097578169  0.4006402941336258
  0.6000188236888371  0.0047796911913987  0.6011963106751341
  0.6001712945717737  0.9978076117975218  0.8004052435908262
  0.5998370767011784  0.2002453870767093  0.9985892023237291
  0.6044225402129484  0.1999155190418130  0.2013406193378889
  0.5993186547152866  0.2005205385800391  0.4032978602997884
  0.6006748737969881  0.1995808950015540  0.7966772700572172
  0.5980937026856814  0.3982164671152139  0.0002379301521362
  0.5999161089556304  0.3988078434271687  0.1996878448680982
  0.5986769813025048  0.4018540925245064  0.4010123161166102
  0.6001381508195361  0.3932069467658861  0.6004745916705563
  0.6004653375590556  0.4030255135161327  0.7997487691364781
  0.5998114524312635  0.5987077331304544  0.0011881356122873
  0.6006465479320484  0.5992924551069115  0.1992929126519453
  0.6003235621773176  0.6008643010717107  0.3953260102518779
  0.5995649219289988  0.7995695099344244  0.0019643664129685
  0.6025930049027596  0.8010954685779432  0.2017799163217968
  0.5972143468006395  0.7989802739449398  0.4006011719658755
  0.6054200288369903  0.8029582192764367  0.5992034992229534
  0.6008885664727668  0.7947617910672310  0.7999671345228946
  0.7996062871360770  0.9997712721026437  0.9992511783239928
  0.7999323930952608  0.0024767015538165  0.2008466040745483
  0.7983723495540233  0.0010299544749076  0.4003539339465840
  0.8009789273818920  0.0008351373788424  0.5992139072373144
  0.7999158486316451  0.9993416356514829  0.8019064280668817
  0.7999702702860038  0.1998657251672666  0.0028069003419859
  0.8002524376546221  0.2001982973188504  0.3971783383714294
  0.7974687496411145  0.1998004633656860  0.5992981192884140
  0.8016456293980038  0.3997012705226227  0.9994706225650243
  0.7994485852027200  0.3959108995155286  0.1993735942626072
  0.8005683633646662  0.4013938908706541  0.4002796566131627
  0.8017523458681582  0.3976359339326445  0.6012827679903430
  0.8012869175740970  0.3991742781899159  0.8008315861788812
  0.8012339874569213  0.5981327253099009  0.0014158421185246
  0.8007093691038345  0.5998168715968579  0.2006319048335219
  0.7993085893582483  0.5976336829818996  0.3997579424101557
  0.8017888524564539  0.5992463372202176  0.5992010693144694
  0.7964182974393376  0.5992066305164725  0.7998469586286019
  0.8009657354311914  0.7996369078419585  0.0010885950564792
  0.7998652140148329  0.8014418459164170  0.1975701769269620
  0.9665725472973667  0.9627683465162119  0.3998613466000386
  0.8007079828397401  0.8007509134968815  0.6043793814422546
  0.8008869502330367  0.7993870199315565  0.8005930380260844
  0.9993851316595074  0.8012259286581066  0.2009259738330360
  0.1997505772783020  0.5993747489308728  0.4011021989827231
  0.8002281450277813  0.1997863331581411  0.8011959710477760
  0.9967039621486777  0.1986909133784427  0.2012084984274899
  0.0027125538123431  0.7991380592285799  0.4022895054128427
  0.2003181080826756  0.2005790806018042  0.5998214011550147
  0.2010728697604144  0.3968142132135684  0.9977506051776338
  0.5987064153148591  0.1997192694312322  0.5989009302643045
  0.6010870195785972  0.5988848765084724  0.8078641894152833
  0.8025713767521705  0.2002279620115458  0.2005036500674030
