Zr Ti V  Cr W 
 1.0000000000000000
    12.2882735461728885    0.0000000000000000   -4.3445607757035454
    -6.1441367710433559   10.6419570608175889   -4.3445607757035454
     0.0000000000000000    0.0000000000000000   13.0336823299999995
 Zr  Ti  V   Cr  W  
  11  18  74  14   7
Direct
  0.9910070094970795  0.0024510825905997  0.9978421142195022
  0.0066027136316486  0.5961795606028644  0.7991310036487671
  0.9911519666253925  0.7796972937056048  0.1757774607163477
  0.1972345751414673  0.9897464386007733  0.3934720044840131
  0.2025212716042272  0.0014256785801422  0.8022006941491884
  0.1925020243147952  0.5948761086807322  0.3982275137726131
  0.4096947197715292  0.0016569565441736  0.0045524319266092
  0.4052154960159276  0.2111341451022528  0.6012662501904436
  0.3936696409522271  0.5907990630075993  0.1975951581506663
  0.3967627163667892  0.8008753585919667  0.8009931519436995
  0.7993894022649705  0.8063305935754600  0.2013804991462113
  0.9921252926780484  0.0029868700706161  0.7870937458645372
  0.0049755722170150  0.2113406777377277  0.9929037059410286
  0.9873739099916919  0.5821591077210737  0.9922982862765097
  0.1959096036381170  0.1988952544594902  0.3881376837078013
  0.1931072516130001  0.2040842618209666  0.7973889070588256
  0.1937371129825100  0.4019229117516552  0.1973175982674188
  0.1961167586366815  0.4006872091869295  0.4134687595660537
  0.4177752444222497  0.4027512094740885  0.2068627574554137
  0.3963736330210894  0.4001148128687995  0.4011571219643321
  0.3971727984651880  0.5896349106429868  0.9798745630174173
  0.4015344766586651  0.8022852095560720  0.6015355396518148
  0.6000299075071739  0.0074762983423114  0.8132371186619902
  0.6040469158822600  0.1997091197933259  0.4003141015443373
  0.6043973921436736  0.4024590578442603  0.3988010530692044
  0.6097914805104756  0.4069832126819743  0.8082445379845427
  0.5899288149435142  0.7944800152314585  0.1941943890531239
  0.8037058691393609  0.0094550491697702  0.4056384336535621
  0.7880277802756103  0.0185263040338958  0.7954919147911677
  0.9920770376419880  0.0030374224313139  0.2001139154998041
  0.0069387574685572  0.0144395254555667  0.4138322266804524
  0.9992216818746801  0.2082518931335384  0.2035763387235235
  0.9988920627232521  0.2050432563224472  0.4024918515801572
  0.0021916463827031  0.2039537321606328  0.6034137380095443
  0.9785453173882953  0.3837622861039589  0.9798671280325927
  0.9903330418451147  0.3966497789536917  0.3988841200716422
  0.9887212566938550  0.5778844111190424  0.1984155334162923
  0.9955782105399933  0.5883906723902783  0.5886906638041081
  0.0009277364333522  0.8016445472844829  0.9910661491680471
  0.9979068031665791  0.7913126851230744  0.4011272159119837
  0.9997596216695116  0.7997729940559173  0.8000314700862223
  0.2015861147563447  0.9983969023794532  0.0118540480477533
  0.2016381157128928  0.0032292773275920  0.1936947511120995
  0.2096191053176414  0.2138681418953272  0.0136775236926936
  0.1933754907197733  0.2009322686759185  0.5997560562095693
  0.1967882247066743  0.3980021706492025  0.6058854635205557
  0.1930251189610646  0.3966239464638476  0.7947532218852973
  0.1917006737057624  0.5845050985424615  0.9913438232977448
  0.1817211249628801  0.5963351851226376  0.1827790338067597
  0.1891060178747132  0.5873456830643367  0.6020566552845191
  0.2036640920742858  0.5896135801888677  0.7967097790468153
  0.2044889080973604  0.8001203752016253  0.0036146259633371
  0.2069933071044899  0.7931355471557335  0.1927753412372486
  0.1938005763846266  0.7925986211844847  0.3989249239824609
  0.1912084650132261  0.7962459176364504  0.5950339935785525
  0.1871904607042213  0.7830641417239331  0.7927345499437580
  0.3979864158856298  0.9977427315065415  0.2044487316258486
  0.4151448520537458  0.0069840397408760  0.4060574543695508
  0.4013117270623830  0.0027744503761007  0.6013826285635526
  0.4034898491449487  0.0119768557229524  0.7879435084887509
  0.3998928274311291  0.1961323846687453  0.2023989313378251
  0.4054289965776023  0.2008980334064152  0.3910301365910038
  0.4077630064020701  0.2047436216436483  0.8046666301169131
  0.4057939583576235  0.4011237026953130  0.9980023763309395
  0.4067505969209914  0.4161383735980030  0.6095832355281254
  0.3984774475671378  0.4008172602166666  0.8001994688426559
  0.4171262277929024  0.6152646476360620  0.4243471394163503
  0.4031743494366998  0.6006562789225948  0.6132169167891264
  0.3989140283634585  0.7932141628642682  0.0091432941299611
  0.3927470337120897  0.8005056378612866  0.1982126843169321
  0.6035663318284031  0.0038897567942546  0.4091865710867306
  0.6044603226106832  0.0073492432688889  0.6036962356455342
  0.6092554827855395  0.2035450418684582  0.0044592198708472
  0.6152921106050153  0.2118141875515020  0.6098499833896135
  0.6244363822669956  0.2047870266940803  0.8069930538829967
  0.6066497548118382  0.4012549332210140  0.0081644707929530
  0.6034592602202858  0.4016439432601364  0.5977023847947011
  0.5982049048715280  0.5933636156601088  0.9901034426375666
  0.6112241407857235  0.5935309927213883  0.2024033972800811
  0.6116152316414740  0.6092166490355841  0.4106081534339576
  0.6033548171508440  0.6024019865283791  0.6053845271501319
  0.5963604204321429  0.7995146058831909  0.9961023240429733
  0.6049095822893725  0.8023089476694136  0.6028890649528159
  0.6005758085249610  0.7921251710757437  0.8005299559112722
  0.7850817736964909  0.0020917306264341  0.0035504024873054
  0.8083164732582072  0.0146670274023390  0.2033480814802997
  0.8091986987111540  0.0018035848836759  0.6000064323627414
  0.8064299484842719  0.2101340102981146  0.0098015367187085
  0.7987080698953015  0.2019371987677894  0.2034751452457035
  0.8114137226794599  0.2108569166927245  0.4104844637947774
  0.8031828550434021  0.2041520560775423  0.6116123105411337
  0.7956050222886420  0.3975385592550237  0.9996191040181810
  0.8007951304813214  0.3985207007608158  0.2033919886074275
  0.7980506250908496  0.3912232549276031  0.3968665833498706
  0.8012170253781151  0.3973813060407292  0.5967458898991763
  0.7877408200330759  0.5911861673000077  0.9945148209400455
  0.7993045162506397  0.5926224989168538  0.2017752221271985
  0.8002057003148931  0.5920301993273528  0.3970460715220361
  0.8013324205945467  0.5992039857107714  0.6002657703355990
  0.7898328027079972  0.7987373156808677  0.9884333983165043
  0.8057065047329410  0.8000631068508800  0.4065304505010139
  0.7984646582602459  0.7959402821089283  0.5974562168299944
  0.7902315593904472  0.7969344032542949  0.7899711274449115
  0.9994155830787312  0.9955919568883818  0.5880922160122559
  0.9834479106326958  0.3893363924499936  0.1901868184792413
  0.9959696114075357  0.3944681861995482  0.5989383891024650
  0.9943230922353808  0.3935318692997641  0.7925964295285547
  0.9898427759941885  0.5920442057670304  0.4006112763178001
  0.1955511405051481  0.9990990202099057  0.5978004240131018
  0.2008161790934528  0.2069000500061030  0.1958727732904173
  0.1970712484185954  0.3937926390829525  0.9932226767074097
  0.3986615801111577  0.5937707319541109  0.7946131756164961
  0.6152184869622527  0.0090428734350257  0.0122499678034314
  0.6105294908643156  0.2090096394062743  0.2069725368725338
  0.6117270647783380  0.4022149088930422  0.2025959971458929
  0.5976477046842773  0.6033337196339732  0.8001501603881961
  0.7964871434317659  0.3957284510202881  0.7913103611773404
  0.9938954309632635  0.7933191476621850  0.5959165279824518
  0.4128183743182378  0.2147987633424209  0.0098660022482124
  0.3984759753977005  0.8028628257590955  0.3993687968955996
  0.6065544929928446  0.0064991644230511  0.2066718885936484
  0.6087565270291144  0.8061451771158911  0.4077917371673913
  0.9333397873828279  0.2060505388706985  0.7994881722346835
  0.7957192173900954  0.6004333178905341  0.7985800931098752
