Zr Ti V  W 
 1.0000000000000000
    15.4529206753737594   -0.0089219929548298    0.0139355642811389
    -0.0089343212131673   15.4627799901828133    0.0191221628419376
     0.0139437596884260    0.0191164033920139   15.4587375740632638
 Zr  Ti  V   W  
   8   6 108   2
Direct
  0.9924277763381345  0.3912178689717173  0.3670506352973815
  0.9981318252806138  0.3876649868778810  0.8092649908784347
  0.0323063558035935  0.5980439286102387  0.0029209258922649
  0.2444068153346709  0.5989274691040358  0.0006500245770592
  0.1986387949872055  0.7980735942144621  0.6027372664891016
  0.3991020259239998  0.2015416810782863  0.4017515176138378
  0.8086550050751832  0.0126166528458012  0.0309177373360668
  0.8083161793380155  0.3995624820597140  0.5965094655786006
  0.9894680530954781  0.2017752213363310  0.9806267091423084
  0.0026609425337003  0.2133642017160014  0.1957193658360179
  0.9963180254121579  0.1811110575406926  0.7856170048928056
  0.1975946513658031  0.1978164610951837  0.0017890862188343
  0.5912527578390685  0.3989970912585689  0.6002471419247694
  0.6128036801572014  0.5999666178557084  0.0012133624808137
  0.0088392599526382  0.0000988921643787  0.9991653829026932
  0.9994568151876912  0.0012411707135598  0.1974078884894801
  0.9983066924925266  0.9978417112272806  0.3978804940145027
  0.0000558612659894  0.9995752012099341  0.5999969402885384
  0.9992546852526889  0.9914150641235107  0.8002485640680066
  0.9974346796974146  0.1925092233978807  0.3987970213427633
  0.9991941135817552  0.2001933548622586  0.5929608956390339
  0.9994779288397312  0.3954379383182902  0.0056055978736682
  0.9987288302279339  0.4122479820871555  0.1728121069689250
  0.0097208229150648  0.3980287208094759  0.6003639073382205
  0.9990369992619440  0.6031717959007359  0.2073395241872120
  0.9984805215280153  0.6009483116880093  0.4025329611633919
  0.9994605875622616  0.5962521274437261  0.5995122209518099
  0.9963900804787651  0.5999696147500859  0.7974534514096716
  0.9979799547876573  0.8034078145612715  0.0008988280025475
  0.9980584465532361  0.8008791370148142  0.1998097676236552
  0.9977252397892341  0.7993831828747471  0.3996207322603869
  0.9938709675374138  0.7999905204368762  0.5995994489334366
  0.9968675463558815  0.7970877170290511  0.8008355480346286
  0.2019451834349449  0.9992756769038049  0.0018822435731802
  0.1984183099721954  0.0011390095912840  0.2009634348348633
  0.1984177477948570  0.0001173014407552  0.3998853993823570
  0.1989958326751496  0.0036866803212010  0.6003726524732120
  0.1984685806868335  0.9997450812016720  0.8025043193803407
  0.2006579202550981  0.1990932564695032  0.2022613179846516
  0.1940464674264365  0.1996830194316871  0.4021260667780742
  0.1988840148327892  0.2002722269109933  0.6005805821543237
  0.1987242047408872  0.1979731747042143  0.7974298784512023
  0.2010989023148123  0.3980655342082215  0.0014583606405665
  0.1956502986236800  0.3992809023150011  0.2032244001845099
  0.2006363649704813  0.3989879715665368  0.4011000493527822
  0.2015760571651635  0.3975705859253514  0.6020033291592567
  0.2024337332569361  0.3969481360067609  0.8026522714876598
  0.1973463161695421  0.6011226564640366  0.2033028741207157
  0.1991104800223631  0.5981878185838904  0.4027474775932520
  0.2004457397428366  0.5937260470851019  0.6011890998537673
  0.1933505889482109  0.5970441384240932  0.8003792146395531
  0.1961831040123772  0.7994397436685865  0.0025021462276980
  0.1989923310544413  0.8007269004848218  0.2007224317445852
  0.1986136551772422  0.7999240948059899  0.3968757411890745
  0.1987042811919476  0.7990054146186949  0.8064717662398780
  0.3979827505151909  0.0003348921219584  0.0005312681468685
  0.3992082843177704  0.9999974949383406  0.1990880791742876
  0.3984895599910170  0.9964155708388505  0.4003787547163349
  0.3990600522552751  0.9998045589761800  0.6024296203925111
  0.3978061633949993  0.9987263413731332  0.8024554925338148
  0.3998165305104441  0.2046418779471395  0.9993636879112765
  0.3987795031382884  0.2009785224824229  0.1962962676515703
  0.3989574793669662  0.2008469598755147  0.6058515108208379
  0.3994345635507970  0.1989088221445690  0.8018528736910848
  0.3958190801813101  0.4012742214543329  0.1949724416642010
  0.3975908299220641  0.4054298554048371  0.3964437074455825
  0.3967153339636947  0.4004397930409029  0.6043857303007153
  0.3976569193505214  0.4000829092309417  0.8067944561446954
  0.4308728583173382  0.5947371772880915  0.0004353097737030
  0.3991987310132576  0.6007316390074625  0.2012352791069120
  0.3993364946648535  0.6006880448278484  0.4018096985942236
  0.3996047515136026  0.5984041206068070  0.6021553292059055
  0.3995162763983990  0.5997703417118406  0.8015847174019444
  0.3991550131603123  0.7963220617927319  0.0015199251740547
  0.3987071325909895  0.8002222047403051  0.1994904970113691
  0.4003543547509916  0.7983537599014379  0.3998719935761207
  0.4034271952486692  0.7988704984917039  0.6022195870722313
  0.3984978537470885  0.7987169018499217  0.8025631993591479
  0.5971397658182898  0.0014843475796720  0.0003609499310545
  0.5998643570495024  0.0017930847599326  0.1994670663423684
  0.6008026480816228  0.9992625257918049  0.3997773422877339
  0.5988662996444407  0.0000288942383571  0.6009305513896465
  0.5993410178718704  0.9999409000604778  0.8014212463943129
  0.5973257623724052  0.1995919142185346  0.9979474585824643
  0.5990700324980660  0.2010450703592983  0.2011945758097284
  0.6036307306069407  0.2003646778545689  0.4001121560116141
  0.6003238360650981  0.1977712690072312  0.6002267738971362
  0.5986654247759139  0.1987916150491049  0.7979662654536610
  0.5943665683844558  0.3961125491898044  0.0015556628388755
  0.5971572822696474  0.4012449126795730  0.1985545795393013
  0.5959175776487303  0.4002231742871332  0.3964319521473387
  0.5963128470070456  0.3996864439893639  0.8036542889817248
  0.6003166568825065  0.6010586119205581  0.2045638996376777
  0.5999019275695094  0.6011075878669949  0.4017151153778998
  0.5995738971764116  0.6014974632222383  0.6000886225096070
  0.6001468137847928  0.6004094841574931  0.7961404615743353
  0.5994087541964654  0.8037005704142168  0.0000234472681353
  0.5986895911685668  0.8010063729927653  0.2006073667385159
  0.6002501835470683  0.8004506833050696  0.4002680461572567
  0.5998803680662873  0.8013180472896682  0.6000556264924065
  0.5984178205789975  0.8000597537554773  0.8012722531538968
  0.8003167691251694  0.0007881845918035  0.4016866044589397
  0.7998648252943150  0.9997841627252436  0.6009915792152524
  0.7998256423973634  0.0001576184682175  0.8074520731376031
  0.7923425128158701  0.2101353151211821  0.9974742143303325
  0.7971209666280936  0.2013740778237987  0.1955185491205552
  0.8005898643199180  0.1995605914420968  0.3975074369408428
  0.8002173072067785  0.1966843407220114  0.5989885917468161
  0.7953037838654636  0.2001086478526397  0.7989282573327808
  0.7966289486604970  0.4043617409202680  0.0008723474471096
  0.7986035309427697  0.4022002653369213  0.1977466627696329
  0.7900499013127409  0.4008466533625824  0.3932882753003845
  0.7912910147527621  0.4017588301573617  0.8036639775030089
  0.8084183743168880  0.6011535953546201  0.0004754174106913
  0.7993529839585906  0.6039173359782681  0.2015605646205949
  0.7993341946010744  0.5994894096786665  0.4016796830569703
  0.7997293962604320  0.6044996814792165  0.5996648692238943
  0.7990726845969789  0.5997733189195724  0.7995726559282115
  0.7996789885979337  0.8001263317781854  0.9998144237336513
  0.7985899985848913  0.8026334599395099  0.1989685683264400
  0.7982222023431434  0.8011392539621328  0.6004909993581493
  0.7971099883629630  0.8009960634344366  0.8016725178723497
  0.3962905815571851  0.4023152318104704  0.0016871325967595
  0.7994368426533625  0.9019883403919788  0.3051099695817335
