Zr Ti V  Cr W 
 1.0000000000000000
    12.6210068901576324   -0.0144978582099523   -4.4442367965459733
    -6.3180480965057821   10.9442516908329210   -4.4299116741113780
    -0.0104124025567264   -0.0006299496168695   13.3030158846175190
 Zr  Ti  V   Cr  W  
  11  18  73  14   8
Direct
  0.9818821180676699  0.9981147738637446  0.0047881260580479
  0.0025979426988402  0.5921901125546178  0.7963415493731856
  0.0024018492529501  0.7837300101973989  0.1834558567518261
  0.1977077216891123  0.9968375410163934  0.3940531057858019
  0.2037581173220322  0.9963725086470860  0.8035357379310671
  0.1949339590846520  0.5627669880336125  0.3974018203975743
  0.4161810082121658  0.0060799347173101  0.0065973949482191
  0.4025945563369961  0.2111982598947395  0.5998230465590841
  0.3982789938598186  0.5966257804042772  0.1944883971332925
  0.4045608858244457  0.8000355924521012  0.8051593675635961
  0.8075976932604182  0.8086844376157257  0.2076307653761056
  0.9922387232006927  0.0013296068562171  0.7846484711765120
  0.9993011790183425  0.2108876544059229  0.9996306106131240
  0.9910126096983050  0.5868126487756121  0.9969987371973034
  0.1992691031494410  0.2250216053021918  0.3958686736806278
  0.2011296114624021  0.2032434097622992  0.7965784557409803
  0.1993236322706474  0.4013660055310466  0.1919024993400988
  0.0411647594120199  0.2538234549469924  0.2497530931829052
  0.4193822719636546  0.4031540960206425  0.2064181941718824
  0.3832326822469030  0.4085379289614056  0.4023855678529989
  0.3977524884244090  0.5924150906089894  0.9757586514190993
  0.4005390340690427  0.7986610947150672  0.5976321378291909
  0.6051849327090149  0.0124503776081452  0.8138301186926086
  0.6006535696488010  0.2000802212721553  0.3978974023757961
  0.5995285775338715  0.4047414725896062  0.3977340683158023
  0.6089331975211804  0.4091198794373688  0.8096411627754424
  0.5924589339980398  0.7998298667865796  0.1964510219573120
  0.8023191122559201  0.0097845500919140  0.4062593892076659
  0.7883666482666832  0.9947850266940007  0.7879163086509809
  0.0000860146445374  0.0135255056909993  0.2168284139391002
  0.0095266003466080  0.0164320502133173  0.4283908801005203
  0.9930004600104747  0.2030715599252935  0.4062788807696689
  0.0046302336874487  0.2104072851718074  0.6044044855768339
  0.0009609843215932  0.4031973331927473  0.0000040375188623
  0.9935106570058451  0.3973330012431500  0.4028453115166201
  0.9988975265015086  0.5838078685053598  0.2081419126125068
  0.9918831713104562  0.5844632549629674  0.5856920805073774
  0.9973607422471487  0.7932624897764365  0.9817143164863007
  0.0080980530405659  0.7959391899408833  0.4125065731300943
  0.9962176098345502  0.7950692060098525  0.7947323755943494
  0.2031158307301576  0.0005459355892681  0.0154585907337747
  0.2016595132479516  0.0060088982600864  0.1918465735064892
  0.2088247775416827  0.2124358819166147  0.0117107112754516
  0.1951627009606024  0.2134947521726497  0.6014933430066020
  0.1966555365594227  0.4015616482762721  0.5966621942599571
  0.1937495547328528  0.3997816642708492  0.7950363151042135
  0.1946478013263346  0.5887943344864452  0.9917212427286674
  0.1919236645739944  0.6027089246629841  0.1938069805477046
  0.1888809681997801  0.5891659337475432  0.6063349624613211
  0.2039831783192275  0.5891487317309148  0.7953386221241140
  0.2069963166645560  0.8039552779659250  0.0045639988143904
  0.2137633490726362  0.7963293573171990  0.1968993935193672
  0.1989829280800489  0.7907430084829703  0.4055832641981935
  0.1892298587915147  0.7860010181593192  0.5921441021533375
  0.1869772846311062  0.7773038871508914  0.7921324203222786
  0.3978217804146358  0.9978732936533812  0.2058512791171415
  0.4164818621291136  0.0066607872147914  0.4078497200433507
  0.3945249396213986  0.9980661119163087  0.5989506086870690
  0.4039650161664946  0.0096268119697676  0.7842328769430307
  0.4005999303233486  0.1962130969168479  0.2001535844077846
  0.4030292158293953  0.2052639399744330  0.3891251487060429
  0.4042738168360436  0.2022986928116055  0.8052489308516236
  0.4088993457009469  0.4026485353085048  0.9987464370314278
  0.4181007865704399  0.4228854375596795  0.6183258051703785
  0.3970153647915225  0.4029323553252944  0.8001433146950498
  0.4265504419356103  0.6234012231640835  0.4240990397558409
  0.4059698198711588  0.5976078020366670  0.6154457710750875
  0.4045714562298821  0.7981867255616382  0.0135200029921603
  0.3951817090329778  0.8054071597290124  0.2020801772565760
  0.6028738142756543  0.0045781601357693  0.4077777108145956
  0.6045341709896905  0.0075649192136652  0.6044120327837991
  0.6100511150934977  0.2090752732359460  0.0056943455596173
  0.6163508810010343  0.2140193801783684  0.6120746710416656
  0.5997181631377804  0.2046117813157009  0.8055092103552813
  0.6084427622447834  0.4053905786992830  0.0117766463670056
  0.6032096663419020  0.3996951698543514  0.5969229344460464
  0.6023959350841106  0.5950903857980517  0.9936363023611570
  0.6161042233222375  0.5947305647286278  0.2036481027955709
  0.6148785404442796  0.6141308340154001  0.4074924715908501
  0.6042690942008060  0.6006499060097760  0.6030385278980075
  0.6026302550477591  0.8004080367621348  0.9995878516101140
  0.6042771597118627  0.7996097624819639  0.6004074839948282
  0.6112257131071476  0.7924255780395236  0.8056995957882044
  0.8220568843834249  0.0410778464109981  0.0427671460742472
  0.8060127303251683  0.0144681230304062  0.2022490406127278
  0.8054006282220827  0.0045469580861204  0.6008514380795990
  0.8055356090996540  0.2184021047781910  0.0106875144341004
  0.8003077511839846  0.2084698988545869  0.2050997576902402
  0.8107274598690751  0.2137776552125762  0.4098502913566202
  0.8021242066893920  0.2056079388924788  0.6002550523876954
  0.7982546059228957  0.4034901375937514  0.0009383191854597
  0.8039774732528289  0.4064727084065574  0.2062999358265601
  0.7957665799543636  0.3927279919891155  0.3958015056171654
  0.7949243603979027  0.3949845426968805  0.5939417607561897
  0.7915134476543657  0.5946024197832372  0.9989670773788715
  0.8064321446774719  0.5972233846287609  0.2071341031695044
  0.8016060520605141  0.5950605615657842  0.3990318141159215
  0.7988275513509226  0.5945364607886338  0.5975765417858828
  0.7867898553275390  0.7901854794062597  0.9873666085645586
  0.8093169793566410  0.8045769926265219  0.4130736206876904
  0.7977494610254960  0.7934553444158471  0.5950169366661168
  0.7916779036142996  0.7836639807112602  0.7851885894037268
  0.9991777927433753  0.9994684016172971  0.5944897956614594
  0.9871388303149911  0.3958978858063674  0.1847743401734701
  0.9955068679190885  0.3952679510471636  0.5981344730336010
  0.9963920126401088  0.3935827713043160  0.7949573704270083
  0.9957696240972019  0.5927738051265204  0.4050913258370107
  0.1926359082642040  0.9939121339501704  0.5959724626599322
  0.2043352832530666  0.2059547307560527  0.1895909930859554
  0.1952691915262662  0.3956843030463030  0.9880536034433459
  0.4021362859546275  0.5937915623574482  0.7944739863501386
  0.6304193482965881  0.0164247279151749  0.0217078391913932
  0.6165513787731973  0.2151146132330124  0.2074828083024509
  0.6122445320619521  0.4038889709618890  0.2013418813187293
  0.6021564437512507  0.6041836579461202  0.8033862267389918
  0.7980557043469413  0.3952763291880535  0.7947038833788916
  0.0006240246918261  0.2097101065941765  0.7987538831161091
  0.9940476415088446  0.7900744186061102  0.5959386543406405
  0.4135310163685867  0.2176344620057781  0.0108427009112904
  0.4016483179091175  0.8036187526175838  0.4023279987812391
  0.6091325544899160  0.0104943374668318  0.2077227635997031
  0.6105697205922713  0.8094310145884196  0.4094437904921218
  0.7981956992558545  0.2078215497672532  0.8019520081680703
  0.7937651109341847  0.5941401915875723  0.7966236351627806
