Zr3 Ti15 V74 Cr16 W16
1.0
  12.4197844640253727    0.0308609747686351   -4.4121790674039882
  -6.1926497535654041   10.7229024420877899   -4.4385290602638543
   0.0101954953508410   -0.0149255846508731   13.2651238536343374
Zr Ti V Cr W
3 15 74 16 16
direct
   0.9980860093152265    0.1959656964660232    0.5944985382414096 Zr
   0.9932755868324639    0.5935460859200936    0.3977631093221294 Zr
   0.6135706110136231    0.7969250765022390    0.6048850485962814 Zr
   0.9989089174047898    0.3915802544636399    0.2032327789587641 Ti
   0.9954273910084976    0.5985700898617805    0.1885599330565052 Ti
   0.0037796515216752    0.7981860343475656    0.9959048684104034 Ti
   0.2093803759052898    0.0042329929975785    0.3997121460715821 Ti
   0.2080977572643717    0.0169104438346791    0.6118349364186012 Ti
   0.1979838155900837    0.3894318491787926    0.9947241407622119 Ti
   0.2065282462218251    0.4126408954980671    0.8011891146463773 Ti
   0.2096579885522271    0.8119672646577070    0.6163283862716490 Ti
   0.4021147954062649    0.3870194296963125    0.7988099697727690 Ti
   0.4021981559359454    0.6020609488157348    0.2000362144424010 Ti
   0.3933008705538315    0.5865307553702390    0.3934956609645629 Ti
   0.4023242608175764    0.6019426440695469    0.8014101645969568 Ti
   0.6043426530962306    0.0122312323462642    0.6036774521357248 Ti
   0.7872905627896362    0.1999616099626240    0.6007361073570647 Ti
   0.7927336467451493    0.5995702296227902    0.6031121740197412 Ti
   0.9969301350418411    0.9983008807948887    0.3967658710021659 V
   0.0000455117927648    0.9919356966112178    0.6048836170406414 V
   0.0071117444311368    0.0004395426174487    0.8041221555576065 V
   0.0041250225601446    0.2027905802030370    0.0042469831778795 V
   0.9935027060552480    0.1909276357570815    0.8010995110648036 V
   0.9939624842972893    0.4017971188397436    0.5966285273239647 V
   0.9959469512781298    0.4045500059951202    0.8005390071388648 V
   0.9977670448007389    0.6031220278592931    0.8014361902034175 V
   0.9978564941380094    0.8017778114130045    0.1971896350617385 V
   0.9986478170061779    0.8062284728389758    0.3942334263838614 V
   0.9966445109621006    0.7995331020115765    0.6093845086179794 V
   0.2026412963159010    0.9967883115676253    0.0005985695364611 V
   0.2114034464643925    0.0041349752566008    0.1993326052498652 V
   0.2098729544864123    0.0054270833018357    0.8113833293018228 V
   0.2115518430350982    0.1956204402822903    0.0020688879215738 V
   0.2058894164717444    0.2007070409975633    0.2011287383032182 V
   0.2066183481106524    0.2026242095209373    0.5911725136119382 V
   0.2102437125565921    0.1981475652292369    0.8059751487648861 V
   0.2018364864402871    0.3900534141327386    0.1978592740739260 V
   0.1987265686486551    0.3973397254199715    0.3966013371433788 V
   0.1962322254722594    0.3938905956545377    0.5896407945603422 V
   0.1986289111744730    0.5965754955912758    0.1969502932261862 V
   0.2072093249662432    0.6060960872403688    0.4064930029496489 V
   0.2006644306877504    0.6079807089172073    0.8038218671986131 V
   0.2020446724661784    0.8060644974064525    0.1976952288632334 V
   0.2003371891603604    0.8036751125355561    0.8126775504396395 V
   0.3996947516092494    0.0060987265528334    0.0023169109170932 V
   0.4057923807582915    0.0086038842678401    0.6065086723795722 V
   0.4006718845265142    0.1940080498914889    0.1981979999653295 V
   0.4074850076064364    0.1979104075181837    0.3989446716783288 V
   0.4121579336411887    0.2041729309897604    0.6060791359009332 V
   0.4022747739748936    0.3911305639512675    0.0027016970503089 V
   0.4041125758054025    0.3930161827343944    0.2023354729181272 V
   0.4066745630221963    0.3950081810025572    0.4007418339828644 V
   0.4033834592284833    0.3973453375377086    0.5975886158660043 V
   0.4045085379703169    0.6081165328510429    0.0048763401382008 V
   0.4081323721582328    0.5969900265066365    0.6024698748827156 V
   0.3983027019572479    0.8047462563990840    0.0008292413606981 V
   0.3991115852310153    0.8086149975579267    0.1994838041206890 V
   0.4021095004973480    0.8084415981622028    0.8057345735002259 V
   0.5922044998715209    0.0045502341643652    0.3945090389061888 V
   0.5985712730463393    0.0086340330425973    0.8051656170483315 V
   0.5927484908759061    0.1978420476904150    0.9969937168718923 V
   0.5988732729335703    0.2046792760068681    0.2033298843567215 V
   0.5945341730317126    0.3905553256898537    0.9935684687601587 V
   0.5971907241990957    0.3885914277399862    0.3945297815769277 V
   0.6001911918829519    0.3972006595870842    0.5983886412957644 V
   0.6041563678956086    0.3941142981336838    0.7984003490538260 V
   0.6043282036181865    0.5929263177610199    0.3992462439996694 V
   0.6043528493998709    0.5970323840419233    0.7973674606383434 V
   0.6026264274446136    0.8042081141779338    0.0031253223068599 V
   0.5987846108695504    0.8036800511133588    0.1999220247334458 V
   0.6080422131117735    0.8116656757573006    0.3991820041075086 V
   0.6032245127069371    0.7997122640383363    0.8097777725840812 V
   0.8022316761863897    0.0042383837393729    0.2036225246222742 V
   0.7883979478149481    0.9909415217393502    0.3904356079323121 V
   0.8085955738957042    0.0004719071554429    0.6045707171047687 V
   0.8111330943899900    0.0129395230427436    0.8109915183372060 V
   0.7950784052371253    0.2029453573211263    0.9983451619494890 V
   0.8017126320513670    0.2057326452261772    0.2029328889203498 V
   0.7930256284221212    0.2012101554621957    0.3964009565293360 V
   0.7991749262779382    0.2024874498248160    0.8076228845051231 V
   0.7806648512238457    0.3876247436452341    0.1864823055360101 V
   0.7947750962054320    0.3939487710504168    0.3980486463196721 V
   0.7912258263231159    0.3938741062533440    0.5939765810381743 V
   0.7936146516655534    0.3945313414429531    0.7953910739696340 V
   0.7979507864711937    0.5941431879156532    0.9958943023013395 V
   0.7844528515828791    0.5891598021619401    0.3935456668051496 V
   0.7955715619404281    0.5924382917641640    0.8018568216650889 V
   0.7975635800907361    0.7978223672804304    0.9976746203031948 V
   0.8013124245296328    0.8024499510507741    0.1993425632894127 V
   0.8014676560879057    0.8009900020635228    0.4001393873088357 V
   0.8162675845598473    0.8062275885139457    0.6025759964664825 V
   0.8066469273219505    0.7970830252022983    0.8045274254938246 V
   0.9998535092933937    0.1993952448495968    0.2038679428912290 Cr
   0.9968619629243467    0.2040417503059780    0.3899940075005203 Cr
   0.9948925015162347    0.3852315441429682    0.4005547787873174 Cr
   0.0037290147431109    0.8041843582745182    0.8028378625545235 Cr
   0.2073719680502031    0.8071606685337726    0.0033410233710188 Cr
   0.3994591526749177    0.0036888539476890    0.2005155075733042 Cr
   0.4080900829068101    0.0080408972120704    0.4003573689964025 Cr
   0.4054030855682172    0.0116008438779665    0.8077760402867243 Cr
   0.4045268042288530    0.2012078465711771    0.0049522053547365 Cr
   0.4100244368087837    0.1986298498371970    0.8091277343536368 Cr
   0.5980514503309412    0.2012400272042712    0.3997216016707477 Cr
   0.5930499148782560    0.2014602255813530    0.5963342788302753 Cr
   0.6008035487178329    0.2030820264037815    0.8022329416828559 Cr
   0.5938195095300381    0.3892487670949639    0.1961509012955150 Cr
   0.5939378161847638    0.5851195407202591    0.6003969354398009 Cr
   0.7881495325391359    0.3895212253832114    0.9919575256511538 Cr
   0.0053747079848026    0.0034910638918647    0.0006146478119915 W
   0.0023633870299678    0.0006975695165033    0.2001876824404281 W
   0.9938055659527646    0.3984904342845307    0.9971058709501254 W
   0.9986907974281860    0.5983420804334452    0.6073219487176668 W
   0.2047308814492305    0.2041508298366008    0.3989318697943841 W
   0.2011775166019007    0.6060342739032161    0.0001268451835401 W
   0.2029131903894175    0.5968338630833290    0.6026984059783072 W
   0.2017760590895267    0.8036949369898142    0.4014992203227789 W
   0.4009280374927094    0.8046784545269204    0.3957374592535381 W
   0.4055911089514412    0.8050930353695418    0.6059449852117175 W
   0.5990869618647610    0.0042658690394966    0.0020702276750382 W
   0.5962938507869092    0.0039335019606035    0.2007083304137271 W
   0.6004008400682272    0.6005892069634158    0.9977597020346465 W
   0.5989531186669400    0.5952764448985429    0.1991057252037094 W
   0.8021173556288709    0.0044515441955386    0.0029108716076852 W
   0.7955323207473654    0.5965449492901268    0.1959246722645341 W
