Zr Ti V  Cr W 
 1.0000000000000000
    14.8384858781632722   -0.0296784235880333   -0.0860096790026377
    -0.0299030397849070   14.9806760860839194   -0.1092201119308252
    -0.0857202695380837   -0.1091107235215613   14.7860312647570353
 Zr  Ti  V   Cr  W  
   5   2 106  10   1
Selective dynamics
Cartesian
  3.1468093401291064 15.0870352208933056 -0.1647259618186454   F   F   F
  2.7350523204276844  5.6652992230252988 14.7516934255584928   F   F   F
  2.6061601165729429  5.6499991123976550 10.9717486722309179   F   F   F
  5.6390883852333529 12.1227942759770926 14.6049040206590437   F   F   F
  8.5222824903846011 12.5733301354903624  2.5469807060534273   F   F   F
 14.8410228227956296 12.1202093899721550 14.6264675746575179   F   F   F
 11.6324646919738441  5.6588171080098348  6.0693579763405561   F   F   F
 14.3844712850471925  0.6955395926877684 15.9767461380496485   F   F   F
 15.3573916158261667  0.0067876771599199  6.5673321643597253   F   F   F
  0.4128029328712458 15.1977360222782067 12.3904119450439225   F   F   F
  0.2075891338394612  2.6670094711134387 14.6114574967263646   F   F   F
 15.7315462396581651  1.7211922537186517  3.3252145634568793   F   F   F
 14.8328910281694188  3.7772874701997585  5.7147430059879269   F   F   F
  0.8573781464893950  2.6119283415916996  9.1052314882982035   F   F   F
 14.7035972669631700  2.8217375730444592 10.7708228315036116   F   F   F
 13.8480931649911803  6.5097635772153932 -0.3865435097975224   F   F   F
 15.5591755782478707  5.8662682818458869  2.8681521079274734   F   F   F
 15.0779293293658139  5.7936058432622808  6.7531357350456114   F   F   F
 -0.3831172256432411  6.0053511712999335  9.0565760704931186   F   F   F
 14.9120525356173399  6.2563366777094664 11.9841609674834491   F   F   F
  0.3316450468547457  8.3786452638181643 15.2219771135616586   F   F   F
  0.4093644837569039  9.6125195425449217  2.7062387087798454   F   F   F
 -1.2136234839592630  9.3879759586095304  7.9636745014766577   F   F   F
  0.4298324872116563  8.6921594752868678 11.5541481277987099   F   F   F
 13.9529611075464643 13.1188024144764306  3.4689051169583371   F   F   F
 -0.2072538135300325 11.8373813583265246  8.1474836342216346   F   F   F
  0.2118167299548447 12.1491664105444102 10.8728994463134025   F   F   F
  3.4123375123371416 15.0751215756153449  3.6678009190476852   F   F   F
  3.1967630604743955 14.7383973060258118  9.0143307886722628   F   F   F
  2.2395090281560228 -0.1276785838854615 10.9815562026772113   F   F   F
  2.2571770301463085  3.2236069691104778 13.5954730128701513   F   F   F
  2.7987945770419236  2.8493096742974053  2.4896237440315430   F   F   F
  3.2730035212416757  2.3944444917344785  6.1754736421044178   F   F   F
  2.5628199513765160  3.2453348816734318  8.2383583431006358   F   F   F
  3.5144307789461622  2.3786224054771674 11.7524426610658210   F   F   F
  3.1632594217054053  5.8221430966131313  3.0286595521648376   F   F   F
  3.4374555398191404  5.2423862040173761  5.3242292884315212   F   F   F
  2.9546457060766258  6.2608932477341082  7.3778808618423506   F   F   F
  2.8688890373787017  9.5573024605186223 14.2945898990978471   F   F   F
  2.6137737833430559  8.3377371820622770  2.8461026763474346   F   F   F
  3.3257022894731509  9.0053139231136115  5.0340925555579874   F   F   F
  2.5259621572007718  8.3836979516014765  8.4360893980032738   F   F   F
  2.8073359295862659  9.4383178981695686 11.3062012365880697   F   F   F
  2.6002304681841735 12.0723851563241400 14.7059396422236279   F   F   F
  2.9779347497932731 12.2959157594794064  2.4267205870165589   F   F   F
  3.1016682965710136 12.2573687336383870  6.3730958018610089   F   F   F
  3.5087440765245059 11.0590646302906475  8.0367317876018660   F   F   F
  2.8659547274176447 12.4235914767051661 12.0674151579662290   F   F   F
  5.5345992045279884 14.8409747339327041  2.3885184698683308   F   F   F
  5.8466688639859923 -0.2840586116273134  6.3469620463098728   F   F   F
  6.6537502120649714 -1.0332331924371265  8.1472284715222827   F   F   F
  5.7097996803299420 14.6939891520441996 11.8060929918071960   F   F   F
  5.2769179129637758  3.0226699315861172 14.9122313565004365   F   F   F
  6.1187917583604179  3.1909117681504680  3.8060605208188290   F   F   F
  5.9608548196156397  2.7414088575130919  6.8389466822492357   F   F   F
  5.8987111812157913  2.3307872886297307  9.1684464572402380   F   F   F
  6.7306578875936180  5.8276775966591341  0.4171196364221176   F   F   F
  5.4746585441633764  6.0255355539325137  2.4779467834278068   F   F   F
  6.4387830509618968  5.7372984580817850  6.2866123704178669   F   F   F
  5.2346000127247256  5.9924503789931176  8.4525045081430328   F   F   F
  6.4134901622468794  5.9497837791517867 11.3360630902300770   F   F   F
  5.5628800449890985  8.3264357078047535 14.5774508580695077   F   F   F
  5.3254814171065101  8.4416091969414708  5.4660914571581918   F   F   F
  6.6091076980967021  8.6238382384043586  8.8106021335657303   F   F   F
  5.2502065509679170  8.2183215554742244 10.7304512582063847   F   F   F
  5.1304396115252695 11.8759441040180462  3.5052477434970326   F   F   F
  6.6815921954692277 11.0987091439318686  5.9271605122043480   F   F   F
  5.3203134378377435 11.7430898523648395  9.4958619703258851   F   F   F
  8.1450666159587168  0.0556179238784938 -0.0570787113178633   F   F   F
  8.3005725073190586 15.2618819713552725  3.5333155028155976   F   F   F
  9.3844174448193680 14.5923132845248897  5.6796854113291300   F   F   F
  9.5516867592775654 14.3991662864662793 11.3396792821139432   F   F   F
  8.9059939952767735  3.5231729102398956 15.1676957130618941   F   F   F
  8.1541902323919029  2.6546327075432692  2.5184943732032710   F   F   F
  8.9219116207675491  3.0486703223822227  6.2989191008167973   F   F   F
  8.9063058513962208  1.8534457847161303  8.7949901123324192   F   F   F
  7.8141741918556891  2.6565052710190802 12.3099012656034077   F   F   F
  9.1982108209644586  6.0489373398068649 -0.5000454113292016   F   F   F
  8.9650516961984899  5.5046035175492953  3.5037576043045102   F   F   F
  9.1657040497124971  5.6677924942288129  8.8739789173305894   F   F   F
  9.4016910656341324  5.9719210550507054 11.4741450678693173   F   F   F
  8.3798638904112615  9.6898201467590113 14.9003111963380288   F   F   F
  7.9464753320265071  8.9298821738755372  3.2021628697260613   F   F   F
  8.9941676348204869  8.2737096541803101  6.0475125333513011   F   F   F
  8.7889484050295774  9.6023317255460494  8.7065752103527956   F   F   F
  8.0704904662777341  8.4659057639542237 11.3565966916079368   F   F   F
  9.2209169911268081 11.4563453383234037 13.8739627732194801   F   F   F
  8.5370168664172592 12.0403616543198346  5.5442080049529601   F   F   F
  8.9120115758730307 12.1620565057682715  8.5839027143018516   F   F   F
  8.2898442500288869 12.3338488260294437 11.8771371193487223   F   F   F
 11.0002573893935214  0.3983921777567648  2.4695960318457115   F   F   F
 11.4767314163597245 -0.1684879567440850  7.2534988454784459   F   F   F
 12.4386291271731384 15.4831002497043535  8.8631273958837262   F   F   F
 13.2377349076469244 14.7419259787069663 12.3146560646463143   F   F   F
 11.1835865425316019  2.2445635000968363 -0.6259741252582899   F   F   F
 11.5593218442620529  2.9274150656360218  3.3797509942192860   F   F   F
 12.4458466165590664  1.8938850489161057  5.5180508332490863   F   F   F
 12.1352585287013319  3.3253420217830683  8.0623077542210169   F   F   F
 11.3115496760454803  2.8786588582155099 11.6722807096439105   F   F   F
 11.5816026352177346  6.5783208548436978  0.9062914704761341   F   F   F
 12.7032302508316981  5.4123005473470940  3.2505592657111477   F   F   F
 11.7550718979791124  4.9108991350067699  9.7841936604031563   F   F   F
 12.2789476401028139  5.9069336100779184 11.8970606249383621   F   F   F
 12.4474806634288804  9.1758673352698050 -0.3212459226818826   F   F   F
 10.5838369683630944  9.6229192787896380  3.0259585518700542   F   F   F
 12.4288485798529340  7.8046379323956749  4.3984865769949764   F   F   F
 11.1520936821889318 10.7246323483192381  8.0125252107578717   F   F   F
 10.7015767364263557  9.5515681607374532 12.0056965176969292   F   F   F
 11.1640085443894730 12.8050976085941741 -0.2024620849518688   F   F   F
 12.0905466532572028 11.6896449329972363  2.4524765829471948   F   F   F
 11.0315874851616247 11.3489420887263037  5.1910360587573088   F   F   F
 12.2766709865534445 12.3692817879268127  9.8115945512350784   F   F   F
 12.2912463043970437 11.8129947640812407 11.9172363703151234   F   F   F
 14.6138528726411696  7.9345759065144392  5.7835411183874790   F   F   F
 -0.2914040669551389 12.8531428717982195  5.8366534844933655   F   F   F
  3.4233282936260871 15.1437844150381498  6.1027580001842683   F   F   F
  5.6773211157140926 15.8375814768532504 -0.5986399942942608   F   F   F
  5.8529526380632406  3.4985976943468469 11.2814769070117915   F   F   F
  5.9267514263103367  9.7230956480545689  2.6214807765863117   F   F   F
  5.7744889591543647 12.2496174665908519 11.9050100330399840   F   F   F
  8.8387099766031589 -0.5295587839079767  8.6590260157997783   F   F   F
  8.8660139433189826  5.8265064501676047  5.8967341766855244   F   F   F
 12.1538259204044579 15.0766807740926474 -0.2739625934020638   F   F   F
 14.6873477237519783 -0.5829981697745269  9.5495970724134800   F   F   F
