Zr Ti V  Cr
 1.0000000000000000
    15.4889002550493640   -0.0195313770937778   -0.0155534076795571
    -0.0195267745976093   15.5102089440028070    0.0059105293967036
    -0.0155475950656657    0.0058984254639578   15.5083315327291498
 Zr  Ti  V   Cr 
   4   5 112   3
Direct
  0.2110080755477714  0.8012334581939917  0.1917572408656079
  0.2274795168351910  0.8040714471328314  0.7931405661355417
  0.3910848156211650  0.9653256532863581  0.8376778316084219
  0.3867751373954502  0.7956762850881949  0.0002923877705880
  0.1995824724514005  0.4009373525434582  0.0001238338704748
  0.2100085914695218  0.8124144758666171  0.5919835905522035
  0.3983232238613026  0.0143368980852304  0.0268663604508351
  0.3899425386539088  0.9901595317549184  0.5977785872345692
  0.8011834280937361  0.8002603661730358  0.2029517354455219
  0.9961841622741276  0.9995791617007738  0.0002826018939393
  0.9985572740357005  0.0011572979161615  0.1999087494624227
  0.9986588080782485  0.0002238581135242  0.3988577624264500
  0.9972613034109792  0.9995196395187320  0.5999874360565713
  0.9980300473705485  0.2009783770670455  0.9998824739352971
  0.9992395771852258  0.2006416741028788  0.1991594919804702
  0.9989668487477340  0.2000343724225626  0.3990748685748847
  0.9983325885773637  0.2017788926971405  0.5992557006567880
  0.9983998104642281  0.2021268911639260  0.7997602058226951
  0.9970215140159594  0.4010370528211220  0.0006196995587777
  0.9990393609185747  0.3994604794020944  0.1998305852271419
  0.9994366740082915  0.4009208044191400  0.3994186126363902
  0.9997278276655376  0.4007017116205279  0.5983815945638357
  0.9996469331652460  0.4001245205881510  0.7996196798107553
  0.9987717463338220  0.6014715842601827  0.9990914661330550
  0.0008830768143143  0.5997883830781078  0.1994123534275503
  0.0003748854927731  0.6004496727027678  0.3990036838120812
  0.0025195432607505  0.6034271151066541  0.6016125087937092
  0.0014197697851166  0.5987363332049476  0.8007192468816940
  0.9946845299366240  0.8006448889413452  0.0009911194334032
  0.0007347728802786  0.7999847767236530  0.2006524688066366
  0.0008929404346232  0.7998057181358450  0.3989686575739100
  0.0022436215080381  0.8015040964654315  0.5962286736478480
  0.9964749327834037  0.0028918506965277  0.8010696547970614
  0.1944724229938124  0.0039479630618122  0.0015467680245247
  0.1988897748058793  0.0042676352339034  0.1997348460996528
  0.1971749183377516  0.0020391930611108  0.3982646193376559
  0.1932406696960897  0.0085275565730411  0.5984484140895258
  0.1886802547112562  0.0091085557125845  0.8001132131280060
  0.1991342961456188  0.2004741606349618  0.9990008971867992
  0.1997685586218889  0.2014921164436544  0.1998003137838349
  0.1999967833388663  0.2004141252270239  0.3996159243466795
  0.1991011320635328  0.2023541039824789  0.5988269309625883
  0.2001400623838960  0.2018966097892018  0.7991723484016733
  0.2001535516904480  0.3996408118218934  0.2015853771971415
  0.1996574543299093  0.3990267335802260  0.3993538572779569
  0.2001076010966868  0.4004440141140273  0.5985428666501295
  0.1999008877458247  0.3998319891428337  0.7975597799278563
  0.1984515599255011  0.6025333176062305  0.9994344193722402
  0.2004326977526496  0.5958781296665627  0.1995035769858344
  0.1994916702126275  0.6006068608072510  0.3996687890099088
  0.2013701166923283  0.5995124690517784  0.5994422183374059
  0.2001685058094495  0.5968202665005652  0.7998883117687486
  0.1836030847877143  0.8013977423020497  0.9939721825689092
  0.2005899320988669  0.8011983610505632  0.3974034400141860
  0.3991024443696046  0.9994517435732490  0.2099120493675097
  0.3980672497978100  0.9987814741728702  0.4007730933866555
  0.3986900314824289  0.2037098354910883  0.9985021175259122
  0.3995924036735514  0.2014921318403746  0.2013472659587331
  0.3994408805328059  0.1988703108555767  0.4007210242913688
  0.3990031907353084  0.1976277962611632  0.6014665111626143
  0.3995270927610891  0.2027530921092404  0.7988258492689322
  0.4018006616521743  0.3988786394358192  0.0011190131179040
  0.4003481406517961  0.3991155884731563  0.2010066379461229
  0.3997142054474936  0.3993292365049432  0.3997661178630976
  0.4007142939732700  0.3981325047157658  0.5983374437394829
  0.4007856066165785  0.3975848899625213  0.7983512315250100
  0.3982734346105796  0.5917158655792497  0.0005747833251915
  0.4001550385863116  0.5979479646708677  0.1999194780841579
  0.3991466318483622  0.5986510369349735  0.3994818301801570
  0.3997661297817010  0.5957366611699075  0.5983200182352032
  0.4009135384024591  0.5910134840242927  0.8006568703331625
  0.4102746125557314  0.7974550584577124  0.2070419122828775
  0.4018569106438964  0.7971667598881657  0.4015320273795898
  0.4090534846664059  0.7921698910161018  0.5956854394062752
  0.4181056234345134  0.7773112646106799  0.7910572813083696
  0.5973264052534932  0.9991921788888797  0.9993543840319891
  0.5985453715924307  0.9997876659954832  0.1987368176398904
  0.5990016226185623  0.9995381362051444  0.3993568360483885
  0.5995464398321774  0.9983302575660519  0.5992895787074268
  0.5991461565044782  0.9997403652864780  0.7988039364341640
  0.5984877428803557  0.1986576806740684  0.9981683171831176
  0.5988988862659276  0.1995198865611154  0.1993015575570048
  0.5985683558242784  0.1981898486000750  0.3994144539486846
  0.5990960174358941  0.1978458699917043  0.5993210756492713
  0.5999005732340449  0.3985946977648732  0.9992177537649746
  0.5998184062101821  0.3984781057751839  0.1988917945382576
  0.5998183705239113  0.3990212641278308  0.3989621154272931
  0.5996382235479203  0.3981081397957013  0.5987709767738105
  0.6010407034688008  0.3983066263120935  0.7994968581070182
  0.5986080704322472  0.6001981666258103  0.9989075897860633
  0.5991214848707059  0.5991861890208711  0.1982755808358804
  0.5998796808663329  0.5996068388114559  0.3987279176638402
  0.6011200637887818  0.5984544662853347  0.5996899237951268
  0.6017750360746317  0.5966804642655328  0.7998554726520526
  0.6005158541877649  0.7991317224577541  0.9988987218445775
  0.6002882156093705  0.8002362396850892  0.1977664928171912
  0.6009215155375273  0.7999121083231738  0.3995604353656002
  0.6044813970935538  0.7990066919819204  0.5981845257785461
  0.6046579557772634  0.7987281217046476  0.7985428298392347
  0.7981097818051509  0.0009470705398877  0.0000943711390398
  0.7980597078048524  0.0029353372180125  0.1996947651812150
  0.7993148263030145  0.0002432461686523  0.3994967939233463
  0.7989525894524742  0.0006872505933213  0.5996965405909245
  0.7992222509412303  0.9997110617193865  0.7999454438158374
  0.7983970648422120  0.2001952565377147  0.1991171342277913
  0.7987412303731042  0.1996188695950553  0.5991509371438939
  0.7985866428850217  0.2003522133309460  0.7998493792592105
  0.7985025077098409  0.3991686722588146  0.9994678968510881
  0.7991829033867714  0.3989377579967986  0.1998930033195923
  0.7993468747664266  0.3992419753302639  0.3992111381072284
  0.7996890478470788  0.3994192509346402  0.5990919869853047
  0.7999239299683334  0.3997301774174789  0.7994839234641866
  0.7993556128953586  0.5997453060040937  0.9998754367687305
  0.7993598114375611  0.5970314038995187  0.1992041349294166
  0.8003416383803454  0.5994112426508217  0.3996229235067215
  0.8011159647967089  0.5993968088787566  0.5995639723406350
  0.8021204027444410  0.6002017003988281  0.7992643058753196
  0.7986761214282820  0.7998526252697690  0.9961263664977427
  0.7995686211381589  0.7996745558760586  0.4017795051734805
  0.8035200152091448  0.7994544432078960  0.6005115715729464
  0.8005124357246778  0.7997469098953178  0.7993713285322832
  0.5991293939886844  0.1985281476543006  0.7991690533692446
  0.7979618766985005  0.2000779901697302  0.9993251241303814
  0.7987560182987651  0.2000381063744830  0.3994821871078668
