Zr2 Ta1 Ti3 V111 Cr3 W5
1.0
  -7.5249999999999995    7.5249999999999995    7.5249999999999995
   7.5249999999999995   -7.5249999999999995    7.5249999999999995
   7.5249999999999995    7.5249999999999995   -7.5249999999999995
Zr Ta Ti V Cr W
2 1 3 111 3 5
direct
   0.7975576914712001    0.7987541171949855    0.5993452013090476 Zr
   0.0064427998325793    0.4037157914762411    0.7996874529190707 Zr
   0.7967406744051743    0.1982546042010735    0.8014370686116106 Ta
   0.6021754796553426    0.6041758780297340    0.0035700458510754 Ti
   0.3987089132324405    0.1995167227525094    0.5994704392431618 Ti
   0.8002661545234493    0.7998807367017624    0.7983470965291757 Ti
   0.7980649653488089    0.0001323291722918    0.9993205495850179 V
   0.5963405774329096    0.9971419460251912    0.0000052620621395 V
   0.8007512510164676    0.2036456287011855    0.0016309903090944 V
   0.8005551541868758    0.0017610352468110    0.2049073076698384 V
   0.4030212368872699    0.9972597945590694    0.0047074899595682 V
   0.5996711059351086    0.1984611764680511    0.0021043570454671 V
   0.7964304963176503    0.4020142749166565    0.9959966690816270 V
   0.5957366241043737    0.9941243990173783    0.1910565062263430 V
   0.8004927137700348    0.2002320880818974    0.1994467144841914 V
   0.7985240500936583    0.9949680316853046    0.4000945723770248 V
   0.1981465360857509    0.9986435112859022    0.9947519909898415 V
   0.4023412530557430    0.2028864604154025    0.0016888716141310 V
   0.5994553975703835    0.3985309786359025    0.9980877831946815 V
   0.8005263200302108    0.5981647002850872    0.0000521121752757 V
   0.4053780373632168    0.0033008683057635    0.2034999197452456 V
   0.5980262816189310    0.1959690678684847    0.1986231374119820 V
   0.7967385943701377    0.3933780886823074    0.1917191405242062 V
   0.6002995505946737    0.0034743935754582    0.4002472480177071 V
   0.7969209935161322    0.1962538484102084    0.4009213748353857 V
   0.7989475703632134    0.0066630703418344    0.6027582795154274 V
   0.0039912052739102    0.0056396892131239    0.0035085079314992 V
   0.2032887528456760    0.1968648052840062    0.9970993623619289 V
   0.4027884821624079    0.4030132810949667    0.0066429211805158 V
   0.8014763157269243    0.8017698472416842    0.9993637365667856 V
   0.2026763973637116    0.9964021941790809    0.1945314959847967 V
   0.4000215239539697    0.1977493724853726    0.2055540022203607 V
   0.6055515841823642    0.4000894766805040    0.2025053108761398 V
   0.7990755412384779    0.5996567808160257    0.2042666078325461 V
   0.4002870596865320    0.0010533196194512    0.3967161090990058 V
   0.5979282118022676    0.2002811232476604    0.3998852052311805 V
   0.8000827860413220    0.3984341532259566    0.4004448020489431 V
   0.6070783747024560    0.0013866298574097    0.6058089321384352 V
   0.7997739051642461    0.1984641511268225    0.5980257489191138 V
   0.7984706755634718    0.0032866309009251    0.8010781728823199 V
   0.0051332984437522    0.2033301544045037    0.0046036076696061 V
   0.3983977204378374    0.6020788997132184    0.9970928599544656 V
   0.5973074366704446    0.7984667288247211    0.0001262377727039 V
   0.0030359583379672    0.9960939072239827    0.2041268508117996 V
   0.1978376750170564    0.1993157266295393    0.2005372871774843 V
   0.3993954761488554    0.3983583072427062    0.1992332877213319 V
   0.6051391048740129    0.6039471181830919    0.1975588245021083 V
   0.8019488033142395    0.7994443731918911    0.2042354276172888 V
   0.2018076824871164    0.9995755991911766    0.4018015298951603 V
   0.3951668906329238    0.1968285395090129    0.3949444897369676 V
   0.5999353354960248    0.3992700811186538    0.3979432449943833 V
   0.7965920172963108    0.6036534594038675    0.4007915500777728 V
   0.3976989906074373    0.9921818329730714    0.6001359362379537 V
   0.5993835494152702    0.2029115430521332    0.6000069718075484 V
   0.7970581012064657    0.4017571370965058    0.5991012728848520 V
   0.6009310207266367    0.0009952407718372    0.8008907275509969 V
   0.0084266232655904    0.4023675450894867    0.0042802934075752 V
   0.1953577856336996    0.6015306804399718    0.0017566698988060 V
   0.4055424557163230    0.8039310725271867    0.0031854280683905 V
   0.9959965268127570    0.2000391933909825    0.1959935330457290 V
   0.1985684363624318    0.3933882900561672    0.1973011727415594 V
   0.3964331112043117    0.5989443991553992    0.1974699175605932 V
   0.5995980145252923    0.7972055305912820    0.1975146044957209 V
   0.1993115902424047    0.1964697694318520    0.4038111099129349 V
   0.3978358827130601    0.3968688881439709    0.3988356998744941 V
   0.6005378094758340    0.5982039469677097    0.4029804758597560 V
   0.8043291477995689    0.7999596304844241    0.4006331398336849 V
   0.1997382525252053    0.0021355081517865    0.5988536765633712 V
   0.6042438544355981    0.4083097098082219    0.6052793122637965 V
   0.7955774943963289    0.6014152988579189    0.6021764441084447 V
   0.4058217959583518    0.0047254671962243    0.8074238142288760 V
   0.6075716595729092    0.2028684634875078    0.8005221641973995 V
   0.8017982976022974    0.4027641278408697    0.7980939874087687 V
   0.0004250237270768    0.5996238568785346    0.9993494853874725 V
   0.2058938609230737    0.8018037511078434    0.0052283017947186 V
   0.2015653664508406    0.5996484115704448    0.2002743002965505 V
   0.4036901116049529    0.8010311562613389    0.1993296849407297 V
   0.0043593745571089    0.2073350417858628    0.4064732774487796 V
   0.2024054710736989    0.4068348221929122    0.4003574478871894 V
   0.3950071514328919    0.5992546409666719    0.3995496673050293 V
   0.5999092353514192    0.8045901100264157    0.4005828468412125 V
   0.9981526194571775    0.0041384498104388    0.5975806408890981 V
   0.1983497473197288    0.1999953513547394    0.6002926940982132 V
   0.5984329984547352    0.6007784772093858    0.5966503030401891 V
   0.2011742592681109    0.0009799308352818    0.8003171378374985 V
   0.3980696176884374    0.1997608884042333    0.8009300242213724 V
   0.6003170837418357    0.3992943160326442    0.8004712740189783 V
   0.7963071814387962    0.5974961969031070    0.7994195087690890 V
   0.0015131127428957    0.8036728401845791    0.0003569974076275 V
   0.9986390889050683    0.6023181267456883    0.2010203111205302 V
   0.1984829185308520    0.7980927278991841    0.2002511623952462 V
   0.2000566745918144    0.6019267581492228    0.3978188355617299 V
   0.3942391804705746    0.7925787267267252    0.3949380330822576 V
   0.9966338045649787    0.2025125622404109    0.6003819676903031 V
   0.4003167545487633    0.6010899744335237    0.5996088600875149 V
   0.6023982175326434    0.7990693801659565    0.6030998782065253 V
   0.1962193982988376    0.1910425152910687    0.7978769063665062 V
   0.3978123778675314    0.3979414920766434    0.7996986220294543 V
   0.5979475985191882    0.5989914401753491    0.7946025701461070 V
   0.0036089157181108    0.6058654459131799    0.3990556592070073 V
   0.2012718022965942    0.8019260536922630    0.4013753122876071 V
   0.9985801341565544    0.3987519116950800    0.6013531371683499 V
   0.1999548973027204    0.6039518960299404    0.5996839514845206 V
   0.4086626461589507    0.8060577945876533    0.6039086379330357 V
   0.9991861908096793    0.2013565349294576    0.8016608027971133 V
   0.2013744128904476    0.3977067518382706    0.7943466383355746 V
   0.4000307266609794    0.6015763253023099    0.8009984367882439 V
   0.6001162948629408    0.8005692115423977    0.8014818913527311 V
   0.9993693000406644    0.7990119256302624    0.3994457258162793 V
   0.9962938883620392    0.5962015535290912    0.5983997015259620 V
   0.1997530045232178    0.8036794024049618    0.6040243032869789 V
   0.2040786680051242    0.6054885003641585    0.7998360262960704 V
   0.3984386790280934    0.7945525836618790    0.8021281519654782 V
   0.0058356354419130    0.8054124835613874    0.6081601866811920 V
   0.9985451364437831    0.6014198560412973    0.8017577158923305 V
   0.1988915607209710    0.8024697423504082    0.7952117295932264 V
   0.9950458476624666    0.7991554352897089    0.7972928745848936 V
   0.4019748448091847    0.4058189150387807    0.6047886238538651 Cr
   0.0002594253712195    0.3998358060688371    0.4011203981438694 Cr
   0.1967939154045180    0.3989003302855585    0.5935829639960278 Cr
   0.1995787109661644    0.3985128579333505    0.9989557502210117 W
   0.0057722211986501    0.9995877895639455    0.3981521860222089 W
   0.0031943686408031    0.3960990144403994    0.2019886596390567 W
   0.9935841748111844    0.9999549177287934    0.8025239656925330 W
   0.9993338387125559    0.7939084271352819    0.1975475337448147 W
