Ti V  Cr W 
 1.0000000000000000
    15.3720038313806135    0.0023998420144863    0.0001449001601191
     0.0024007571799185   15.3633006247875361   -0.0006442210894229
     0.0001450310074229   -0.0006449824026597   15.3697544548857330
 Ti  V   Cr  W  
  15 104   2   3
Direct
  0.0061404267788441  0.3919421338823829  0.6013253359565771
  0.9916013221422108  0.8027452961455183  0.2063493845828422
  0.0083390503884283  0.8000693334317316  0.6025540525803919
  0.2027864311810227  0.2022189117437552  0.3930965675394580
  0.1949051626244497  0.2057964148015069  0.6035301409722637
  0.1976122193722899  0.3968580152758896  0.2047855146651546
  0.2033351101844418  0.7997298914530151  0.1994523792864081
  0.4063543663317185  0.9964399280024543  0.8067180298446368
  0.4018751169224457  0.5985515861339296  0.8018187671414555
  0.5929195735943462  0.9964024272315837  0.9948249291751599
  0.7914867915977586  0.1980197630922482  0.7966317419797154
  0.7999159239093522  0.4030380596288080  0.1927734428962529
  0.8017732599486229  0.5931405866145687  0.0024655808534188
  0.8084382193065492  0.8004909580335853  0.3922640064846435
  0.7977106171100714  0.7968874699956281  0.6049043972220833
  0.9986308001110439  0.0010187217429729  0.0004195828231324
  0.9984164679273823  0.0016838204431375  0.1989329769390842
  0.0011186724504425  0.9993506601811308  0.6002585803499157
  0.9999231613526700  0.9999992995260063  0.7986813891667652
  0.9988515100370946  0.2001413286060084  0.9989417431269897
  0.9982676617171052  0.1994167007086367  0.2009189992187171
  0.9972508334747417  0.1945573643174025  0.5980524213688512
  0.0003519278366325  0.1996562217252337  0.7993997316093227
  0.9964957831102557  0.3996247715018943  0.0005149136445988
  0.0004341908590735  0.3995162134552111  0.2005043752592734
  0.9997379962692449  0.3971783239934255  0.3975664101920591
  0.0002189020156094  0.3987753429792572  0.8019423281099077
  0.0026833597172446  0.6001553379066001  0.0017326280177710
  0.9995441128380977  0.5981375312283647  0.2015383675716172
  0.0003509147318605  0.5982484674639128  0.4009988002517729
  0.0012168759599725  0.5978275037178984  0.5991449255651217
  0.9994435301521046  0.6002506116520009  0.7992369915188808
  0.9998491430994599  0.7992753580229712  0.9994824227023215
  0.0036175670266132  0.7968202272793379  0.4024925355011413
  0.9992632939289182  0.8001406614092534  0.8031064574024932
  0.1977753083116251  0.9998775880890298  0.9995690147472398
  0.1960787072433436  0.0005896702897426  0.2021948031696058
  0.2032146575557262  0.0000245482084609  0.4007660428876670
  0.1998883061377988  0.9998849878798616  0.5989210554806077
  0.1998002801805288  0.0001805371467551  0.8002201981274724
  0.1988546096996541  0.1973026657313262  0.1970007539161815
  0.2010010853537013  0.1990521158701099  0.8025065589278737
  0.1989269816322036  0.3998341240753906  0.9990089652053709
  0.1988763690416991  0.4024538186125760  0.4057200817300978
  0.2040158311121273  0.4038577124968099  0.6028236569888518
  0.2004757049308832  0.4010704118028074  0.8015185142089134
  0.1990844010567318  0.5992281744177483  0.0008958242368844
  0.1991496274744854  0.6003497636322057  0.2017615182342408
  0.1991632599616275  0.6004144334311137  0.4005938192992302
  0.2010791838255537  0.6017537114105910  0.6011302499559275
  0.1973851173239983  0.6002282701675609  0.8003956142610692
  0.1993993367237194  0.8000504296389399  0.9983009049329418
  0.2004108327079633  0.8013844188730075  0.4034181846802539
  0.2056071994821409  0.8004302528713516  0.6023561347946762
  0.2009939431690971  0.7999418756131058  0.8006113744510257
  0.3955385656750839  0.0001839233242664  0.0042255460952442
  0.3981001099215982  0.0003678916619108  0.2007486919830817
  0.4024326564827812  0.9996038178150828  0.4004215659891037
  0.4002156095674055  0.0001616779641476  0.5991846426203197
  0.3991204538178987  0.2008993855443663  0.0000780132101632
  0.3991372852178340  0.2003657260261370  0.1975899752458658
  0.4019903433602172  0.2012897700463643  0.3998710659499644
  0.3999106144062226  0.2001363596672874  0.6007973107789355
  0.4022558328174485  0.2019408162395802  0.8009055084247002
  0.3988908736152313  0.4012714842965726  0.0011100695388664
  0.4014654018803890  0.3996157246741062  0.2004780975119736
  0.4000785973789742  0.4005649556291659  0.4003140862382837
  0.4014703332092741  0.4009571393523433  0.6001895850915413
  0.4004630722675023  0.3990080365005952  0.8011247626113136
  0.3988409053521886  0.5990752689487807  0.0038542211838901
  0.3995612867210931  0.5997527979927053  0.2012887133814171
  0.3996504725301312  0.6000339254913394  0.3995828105369371
  0.4014243794592014  0.5999837456920615  0.5974936614898957
  0.3987057783876449  0.7989720421398100  0.0002237293981469
  0.4008948496102918  0.7998791225286329  0.1990914024353680
  0.3999166532200146  0.7990567707168225  0.3991914001684959
  0.4009639110248620  0.7993679474584635  0.6018402061836783
  0.4017569703350792  0.7991039523334622  0.8013310550824871
  0.5984390628039805  0.9996076164112331  0.2035065996995826
  0.6006127075739802  0.0002582186046233  0.5944976766743718
  0.6048754282723737  0.0044136092649991  0.7935359033779954
  0.5985250658195495  0.2020218331468845  0.9944104802677595
  0.5990706521640055  0.1995725691374010  0.1968798976102261
  0.5993808014693672  0.1981206022622715  0.4001515338482765
  0.6011606635338288  0.2003726640964724  0.6033246691734648
  0.6039042255364622  0.4010996792774952  0.9995608993807324
  0.5974488129046454  0.4006980353815927  0.1997506427574669
  0.6005543303747179  0.3989772862584930  0.4001520632309233
  0.6008368692152509  0.4007561457497352  0.5999913147910688
  0.6008029564238372  0.3973415781128796  0.7992467243789482
  0.5968637048413479  0.6001004779777750  0.9994203280741961
  0.5998692354053052  0.6012904244362355  0.2014478942091799
  0.6016347669707287  0.6020324820552081  0.4000672679693888
  0.6011789478310643  0.6005513476523916  0.5990909592989240
  0.6035185590598913  0.6005833729892699  0.7990749388540856
  0.5990526035556722  0.7973456173634903  0.9981602115459550
  0.5984678716829555  0.8005131754032878  0.1975690722975873
  0.5983864971083959  0.8044307211377478  0.4000304560364418
  0.5991724424341538  0.8006782736893486  0.6004569134087994
  0.6004940303511885  0.8023762590426738  0.7997731315732638
  0.8006968022603964  0.9998361086571115  0.9990204052051052
  0.7992036001423124  0.0004533399435394  0.1992228068022896
  0.7936065509318860  0.0015925413635440  0.3980737611760862
  0.8035893305449947  0.9995273527956375  0.5955997095284075
  0.8009766597248562  0.9973781640659422  0.7986843017932174
  0.7987493613338771  0.2020390924185302  0.0016059504856374
  0.7986338303803365  0.1988775297818844  0.1986291096464423
  0.7997813562400383  0.2013468529461920  0.3973898413578546
  0.8015292626170596  0.2010775660288710  0.5957713213432699
  0.7999036999650219  0.4006649827433759  0.4005709142644954
  0.8002777350477481  0.3995348586943807  0.6004763393324706
  0.8005580459175431  0.4037173995564157  0.8017217155953956
  0.7989054503219180  0.6031932901325300  0.2024376672270103
  0.8015101552637754  0.5975681935905971  0.3998409490885273
  0.8022777055160346  0.5972456574761416  0.5992702367856239
  0.8012159041446979  0.6010769256582510  0.7976528497618139
  0.7986293321066117  0.8003206230665076  0.9986835922682609
  0.7948455151439258  0.8001470521623093  0.1935829308300697
  0.7996771172056562  0.7994082229826800  0.8027717583561839
  0.9972031772760847  0.1986225313974174  0.3991686271940127
  0.1986921476435262  0.2004271338034297  0.9996892926962937
  0.5996962374227558  0.0016881738844081  0.3989607643731738
  0.5972090237759303  0.2007990741044191  0.7976208942536337
  0.8003497934793867  0.3977434674760009  0.9957481114414978
