Zr Ti V  Cr W 
 1.0000000000000000
    15.3205282173675101    0.0002014824685806   -0.0032720455521328
     0.0002023707323046   15.3277042438828079    0.0007193262014022
    -0.0032728540049734    0.0007198926617368   15.3420216939870571
 Zr  Ti  V   Cr  W  
   1   2 101   1  19
Direct
  0.3937424471480190  0.4177413320512229  0.8179957562127353
  0.6108008702918447  0.6073644867565862  0.0063740686399292
  0.7949330876526643  0.8631117091944286  0.0731609148547133
  0.9982879618765411  0.9977165003436126  0.9956400371770352
  0.0020942244999939  0.9992707479928740  0.1981780606396532
  0.9989950779090141  0.9975538557617243  0.3981408494565912
  0.9996742006138716  0.9953885104223662  0.6066715465538526
  0.0014060649947646  0.2000477406074417  0.9985770503569003
  0.9982236089747341  0.1991014128172748  0.2002858150458087
  0.9991577352004848  0.1987683814323140  0.4029982331149709
  0.9999196942260227  0.1992112690947023  0.6016356276476390
  0.9960239385325996  0.2164745250603317  0.7997425078983006
  0.0039831021871204  0.4002514187107682  0.9991074756223318
  0.0002829280950594  0.4000818179203326  0.1970775904763223
  0.0007896764451119  0.4008630422640471  0.3990856157484188
  0.0018952670854698  0.4036560373137477  0.6049998514878164
  0.0014348380823446  0.6006414903271614  0.9960180043542206
  0.9987744355390221  0.5977008207194261  0.1990854885465147
  0.9951956407409074  0.5986871628982188  0.4054482109162343
  0.0055337607214769  0.7982246727092498  0.9993892210062928
  0.9965100457528423  0.7986104725703517  0.1980593407322790
  0.0024899763310107  0.7991652728440312  0.4039762420087025
  0.0012585814669421  0.7930257446640882  0.7974473529007251
  0.2011169604438391  0.0020090788724854  0.0003432275986780
  0.1989094723828011  0.0000388070177648  0.1988990194288893
  0.2041973265310938  0.9957478091190662  0.3990648056282103
  0.1997941773200232  0.0055232399603652  0.5998387696309622
  0.1946840120059621  0.0001130245364505  0.8002129790919245
  0.2005615423495322  0.1981506465705645  0.9996975215433967
  0.1991491278852724  0.2009801218996303  0.2019086314970889
  0.1990613648569811  0.1994316835633204  0.4050771090743435
  0.1989073872543584  0.2005239405891741  0.7955777240979449
  0.2059570908760130  0.3978893059216635  0.9995068412041082
  0.2007760307045941  0.3993856971215258  0.2010194933192071
  0.2009220215833783  0.4000356299727704  0.3985510462484881
  0.2007967373258515  0.3945880901383709  0.6001131940999616
  0.1914883228785041  0.4001156855894717  0.8003147533351451
  0.1981317062453849  0.6004265990499511  0.0004792143922419
  0.1989723824615975  0.5984702798471858  0.2004273666767283
  0.2009728531209754  0.6027880267573028  0.4010450536855066
  0.1963501124262596  0.5971623781922863  0.5991181271424462
  0.2138501885668770  0.5973363145425287  0.7990765465319941
  0.2004835078782485  0.7998345241629096  0.0016572697812880
  0.2002945808991262  0.7984009486766803  0.2035098151632969
  0.1968568133329544  0.8002870245248270  0.5947683311638512
  0.2030967178207733  0.7987895180009690  0.7985448865189739
  0.3997971703079861  0.0011815628858933  0.0010127490804634
  0.4010900185559031  0.9999587135070869  0.2012313522653714
  0.3997104092525565  0.9995225303368521  0.5967186249279364
  0.3999724506411894  0.9963799996651265  0.8017922967791927
  0.4005032718645294  0.2030497376191953  0.9976482605205598
  0.3998487166981350  0.2002292790891860  0.2016650471453895
  0.3998792907413334  0.1958118696950157  0.4018370746981323
  0.4007236597476148  0.2005563794440865  0.6024863293312654
  0.4007244908337352  0.1984839026057249  0.7991204144160151
  0.4036903640455496  0.4009104436935750  0.2027425451605523
  0.3990086845216081  0.4021918367407625  0.4006910257539845
  0.3994758759774227  0.3993041902072811  0.6017183023858022
  0.3996752385426619  0.5976887381837586  0.9962779493007830
  0.4016448365420557  0.6006406672939055  0.1998710432222876
  0.4004622584238390  0.6006914634898010  0.4034682009509465
  0.4005901953439612  0.5984357611438181  0.6047159640428386
  0.3986056261805077  0.8009135190776103  0.9976019568224658
  0.4009785812938312  0.7974860118137739  0.1967335110738078
  0.3989740056304597  0.8006534859568418  0.6025354540884452
  0.6020116718055929  0.0021198105842093  0.0012747665272363
  0.5975831827432830  0.0010693440727116  0.2001720149571663
  0.5960996611733372  0.9983684976418320  0.3983133574114079
  0.6000735598841320  0.0038622144167675  0.6010519490829770
  0.6006494959298714  0.9996266104660912  0.8006007718129999
  0.6002610582713739  0.1997058406380505  0.9988352622444641
  0.6027127439742760  0.2020104049896452  0.2016517241151874
  0.6000837000313376  0.2002807169067732  0.4054980179583664
  0.6036836005852764  0.2008664265719652  0.7964890374220452
  0.5954877506010720  0.3973169907265208  0.0052766881217914
  0.5979576042231165  0.3990911784514592  0.3960302391515081
  0.5970520445531344  0.3948076311994875  0.6003760634740889
  0.6014852397316852  0.4009796534909969  0.8030408761935515
  0.6004349465215000  0.5948542241276661  0.2050433239021813
  0.6025937571826884  0.5999815225110232  0.4039102897935539
  0.6016079671207011  0.5978321688187612  0.5987791832328743
  0.6017137848794305  0.5994639209391079  0.7961286193851438
  0.5943946378834515  0.8036868715898786  0.0000135608092518
  0.6011605823247861  0.7990999582926213  0.1994885832120268
  0.5994945743051825  0.7994229007028163  0.4004144094098842
  0.6007886248195367  0.8022323805083136  0.5977991411372494
  0.5988037226087310  0.8024723717258242  0.7981120571348544
  0.7987762059283594  0.9982772409109102  0.4022963271638139
  0.8008477433273984  0.0026869776895060  0.5990971455610581
  0.8038111018571257  0.0011097407284920  0.8047844573098145
  0.7998115105505818  0.1972251736757551  0.9955579973820602
  0.8008679809638768  0.2031429951237125  0.2022083131130728
  0.8007891942083127  0.1985696451731107  0.4049665059075451
  0.7992254739393084  0.3986997984741966  0.0023172886666791
  0.7965156118498368  0.3989528301040152  0.1994478398471326
  0.8002552012844351  0.4030843989395163  0.4003674465353592
  0.7994931380506355  0.3952311297937703  0.5991887735011654
  0.7994656131475764  0.3996037624932207  0.8034887908797341
  0.8019828136737478  0.5957707679593751  0.9954660636421658
  0.8006718866369854  0.5995341297315009  0.2054162181189296
  0.8007257526940418  0.5968292942811262  0.5985904122299541
  0.7992323147493573  0.7967386580755582  0.3959964918950994
  0.8029086654628188  0.8027632075177311  0.5978408617361350
  0.7956902901980729  0.7949886557405703  0.7953401449077210
  0.3996945026400868  0.7991079382291407  0.3998960658978236
  0.9989271934028222  0.9813201145078202  0.8010699792787304
  0.9972574869367841  0.4100719176831727  0.8037969226463251
  0.9997414606619386  0.6024290246983537  0.6038484849206280
  0.9841458222619822  0.5973482603657991  0.7957214643644249
  0.0011447080523201  0.7958737095053690  0.5994886697069405
  0.1989150479817118  0.1993143813323734  0.5996476573280053
  0.1972821443258870  0.7997475914252599  0.3989083513790562
  0.3996745289960021  0.9996495400826192  0.3986306771548423
  0.4014204276017603  0.4007035974995551  0.0128170641725349
  0.4071033647422720  0.6153484502882226  0.8003682498741931
  0.3997301147274504  0.8017327923453111  0.7995931059286989
  0.6027751161770692  0.2003444885270558  0.6009534912240143
  0.5998395157938033  0.3982418065291808  0.2011303459543863
  0.8005314563798919  0.0036315905158810  0.9958338997772830
  0.7982670986467192  0.1993338946574641  0.6035702601966491
  0.8018611698304923  0.2006218422401484  0.7959465650826526
  0.7996991849338252  0.5992335820791573  0.4034420092678755
  0.7956448859904404  0.5982064925529251  0.7972890376165328
  0.7992968334155655  0.7920305329573970  0.2019148975704237
