Zr Ti V  W 
 1.0000000000000000
    14.6853827578748088    0.0297835820478323    0.1122213727717476
     0.0298206486797816   14.5407478417437535    0.0151358330274621
     0.1127576065006712    0.0156506682204352   14.6102625195228804
 Zr  Ti  V   W  
   2   2 106  14
Selective dynamics
Cartesian
 -0.1555932242857130  0.5965308558935956  5.6412013504716096   T   T   T
 11.7385385980617176  3.0891508009293083 -0.2281651026741436   T   T   T
  6.8226521368869379 11.6406011692802647 10.5300270133232026   T   T   T
  9.3864560672284263  9.7993814700263364 11.3652377967317459   T   T   T
 -0.4781187161093837  0.3288400564657813 -0.3382943060469510   T   T   T
 -1.0302292133340556  0.4586630046422552  9.3057684216690415   T   T   T
  1.3773582905769832 -0.3654003994049526 12.3466925518551314   T   T   T
  0.8247274152457603  2.6887962674439057  1.1319713501811106   T   T   T
 -1.1955680018703856  2.5877582807415638  2.9723693341750894   T   T   T
  0.2650467439838253  3.7350260015472769  6.0162073714505473   T   T   T
  1.2170768129231622  2.0247981999349385  9.0755432703682182   T   T   T
 -0.2914047894175870  1.8724414824948601 11.9789879115176046   T   T   T
 -0.2829461186444060  5.7303348156787024  0.0886905551920723   T   T   T
  0.6486594906709324  6.3095981831328416  2.8674012687242039   T   T   T
 -0.9928816220045991  5.6986883253636904  4.7716876558112906   T   T   T
  0.1889494019011167  6.2893299888062772  8.7707785413553321   T   T   T
  0.3528791105773015  4.8736164215665427 11.7491462340111390   T   T   T
  0.4817800597759069  8.1408603055894577 -0.3351371452978942   T   T   T
 -0.8105077768606682  8.1645246873911539  3.7153873055661322   T   T   T
 -0.1599881585324810  8.2507523342101887  6.3300363177340806   T   T   T
 -0.0110950220910204  9.5571256058256147  8.4446556298385662   T   T   T
  0.1041047888794542  7.7943370824734668 10.5587730033438270   T   T   T
  0.4596232904113546 12.1403329690313058  3.6026633760047435   T   T   T
  0.6556320407852939 11.2934510868926559  6.5109870099443521   T   T   T
  0.1792611579874935 11.7980317280369906 11.7133426031010277   T   T   T
  2.1555528103664674  0.5617927451283201  0.7052431439545203   T   T   T
  2.3366068280788834 -0.5739827306968833  2.8941703805555550   T   T   T
  3.4059214542058891  0.4698300767319385  5.1423697114681621   T   T   T
  2.3085423478594063 -0.7284162795340852  8.1682120891279677   T   T   T
  3.8631590797551745 -0.2702459349770232 11.7211334494931965   T   T   T
  3.3833229425165761  3.6606697703693092  1.0021126853140527   T   T   T
  2.2721786282743675  3.4821960787187840  3.4879980403486996   T   T   T
  2.5653907402235601  2.6808662939002028  6.0050713388878423   T   T   T
  3.8799873346520042  2.4797313692587921  8.9283363148508919   T   T   T
  2.6293669202035996  3.1184187313568095 12.0838069651051558   T   T   T
  3.4517231743696128  5.8250590379824532 -0.7943913688108116   T   T   T
  2.7402835800306908  5.5097233537600614  4.8603186865308503   T   T   T
  3.2060777387000567  5.3854956001397642 10.6549513207818070   T   T   T
  2.8600653501360407  9.5842140619968355  0.2061350951834285   T   T   T
  1.8144362666854925  8.6685699752792083  2.9074932680662178   T   T   T
  2.6466613382432316  9.3463630288596971  6.3655611906949847   T   T   T
  3.1825584076279485  7.4459137028128737  8.3390535329661652   T   T   T
  4.1805368637759921  8.6900523648068351 12.4711990314239234   T   T   T
  3.0568408094619111 12.5482860887584131  4.9101576480096032   T   T   T
  2.0337611944904825 10.9360537348988363  9.7488968395598956   T   T   T
  3.8824479883450067 11.4912799128637015 12.8411727777392333   T   T   T
  5.2684205085291289 -0.0893745937869679 -0.2664508780593680   T   T   T
  5.6881322071663618  1.3983807281528597  2.9377167988554045   T   T   T
  5.4128255897598168 -1.3584847701460858  5.9307047556084820   T   T   T
  6.5312976451766529 -0.3400655739681696  8.1975458715920375   T   T   T
  6.2272526523198115  0.6350202727634670 12.1578459123384075   T   T   T
  5.5451820060710135  2.7918167816771877  0.4775656379474350   T   T   T
  6.8213201172757687  2.3723137863811048  5.4204446429286959   T   T   T
  7.7695123576611591  2.9945566439289921  9.3606605624410530   T   T   T
  5.5279300584201021  3.2755615566440839 10.6772103486830137   T   T   T
  6.0071099814144491  6.6320407109793944  2.8962313419436625   T   T   T
  4.7681459755474842  5.3014691354323107  6.1707013508501900   T   T   T
  5.4092811059465244  5.3402462248132387  8.8502814214299299   T   T   T
  6.0095691989298015  6.2413336632756389 12.3200428971414322   T   T   T
  7.2977568669860391  8.1792416871229658  0.2264060170267221   T   T   T
  4.3192491312701078  8.6007915572013598  2.2263653586612007   T   T   T
  5.1957622377202721  7.9844219551028131  6.0767841064001669   T   T   T
  7.5429306748524079  9.1296172067416155  8.6136155508377072   T   T   T
  6.2269755490356395  7.9600098309951806 10.6149293462200784   T   T   T
  5.1931715264269904 12.3675180906220010  0.5897488938000146   T   T   T
  5.6325758208413124 11.1368927911796085  2.9697599561776680   T   T   T
  6.4686340380792506 10.5115037893396952  5.2052971560124295   T   T   T
  4.6184928977044937 11.1562058614928681  9.1130252843741992   T   T   T
  9.0502297117911876  0.9585409623343667  0.1959361328556833   T   T   T
  9.2210439879711128  0.0897533783089889  3.8099804109517832   T   T   T
  7.9789683415005950 -1.3755316593881695  5.6280314791688530   T   T   T
  8.7670575733912308 -0.7695836845038229  8.6404044478701412   T   T   T
  8.5746998702221315  0.0283240900532605 11.6953921716811688   T   T   T
  8.9049775522620696  3.5042966459177074  0.9295087566605036   T   T   T
  7.8724890150700810  4.2377146106867469  2.9954079090409094   T   T   T
  9.5265278601149621  3.4790647326244470  5.0204206759063101   T   T   T
  8.7996160407821939  2.3614663776338043  7.8584271415246096   T   T   T
  9.3424284858393136  3.0102290626993704 12.7355354558481526   T   T   T
  8.6506203189327380  5.5608175875173105 -0.1992505517184164   T   T   T
  9.4557966797358848  6.3330765615521161  4.0429288060403721   T   T   T
  7.7682344812898201  5.0708342488375182  6.1683422947199409   T   T   T
 10.1242258694289120  6.6260400556269312  9.6763768346068844   T   T   T
  8.8688052631163625  6.5924590116471418 12.0138075818292691   T   T   T
  9.2635004196183974  9.3378899926578764  0.4329952971554978   T   T   T
  8.2607230548735835  8.5441725878384265  2.8880027398652310   T   T   T
  9.3908986845074729  8.4914626745618733  5.3111028915067919   T   T   T
  8.1861503863106329 12.2267708301392624 -1.4561847520729907   T   T   T
  7.9350037466958376 12.0036066854362691  1.2971182574845990   T   T   T
 10.0034603555880857 11.3164840978749339  6.0629875723631299   T   T   T
  8.9025372399189724 11.1267593564488791  8.4980601327618803   T   T   T
 11.8505091580416515 -0.1706455408714525  1.1932805422533050   T   T   T
 11.8964937161171864  0.4955199494077076  3.8473250955240186   T   T   T
 11.3886414356521080  0.8066010471902287  6.7647405929475486   T   T   T
 10.8974896042044609  0.3733159144610839 12.6770637748702235   T   T   T
 12.2619934722721577  2.5172756355968122  8.2104282640292112   T   T   T
 12.0313231497057167  2.2907984653275650 11.2472020065236737   T   T   T
 11.5354494078586090  6.1404961323183924 -0.6550965806982542   T   T   T
 11.6351600805878128  5.6959724092207376  2.0967850014733882   T   T   T
 11.3261841197647701  6.0984595445240748  6.1777527762695099   T   T   T
 12.2314901140723116  4.9149359524226082  8.9193272985930108   T   T   T
 12.5874969343896144  5.2605441360558247 11.7428558513427888   T   T   T
 11.6707839722063902  8.5327956339081314  0.1703262572668713   T   T   T
 11.9947926108620262  9.2632021268697926  5.6473393174820918   T   T   T
 12.2400035434830912  8.5386330950492582  9.7257404512760264   T   T   T
 12.7593912741686299  9.4250392237314990 12.0000775584621895   T   T   T
 12.4996353439148180 10.7838504537079913  1.3670527413207640   T   T   T
 11.3995624797123760 11.3415554568404353  3.8829156109441096   T   T   T
 12.0845322882840787 12.9787263470069121  6.1372833255881112   T   T   T
 12.3478204379166350 12.3318346125911678  9.5946798183639856   T   T   T
 14.4287756270302072 11.5543808797945839 14.0570201175425922   T   T   T
 -0.2947672119916890  0.1800982184622940  2.2662194483054034   T   T   T
 -0.1056662108226602 12.4177237954231998  8.7618507835351114   T   T   T
  3.2260656122583615  6.0943883194746320  1.9868875817483305   T   T   T
  2.4884556361628585  4.7827054545611212  7.8781784973085456   T   T   T
  2.5305013988913343 12.6689604300571990  0.2035527115180767   T   T   T
  3.0131556873556624 11.1301067122360298  2.4616085410342090   T   T   T
  5.0611754996101359  4.1986724340800592  3.4066283216221156   T   T   T
  5.8267099506768378  5.3064261993456396  0.7413784798987106   T   T   T
 10.3670184490617814  9.0013771632691846  7.8350165786006070   T   T   T
  9.7370827125053907 12.4782541214572262 10.8868894714276578   T   T   T
 11.0367477749628318  0.2383082283704379  9.8145702197273490   T   T   T
 10.5898905901023976  2.4539684168988387  2.6733032470295646   T   T   T
 12.2254160638932614  3.1884831201879682  5.2166518606681205   T   T   T
 11.1888012533759742  8.3766464323268170  3.0063770882572620   T   T   T
