Zr Ti V  Cr W 
 1.0000000000000000
    14.5214331911485957   -0.1030050066882034    0.0032642114627901
    -0.1032524360332880   14.5310239414293036   -0.0150897614118206
     0.0037027598956272   -0.0147878899465374   14.8066548791565520
 Zr  Ti  V   Cr  W  
   3  15  76  15  15
Selective dynamics
Cartesian
 -0.0162868243947009  3.5530058000925893 -0.1438275461631896   T   T   T
  2.5188713087507444 12.1217391367432228  3.0995373591215367   T   T   T
  6.0083379447055236  3.2851083834997148  5.4434749409446566   T   T   T
 -1.1121478039235537 -0.8961057685050958 12.8130813843873792   T   T   T
 -2.8371456390882548 13.8077647566212462  5.0416023018138878   T   T   T
 -1.4104026552373914 12.1633194990445563  9.4340720895770218   T   T   T
  3.7479412509822927  0.3962194017126998  0.4303863639734127   T   T   T
  3.6006053641091027 -0.0756938758059489 11.1724704783636710   T   T   T
  2.7887291684274533  5.6184277458186269  0.7787497227043712   T   T   T
  3.3495104758570888  4.7641108310626930  3.7959149019080889   T   T   T
  6.5248194569544076  5.9626432276784298  3.6082836173649575   T   T   T
  5.6876164084428646  7.6690237042270439 -0.6344733931223066   T   T   T
  9.9076461628432497  6.4856797653321223  2.1591281871956420   T   T   T
  9.0650943105997559  5.6400034399216770  5.1283107468880749   T   T   T
  9.1528631117823842  9.1388098629766006  0.5928740049573340   T   T   T
  8.4804719126029653 12.0555599787029859  3.2026765489662208   T   T   T
 11.3168735899688553  2.9085242822753319  9.4117348263197051   T   T   T
 11.3222599282314480 11.3762620367535696 -0.0428345830841212   T   T   T
 -0.0829248440954543  0.0110662503558794  2.4563228269479329   T   T   T
  0.1526799336728495  1.1863953715371285  5.3114344293264368   T   T   T
  0.7778792735098486  0.3374115495454976  8.1830954339492745   T   T   T
  0.5653958063995213  3.7422869218950883  2.9283621660004044   T   T   T
 -0.4041004320532486  5.7702331579262207  1.8062272715888719   T   T   T
  0.9814803239856429  5.6143446695003831  6.8831650770588162   T   T   T
 -0.1771812656841275  5.4980857265950087 11.9615419896125079   T   T   T
 -0.6988013139504841  9.3791746923713273  0.4373806777125976   T   T   T
 -0.1855452365291437  9.8334089496873194  6.8484473571002553   T   T   T
 -0.9195513256683392  7.5126939871590555 10.1540470525830262   T   T   T
 -1.1469143575299756  8.2195405097226093 12.7507052289156935   T   T   T
 -0.4728410150826948 10.8383263012137903  2.7393441849030622   T   T   T
  3.5080684310104022  0.9717739929852214  3.7687217752194755   T   T   T
  2.6324430521884818  2.7714870473362372  6.7442689333040926   T   T   T
  1.5576959555832366  2.6063111155763394  9.6113258573356006   T   T   T
  2.6178031191595825  3.0484904715408199 11.7768274244863385   T   T   T
  4.4522674704007565  6.4950713108355336  6.8275891233098225   T   T   T
  2.2095854209250603  5.5574985642889674  8.9364540748246064   T   T   T
  3.7356449798620668  6.8576831188680876 10.6605891079901323   T   T   T
  2.9222483252274900  8.3138280620442586 -0.4530129903542146   T   T   T
  3.3489292910877326  8.3493307101965453  2.2290951292811094   T   T   T
  1.1753391170304148  9.4306878806978691  4.7523459244091093   T   T   T
  2.8544949423740635  8.6472302516644106  8.9379961380090123   T   T   T
  1.3505730551509025  8.1476138007529535 11.3724756066793535   T   T   T
  2.0484038725160083 10.6974103403876661 -0.3355021823682747   T   T   T
  3.7279055517687860 11.7645574320078730  6.5319258532149824   T   T   T
  3.1490515950205369 13.0230314102828508  8.7241032171938642   T   T   T
  3.8084572700091046 11.4977073504600042 11.2053111474995006   T   T   T
  5.4948494738310076 -0.4627765288613504  5.4739821357652785   T   T   T
  5.3543285459054841  0.8209728661291006  7.6751132859390765   T   T   T
  5.2671941885440035 -1.1587140443660675 13.0785499195948116   T   T   T
  5.4797492633118452  2.7457260172893543  0.1948446254588495   T   T   T
  6.6240834425105630  1.5185633970672816 10.1433365557311994   T   T   T
  6.8421055097553838  5.1569725957235697  0.3856122726771652   T   T   T
  6.9630766815432841  6.2386046569606259  7.3349307004934623   T   T   T
  5.1204975835725044  5.2677747672791311  8.8816628414956647   T   T   T
  6.5274823499845098  4.1783205426795034 12.8320565650798422   T   T   T
  5.1466798501763469  9.2994017659708632  3.4847581060610109   T   T   T
  6.0846398550582492  9.0242697056268106  6.1002196297454834   T   T   T
  5.8967093789778451  9.1624232795729306 11.4419255853511821   T   T   T
  4.5628267275998837 12.2503213074999557  0.4948734120736686   T   T   T
  5.8751371434305968 11.4585972550835944  7.9544687524359112   T   T   T
  8.2218738659247883  0.5323393715285649  2.5878895554360390   T   T   T
  8.2148903652867258  0.3083942107457038  5.1433892338896792   T   T   T
  8.5346799022886604  0.0653204108413406  8.9584816819236046   T   T   T
  8.1105916934123705  0.0803339173578199 12.8095953639883327   T   T   T
  9.1388834522014459  1.7099744837614785 -0.2320995438158603   T   T   T
  7.4658085514632555  2.9017793694669898  1.8054657558422438   T   T   T
  9.3647288307732843  2.5561842425141936  7.1317185593846180   T   T   T
  8.4473986454288887  2.6131654202369816 11.8834582037302763   T   T   T
  8.8866765030507064  4.5017391249110066 -0.8180243188844002   T   T   T
  9.4067025151749224  5.4352965326207903  8.6524445704321131   T   T   T
  9.2032576687289431  9.1840500039161626  4.1136805965328902   T   T   T
  8.2318301665148947  8.7638772982921456  7.2965248934783533   T   T   T
  7.8242695729630709  7.7588088217961744  9.8177482106579443   T   T   T
  9.0140652806860189  7.7399226825355267 11.8969929819901079   T   T   T
  8.2457191693948459 11.6581721539115968  0.3379479296010866   T   T   T
  7.9276286722630802 12.6531824790863823  6.0241505942094218   T   T   T
  8.5946821809903415 12.0014955004028092 11.1171932532848974   T   T   T
 11.4295217104285829  0.3337709140435516  2.6486032292947357   T   T   T
 12.0892106187685382 -0.2929382414937054  7.6576018090714335   T   T   T
 10.7850033108032246 -0.1926207840899223 13.0047558459044268   T   T   T
 11.3359504670219415  3.4065512997586063  0.0423274811132943   T   T   T
 12.4819600683311975  3.1228557789550297  2.1957325048066330   T   T   T
 12.0560369239806366  2.2792164053987753  6.1812731496254951   T   T   T
 12.2744415489158740  1.7552905298322936 12.1890576802168891   T   T   T
 12.4435237453411887  5.8292762490020387 -0.2702656079851768   T   T   T
 12.5175604852693088  6.6219219238960392  3.7101848538758992   T   T   T
 12.5689837779007760  6.1475958339099739  6.5586627436719542   T   T   T
 11.4808387793679021  5.7231820593871259 11.2383472726243134   T   T   T
 12.6180565660788560  8.3924290895346658  5.4740329414054170   T   T   T
 11.9428496334021581  8.7036449445420843  8.2039723389703330   T   T   T
 10.9860042911947318  9.2938659242317048 12.4655243590649381   T   T   T
 12.0602798984411699 12.4195916928120607  2.5819338793597755   T   T   T
 10.7442036969407262 11.0033311335793993  4.9948817040676925   T   T   T
 10.4004947610975691 10.9361353383803852  9.1356059013923563   T   T   T
  0.2679397880448302  0.0011728830524579 -0.0305767225311168   T   T   T
  0.2963593497577868  3.5072574271887600  5.8820022101480047   T   T   T
 -0.9479402926515145  2.2280731310379891  8.0212923679659767   T   T   T
 -0.7519979341118148  2.2667548513660449 10.3135566651626220   T   T   T
 -0.4766050698393556  8.5105095441073271  3.1032625148351305   T   T   T
 -1.0580511688848282 10.8430005470996402 12.3376707846430733   T   T   T
  3.1037461491362657  0.9419662767207494  8.6444602878203085   T   T   T
  3.3296225027447317  2.8954093634090516 -0.8328999890860443   T   T   T
  5.4182044114606320  1.6218875619649644  2.3411295479607346   T   T   T
  6.2983146022428151 11.2932967259184913  1.9089111752409482   T   T   T
  6.1749063524662793 11.3912702483076664 11.9671065055446864   T   T   T
  8.6102916281478930  3.0962776137107597  9.4605630078685650   T   T   T
  8.2879490087911396 12.1396514695085749  8.5700820247114660   T   T   T
 11.7282999974197537  6.0159663213987278  8.7744008828019329   T   T   T
 11.4801612454899846  8.5129325678671641  0.0279746730309179   T   T   T
  0.5454105295514401  6.8768236094731394 -0.5678043043597740   T   T   T
 -0.6639917676836418  4.8031880838417464  9.2428065458071789   T   T   T
 -0.2012341881228761 12.0340218068179521  0.4315020335853796   T   T   T
  2.6953723677722183 -0.1978911310254451  6.0116947088086841   T   T   T
  2.9886451176563513  2.9007681834259298  1.8152117526730760   T   T   T
  6.7395178937359814  0.1832419633356452  0.3869007476732009   T   T   T
  5.6816050595234930 -0.8909030821401639  2.6879971039010004   T   T   T
  5.5567103021660733  1.4179320903092822 12.7013610491145137   T   T   T
  5.5577231363396908  8.5525724861973522  8.7299071546407134   T   T   T
  5.7153313877683711 11.6137700618250310  4.6916966805883948   T   T   T
  9.7068688359953050 -0.6911336283473895  0.7281522247351027   T   T   T
  8.3035686108518245  5.3416082920630812 11.0763649164175746   T   T   T
 12.2762370567201149  0.8995108414184179  0.1641016190427795   T   T   T
 11.5956494241298795  9.3493606415041253  2.5477428883899749   T   T   T
 11.1261426462162447 11.9090901257878308 11.7587720853264663   T   T   T
