Zr Ti V  Cr W 
 1.0000000000000000
    15.0587144065495977    0.2191202507455851    0.0585679661344660
     0.2185759870815753   14.8483904058289831    0.1762556692861077
     0.0589031222817922    0.1763221789896726   14.8333745648799358
 Zr  Ti  V   Cr  W  
   5   8 106   4   1
Selective dynamics
Cartesian
  0.3288599724959032  3.6620278470699330  3.0049273536409999   F   F   F
 -0.1582294570810239  3.1762067667220055  8.8456032413569581   F   F   F
  3.3706123239358083  6.2539026251862246  9.3427226113449748   F   F   F
  8.9062243403363137  5.7783806365687580  2.6813071908368880   F   F   F
 11.7139672937110007  3.2661542221826294  2.6651376160709974   F   F   F
 15.0684530642214209 12.3965131623060394  8.8820803475290155   F   F   F
  3.7613210031934217  0.0759484551682051 11.3861652557704787   F   F   F
  3.1182796608861558  8.6822955299581395 15.0251943995063062   F   F   F
  6.1352271206841147  5.7614714242637364 11.6655172531246176   F   F   F
  8.2442472326548533  0.1165854442044659 13.9376141241578608   F   F   F
 12.4726081229762791 15.0239245390808023  9.3472263141728611   F   F   F
 12.5132808316633444  6.6342748031309338  3.0894238942684251   F   F   F
 11.8994532552695240  8.4635293118784425  6.4234857257000293   F   F   F
 15.1583168735557798 -0.3432619739974852  0.5420769874611708   F   F   F
 15.4214276710630074 15.0612189547644366  3.5918764386075135   F   F   F
 14.6423902207243426  0.3806754291437494  6.3562961966663849   F   F   F
  1.2195707231130266 14.6609385100169742  9.0763263366778695   F   F   F
  0.1826590881982269 15.3642173619728499 11.7758303565524827   F   F   F
 -0.3171223256777665  2.7472018871577610 15.3184786982502867   F   F   F
 15.8407092614015426  2.4659002883996344  6.2246108147752084   F   F   F
 15.5338865539560480  4.1649241164288311 12.5885922722272081   F   F   F
 15.2507061168198881  6.4999544505296569  0.5582153715691455   F   F   F
 14.4709540659773150  5.7989146722756155  6.0980521451191274   F   F   F
 15.1918474407741133  7.1135688845536089  7.9749643699716612   F   F   F
 15.0010416595242955  6.2717658988355334 11.4157492729086361   F   F   F
 14.6843987644302238 10.2839913351795271 14.6728387471814798   F   F   F
 -0.1444514353787338  9.4341044676629355  2.2941991645840503   F   F   F
  0.3704894227244300  9.2877503750452792  6.1475557824488849   F   F   F
  1.0253744079901288  8.9387575279395008  9.0914157951952426   F   F   F
  0.1765667709837920  9.2026540562630590 12.7755672703821581   F   F   F
  1.3756160815533687 11.6828054381813953 15.8184698168829421   F   F   F
 15.0993425954154290 11.8282207360243365  3.1491728445326657   F   F   F
 16.3817200221544503 12.8345753291589180 12.1862557757897214   F   F   F
  2.1513775740226944  1.1625234388797245 -0.3938402419976487   F   F   F
  2.6204681600659914 15.2067416957622790  3.3035501004141890   F   F   F
  3.3615103672249385 15.1004228219731722  5.8398668609145830   F   F   F
  4.1380687636855065 14.7334517471951862  8.0404635525854111   F   F   F
  2.5858140412769397  3.4769773904667174  0.1400511739429573   F   F   F
  3.9070265599105864  2.3808397072276488  2.6257369134076818   F   F   F
  2.3346720778013981  4.3714762706731527  6.2043298517026608   F   F   F
  3.5708812402785179  2.5945638632716799  8.4223657449130869   F   F   F
  2.9183898775934130  3.7650547590614378 11.8918355167027840   F   F   F
  3.8663724939328810  5.7779787342506506 14.7974674459246085   F   F   F
  3.1343266104834919  5.9534916847360053  2.8397701352822651   F   F   F
  2.9934350673388770  6.6233721206162768  5.7922236772316111   F   F   F
  2.4374342072654422  6.2354805855446243 12.2570905282556843   F   F   F
  3.2257690150589795  9.7193911491803675  3.7502778174642888   F   F   F
  3.7954658764834561  8.6462807776391379 12.2455449148074820   F   F   F
  3.6857116056235406 12.5449587606961810 15.1820588062257862   F   F   F
  3.7038116623526225 11.4036968944871564  2.6990444416441166   F   F   F
  2.1879799347918709 12.3813719298469440  5.9353673232702535   F   F   F
  3.7110317802787787 12.0036504345354427  9.2930633755523822   F   F   F
  3.1204876317692549 11.3539741616191048 12.3948347090234137   F   F   F
  6.0783197912904381 14.9218471133293189  0.7073654052065470   F   F   F
  5.9345791211210273 -0.5667566633805226  3.1460297502728078   F   F   F
  6.5517948141699387  0.3236786311835743  4.9614643052872118   F   F   F
  6.2325486800859728 -0.3258788695134147  8.6765236348815868   F   F   F
  6.8141412302445907 14.7094791087552750 11.8064313750037471   F   F   F
  5.6327684507402109  2.9170706478187851 14.2101145748058961   F   F   F
  6.3163553096422476  3.0440828836588452  2.4502189982860636   F   F   F
  5.1892618867698994  3.5956816563555867  6.0320022867800853   F   F   F
  5.9607250350759688  3.6296821269162014  8.5755957139077008   F   F   F
  5.1653951362429567  2.1341378494160255 12.0385447264543242   F   F   F
  6.0563165393534844  6.2652013004217988  0.5848380657000860   F   F   F
  5.2745503486459944  6.5749089621458401  3.5710683244291084   F   F   F
  6.5066950894294724  5.6645992429703176  5.4649455440794945   F   F   F
  5.2559271205038982 10.0303416453379075 15.4596048036906648   F   F   F
  6.7599952972230914  8.6130577141710685  3.2750905023924686   F   F   F
  5.6377545768049009  8.6446851513446923  6.0725659851752178   F   F   F
  5.7771073175113274  9.0625086261007315  9.0412479593411490   F   F   F
  6.0948590607087798  9.3596088114654901 12.8061427835214516   F   F   F
  6.5707980910590216 11.8353827583224795  0.5039010763927086   F   F   F
  6.4776722494980072 11.4742762324813903  4.3754699363122231   F   F   F
  5.2926798076945394 11.8196680922595743  6.0600972953026346   F   F   F
  7.2084775204579410 10.9838591538356898  9.1710719657266111   F   F   F
  6.6049704747142162 12.0037275657413147 11.5175151052499967   F   F   F
  9.5762903026598298 15.3444102687393151  2.7899771631603159   F   F   F
 10.1332900758245845 14.6379235353112307  6.3459520271265513   F   F   F
  8.5674025798231650  0.7363283106425734  8.2771125361148314   F   F   F
  9.0894129258444867  0.8053043476147066 11.0736509700603811   F   F   F
  9.1515162704811761  3.2680761800815246  0.0324078348573536   F   F   F
  8.1693465759288806  2.2639233092469624  3.5107941384888512   F   F   F
  9.0444503960822153  3.0220225381824282  5.2798816634343169   F   F   F
  9.6562161544878258  2.9389088867130533  9.1187226980505312   F   F   F
  8.6727213304901749  3.0474377962088481 11.8502622761445053   F   F   F
  8.9542190394207672  6.7092934140483731 -1.0613555630494862   F   F   F
 10.3259523002349063  5.7135388709888328  7.3607858348196542   F   F   F
  8.3935914704064984  6.4255826941944054  8.7157011352111446   F   F   F
  9.8594298184715630  5.7604834969670984 11.9803492716351343   F   F   F
  8.8355090369989888  8.7500636480019782  0.2171986940122334   F   F   F
  9.7311877070607444  9.2126157208300068  3.5076955659016544   F   F   F
  7.9895954410824546  9.0267511141696328  5.9099555898234453   F   F   F
  9.6459443226788704  8.3762194214719514  9.3588769177594422   F   F   F
  8.6575754118331094  8.6293453208444149 11.4940766999097495   F   F   F
 10.4119390078937926 12.1590557978393079  1.0128388443760588   F   F   F
  8.9101146247997001 11.7344848757058617  3.5083487997362490   F   F   F
  8.9615080812558023 12.5635874515450894  6.3921640968383668   F   F   F
  9.5275105031004426 11.4446601342473269  8.6468895318257246   F   F   F
  8.9682389478521554 11.5922843725090736 12.3876246663169702   F   F   F
 11.9605666497537548 15.5271122238897092  0.0372993970845661   F   F   F
 12.7464380790366381 -0.1138926143157917  3.2761059872830751   F   F   F
 12.0869101542339727 15.7486939416979475  5.5392796942308618   F   F   F
 11.3774933958099691 14.2488627224549056 11.6758681904906947   F   F   F
 12.6842533334032854  4.1866255255634881 -0.7508218050111496   F   F   F
 11.9926323239829831  3.0153196112886347  6.5564435248729893   F   F   F
 11.8999498126863372  3.7660867630927788  9.3155178193880204   F   F   F
 12.2986689130942430  3.1242291297535543 11.6046460654002086   F   F   F
 11.5525532502039070  6.2083645586329661  0.2839706784533963   F   F   F
 11.5571273924644764  5.6946221853142784  5.3624065871482269   F   F   F
 12.8625836322561948  6.8317023458248460 12.4268147788825694   F   F   F
 12.5607713703363526  9.1955916751433691 15.3431539868862252   F   F   F
 12.5504702823350449  9.2763189300630113  3.7899307595382656   F   F   F
 13.0910012668768001  9.3413038922022729  9.9556398040658092   F   F   F
 11.6316445361906684  8.8819844527895029 12.4596391517439873   F   F   F
 12.7849436971063160 11.8511082645096959 -0.2002000649107743   F   F   F
 11.3542234167117169 12.8370834577944617  3.4781226395532387   F   F   F
 12.7404974441020791 12.1422882955518610  6.0843934025893427   F   F   F
 11.5667644921728474 11.4235402212409660  8.7983118323148872   F   F   F
 13.0740667732628850 12.3576455443948063 12.0308641932277673   F   F   F
 15.7740004226400909  7.3616593378471409  2.9106181481889641   F   F   F
  0.0342818184530251 11.8811334127709998  5.9778648496899960   F   F   F
  2.9869171789379103  9.9613603199933731  9.8758851676180477   F   F   F
  6.0035153626256328  6.1752933497602003  8.9461190375966027   F   F   F
  3.2060048883334868  9.3222381169426942  7.1562258282555344   F   F   F
