Zr Ti V  Cr W 
 1.0000000000000000
    15.5633147981762434   -0.0105082892338306    0.0011052113616143
    -0.0105224976463168   15.5390273600018674    0.0056805954645976
     0.0011054290159095    0.0056800010957864   15.5617863503600393
 Zr  Ti  V   Cr  W  
  10   1 106   6   1
Direct
  0.0081751197947838  0.1871676564909426  0.7961986784171613
  0.9990354610725125  0.5983660966320854  0.8004607031816060
  0.1927752755970067  0.0047101948546449  0.8024252962187588
  0.1974649329392500  0.8015055317790446  0.3982969584565605
  0.3974523682056489  0.9984478645305619  0.9971532340952726
  0.4012962711653423  0.7739165371857480  0.0003412953086805
  0.5986779536812997  0.2015665895100178  0.2027274529175840
  0.6089700430229791  0.4082217482265015  0.3991276643347592
  0.6012910706061735  0.8014233713924555  0.6021081815834851
  0.7950212746812033  0.5935590111446675  0.3993579150149768
  0.9994828071704880  0.9932696894458549  0.2018762764146582
  0.9973151324902713  0.0005514930941226  0.9991953053562351
  0.9984426341012171  0.9995025621192357  0.4016174872254644
  0.9989766640242606  0.9980921730347491  0.5976605458547273
  0.9891998612315085  0.9890843378475122  0.7982654063059402
  0.0007188480869919  0.1990996442271536  0.0030304588405861
  0.0016463688516957  0.2007418950363248  0.2007246540241636
  0.0024906072420721  0.1976340930285051  0.3993771058087761
  0.0027201110659065  0.1984919823697541  0.5943164189913833
  0.0010259066377487  0.3996474947286064  0.0011338928410962
  0.0011940080021464  0.3976113273140008  0.2002566175277241
  0.0031206011343623  0.3997480000643612  0.3977309779247223
  0.0021044031531334  0.3983195075524346  0.5998998409939743
  0.0001627483306007  0.3945422137698708  0.7992455114035140
  0.9993815349735364  0.5989432239366632  0.0028287053686831
  0.9992718008928699  0.7975669524395159  0.0015876112805368
  0.0027965045409790  0.5993817082452706  0.4025830848796809
  0.0008204775139791  0.5990960577775726  0.5962675702333422
  0.9987841232278203  0.7996198671915397  0.2005237773852405
  0.9945623753974548  0.7974430695371246  0.3991154969803011
  0.0002230447747673  0.7990812216254862  0.6001500539877698
  0.9991194802842682  0.8004089739959556  0.7994608007415538
  0.1917239748124284  0.0024899703730985  0.0060195715200590
  0.2018680465678976  0.0023934406083881  0.1988556354150592
  0.1987768646697292  0.0046094062477312  0.3981914885867338
  0.1987427753781568  0.0005074595819647  0.5967738259192734
  0.2011044954502083  0.2015206107791840  0.2006653942795533
  0.2006468999695527  0.2013273862687475  0.3986456763144810
  0.2072870892221558  0.2017969301112051  0.5977533643194965
  0.2095484520027848  0.2083446040026202  0.8010804071766028
  0.1998190412887254  0.4008174952701058  0.9997446963783720
  0.1998014245835731  0.4030117113472056  0.1979268349288958
  0.2001961944015687  0.4001354133002031  0.3986915041997835
  0.1997814158989221  0.4002686350508563  0.5998096860281436
  0.2020915410741409  0.4020903153767114  0.8016321121404858
  0.1997706943033845  0.5990509680443411  0.0010225157031218
  0.2036825889430770  0.6003253406801430  0.1996388229873059
  0.2004605973693779  0.5976260451384175  0.3985407877985963
  0.2025029574362508  0.5991236748214231  0.6004016219522769
  0.1954628739029841  0.8013279322820295  0.9986523851851182
  0.1988091835504770  0.7992317730935169  0.1952619711498263
  0.1980515487612642  0.8010347020000738  0.6037506521766302
  0.2006641927722320  0.7979928560583900  0.8014356864387363
  0.3995088053653286  0.0009857891347142  0.2047735323995168
  0.4004347861643679  0.0009479691142611  0.4011966863474049
  0.3981549158758770  0.0048851306873953  0.5973784333116924
  0.4020490055248154  0.0006647057863249  0.7927512479898208
  0.4000517885588038  0.2044587527894010  0.9990141904779068
  0.3961689625478210  0.2016152317203255  0.2011417785712740
  0.4003091220081002  0.2013665778844010  0.4048127979683155
  0.4027309909905062  0.2011815922497403  0.7955379732130199
  0.4000091742993430  0.4004851452449841  0.9983019641815357
  0.4008880566239600  0.4009984090498245  0.2001918523283590
  0.3996483735011008  0.4007309634514347  0.3993796134814679
  0.4008775006831327  0.3970066404314981  0.6004065836567151
  0.4023807041570920  0.4012935073457202  0.7991465278949971
  0.3995589168463317  0.6008062846142326  0.2006684032592779
  0.3983215875140360  0.6004603803400640  0.4013974734364326
  0.3988858060261541  0.5987858924041622  0.5995136206135897
  0.4013967938612815  0.5996378900376980  0.7985117371073874
  0.3997399371618778  0.8016538166369088  0.2051701146972922
  0.4014639504183434  0.8016327995129929  0.4019225488650463
  0.3993419810253865  0.8011512358775379  0.7955779822096908
  0.6044477214608086  0.0008330358526061  0.0002346070648862
  0.5995749731130521  0.9969956593520393  0.1992809441077506
  0.6003741546971864  0.0006304172192951  0.3997402951695653
  0.6004724575237240  0.0040725177592018  0.6000874738804198
  0.5993905104662897  0.9994251390665345  0.8005553756292680
  0.5997411072384986  0.1995446385005453  0.9963572081031743
  0.6016830992516342  0.1984383068436062  0.4053974874562579
  0.5968676376902958  0.2016346577038466  0.6014669348945321
  0.6008867712864896  0.2000384540899276  0.8003184863113162
  0.6021792050082087  0.3997207338650896  0.9985057497056405
  0.6022638127231256  0.4004799852837498  0.6038500449460619
  0.6008959349008139  0.4013450481632161  0.8013935431062311
  0.5994226571584194  0.6002242620401638  0.9986281655903602
  0.5978544705015296  0.6028481534263820  0.1980777901698809
  0.5908618398805979  0.6105456120098803  0.3998191925723902
  0.5973563081981380  0.5974366438861725  0.6017669523295206
  0.5986055870361298  0.6004884233019130  0.8007906855240812
  0.6053205475244581  0.8010375641792766  0.0013591558421884
  0.5990654944508794  0.8011211253507150  0.1989192073333349
  0.6001652551505460  0.8041808721702771  0.3965764688433103
  0.5990419509847064  0.8001224227033396  0.8054778136987951
  0.8010292920676683  0.0003484821637587  0.0002107461103494
  0.7979815119091261  0.9998801042676623  0.1999306869792832
  0.7995123711109003  0.9997679455592895  0.3999160425854676
  0.7996975163116896  0.0013581787875681  0.5997912659962501
  0.7958491224912362  0.9989050042644969  0.7997336581583778
  0.8012601174427320  0.1997493138739613  0.9995948414877363
  0.8018416388962272  0.1968598558770654  0.3999661476640163
  0.8008926142415460  0.1992401961940391  0.6004278700936752
  0.7984459542292680  0.1982823930453181  0.7989885983231585
  0.8014640853334617  0.3982735898619217  0.9988078697191362
  0.8042040331892347  0.4003576816030537  0.1960564711775353
  0.8112703336818945  0.3899073992458846  0.4004318052059639
  0.8024551839634420  0.3966140627150879  0.6020511014802041
  0.8001098676312608  0.3974066946306696  0.8006109695497292
  0.7992823203473405  0.5981096169717729  0.0005333826547165
  0.7945791969434935  0.6012759960891276  0.1955273450158799
  0.7997384346120285  0.5971906131376253  0.6035888610240930
  0.7946137143560862  0.5992346969911782  0.8003706043349172
  0.8016067419037670  0.7996339556279877  0.0000170936784272
  0.8006660607581351  0.7987380659897350  0.1996449098724682
  0.7994679214635224  0.8017826376677811  0.3998493257648585
  0.8038731775284699  0.7991265106737065  0.6004348368786153
  0.7987595486067086  0.7995544788589292  0.8012007181750868
  0.2007871876488637  0.2030150683737923  0.0020264275121713
  0.2050176193330278  0.6001390014558168  0.7994357983516219
  0.4014030228522880  0.5908011413426391  0.0000450708942628
  0.3955244510465502  0.8005462698318472  0.5994771800863670
  0.6006958209334536  0.4053376563395587  0.1937535402819484
  0.8038388033119995  0.1990399976012630  0.1997777855102242
  0.4012506375734201  0.2013124058255157  0.5994333132539564
