Zr Ti V  Cr W 
 1.0000000000000000
    12.2882735461728885    0.0000000000000000   -4.3445607757035454
    -6.1441367710433559   10.6419570608175889   -4.3445607757035454
     0.0000000000000000    0.0000000000000000   13.0336823299999995
 Zr  Ti  V   Cr  W  
   9  17  88   2   8
Direct
  0.9933583958196103  0.6031812650960459  0.4085731849190570
  0.9985641867681945  0.8088853024785758  0.1978393503059333
  0.1890178334037330  0.9912537338374883  0.5813285357696500
  0.2144826314150449  0.9997538498218569  0.8067731230709957
  0.1973422537969276  0.3916526808851234  0.1998147046059562
  0.2012583721354325  0.5967224584049137  0.9962566708975437
  0.3985936804035994  0.5982851243269638  0.2037046629291671
  0.3942681349640428  0.6053853805925197  0.7980275020932454
  0.5744336289856466  0.1735776969575796  0.9926705137922477
  0.9698174663618442  0.1696832598420203  0.1708219030673229
  0.9954735476870948  0.2026269472993414  0.3964512372287723
  0.0002900500694791  0.4030669418976308  0.5984788831331813
  0.1994243943321644  0.8043894053989927  0.0015565984113097
  0.2029237028770849  0.8037486022188335  0.4001291291948345
  0.4094684205730195  0.0007619399854826  0.6026217861984112
  0.4661432599903018  0.9951203125947761  0.7914790976839384
  0.3991301523690224  0.1895739157826360  0.1944422713921369
  0.3979359637837960  0.1989112762766168  0.3987000682461156
  0.4080803646536785  0.3934855396120513  0.2003903400339754
  0.5993885794180519  0.2056277548693279  0.7943879476042918
  0.5953396688675316  0.4053758634696137  0.9966708619514228
  0.6136151484909347  0.4064790544580068  0.2106354185787263
  0.6015779621615824  0.4019857576779869  0.5995421157507153
  0.6062662594214525  0.8021275951212159  0.0008833847083744
  0.7975938248668879  0.9957622748660203  0.8180262280161480
  0.8015548911402122  0.4011235048953818  0.4088524504822821
  0.9976471922527740  0.9971405472931394  0.9968812992495414
  0.0017915415375508  0.0070321388098386  0.2031881389013837
  0.9959677238704576  0.0014116359857841  0.3992565006343546
  0.9899486890141775  0.9971249758551899  0.6026370857125114
  0.9934582115230202  0.9950390435831968  0.8007499972071601
  0.9989065046725846  0.1958059465284619  0.9884163152312782
  0.9949824310997166  0.1945067502196668  0.7972994037446188
  0.9944109297412458  0.3943508539753419  0.9917723866557756
  0.9885887731182885  0.3913275738464204  0.7941500489410313
  0.9935244522996012  0.6000043166179910  0.9922364356018551
  0.0024762021891147  0.6125997472279999  0.6192401643401564
  0.9933767385608308  0.5956539248844789  0.7969991778927180
  0.9928476616616096  0.7985811731133167  0.9850997129276641
  0.9793505085344292  0.8004672987821901  0.3975668307177666
  0.9911120027422925  0.7997755489015111  0.6060871710269058
  0.1899689561302918  0.9959649224879166  0.9971800603831018
  0.1994558375805836  0.9970673321536636  0.1930658479027422
  0.2122765281723622  0.0189525300134160  0.3947457102542322
  0.1939026610986584  0.1912575393998099  0.9937312393019221
  0.1968743883805134  0.1848905093217509  0.1957336836949041
  0.1963635963903619  0.2015035139117922  0.3964088638268250
  0.1996652425503459  0.2081637738270909  0.5960049797341954
  0.1974716758421076  0.2022081824977121  0.7970014845992967
  0.1878914510258814  0.3776136376747192  0.9789168464732256
  0.1978633884611880  0.3981580496200358  0.4076563004023643
  0.1993032282402799  0.3970987158926615  0.5912406293419804
  0.1962683942542084  0.3957539715346115  0.7940537220964455
  0.1954991633971737  0.6078181513647160  0.2075819413449127
  0.1970442949185319  0.5981215862635304  0.6004989895966126
  0.1928975643796705  0.6029597229197239  0.7964893289824165
  0.2099260035480632  0.8028988213428975  0.2032790724316466
  0.2045168101579413  0.7920976163729613  0.6094035326008602
  0.1974576193143208  0.7921600027915842  0.8008193352826782
  0.3970952188963848  0.9917825186297630  0.0066937019336215
  0.4040129769072349  0.9984701384725552  0.2060741176374626
  0.4018742879596650  0.9978558541239889  0.3978179651797777
  0.3933564810750924  0.2122192301475643  0.0033840457093233
  0.4029832223512205  0.2083627837158486  0.6017654503451454
  0.3944217803940090  0.2099063280609561  0.7977356334784944
  0.3931274762753001  0.3967935849891411  0.9919991397858940
  0.4000837120855375  0.4005638766702582  0.4018548654603545
  0.3960595414935918  0.3994243411178822  0.5943298644097014
  0.3972576610387279  0.3964741280746497  0.7959792595213708
  0.4105679855147688  0.5968675054080691  0.0014338282307059
  0.4122679178113239  0.6053924098210421  0.4173862644137502
  0.4045900882928256  0.6018911118092272  0.5972540608061123
  0.4003151876803336  0.7994820451874406  0.0013559229386285
  0.4087700126513704  0.8118568424937289  0.2104497698563742
  0.4092559188270218  0.8061475586324218  0.4068731805465485
  0.4055351155910289  0.7973681486655655  0.6027600418143453
  0.4044859698922437  0.8194589404134065  0.8043527471594603
  0.6327736629759313  0.9961454470486661  0.0009515161566970
  0.6040307477178468  0.0019749510207869  0.4080775748816818
  0.6072018193637787  0.0002813064930134  0.6009697691659771
  0.6049737497241980  0.2016974559998792  0.2158371073055725
  0.6036140385491006  0.2020553238280386  0.4037983096591172
  0.5998012700543063  0.1959387838837440  0.5924035389175163
  0.5992185378742130  0.4063366626305643  0.4060784931754265
  0.5941647548198997  0.4033417873803248  0.7947515267330511
  0.6058606682182707  0.6048465658546145  0.0006791647108327
  0.6064073249013087  0.6016378676493414  0.2012530894048865
  0.6078124658065773  0.6050641575638398  0.4075145419337741
  0.6024090660561141  0.6019431623399840  0.5973611712086210
  0.6103439372505772  0.8061848784811261  0.4124383858288413
  0.6032964187387956  0.7996241043490069  0.6018013875639429
  0.6042822681461273  0.8008576588203995  0.7943973997440834
  0.6652916425665735  0.9947644648585805  0.8591159324375367
  0.8035727599845841  0.0030484088789235  0.2023324872080795
  0.8013875856178413  0.0018326089693875  0.4036480209182633
  0.7992411605989695  0.0000806523557155  0.6031482695012589
  0.7985696311397225  0.1957403251548055  0.9961197807449941
  0.7993796849159895  0.2063949283493307  0.2119235529025669
  0.7936434203273898  0.1946254163512419  0.4036087680955112
  0.7985036496515530  0.2001020683578484  0.6017379360429127
  0.8005062045965406  0.1973519801957085  0.7966919410292507
  0.7949818586083321  0.3944191989692845  0.1938431399297881
  0.7998749877839162  0.3984028768165274  0.6063865882583773
  0.7969428169884251  0.3986120370069323  0.7965012282814884
  0.7924998528914718  0.5975477659311479  0.9912821670895756
  0.7982197505702391  0.6068102197843691  0.2026557663363663
  0.7953526520721501  0.6130478031481921  0.4125129927776326
  0.8018801000640154  0.6026213911713804  0.6058908664782384
  0.8032067065739656  0.6010435375548090  0.8014477474631947
  0.8041323518012037  0.8207155449730161  0.9955680156201908
  0.7964900585762688  0.8043186897497665  0.1989646748547109
  0.8018435158753323  0.8062001511561383  0.4069416279419478
  0.7999017377538985  0.8023682415956559  0.6062355326459763
  0.8045254828389895  0.7942034033338182  0.7940742449184289
  0.9993124234337201  0.3961151835567172  0.3993034893304871
  0.9974464770696172  0.7999374417493903  0.8029812404088743
  0.9969942579915546  0.1963422741988999  0.5999380393468151
  0.9899087095149783  0.3947965957919011  0.2016210959626823
  0.9954947540785650  0.5985182517274282  0.1935394523317586
  0.2063092995197710  0.6020626430885269  0.4058958495260601
  0.6020167226367698  0.0010189786542710  0.2003853015285495
  0.6061028574210207  0.6040962950354251  0.7983824114707992
  0.6040852128217001  0.8009833583080564  0.2060095470568768
  0.7984179140302471  0.3995723097677698  0.9957159155095353
