Zr V  Cr
 1.0000000000000000
    15.5364267418827353    0.0141760265446098   -0.0034442262972265
     0.0141671620811882   15.5240745923983035    0.0049821264813726
    -0.0034426786392167    0.0049831204927505   15.5354998368454975
 Zr  V   Cr 
   5 117   2
Direct
  0.9506631234980326  0.4079070627111191  0.4000429569475390
  0.1991854458034742  0.5998326206911301  0.5595937210966049
  0.1993985949480482  0.7967687255242617  0.2030122096842244
  0.8001630390145863  0.1988287781492764  0.4003010146709987
  0.8048773678322636  0.5955110561032471  0.3996096710332409
  0.9996752684710731  0.9991371039215897  0.2000780349765487
  0.0013917159474866  0.0012440940391632  0.4008327785135621
  0.9996255500185834  0.0008461340080008  0.6002622754899993
  0.0007123390351251  0.9989073361748708  0.8012561357491305
  0.0005284305584008  0.1998393824557831  0.9994559548569858
  0.0061557872385272  0.1983154750861008  0.4002186634078430
  0.0007799642248765  0.1996397096712975  0.8009137762843455
  0.9997129901642468  0.3994665569564921  0.9997642894518438
  0.0010205849599726  0.3995690032418007  0.1964902427869561
  0.0003672318533741  0.3997239785061583  0.6047107121259950
  0.9997701012651811  0.3999370003778719  0.7997916417432926
  0.0001007554640895  0.5986366739886404  0.9998593762315112
  0.0019519128301073  0.6006798513426881  0.1966544837684377
  0.0128437675583818  0.6070860424675690  0.4008311804482398
  0.9982884337501720  0.6007500627707713  0.6026100630102278
  0.0023448387973291  0.6010327501833224  0.8014416960976647
  0.0008528083027385  0.9676205211391696  0.0009421706037469
  0.9953843860328990  0.8008111382935353  0.2038509881381485
  0.9995561571288188  0.8028716071763478  0.4023985452663803
  0.9991013015900534  0.8015681829086728  0.6014735392059296
  0.0010267034178735  0.7998010180496903  0.7982813152138477
  0.2003452863101740  0.9997338709646825  0.0002054391415783
  0.2008392402036649  0.0025569674181110  0.2008905285251975
  0.2008131330669374  0.0007779159295165  0.4003253545105679
  0.2006758106113145  0.0018994260375919  0.5995632213323162
  0.2002511389590047  0.0005506910750443  0.8000455512747204
  0.2004346023482699  0.2000656267317317  0.9999411051874117
  0.2001993175687135  0.1999894247481811  0.2001616352278080
  0.1987155137766237  0.2033640027918232  0.3996820340279040
  0.2000858474214654  0.2006785375549550  0.5992560238167393
  0.2003597159700923  0.1999800320693417  0.7995864982434853
  0.2009624835431743  0.3981531853258423  0.9998263567633411
  0.1989576668769449  0.3962908213744920  0.2001875883125335
  0.2063232148379997  0.4041594800382656  0.3995009446257635
  0.1986724606038756  0.3965875287365913  0.5984524836021078
  0.2005437164457887  0.4009076544314424  0.7994876540411290
  0.2009998647879299  0.5993456473422873  0.9995793112083737
  0.2023765445122684  0.5930430838587596  0.1944930265394073
  0.2042522128902196  0.6028444426691432  0.3687562566512322
  0.2014630850676867  0.5995059194714139  0.8037934185191695
  0.2038065712965094  0.8009399189234395  0.9978921939159695
  0.2020790754630369  0.8006246691399845  0.4066147252743014
  0.2013455302295023  0.8044299518245085  0.6024900283338807
  0.2003448510671969  0.7988637346776359  0.7997474744603640
  0.4011195175363385  0.9996694911646895  0.0005162456632468
  0.4014607921571355  0.9998693842538213  0.2001529053556918
  0.3991254634250470  0.9988712612665380  0.4003830275411406
  0.4012259122186335  0.0005052963592966  0.6004156605365915
  0.4005350246602328  0.9994935779335202  0.8005743304573391
  0.4004036876285653  0.1992269178270987  0.0000614225014363
  0.3999092710136098  0.1997279817687014  0.2000938773018113
  0.3973375381273132  0.1988035963862058  0.4001350511251841
  0.3997745733455256  0.1996777392933206  0.6000741567494744
  0.4000202899747825  0.1997290778958554  0.8002626880598339
  0.4000337525932436  0.3996727062948957  0.9994807092029857
  0.4010261739353755  0.3986659154159350  0.1989616423700379
  0.3998278054139960  0.3999084506874376  0.3999595396830708
  0.4005919844034636  0.3990635971031191  0.6022409124322754
  0.3999274353464058  0.4000035804869763  0.7996746433089051
  0.4027297881961797  0.5994124134103418  0.0004641829861976
  0.4033787836613177  0.5975345888525490  0.1987048450501836
  0.3988167393552400  0.6016750704006441  0.3998269280337688
  0.4036693542706590  0.5990065059356547  0.6005066488117279
  0.3998445242795132  0.5997307692831964  0.7994864348283094
  0.4020340123459909  0.7994230853772812  0.0001302976244460
  0.4059768382948672  0.7991950182423416  0.2009969037266914
  0.4017950600471955  0.8004655854544322  0.4016420069350775
  0.4022529778978069  0.8001846095195554  0.6017023759780509
  0.4010895839585317  0.7992837543258146  0.7995567958869964
  0.6005456588416358  0.9994290104982537  0.0006240060995031
  0.6013067267418010  0.9992430691879887  0.2008586106828918
  0.5988940128904322  0.9978031143232431  0.4002888800586624
  0.6009793000948476  0.9994650551315192  0.6000955948469153
  0.6007260411994363  0.9992326566348285  0.8001513586154299
  0.5998849917797332  0.1989281360587869  0.9999004466054020
  0.5995337243424178  0.1991038117672626  0.2001418917456456
  0.5935185587820384  0.1962190797433557  0.4002453434791396
  0.5993990999025341  0.1992525150023414  0.6003613178050826
  0.5996872453643868  0.1993076379524460  0.8002695357092102
  0.6003789138366586  0.3988073445377033  0.0000818685991487
  0.5998015323021322  0.3982368946185840  0.1988257411222013
  0.5914948837489591  0.3996822921559910  0.4001841174467659
  0.5993705246917294  0.3986780502550453  0.6013440840096242
  0.6000690583358292  0.3993708398856023  0.8000980552027391
  0.6002555216198475  0.5988394620122257  0.9999269037743329
  0.6022365609681768  0.5976298915707455  0.2004776775055757
  0.5965619465675601  0.6008284077198037  0.3996962940130289
  0.6013081784150930  0.5983675747592145  0.5994164437511986
  0.6006413295837176  0.5992142972489930  0.8003296922368398
  0.6009147035158586  0.7990331648399973  0.0005569797930086
  0.6021391318636845  0.7986705025120940  0.2013014151902869
  0.6004572927738154  0.7981670404874008  0.4010702642345085
  0.6017121305238724  0.7993894958455335  0.6005058531006477
  0.6006574028789757  0.7988735433787604  0.7999168433680609
  0.8010675722194311  0.9976102638660458  0.0004025977715014
  0.8011228407348325  0.9995597853669492  0.1999680351646123
  0.7997877895535017  0.9953294613442754  0.4003747601456180
  0.8005944576017194  0.9998777100901635  0.6009456301549214
  0.8008646878277063  0.9988491912596753  0.8010084174518465
  0.8005271527731839  0.1992445284863648  0.9998640803604286
  0.8001524241474534  0.1979053225141459  0.1953793000199085
  0.7999032818028620  0.1983248510947460  0.6052094204691655
  0.8006451022951498  0.1994840834572165  0.8005530057626352
  0.7990955785149045  0.3986519465576991  0.9994055002092181
  0.8000539816532457  0.3972814902703842  0.1999715466398541
  0.7645288516025550  0.3976614274293905  0.4005226045849031
  0.7993412411530791  0.3975156576890452  0.6002550442801974
  0.7996947702471556  0.3993721096439324  0.8009273169427593
  0.8014157503006436  0.5990286347613734  0.9996023135243587
  0.8017925797527442  0.5991608719354351  0.1946627819538790
  0.8002181223350231  0.5994031160517894  0.6052884275280080
  0.8004367529738303  0.5986194752428854  0.8010987422458230
  0.7983570820462563  0.7990955842154313  0.0005219993634029
  0.7998660609614481  0.7984926005812234  0.2002144089412485
  0.8000750141840540  0.8003741837440470  0.4014984988852071
  0.7999184607743874  0.7987946140501164  0.6005701347486549
  0.8014031191309471  0.7990854562316684  0.8020370334549251
  0.0009764846598703  0.1998517270274690  0.1989530094837687
  0.0009252426080391  0.2000341878931263  0.6015837810594589
