Ti V  Cr W 
 1.0000000000000000
    15.3947628529237015   -0.0004726939770559    0.0021267196503963
    -0.0004726263884090   15.4017912768726095   -0.0008921615345846
     0.0021270963932924   -0.0008941263393480   15.4191178141427301
 Ti  V   Cr  W  
  13 101   9   1
Direct
  0.9963013197780521  0.1909827016845991  0.4000592709232478
  0.0000738997719170  0.4038343648103987  0.4010773492399283
  0.2007533861332568  0.0002544933638049  0.4248459733953782
  0.1979623459553987  0.1967576355960939  0.0033233477763517
  0.1974548281239672  0.1985553883719793  0.7939088448732828
  0.3960260909665586  0.0002747844531920  0.2089290612139000
  0.3933650374001630  0.1930806812557348  0.3988287327504998
  0.4000700302630236  0.8074813668609464  0.3956290200651376
  0.6051469848187931  0.1942301215740027  0.3999442650530938
  0.8003391321543616  0.0095848429141421  0.9972777554488826
  0.7995528821372037  0.0082373920480707  0.3994757369424342
  0.8004113859195729  0.1917302470774467  0.8042630594723605
  0.7993996490157257  0.4023343812918225  0.8015403730209837
  0.0028633273600165  0.0014128998765401  0.9970969030023011
  0.0006056849643154  0.0003355909456622  0.1995589880172447
  0.0007146859753571  0.9975916173037149  0.4007006524253080
  0.9984506848977561  0.0015945140599361  0.6001959480279944
  0.0004605233646884  0.9993458250890221  0.7987035353051495
  0.9978522722108846  0.2006668483807971  0.9998923878333175
  0.0005896795541065  0.2002247274287222  0.1977626955413468
  0.0006054501209802  0.1994695667346368  0.6016429907015890
  0.0020253048795628  0.1982916682828668  0.7991849695631802
  0.0012209249166505  0.3999796457154841  0.9994080351570359
  0.0006056105770962  0.3993028826524241  0.1977484911928263
  0.0000444189631748  0.3988153542009207  0.6025009847178249
  0.0019360148345910  0.3990652491437618  0.8010416024133840
  0.0003600162152778  0.5994119379791868  0.9996228725493624
  0.0004611748759590  0.6013977101513950  0.1995617077601634
  0.0000490860027615  0.6021302711858769  0.4004440708211224
  0.0004188676287804  0.5998510219997792  0.5999245158954927
  0.0002716323788440  0.6006303644958315  0.8003490242302683
  0.0002977301683347  0.8009512575700497  0.9999244891099189
  0.9996238482940378  0.8020431864106428  0.1987232396582186
  0.9999729758310716  0.8008946136475044  0.3984981946459855
  0.0010302743206378  0.8024848375035426  0.6008065052900781
  0.0015016047601626  0.8019980726330584  0.8002239833951992
  0.2015791573591708  0.9990821747759542  0.0001424139257388
  0.1982725654819506  0.0026976339781044  0.1971604273786017
  0.1961763670461688  0.2044421502129782  0.3972850571929675
  0.2045546406287096  0.4012978365806938  0.0002593858590039
  0.2000013205571650  0.3996635666900120  0.2012644821828510
  0.2025587189663834  0.4006228168125591  0.3993440218373617
  0.2012490030697796  0.3980634668583158  0.5983805655906244
  0.2003795902155152  0.4003440575224266  0.7991758164722381
  0.2001112635761532  0.6008629645950351  0.0013366000157234
  0.1996209425199011  0.6006234093404416  0.2016296322062666
  0.2013309988194953  0.6001474493997130  0.4001241886498320
  0.2005811955734850  0.5985145885265133  0.5987048958010003
  0.1999287843430260  0.5997805057790117  0.7982880671323673
  0.2011885717492914  0.8002053417405496  0.9991769810225819
  0.1994183156198465  0.8020125881617159  0.2006211603956743
  0.1998720844881992  0.7986737247434033  0.4007287858033861
  0.2012975053430737  0.7977404653045552  0.5992335774661232
  0.2006344303362155  0.7988701543691770  0.7988374793428771
  0.4004062756261194  0.0010653026629595  0.9981823963765712
  0.4026867849815962  0.0011116013737844  0.4062108404089892
  0.4016416270003927  0.2021599421172443  0.9989772002242038
  0.3992492030646179  0.2012827775939445  0.1983096665508751
  0.3983601906498363  0.1998699761295690  0.6026450089527191
  0.3992929324702971  0.1984970083195443  0.7988910660259128
  0.4004780115434181  0.3991121207350657  0.1979280409085578
  0.4014655598466155  0.3994114678639635  0.4003970579507424
  0.4008443332808875  0.3984636723833903  0.6012054675733153
  0.4006647497839094  0.3995903118208201  0.8045003729462562
  0.4008506539692681  0.5956708332735525  0.0003007955921925
  0.3998327552915240  0.6000750933460199  0.2018985051747674
  0.4008841777656563  0.5987247719507606  0.6000652528252425
  0.4004287007627063  0.5996517511025499  0.8001752807624918
  0.4005349154005214  0.7995141703551201  0.9997726495938278
  0.4003296634992449  0.7983122408323203  0.1967178984706901
  0.4002367711995670  0.7992593626475378  0.8006070977132237
  0.5973900847028508  0.0006912881286827  0.0004745577379805
  0.6015194949153424  0.9995433781869837  0.2006383319772762
  0.5988160609072775  0.9973561514024906  0.4020231793530755
  0.5989519055595793  0.0003125302202640  0.6011434189400585
  0.5996202719159570  0.9984603749902000  0.8000314233224525
  0.6008545546350778  0.1997207197804799  0.0011014407035452
  0.6007107815501979  0.1987454810649502  0.1996221445267518
  0.6006196697040650  0.2001311387386493  0.6018316583557199
  0.5995661955315558  0.1983829205482409  0.8003766115035431
  0.5967718858325610  0.3992224893508536  0.0014044759435379
  0.6000190082666308  0.3994235084940332  0.2023039952570228
  0.5993141285996689  0.3989171297073855  0.5998477987866512
  0.5996708739406862  0.3987255981885182  0.8005882675297195
  0.6006194349902796  0.5994522301927913  0.0010944285180705
  0.6011629831093720  0.6013586174676185  0.2016682304231202
  0.5992399817890181  0.6006221926102417  0.4009104840447844
  0.6006656836440843  0.5995467917302412  0.5995948284628176
  0.6010087440291780  0.6008670485078849  0.7993630233883114
  0.6008665325197957  0.8004725027835320  0.0006660225116301
  0.6013219368855465  0.8007808163161313  0.1994214685773605
  0.6022478667950808  0.8000546586221915  0.3999140687148130
  0.6013871034334834  0.8000706395597742  0.5998925046987519
  0.6014391973329190  0.8004325068877806  0.8010633173601681
  0.8003795427636750  0.0022846732252968  0.1987373231607627
  0.7995040648563360  0.0016887649352881  0.6013512520678130
  0.7998437143411401  0.9965984674909920  0.7979946176518874
  0.7995484545603830  0.2057618734789173  0.0037621357528832
  0.8016525771585066  0.2017121769355665  0.2022242538130310
  0.8007091188527730  0.2064489578951929  0.4001033216180584
  0.8007004292700156  0.2010796708343589  0.5982656824199810
  0.7988342131993763  0.4011823765526115  0.0031172213650142
  0.8002210256143356  0.3999594784244496  0.2014512736155943
  0.7969737513376439  0.4029404363169756  0.4001053072051211
  0.8002205709986442  0.3986812642659455  0.5986954907504132
  0.8001717269875778  0.5999632676636107  0.0012033348862999
  0.8004780094318116  0.5997603320398055  0.2011599968432283
  0.8005396058842134  0.6015998804410591  0.3998333199966524
  0.8005941917231140  0.5995654674949892  0.5991708988509863
  0.8010833303609644  0.6016326897934733  0.7996175461106509
  0.8012917786595819  0.8021404443205286  0.1993420413208844
  0.8002162625114497  0.8001736994974139  0.3996508632934955
  0.8015199289246416  0.8011712221058284  0.5985354851476815
  0.8009962471960247  0.7994690444180353  0.8005661150793957
  0.2021547610586803  0.9981970311171308  0.7307000671925211
  0.1987711078653735  0.2005729403017954  0.2012114450354184
  0.1991762358047770  0.1999712588397451  0.5944144086903664
  0.4000902333216793  0.9994142666981918  0.6031995201648918
  0.3993096478341148  0.9991875074111568  0.7993550839692078
  0.4007204278416691  0.5990908832509177  0.4005729132505986
  0.4010486618014831  0.8000434956238290  0.6021846115641414
  0.5993884576672108  0.4015194351465153  0.4003149882126713
  0.8004907120855759  0.7990205358520744  0.0001422422739479
  0.4008071482047608  0.3994554424464787  0.0015123757983377
