Zr Ti V  Cr W 
 1.0000000000000000
    15.4411249493602298   -0.0057725826640909    0.0015034816595225
    -0.0057736157285930   15.4404920489432147    0.0129561230258158
     0.0015050534304008    0.0129519398306557   15.4493068869615229
 Zr  Ti  V   Cr  W  
   2   1 100  10  11
Direct
  0.4036500426475173  0.1947940761524009  0.9985181678371082
  0.7966011331973563  0.3981102844985285  0.2003160146566107
  0.7919395691641485  0.3955275999383307  0.6040814343323430
  0.9982430875581200  0.9988474659144240  0.9993544919618740
  0.9974498503839284  0.9997852462255010  0.2002756420352926
  0.0005408166919920  0.9990482102591043  0.4006683514057938
  0.9987876311175670  0.9981994998726105  0.6005252979325127
  0.0001552715036767  0.0004786511378108  0.8005792111427185
  0.0002021979097515  0.2006427914355664  0.9992087964584504
  0.0014083176123449  0.2015972017323417  0.2005444769042885
  0.9945678195523777  0.2011442697130094  0.4017387479854627
  0.9998534422585459  0.2012459102068735  0.6009507845755092
  0.0000667692422514  0.2015464225795957  0.7984652915476766
  0.0034190923878512  0.4018299154453819  0.2004628208423034
  0.0008826574893195  0.4014560594139820  0.4011618440764669
  0.0031245277987923  0.4041513547364075  0.5999776002269438
  0.0014195428668352  0.3991591566652667  0.8001175216534765
  0.9994177457400566  0.6006485915782350  0.2004676935021092
  0.9993013346200585  0.5995493809767666  0.4037231266740000
  0.9964429967919070  0.5990053788740946  0.7960506220316104
  0.9986287009859268  0.8005827926631486  0.0010123098484778
  0.0017374259792469  0.7991698034890103  0.2001534628630126
  0.9997005626935935  0.8001413028047096  0.3994573314196440
  0.0001449223654670  0.7961851584648475  0.5984850924390843
  0.0015776782410530  0.7997220401637102  0.8018214058061621
  0.1993266371718541  0.0021632472518780  0.4000051689361771
  0.1988726775042536  0.0003242651474056  0.6007694782064673
  0.1984581517807685  0.9973620565562193  0.7992681835138010
  0.1958376940941240  0.2013736713137212  0.0027120601277181
  0.1988640179929921  0.1997555033631278  0.2016360518523837
  0.1978031924538905  0.1989405584637602  0.4013347832588990
  0.1988618600364046  0.1991722414064994  0.5996833481405047
  0.2008427630905410  0.4002547694945922  0.9996990886676022
  0.2001674335771646  0.4005753483962324  0.1990395466525930
  0.2039670293710508  0.3981568982107846  0.3987298876840820
  0.2003074415265201  0.3979758051962802  0.6015989307024721
  0.1998810573200527  0.3995446792924379  0.8014920224548981
  0.2005019167492942  0.5991241433471763  0.9987772124371560
  0.1984708113721320  0.6015630729268382  0.1968605490434097
  0.1986414733402291  0.5996394842539555  0.3979582531501854
  0.1979606300684032  0.5998811400440907  0.6009785246519646
  0.1996022262620897  0.6000714775219452  0.8023469222723588
  0.2027498944820222  0.9353737935776077  0.0002112511331027
  0.2000542173082217  0.8004975514796402  0.2001035247717009
  0.2043030940379985  0.8015187073681949  0.3980971923218012
  0.1995258870622569  0.8007003519614091  0.5996826343389264
  0.2004288837270251  0.8003469474007233  0.8002700080322482
  0.4003607242401760  0.0003474622339627  0.1994019500393575
  0.4003310757780933  0.9985924674181572  0.3997203155512220
  0.3996905383000690  0.9979516935440280  0.5983898447213082
  0.3996453427948037  0.1993473384794723  0.2061924543827943
  0.4007068816357842  0.2023975999130879  0.4040333794632970
  0.3979668511831350  0.4011996007662360  0.2041939361306775
  0.3982771354260662  0.4043781218106382  0.5964651123654150
  0.3997085275548486  0.6015060307982474  0.9977669843581733
  0.3998220754181159  0.6000936298343078  0.4023896569396969
  0.4000772734593434  0.5982235205368096  0.7945003568250029
  0.4050790693098401  0.8009496732717201  0.9993577375917012
  0.3984609269537583  0.7999964314248219  0.2028999176587462
  0.3996550299205242  0.7958987609877936  0.5960552343591090
  0.3995087433002726  0.7977745111364372  0.7981808361682742
  0.6019485460799211  0.9944098652267843  0.9988042455804723
  0.6046539013092397  0.9999921989600855  0.2014051955285844
  0.5984543929797349  0.0005433137738589  0.4001621605556514
  0.6005138199375926  0.9987209006624838  0.6009555705307452
  0.6026697100046383  0.9987786851864768  0.7988237970910551
  0.6078214497168427  0.2020885208726168  0.0012234451379529
  0.5992795255146147  0.2000539818557015  0.2008180907766710
  0.6045155688890769  0.1995806180378824  0.4024344606445902
  0.6002301147061974  0.1984731296240637  0.6011633994543918
  0.5975050839222344  0.2006265790123769  0.7993979514719544
  0.5991304832579668  0.4020826246945521  0.0009376914511868
  0.5934471691355184  0.4010820682346163  0.1993434502803078
  0.5939967358563243  0.4005526598727085  0.3997025947277921
  0.5967125209589459  0.3993349641066081  0.6015615579613380
  0.6000027980324063  0.3997272075163634  0.8013591037920798
  0.6000059402155521  0.6030500080769865  0.9998335578555143
  0.6013225716430954  0.6006850347152489  0.1989697009418492
  0.6018307485319675  0.5995854927643407  0.3994986620878428
  0.5965205476075743  0.6002982630098845  0.6005230887929338
  0.6037502667191275  0.5975554766035762  0.8001267621112584
  0.5992724454727871  0.7989000634994748  0.1972817687353828
  0.5963161221732259  0.7993260541808808  0.3982260802295319
  0.5996922387563598  0.8006354326107734  0.6002244342635102
  0.5991976011041155  0.7989234235643359  0.8023294034312983
  0.8004897318374740  0.9978524853816980  0.6027710765048927
  0.8009083608084180  0.0010234158244051  0.8042984986091793
  0.8022057810913047  0.1969445652417361  0.9979788777700134
  0.8013690424082094  0.1918847222889894  0.2064371373023552
  0.7999453366758387  0.1955146165103675  0.5965331005516162
  0.7996601564045858  0.2007099382832107  0.7973243532744078
  0.7998161474448848  0.3990494171041444  0.9979015757575321
  0.7973076187158252  0.3960455191455827  0.4052460276844526
  0.7996021478107860  0.4017478876399950  0.8031917568962101
  0.8006092825627036  0.6014860010297114  0.9957491082046416
  0.8021451093212467  0.6042860832678379  0.2000022459457464
  0.7989585864916524  0.5991729931402393  0.4020937979012763
  0.8035532947533900  0.6022530457099904  0.6042229278775975
  0.7956879401275475  0.8032257554302683  0.9999522861346936
  0.7999499522542056  0.8040730081034723  0.2022899045031903
  0.7973505433488803  0.7999553923282483  0.4002123136542566
  0.7986020042741808  0.8019036730036729  0.5989144104575100
  0.7991333726960477  0.7965361163249018  0.7998971928699063
  0.0003328738168358  0.4012880114444989  0.9994751370910647
  0.9997880003568959  0.6006075353779038  0.9990863329210079
  0.1982688024698255  0.0001058898913599  0.2002608409912309
  0.2013166851484015  0.1989526041309957  0.7999097093743395
  0.3999887967728698  0.9976304831351616  0.7979818474385408
  0.3992862394600246  0.1994704929770322  0.6022781116020764
  0.4000423834940900  0.4037904538388252  0.0014835502540822
  0.3996084581939652  0.3992918996312381  0.7996255835248435
  0.3994694207209041  0.6008667013938480  0.1989919490764306
  0.7994523317034224  0.9998906490801909  0.3995975676586070
  0.0005207298646493  0.5998741596104163  0.5997548991160235
  0.4028741827555198  0.9954435456279095  0.0022188661414262
  0.4033499948776991  0.1985522194972933  0.7989711177236311
  0.3994755144329166  0.4002821845813522  0.4005924883666522
  0.3981475083701492  0.6010242172700671  0.5988726517812241
  0.4004348803412759  0.8013620633133385  0.3994136293198868
  0.5983927921057233  0.7986272990155061  0.0004388116851552
  0.7992701041051872  0.0000733394355186  0.0026063796973772
  0.8004706026473974  0.9994423600580763  0.1926276749702530
  0.7994258115880006  0.2017752028672781  0.3998690209192614
  0.8005460433205059  0.5995010046381958  0.7992532512232914
