Zr Ti V  Cr W 
 1.0000000000000000
    15.4863295998759050    0.0024137293282322    0.0105674120120943
     0.0024156779473548   15.5040449564505511   -0.0174543962439357
     0.0105707746262879   -0.0174578174046017   15.4782021514271442
 Zr  Ti  V   Cr  W  
  10   1 106   6   1
Direct
  0.0030263579916419  0.9700988554182218  0.7584821443712407
  0.0081404606127619  0.2119456418411607  0.6061145077819191
  0.0001329298805812  0.4349097128576688  0.0373635390982398
  0.0036671950280930  0.5770438604711852  0.2208130164452555
  0.9616499656058880  0.7909231347261350  0.1947248980061214
  0.0027482836892117  0.7995239597918059  0.5983164964815447
  0.1913050533346075  0.6262073784363428  0.5977265801270393
  0.3594697640461347  0.8074024977898763  0.1950906997797487
  0.8327732220589473  0.4300835467938237  0.3981992057727197
  0.7506877214940004  0.7899646331603848  0.1990174820642333
  0.1899684007829313  0.3877682824037097  0.6016995220874483
  0.0003420036528171  0.0066393541973092  0.9987349186573509
  0.0035765504727887  0.9984265508194177  0.3954251042459424
  0.9999145367458521  0.0072558782667253  0.5720778413767984
  0.0006634726398314  0.1999234455613851  0.2023937391636961
  0.0007580788955187  0.2011897036985070  0.3984635948893892
  0.0000507068259481  0.2044673585861416  0.8098947835912675
  0.9991545142467142  0.3865909437838667  0.2279072812657837
  0.0203466114251548  0.4000627344903750  0.4100934082127767
  0.9928314251008994  0.4100199744873290  0.6001511549211169
  0.0007127374311553  0.3967282318656957  0.8004669816004761
  0.0001896517503193  0.6236968269482882  0.0130587252540633
  0.0067964331357329  0.6032790813189219  0.4188555534994833
  0.9906069477231075  0.5984274548181023  0.6109423222795889
  0.9987159890160900  0.5909444666242932  0.8107594399860524
  0.0015929845916471  0.8117093037211536  0.9925602555675377
  0.0033487310006821  0.7987626162867713  0.3959775199405893
  0.0006151597155963  0.7823723944735975  0.8034697033635568
  0.1974969814068527  0.0021405308297868  0.9978469103483795
  0.1999386033637753  0.0026612851193470  0.1983850410512776
  0.2012813298068526  0.9989368035096942  0.3966174830943477
  0.2011887189302969  0.0037937661070961  0.5968913261849683
  0.2054847652799621  0.9994214175235377  0.8021175500000690
  0.2022435371036092  0.2001525391123183  0.0009988831751488
  0.2008004170407095  0.2004952241495609  0.1996309513671853
  0.2038503356256008  0.1985566433776451  0.3992743146366478
  0.2027188287406215  0.1981502679066635  0.8016946664686490
  0.2019041255824766  0.4006776056104858  0.9995857368718681
  0.1976497219712126  0.3988803448366705  0.1988222228017071
  0.2059650674232648  0.4019794447448930  0.3982839673274746
  0.2000583307497983  0.3984522438518480  0.8030011142307701
  0.1998474504154886  0.6019451267802159  0.0014049822804054
  0.2067665508064707  0.6008184552905828  0.1992517900639476
  0.2027239945755721  0.6000005350333766  0.3931261128699576
  0.1999776165432378  0.5978684283051443  0.8046334200807672
  0.1995556168507454  0.8031817999663564  0.9989508122074022
  0.1719248851388381  0.7958498325854548  0.1984889569152862
  0.2004164081791137  0.7998052288028215  0.3980131363152056
  0.2086210032137947  0.8139735472642050  0.5984821878587274
  0.1995326222322447  0.7981497907570149  0.7979163859970771
  0.4024923070924465  0.0049980306149862  0.2027288276207684
  0.4004294139175795  0.9988314792121338  0.4001278531649436
  0.4041710878411484  0.9993755190904825  0.5979146426024414
  0.4007729145655468  0.9986829551915846  0.7930844734149677
  0.4004143352191246  0.2028764450667464  0.9986642021123335
  0.4009566620805902  0.2001180986256751  0.1989999792343235
  0.4017067706802657  0.1998900133970632  0.3998858689785001
  0.4046639641794915  0.1989277042839908  0.5990323272027944
  0.3997690910883003  0.4000042326113346  0.9997136145234587
  0.3991203139647341  0.3973451299210342  0.1999077285601246
  0.4009173976035019  0.3993256524232291  0.4009637042965049
  0.4006929818857256  0.3978372694897847  0.6004556010271765
  0.4003783484291623  0.3997856908696309  0.7983662153576508
  0.4018959549644354  0.5995883163106919  0.9994041125111908
  0.4038530381239782  0.5932374859808039  0.2002595658122977
  0.4017012404430490  0.5999261819195315  0.3998034716654986
  0.4008601781175586  0.5968188152151336  0.5986308424464621
  0.4000255824453790  0.5976649934424397  0.7994296314051480
  0.3991567522187433  0.7964011331847660  0.9929243200833681
  0.4002371143544066  0.7981464005215507  0.4026909962876452
  0.4010495359351762  0.7988881697844885  0.6000306051900703
  0.4005659473656259  0.7981926567818921  0.7987537922067727
  0.6019674623548837  0.9982125256307963  0.9989117258531142
  0.6000369898026716  0.9966467775845202  0.1986677445257271
  0.6020784543920175  0.9972490796772097  0.3982499046620862
  0.6022974855122151  0.9987365933534889  0.5966453832409029
  0.6001683627892939  0.9969676963127893  0.7994530661157109
  0.5976232471181151  0.1962906613719926  0.9999931338336052
  0.6013842283920302  0.1997468339544128  0.1987965715193298
  0.6022158459588105  0.1985124345305512  0.5992745069949300
  0.6012479112159804  0.1987268971890832  0.8000269192361807
  0.6007465610299411  0.3988095217099946  0.9988759475146957
  0.6015132023158762  0.3994348896691550  0.1997552888489635
  0.6013738406580337  0.3978859327771083  0.3984881511274597
  0.6010109265686489  0.3987662842525500  0.5982737414239367
  0.6001982515399269  0.3991596033720574  0.7993361288089680
  0.6027199758687063  0.5991412052665612  0.0040376182635919
  0.6048695945160142  0.5983946516662676  0.3962455434133684
  0.5999457130391702  0.5991085896622373  0.5969329813136552
  0.6017102845487112  0.5990546401046575  0.8012259871743617
  0.5994939380130385  0.8002666089489276  0.9987093557458250
  0.5642507034944082  0.7883553767999113  0.2018053161957531
  0.5996286121398801  0.7992058380860035  0.3995477249086203
  0.6008365554945733  0.7986198527429156  0.5992001273464725
  0.5999014629630223  0.7972263085500790  0.7989399296926772
  0.8012732062817085  0.0009119614484134  0.9973049449625840
  0.8015103972289234  0.9973125574269806  0.1991094355278270
  0.8011274342961189  0.0000093810899480  0.3982652156588803
  0.8021710543745925  0.0007967785419254  0.5989291975825463
  0.7999904399568334  0.9992457755814743  0.7981250319788595
  0.7993122517684458  0.2005352520122181  0.9996277268223746
  0.7989412636945094  0.1990944731682543  0.1989274897314523
  0.8010403105745558  0.1968499069933737  0.3994557788635731
  0.7992921157698557  0.2019295934121177  0.5997364031130120
  0.8013443090214364  0.1986692696144985  0.8005805788761802
  0.8034454142051435  0.3973615824761332  0.1946198149490599
  0.7975377240986297  0.4000073184417329  0.6009341335781587
  0.7996384059779121  0.3997576723464810  0.8003694097053398
  0.8032317670061396  0.6004200831983869  0.9994522320388507
  0.7945134067471414  0.5932350704539615  0.2094560147605236
  0.8034532805965154  0.6175784623773745  0.4043819315015128
  0.7967722409453813  0.6007835316719745  0.6003498115708354
  0.8007245292535535  0.5987492897347535  0.8017025949941539
  0.8030383033267128  0.8013591032181796  0.9975962011319638
  0.8075045458465768  0.8052664939392288  0.4017210960850300
  0.7959809010983071  0.8003759109095164  0.6006981035187337
  0.8005921471941276  0.7981298980195014  0.7989474010346566
  0.9994153428592383  0.0029135889293648  0.1980255361689554
  0.0005900821220577  0.2015968581571959  0.0039525077428867
  0.2095777330548060  0.1952556067731986  0.6004939282147824
  0.4025234841519029  0.1994620597617111  0.7997306029835577
  0.6008413792358566  0.1982698587315385  0.3982703890994489
  0.7980158978001155  0.3996116858606406  0.9980950535648799
  0.6016912025566010  0.5967052297823686  0.1991192753168287
