Zr Ti V  Cr W 
 1.0000000000000000
    12.5418789698945599    0.0480652054988747   -4.4557759185112511
    -6.2079442305085726   10.7977698671721498   -4.3954937987276477
    -0.0256764456498564    0.0294842192000052   13.2948820674557737
 Zr  Ti  V   Cr  W  
   8  14  94   5   3
Direct
  0.9620474560808487  0.1986493367085179  0.1955240981619560
  0.2011771869093897  0.3927461850841569  0.3975606095914991
  0.5463391281722414  0.9497032132403954  0.6409246259574970
  0.6021879572026811  0.4050454193484064  0.4053895522018958
  0.6060186869549827  0.8112245760678380  0.0093506666740290
  0.7978531730604460  0.9976128912760438  0.3984803837547695
  0.8013644706597413  0.2007037635573811  0.6005523628386644
  0.8087085866629665  0.3779527385130543  0.0111991783935941
  0.0067401415469843  0.0004877570477904  0.7943602504275701
  0.9867409530109579  0.2050437138244861  0.9970234405660079
  0.9992477197188245  0.4101974679485958  0.4129973497033706
  0.0035152435034336  0.6074483011958578  0.0048628687288457
  0.0019666656088139  0.5937482087727618  0.7962545189554048
  0.2195547772467882  0.0001565506331898  0.8035368475613321
  0.2086142453860255  0.2148318983229289  0.0037525838750850
  0.2023590981120070  0.1984281353354327  0.1995891418225598
  0.2076060694084901  0.2026950999512982  0.6025108474824629
  0.3964403414185701  0.2017249009901389  0.3992406875800099
  0.4712204811552089  0.8700543411859675  0.4646602503604456
  0.6042833772570014  0.5983092037994210  0.0008735358230815
  0.6002257070782681  0.8269082738721490  0.7955745676155161
  0.7969068511890853  0.6010293979833409  0.8051853065737081
  0.9993320138641071  0.9888235709861797  0.9988644740713811
  0.9990717958070338  0.9900429657743052  0.2030601498265235
  0.0045266865705512  0.9918437410175986  0.4053471252031163
  0.0057980781710099  0.1987181402631405  0.4193793782525473
  0.0192688924250467  0.2053811185513337  0.6163714872431202
  0.0145294287457190  0.2135862652931933  0.8066081856659018
  0.0270957336322293  0.4150469321051425  0.9954319006330804
  0.0247521549095553  0.4298194208329887  0.2061291438971140
  0.0082727309534972  0.4058449705547187  0.6156833817331220
  0.0090351274951585  0.6129297363872442  0.2126267112331378
  0.0050563355609431  0.6115638166054549  0.4086385887445050
  0.0045682219979063  0.6052957325047426  0.6018884771510457
  0.0061055238228441  0.8073404604403439  0.0056368184841775
  0.0011949218290174  0.7960906208754395  0.2028926900023083
  0.9993757766505212  0.7968819350640420  0.4025059274532593
  0.0035110823696043  0.8041489071873459  0.6023986231241145
  0.0060953817764071  0.8009589273547414  0.8019537786856478
  0.2006981267585057  0.9964359212337570  0.0039794509300492
  0.1936607244613599  0.9910538893932704  0.1976028758471940
  0.1985986819102254  0.9974140946266330  0.4000472676035285
  0.1925761289282842  0.9951410569199185  0.5984940639266162
  0.1877845343977306  0.1774328356788211  0.3933006175142733
  0.2062858090200934  0.2015659015439804  0.8002603443812234
  0.2158447676438434  0.4154983575648873  0.1919845188803335
  0.2055812162133887  0.4092294369647000  0.6169832048821928
  0.2065911797291028  0.4051189748220656  0.8092550906707722
  0.2069519970992627  0.6018797692558319  0.0006811908412989
  0.2073989622626773  0.6097312697486474  0.2012393955689002
  0.2050430363678414  0.6071883398491541  0.6103523723309024
  0.2087984178501544  0.6037809589304403  0.8050628280126374
  0.2015790221930792  0.8028424493478291  0.0057215016946467
  0.2056009669938778  0.8065989279411624  0.2070984760435809
  0.1987534772515251  0.8041701833126570  0.4030198936096421
  0.1985927765594520  0.8032036283937870  0.6055391570264431
  0.1940499128668020  0.7934044431136681  0.8027628225798259
  0.3946086675126549  0.9988647397978201  0.0012918474042498
  0.3957069116705376  0.9993590053896666  0.2002371572877760
  0.3980945864946347  0.0005046874893857  0.3995752682860406
  0.3825971186833202  0.0023547606498373  0.5938633907097050
  0.4328915258993111  0.0000485656845775  0.7985555765565079
  0.4041912021559464  0.2099063881673123  0.0048323669822394
  0.3993831418158927  0.1927786922481634  0.1856666861296355
  0.4066539021766409  0.2039263853740832  0.6077692620991183
  0.4025532205383403  0.2026896687875679  0.8059862994239079
  0.4008231367027064  0.4051596261462060  0.0029774661670101
  0.4079551309435378  0.4101318284569002  0.2051497668138781
  0.4128767522254528  0.4198054249223052  0.4105786620485061
  0.4074484164502933  0.4057520387230381  0.6111187430527666
  0.4024583539193289  0.4017943194398295  0.8049120674609168
  0.4024998058165602  0.6047105244083822  0.0032282323850554
  0.4041317463398376  0.6032953204938036  0.1994356525629462
  0.4054052347014555  0.6024559643258239  0.4006747713284761
  0.4034531172474099  0.5965977722935479  0.8012763770703090
  0.3916746533789157  0.8021743188246200  0.0051634446599049
  0.3986644032931042  0.8008165678798465  0.1977211513904011
  0.3924819870806383  0.7976794243985386  0.5302990252456099
  0.3846083051493746  0.7969561096628313  0.8035886721385364
  0.5826172946599620  0.0011001196438073  0.9942642759762168
  0.5917154187929937  0.0020327868563344  0.1986937364857596
  0.5769768643971929  0.9904549145550361  0.3836796781169681
  0.5880707506142735  0.2024338557486384  0.0070520243198587
  0.5987798320761578  0.1906968071378935  0.3943767935983156
  0.5882356229840094  0.2030398577117788  0.5982446285112926
  0.5900746941934363  0.1951201056305383  0.7981861132659651
  0.5981271422856194  0.3986838639777646  0.0043613133535186
  0.5972748942314232  0.4031760671372564  0.1944153560381524
  0.5985530509625977  0.3994600733644867  0.6117042675217848
  0.6020822043394617  0.6012823542368267  0.2037155143903666
  0.6023926500025208  0.6117033956202355  0.4013111673384766
  0.6049503881800135  0.6058440016484210  0.6146180486334880
  0.5899090462869764  0.7890150963327693  0.2011254524631207
  0.6058140201616491  0.8015658344224482  0.3998007886170051
  0.6038545492787822  0.7880676152495675  0.5844267531501647
  0.8057422647524896  0.9861813692826569  0.9901426624103896
  0.8102738597897639  0.0099035552336939  0.2100206540005766
  0.8213050839234320  0.9943639405367742  0.6129859551696780
  0.7998379776730866  0.9950773833295747  0.7925831555566193
  0.7124991084334547  0.1089320192307071  0.9237342261043038
  0.7572495336119541  0.1961879379767357  0.1851690503841846
  0.8021450996441134  0.2106791723747390  0.3885197284599883
  0.8155153488904376  0.2101504557087277  0.8166974977495091
  0.8019773180549737  0.4140027387030067  0.2211835815452736
  0.8005544573448573  0.4038301672192104  0.4017324980990344
  0.7967296532875172  0.4055986809476612  0.5991845420129310
  0.8005237595878378  0.3933738840847798  0.7944044029899866
  0.8056934913277187  0.6051903108959787  0.0142587090203738
  0.8009116617419276  0.6018620996312981  0.2036581267466436
  0.8031821838829292  0.6051762032050267  0.4021201562888290
  0.8174572502434483  0.6155889310102194  0.6125885908354209
  0.8097846668734618  0.7953346476341826  0.0017664942571880
  0.8075824637266671  0.8001628130999078  0.2065235413450269
  0.8054639577329671  0.7941877051979780  0.4024125119050228
  0.8049685688006335  0.7966206765057791  0.5969761867362897
  0.8086089228154548  0.8069894365860241  0.8026029621866246
  0.0105453641060762  0.0001299352851636  0.6023172705715939
  0.0107115161870125  0.4035700970860636  0.8043436780536910
  0.2122427425934715  0.4121997594526198  0.0034570424825221
  0.5914667838575930  0.1987317711486326  0.1998881423045501
  0.5969203335751859  0.5960754018604202  0.7997668889058551
  0.2056387267594589  0.6111297881135997  0.4054703054252350
  0.4068376434607720  0.6062854212045337  0.6095967364713318
  0.6031735831746974  0.4027746498433362  0.8071355853422063
