Ti V  Cr W 
 1.0000000000000000
    15.3901465190355609   -0.0011250204104957   -0.0011259532101999
    -0.0011247543542261   15.3962745551000300   -0.0010074302771283
    -0.0011269524369024   -0.0010081141208892   15.3968520262370543
 Ti  V   Cr  W  
  15 104   2   3
Direct
  0.9989393375466439  0.0022899249746144  0.9955134552927222
  0.9987128695103025  0.9994584939520139  0.2102872210320771
  0.9948761297123689  0.6001445779295532  0.5999866548782059
  0.2042175570989773  0.1995555489333914  0.7955948009474252
  0.2057614320197570  0.6001268863618892  0.5976257885364533
  0.4132317829820581  0.5990970749999658  0.6037363225769119
  0.6058133040420308  0.0021330727094568  0.5979436072157687
  0.5950578627408959  0.3962549843752990  0.2058667746020309
  0.5990340307039869  0.3956113485941614  0.7962665400625148
  0.5975734645579275  0.6050325372901501  0.7915764599544531
  0.6081663363984292  0.7941390660422452  0.5967688212788552
  0.7903370350153754  0.9998419499978164  0.4063910878381163
  0.7982319982565654  0.2012251206912177  0.4012897310054822
  0.7974549946046383  0.4075862755442824  0.4063199152428419
  0.7909316009770819  0.7952249248055075  0.4079762443954451
  0.0008750949368342  0.0002599677221968  0.4025312277647811
  0.0019439747152980  0.9995257400841038  0.5996263753094122
  0.0001350133291683  0.0008075895504449  0.7982212979004920
  0.9972837080264688  0.2012043138447276  0.1956859108130900
  0.0005925065154824  0.1995157951803765  0.3992326903186477
  0.0000722790643094  0.1988647664821437  0.6014874379183812
  0.9976672058665315  0.1993851446750298  0.8029501674266601
  0.0006305780346913  0.3980899155796254  0.9986384367780006
  0.9991003962010039  0.3998537506170892  0.2019555269436188
  0.0021474430781483  0.3990946924401785  0.4019734106479786
  0.0004239211151023  0.3969030982779648  0.6008699311811752
  0.0012162619287631  0.3999274413558322  0.7989776242559813
  0.9998998309347927  0.5983721663626502  0.0000350972101801
  0.9949800808662548  0.5997808593082935  0.2006796821862412
  0.0006714069666125  0.6004787720250145  0.3985513132400414
  0.0003824887017643  0.5991848218416872  0.8020623028237212
  0.0001354835311871  0.7987903875443215  0.9979169897853661
  0.9988706333652992  0.7989962620386236  0.2031139928613221
  0.0059589953924384  0.8006244970668774  0.4059222022010995
  0.0008013569547434  0.7987938245459333  0.7960021616871350
  0.2021409902453360  0.0004024397506235  0.9999019888769032
  0.2009736731712136  0.9988067132549617  0.1998865017148407
  0.2014322942780794  0.0002991553199698  0.6010166222380158
  0.2017589172258819  0.9970464322981131  0.7997636953917981
  0.1963863670082796  0.2003282804578530  0.0019695331889850
  0.1989090797561517  0.1991056088605177  0.2006040700633368
  0.1997942042606376  0.2011310195611137  0.3984783538305756
  0.1998264809626251  0.1984086829350423  0.5966540976184477
  0.2001828452086498  0.4002975146272588  0.9999813836615353
  0.1993459909856018  0.4009121960742519  0.2006798113544289
  0.2001766857301610  0.3996664251815241  0.4005170603045964
  0.2013219127311516  0.3986268268000731  0.6004766612741365
  0.1998963847514376  0.4032752594519959  0.7991550756731994
  0.1996091857847561  0.5992544535254783  0.0021585967256333
  0.1982002936807021  0.6005841380226451  0.2000816216705190
  0.2017124861975619  0.5977411624348654  0.3977966120410283
  0.1993336629485306  0.7995050770124111  0.0002060795435754
  0.1986998158613792  0.8001026248749620  0.1995203501146438
  0.2007042744568600  0.8998471003749871  0.3999515293230417
  0.1973575119096410  0.8010172277917371  0.6012259833536520
  0.1998625468754667  0.7982624290374531  0.8009021350572589
  0.4006991701693287  0.0004785498079127  0.9994592604886644
  0.3996000937455866  0.9993926580225087  0.2007206236807299
  0.3985656805125479  0.9989331177338286  0.4009732467857524
  0.3996689279479846  0.9994428347143420  0.5999330750348831
  0.4008535545249024  0.9987034869574639  0.7998343587237766
  0.3999466136491804  0.2002570076489883  0.9998335050612707
  0.4008336246802166  0.1997409680995346  0.1993427777439800
  0.3993046915814252  0.1989491045303978  0.3997985645804661
  0.4018030752067790  0.1990601794403262  0.5998985453410077
  0.4031437564543069  0.1991424466630397  0.7999727845492131
  0.3991904827235562  0.3993986786124592  0.9983530316553865
  0.3977121858981809  0.3993103480430599  0.1996728782851161
  0.3984744647925451  0.3998188894142367  0.4017709335878346
  0.4015016436731786  0.3972359177256034  0.6013180069609312
  0.3969145837159586  0.3991311336481421  0.7992587786272394
  0.4010369770100788  0.5987171386248296  0.0007696594281210
  0.4028280801992479  0.5994712377525013  0.1991929305385145
  0.4016175196878422  0.5996199603338773  0.3977207388187224
  0.3977084666945445  0.5996041819938588  0.8024282262482291
  0.4001220885064873  0.7990382143433172  0.9986723367030765
  0.3993528858971540  0.7994273449197709  0.2001437897491470
  0.3975215205144020  0.7992920398452638  0.4010917027219212
  0.3973609227301184  0.8010347501220423  0.5999363587082699
  0.3995724625160321  0.7991224158481148  0.7989124670326382
  0.5995426575931081  0.0007048164627532  0.0002438192033811
  0.6003636230242575  0.9994038354976951  0.1997317651222789
  0.5941986876331609  0.9997285020479639  0.3974857960231883
  0.5997368185717592  0.9986505123998521  0.8001439508101345
  0.6017394399658772  0.1998129863230520  0.9994586059131191
  0.6023459841109862  0.1976914821746581  0.1992035207819439
  0.5984375937450100  0.2006665779771385  0.3986667913589368
  0.6019817762903993  0.2015422738003265  0.5995193980982695
  0.6010118207148950  0.1969518460715285  0.7994719735916171
  0.5989981949948622  0.3988657201005440  0.9975335930231635
  0.5957751776889948  0.3996298433299517  0.4030299280764443
  0.6014924890526006  0.3983018725669415  0.5971664074650818
  0.5998049554205830  0.5993938718440853  0.9994273390815387
  0.6048419498536215  0.6019605479176048  0.1990657413042242
  0.5996404948015288  0.5989094474958712  0.3970928326971861
  0.6062344133475729  0.5959621216263975  0.5947648402358757
  0.5994490656159353  0.8007370343178036  0.9984643716864265
  0.6001708995040218  0.8010924071260681  0.1996782131596222
  0.5940911408470334  0.7996825705723438  0.3984380876118713
  0.6005410144581392  0.8020367264796396  0.7991307348887626
  0.7971566194541317  0.9994018941781126  0.9999734348985393
  0.7979279593344539  0.9993182541490979  0.1999537967827034
  0.8042957808031634  0.0000590296315348  0.6044422318323575
  0.7981041016900732  0.9984346595561345  0.8006793621211071
  0.8032035402699594  0.2002490522041350  0.9998904100779482
  0.8015408495699953  0.2001362443084563  0.6031856184796114
  0.7988651011342287  0.1995014665221887  0.8009557463275225
  0.7984947668790987  0.4007274766699593  0.9990841129657488
  0.7999727665004185  0.4033140973521170  0.1989867861464657
  0.8004424543071081  0.4000530457627252  0.6042477118832418
  0.8010686972341525  0.4014434943779156  0.8001248556048954
  0.7993568719612510  0.5993150137560919  0.0027612326244293
  0.7989590593052844  0.6006463407230775  0.3947264853921839
  0.7989252639103275  0.5994861323547028  0.5994265407833392
  0.8005973997008926  0.5999643224234819  0.8018840663472678
  0.8002146351195261  0.7996963150627355  0.9995089685230134
  0.8001516459495929  0.7962837776268300  0.1991371449067595
  0.8095235015519497  0.7991714692430681  0.6043172764231053
  0.8005807303913486  0.7988729394025845  0.8018167945356723
  0.2000143645586389  0.6001893179570833  0.8044347016409664
  0.7997108457622019  0.2012944640873535  0.1964533185872744
  0.9999067825818815  0.2050386803237231  0.9987935896092797
  0.0032642760626086  0.8041524947633559  0.6012355736520920
  0.8000948257500229  0.5996092683120768  0.1980312965639334
