Zr Ti V  Cr
 1.0000000000000000
    15.5054759955686290   -0.0026938295988576    0.0222345561511436
    -0.0026911951043345   15.4937529874400166   -0.0133710719798359
     0.0222461462953622   -0.0133733789628594   15.4975574155639322
 Zr  Ti  V   Cr 
   5   5 111   3
Direct
  0.0114729864977595  0.6134210323267454  0.1987866307024546
  0.3995278744565786  0.3998713024239485  0.6000203051943900
  0.5999598778432781  0.2000794276392744  0.2011906714477628
  0.6102396181781481  0.7996228942975071  0.9910050689181804
  0.7924626631937838  0.7979674818035646  0.8088144919574721
  0.9957097635917970  0.7868558098355426  0.3839888047677786
  0.1867069546858672  0.6015427513425609  0.0166250679939235
  0.2033882094326539  0.7976658121665275  0.3976607178177075
  0.5952561247450794  0.2021100323492636  0.7971960344587758
  0.8190819524319136  0.8019651893462079  0.0183279885549927
  0.9996079131171035  0.9995587287730476  0.9970459850922450
  0.0017803715174756  0.0036220536638716  0.1972000375579298
  0.9990372496315711  0.9993895274404412  0.3982699981673087
  0.9987525233061123  0.9969540577361822  0.5972904001026810
  0.9988133717595423  0.9990825006881452  0.7990061717036322
  0.0014411375494823  0.2008004965435975  0.1667839106947342
  0.9999323788485136  0.1990861864293891  0.4006681862536115
  0.9991774971170020  0.1984487476918845  0.5990776725105199
  0.9994527536522316  0.1994574745223350  0.7962955584038581
  0.9992410526360908  0.4036285842228444  0.9994254232323483
  0.0010167784399404  0.4006585494893119  0.1990299332773682
  0.9996780561658670  0.3982801892740205  0.3991598478891389
  0.9981723638627934  0.3997812306104154  0.6007880908385540
  0.9994423352437123  0.3994337766027558  0.8016137273963690
  0.9924608566101900  0.6017750544153706  0.9928498964867520
  0.0002595318294723  0.5935500311017464  0.4055358480395875
  0.9983415731082226  0.6000956465805931  0.6007316442893197
  0.9977302297019406  0.6005954719193664  0.7979442329260958
  0.0088217402866016  0.8009400877555743  0.9956383926823981
  0.0037770592607403  0.8112979594679195  0.1934937602087633
  0.9989304459763828  0.7989601482466663  0.5993707019378650
  0.0015362959341814  0.7995852975272897  0.7975682735677476
  0.1985151421698157  0.0017864704478797  0.9991991353453168
  0.2004114788792781  0.9996482315154145  0.1991237273036305
  0.1994449679310645  0.0003634863424831  0.3991616492441372
  0.1986158952017989  0.9990993121902861  0.5995685848220592
  0.1988646149302815  0.0000411682963351  0.7992956198059161
  0.2005642564102881  0.2004195874197630  0.0006511482532249
  0.1994768905960609  0.1996453177924995  0.1995625011887842
  0.2000844923226784  0.1998098623256716  0.4001084543580238
  0.1986971823947535  0.1985646588682320  0.5998799590672281
  0.1972163248949770  0.2000240200696755  0.8006778398408346
  0.1979351102564003  0.3971371996654423  0.0012103091307350
  0.2005929451805328  0.4008929455387499  0.2003396838271770
  0.1997503669908736  0.3982867131135823  0.3997318574074252
  0.1948771037605224  0.3992395832065963  0.6001480408933406
  0.1981287922128409  0.4010994980221114  0.8019442372099869
  0.2115236397387611  0.5990410009726238  0.2086488163301803
  0.2013743855602000  0.5963099945047873  0.4033901582778768
  0.1985903494381097  0.6004471083104982  0.6011664578592284
  0.1979026927771799  0.5997204656095473  0.8000975991490501
  0.2029674217495493  0.8023040050646170  0.9991115363074244
  0.2034412229812043  0.7998274202288841  0.1972001470474047
  0.1983731365931636  0.8002056115080513  0.5990138919486936
  0.1998686237687717  0.7990501265366936  0.7994773806438210
  0.4010735876217535  0.0003482427147952  0.9990157228491371
  0.4000448075473198  0.9980920281813866  0.1984585903484506
  0.4008795989164398  0.9993270446867228  0.3984789558887128
  0.3992926458479574  0.9982453520522172  0.5984571828848728
  0.3985766297251758  0.9996738258762855  0.7995009040439718
  0.3988428201694210  0.1999044619237364  0.9993240828646056
  0.3958608972208980  0.1993675856420525  0.1992904652030455
  0.3995200504692614  0.1987033468322302  0.3994530921398408
  0.3986608708709975  0.1947677711790368  0.5998564263663675
  0.3957690395310867  0.1996871547552030  0.7996263866857062
  0.3996994629212792  0.4008919199481910  0.0006038189142317
  0.3999209594924598  0.4011704234531839  0.1981361840531166
  0.4004563321755206  0.3993174829649900  0.3954363808386333
  0.3979303234166123  0.4007518299580875  0.8047461121124682
  0.4015569948676373  0.6005304552396521  0.0017981317344233
  0.4043381264468726  0.6012493938353373  0.2003237728302933
  0.4016848251472934  0.5997667036002566  0.3998566050383707
  0.3993507886308519  0.6045458981413329  0.6000416008829870
  0.3962370494636810  0.6006923096563015  0.8031665414334987
  0.3993420628852015  0.7999318597408621  0.9986904717170010
  0.4021687738586807  0.7995516491621510  0.1980232910606014
  0.4020640420811455  0.7996062319292775  0.3983618369684530
  0.3989024733527119  0.8010651806780640  0.5985712987979011
  0.3957474795156151  0.8000885622854095  0.7984882763463773
  0.6004481890810456  0.0042996953566096  0.9970800715201922
  0.6009886717677685  0.9945658696914594  0.1975863447546254
  0.6000608349164298  0.9986133934019875  0.3987590813282441
  0.5979672442895330  0.9991877383503702  0.7965394540541790
  0.5989868182862297  0.2015446783557358  0.9959195852635041
  0.5993940035193032  0.1992994944689871  0.4043119462773087
  0.5998569839769984  0.1981597314809977  0.5986772256004306
  0.6010420558958282  0.4006748810194945  0.9996990548158871
  0.6005211666913175  0.4047481500083021  0.1995102997856228
  0.6006660644152897  0.4000216308131392  0.3991757522800695
  0.6040022231254824  0.4003460801062443  0.5996195465010643
  0.5988880768984229  0.4027288619597159  0.7995814372355846
  0.5997730792740210  0.5961193958695080  0.9984919562585781
  0.6000680133568926  0.5988971597718696  0.4006331069351975
  0.5995552750990989  0.6008245162213254  0.5994566350916072
  0.5969524956777079  0.5997572224007276  0.7977055456856480
  0.6005234061461648  0.7994363256921120  0.1999232539705497
  0.5987334687304862  0.7999517190343793  0.5952809449151029
  0.5895070613152181  0.7997661129555846  0.7886653379905095
  0.8021556551116328  0.0066739265395332  0.0003505086342332
  0.8003933986129153  0.9986514278067209  0.1991425686856111
  0.7992132159617913  0.9995023141261314  0.3992054327891879
  0.7989425953223322  0.9989071648650476  0.5990104516450755
  0.7981035920186845  0.0043094242444174  0.7988392164105068
  0.7987351992176049  0.2021077303480199  0.9994326434181484
  0.8056541766699378  0.1992134112026112  0.1987079702362810
  0.7999345739679675  0.1997212616328847  0.4000097124228371
  0.7991898543650248  0.1984793795213010  0.5996172862628271
  0.8020990449906228  0.2009431598604288  0.7999272989891260
  0.8011424643618780  0.3986863649267328  0.0008402565597569
  0.8025475895081825  0.4013867630448796  0.1998318398305466
  0.7998112793357881  0.3989542840230140  0.3990712319971962
  0.8003878160093565  0.3990480196478406  0.6000073691421722
  0.7992928943207915  0.3988757763639753  0.8007879878177711
  0.7984238305466712  0.5977137984274318  0.0024336690818705
  0.7997116885675614  0.6006192299885438  0.2002427842640830
  0.7990731923028227  0.5978958914323852  0.4007649890741048
  0.7988476653075467  0.6006171718729227  0.5999347219950327
  0.7970163319390986  0.5948326276937389  0.7994273194380179
  0.8024179931217885  0.8001159257173958  0.2074981654989816
  0.7977573845875485  0.7986571289042383  0.4002778930629687
  0.7992956137199067  0.8006208808483924  0.5976647743825934
  0.5993933381506741  0.9984682867657603  0.5972410987227774
  0.6019023328224231  0.6016028208192316  0.1999530465820960
  0.5999919406671602  0.7988875690622024  0.3982713172992194
