Zr Ti V  Cr W 
 1.0000000000000000
    15.3971014729145068    0.0074926316345343    0.0156669572009110
     0.0075040429385702   15.4061050316485026   -0.0023701499804443
     0.0156766635863526   -0.0023655926984651   15.4082154988891684
 Zr  Ti  V   Cr  W  
   5  10 103   3   3
Direct
  0.0332288026340577  0.9942784248907153  0.1937344156954367
  0.1959826636491220  0.8161092458320997  0.1972955460628456
  0.4380810982517964  0.9459599147201976  0.1948750548487059
  0.4254262787082525  0.1619590860554979  0.1965705355708289
  0.5938401787501590  0.7749104879743439  0.2110370923703558
  0.9951621731025502  0.9993095921884879  0.9584774139755325
  0.2105170243174823  0.8043827624290156  0.6041395981691178
  0.4072113860471359  0.1979395285368090  0.8005642127129168
  0.4112992225506614  0.7982412573429160  0.3875919049855996
  0.3899428664425250  0.8050787731154919  0.7986671076807185
  0.5920270994177027  0.9983060025089167  0.9999996283802256
  0.6218451939304136  0.0109101635281645  0.2117883682704726
  0.5981498002654035  0.3997254356278097  0.5915102059409958
  0.6012745656371339  0.5767124851992284  0.1966438406075338
  0.7919587931899073  0.6007079311528913  0.8012999828705509
  0.0011738520538600  0.0012876546206211  0.6035046170961639
  0.9955035897457328  0.7978448362966620  0.7986504677229143
  0.9983556440318554  0.2051062145761544  0.0000278891235416
  0.0058198851925428  0.2029242654824254  0.1989407895591133
  0.0003695041942107  0.2009658156103607  0.3991741629297593
  0.9993881166784476  0.2011837550660891  0.6011591055312876
  0.9976419844104601  0.4034640516413452  0.9995143536565430
  0.9996035763378239  0.4016750785254847  0.2009587675013144
  0.9982455893669591  0.4021688131614500  0.4000493095189748
  0.0014681519830430  0.4017503565184002  0.6000066301889632
  0.9970644026728056  0.4010767106576894  0.7993064102343020
  0.9964238073555496  0.6008035001436797  0.9988994221699168
  0.9999888591941847  0.5984432072684478  0.2007537593863710
  0.9977662329824253  0.6016301183086138  0.4004256739885308
  0.0009209429843620  0.6024221951299541  0.5997121446255483
  0.9937928583070476  0.7978543508420645  0.9976463313221856
  0.9908456148291337  0.7916383747135807  0.1986659337938851
  0.9988001033139351  0.8000190754652795  0.4026611996156129
  0.9984153692038288  0.8022871878880097  0.6027459501096333
  0.1997177173981846  0.0021460502340409  0.0027374988285724
  0.2361832715295915  0.0167042720818417  0.2077515462938547
  0.2034641897412838  0.0026876254290225  0.4052995627684555
  0.1989911803290474  0.0066892864289990  0.6040967804781399
  0.1995488325086353  0.0038191964753416  0.8009241739214289
  0.1987923929389730  0.2036045702360348  0.0002971222616429
  0.2082445605814751  0.2062640540116129  0.2017181497247656
  0.2021669633610008  0.2036423891210590  0.4006637457412934
  0.2006355599658675  0.2059447834850208  0.6011384379123965
  0.1967803288580415  0.2006980391262048  0.8012285942121493
  0.1980041858461050  0.4033768599389715  0.9988480384056472
  0.2015998203820559  0.4018202583777445  0.2016759366461151
  0.1997408224413660  0.4016578790948379  0.4036383740141883
  0.1985016954506706  0.4001222987836072  0.7977814019227355
  0.1982425070440352  0.6029437740740788  0.0002708875300806
  0.1973884681325823  0.6014237182117774  0.2002196845910324
  0.1995426361559398  0.6040062640902206  0.3990775848349842
  0.2035484164960649  0.5967331763323220  0.6006917466196227
  0.1972683008459919  0.6023824443789982  0.8008718568893172
  0.1970383683593272  0.8013585744872599  0.9937294876760693
  0.1986782600897531  0.8032427660237521  0.4040663574705438
  0.1920996162385719  0.8044622404193853  0.8008280397310998
  0.3951631751847163  0.0018180267206852  0.9979997473288139
  0.4010695131079772  0.0031163995104666  0.4025112667127533
  0.3975768428969965  0.9969214548273971  0.6000871598323317
  0.3979252482098748  0.9999739986270034  0.7999589070526056
  0.3988520500163281  0.2010068431910392  0.9967580532723425
  0.4024194220330117  0.1987776128927694  0.4024627224727961
  0.4005602881848851  0.2013078440961943  0.6006459411913412
  0.3973116848172292  0.4003649332264808  0.9999224847294719
  0.3988223087390286  0.3927556426669528  0.1999419510891189
  0.4035722233094159  0.3988045552336282  0.3992878599279194
  0.3923225810495467  0.4049868702536841  0.5998061805687162
  0.3992090181714232  0.4021066167327167  0.8000236809979479
  0.3967123958034098  0.6004424274098222  0.9959497515544142
  0.3958851857326113  0.5893703464801403  0.1994118251289280
  0.3993581561162824  0.5995919571050708  0.4040336394024333
  0.3970605057424026  0.6005582538066329  0.7961541329514971
  0.3956830947143770  0.7993556647821517  0.0017493579807446
  0.3945856854404837  0.7668102161005187  0.1931031461711632
  0.4049565466098829  0.7963053557683013  0.5987904034104169
  0.6011724961532029  0.0021920309373016  0.4064519556879679
  0.5974037212106169  0.0016806672784764  0.6004071814592282
  0.5952180977869252  0.0029212292491038  0.7975297263734796
  0.5964499712251120  0.2043755795325572  0.0028681841873763
  0.6174309416567463  0.2014270964909292  0.1995025734493047
  0.5991044951971435  0.2046031778883785  0.3966726192153698
  0.5991535642438696  0.1997268743590585  0.5997192601625722
  0.6028839825018660  0.2023069621501647  0.8010654643217595
  0.5961700128564792  0.4026524485188744  0.0012223209833999
  0.5985717719253227  0.3885427243637808  0.2028543465434282
  0.5976918824351054  0.4007667872380070  0.8013381785986553
  0.5942410528935435  0.6011750921944953  0.9990299764924654
  0.5988914869694280  0.5974976361793991  0.4018202957421076
  0.5924135281410324  0.6033970729076057  0.6006366764089136
  0.5940599871981805  0.6014568743363619  0.7992940951954333
  0.5955159609654870  0.7995897124367364  0.9973297916973721
  0.6058244207512092  0.8016063079802052  0.4110824390120567
  0.5997696790964592  0.8015834677885969  0.6044265438237676
  0.5991294477928520  0.8028579259800277  0.8024542902628611
  0.7946856775268216  0.0021363666882652  0.0008398800533020
  0.8158672457757589  0.0010469904633921  0.1990145004746127
  0.8011484295915070  0.0019727061767959  0.4016505905412867
  0.8004456331528246  0.0017739971172972  0.6042961644765409
  0.7937126001283191  0.0028452847787854  0.8013303295785493
  0.7979056543374989  0.2003144305829557  0.0019045764535902
  0.8092386730197532  0.1990969014344563  0.2001167003836311
  0.8014629701479672  0.2006484725227104  0.4009491121783925
  0.8000380433580299  0.2008830479259075  0.6006826620060545
  0.7983341545845825  0.2005265540453691  0.8011916741994536
  0.7965293172304456  0.4015350582395849  0.0012002907933167
  0.8004765148348720  0.4005185441698835  0.2004308277761781
  0.7955541022562208  0.4014835497360028  0.4002887660186650
  0.8018515216493113  0.4023231140436601  0.6008309708752555
  0.7971346103583390  0.3999176022699534  0.8012533788569809
  0.7947596921707631  0.6024576660543685  0.0028780791656346
  0.7985726553633142  0.6011389498507008  0.2007325024382210
  0.7985829984838450  0.6025922271460260  0.4011685913192137
  0.7970467012611669  0.6024878021477872  0.6002259490912166
  0.7929216998848618  0.8032254184874889  0.0041993227181842
  0.7984329671552387  0.8030628431072436  0.2022469821024387
  0.7991382481353434  0.8037854446818482  0.4010969553597240
  0.7993007956773766  0.8018682683802373  0.6013677953347021
  0.7973284443205545  0.8050315497521310  0.8015868962860698
  0.0019881963667716  0.0017593716916277  0.4051914130524845
  0.9975388041169860  0.2026827603401357  0.7998271669247541
  0.9991186146839313  0.6004118410175082  0.7996137322693597
  0.1970114449239856  0.4022094024696116  0.6004194965490296
  0.3972538026662241  0.6007993451712821  0.5995818091353864
  0.5996596660942148  0.4016223719906875  0.3970953008561095
