Zr Ti V  W 
 1.0000000000000000
    15.3704372863088707    0.0041087699184726    0.0045828320708022
     0.0041071823098185   15.3593176205705255    0.0049868964281650
     0.0045832368054306    0.0049883200619353   15.3853693029952101
 Zr  Ti  V   W  
   1   2 107  14
Direct
  0.7916523874119024  0.4018009981693189  0.8098883772219909
  0.4089192068754761  0.7974383915924937  0.8049110045339344
  0.6131670103593747  0.4013956616336337  0.9887063706474074
  0.0331173799158370  0.9979143587369795  0.0346250868976767
  0.9929267967277350  0.0025846816836035  0.2015098715824378
  0.0012554145740415  0.9968517097232426  0.3985459389860707
  0.9943134297500489  0.0000928923248478  0.6021081705531293
  0.0025843728732675  0.9985140819126738  0.8006621084660814
  0.9999762291669195  0.1996869661576559  0.0009306909199163
  0.0014087253013004  0.2020725040226397  0.2020764625440010
  0.0005815903099557  0.2002429714340664  0.4006826495854834
  0.0026902581868475  0.2008403750262605  0.5990212043019060
  0.9994056929245229  0.2007785371089800  0.8019076820023154
  0.0039329535606270  0.3993046682521731  0.0060069427049132
  0.9987108785400775  0.4012647189320039  0.3969271353502747
  0.9975222175577594  0.4001301863448478  0.6001051222256639
  0.9994060473193453  0.4011256797167532  0.8027661835399897
  0.9984284574681348  0.6053297810547806  0.0002728223480419
  0.0026414628847771  0.5964753298625139  0.2006186122655272
  0.9997936726811397  0.6030278323078438  0.4020774033121600
  0.9993900888032654  0.5996157182602163  0.6013997401788143
  0.0026364079066969  0.6007443685468602  0.8001808687706065
  0.0030856484171734  0.7998765080876437  0.2013557780216934
  0.9990656509264962  0.7996425751790877  0.5947199904454872
  0.9994561552588566  0.7993245033460206  0.8061109002709492
  0.2006463470305916  0.0016536427521998  0.9931880336499750
  0.1985291833706677  0.9991570918667497  0.4066939326941132
  0.1982900364513516  0.0028764626499396  0.6060045014395568
  0.1999669727639937  0.2023820446661713  0.0003392122084359
  0.2001971715649311  0.2013660455944158  0.2008214079658411
  0.2024800642888852  0.1982252695375559  0.4030829515983423
  0.2010056637023709  0.1963265847731229  0.7956184331857784
  0.1961779606062176  0.4046385322700365  0.1954796205318272
  0.1995378067253857  0.4016302339068595  0.4000470636524549
  0.1978163007740266  0.3965787276568419  0.6010925492834839
  0.1977999961482799  0.4042619208797989  0.8047068621201414
  0.2006437844225517  0.5965065563362935  0.9957930553326301
  0.2010300293155605  0.5993909511295218  0.4002687204300274
  0.1996404685470899  0.5988900283865696  0.6048735121467836
  0.1963181337093831  0.8004539712381128  0.0019932535321201
  0.1964686783888172  0.8007589703644264  0.3993124460856779
  0.1994637178761902  0.8000977455769034  0.6004058823006458
  0.1984334346124878  0.7987943035635560  0.7998878211598728
  0.3988491247303562  0.0007835692282965  0.0010274937114034
  0.4040063077110420  0.9963029903935083  0.1994318241766790
  0.3993418470130838  0.0023039528560849  0.3987982009160732
  0.4010457505725414  0.9986457010046629  0.6002439103662039
  0.3972840380392417  0.0005131932604080  0.8002991360070014
  0.4009715567074771  0.2005091253596742  0.0021540300379062
  0.3976935374301918  0.1967345252016162  0.2036757246706593
  0.3964031450479247  0.2002824993447822  0.5950052650345758
  0.3999559233477323  0.2003290639629029  0.7992971820921212
  0.3958051320852006  0.3983176016772364  0.0003077206233041
  0.4024136116841515  0.4010837279301437  0.1982218032701963
  0.4001217922793140  0.3968122473084588  0.3977194093233855
  0.3992847780957582  0.3997763568918683  0.5983406542439236
  0.3965820858516728  0.3992285960468135  0.7996758325019552
  0.4014304495846291  0.5994638272366419  0.9988218219338848
  0.3983099902970841  0.6027279305677382  0.2005854019342471
  0.4003325912193975  0.5988046740447800  0.4010221459836466
  0.3985383246067306  0.5997811107669641  0.5988653646127894
  0.3957788744164784  0.5990237616960190  0.7995696027369101
  0.4018342659627696  0.8009010889000545  0.0073909901805916
  0.4014225860947556  0.8012314463153540  0.3964196864284774
  0.4003320787192519  0.8007700595482111  0.5939842609095711
  0.6007695916397323  0.0005486348218584  0.9972085304221440
  0.6029462275340012  0.0001209151561135  0.1981663896515793
  0.5993927993206000  0.0004499882922895  0.4014626841729656
  0.6019423224373485  0.0008416973298165  0.6024749149678720
  0.5975960210455833  0.9991933224246181  0.8006106788221721
  0.5991662013791900  0.1995332909015321  0.9989287756211964
  0.5982764909713875  0.2027230344579132  0.1988326626875668
  0.5946428105777890  0.2014753319520300  0.4010789908651257
  0.5979979052376684  0.2010437049759599  0.6008847631182399
  0.5968738536507926  0.2012892356471349  0.7997686283238308
  0.6023109104755462  0.4014105757006603  0.1991053586694778
  0.6012411518262808  0.4012933304452190  0.3985428168963815
  0.5997996052394712  0.4006028316772324  0.5991348444479045
  0.5897870628560822  0.4011807489753511  0.7943967994665015
  0.6001822987986659  0.6014564525495676  0.9981843739139830
  0.5982274408970792  0.5986938081029709  0.1978186415598505
  0.5994269235678840  0.5993083820147180  0.4018334003951541
  0.5984897322732637  0.5999864616381199  0.6019626718571826
  0.5954691203605585  0.6009677751481614  0.7998449947115440
  0.6015265139509925  0.7995768788726405  0.9992842430920563
  0.5962262483434642  0.7990707853376271  0.1996353728401628
  0.6034061834494304  0.7985720906691280  0.3993466256262426
  0.5997072136662209  0.7995019749393355  0.5999081094974567
  0.6029950707487909  0.7995101763980749  0.8003485456388185
  0.7985269827463686  0.0002901580144377  0.0038825126549863
  0.7981879589499395  0.9972298477221574  0.4021315249343869
  0.8000603178981698  0.9995228940049926  0.7978883602254043
  0.8000178227022755  0.1995546305787013  0.0012277989412017
  0.7977065795588366  0.1971743609335344  0.2028727230362360
  0.7984118237983659  0.1988651272002163  0.4018536940890038
  0.7992208612776789  0.1965506241700652  0.6004580631777293
  0.7996340946119523  0.1956792669087537  0.8007658917883810
  0.8080940097676212  0.4001858051298957  0.0107151611868703
  0.8040971876051201  0.4000948120926528  0.2046496656774360
  0.7998397218823885  0.4004678844199190  0.4018455061589952
  0.7993423935285771  0.3988205435109383  0.5992702112312016
  0.7995965669321871  0.6013647774310662  0.0011653396977745
  0.7977607924783987  0.6009988182750653  0.2011248008319994
  0.7983991147835073  0.6049678913553548  0.4017469027891748
  0.7986640965967415  0.6001238142128402  0.6028444353601079
  0.7992919986133799  0.6065196281239802  0.7994372592490067
  0.8033530374340508  0.8014800934359313  0.0031139545261674
  0.7976252226090065  0.8037027541445202  0.2051634780198379
  0.7998929507900701  0.8049903117821414  0.5963805307859376
  0.8007831781049973  0.8016235836787579  0.8001085664778699
  0.0004827720428031  0.4016208406296053  0.2018219659533093
  0.9983570689588719  0.7996402361768312  0.0043221677762121
  0.9981700035373188  0.7990123023390096  0.3984890836538637
  0.1999083506742867  0.9980055611013333  0.8001541176163048
  0.1994152136698570  0.2005614391974672  0.6010571981236603
  0.1998052517340708  0.4007806654257614  0.9994674960242225
  0.2020528235766446  0.6022123306507450  0.1979672134472000
  0.2005737310377943  0.6008274562290968  0.7995070828876926
  0.2028655029166815  0.7894176839547667  0.1998887933547881
  0.3986745136279154  0.1994234608950482  0.3986272377129330
  0.3978444923772013  0.8004621504779871  0.2018773914784739
  0.7984168816814071  0.0016868008903695  0.2013537213956041
  0.7984525631189133  0.0009178978019296  0.6011966312810255
  0.8034042227453966  0.8010825900703771  0.3998577686120220
