Zr Ti V  Cr W 
 1.0000000000000000
    14.8701120063420689    0.0298707831451673    0.0751850229450809
     0.0294308073244672   14.6717162148819291   -0.0859710254269889
     0.0749228783535834   -0.0858030822520402   14.6324482793649473
 Zr  Ti  V   Cr  W  
   2   4 101   5  12
Selective dynamics
Cartesian
 11.8088494733178724 14.8177453487641166 13.9973742280433004   F   F   F
 12.0291973625381612 11.5020065914833634 11.4204581498645545   F   F   F
  1.3627176331600859 11.1031084690218815 11.3361233855581229   F   F   F
  8.9638752485415374  2.9385348626021521  3.5494307458152159   F   F   F
 11.4009532574897765  3.2838341722064617  6.3376576471296708   F   F   F
 11.9583772493356850  9.2430290131928583 -0.1523944319311057   F   F   F
  0.5235039332838326 15.2722591819248024  0.0346552600171603   F   F   F
  0.9285694044690510 14.1393026401400093  7.8540192152045227   F   F   F
 14.1928251871063544 14.3415947221270379 11.3144034842901018   F   F   F
  0.6045946007395446  2.9629506767286866  2.9234886367720909   F   F   F
 15.3471741415621086  3.1908661726579020  6.5389295153206373   F   F   F
 -0.1302083070957321  2.7528866000544232  9.3216250583237752   F   F   F
 16.9679823567388297  0.3383879714354783 11.6961048221450579   F   F   F
 15.2781454943760426  5.4905729304081046 14.8312117942190138   F   F   F
 -0.5628424699294589  6.1583522102781965  3.7548542363058353   F   F   F
 14.8103859612277358  6.2056269047300452 11.1743242534194973   F   F   F
 15.1468129289757201  8.3188719180283215 -1.0885828972920570   F   F   F
  0.3010787499371103  8.9714483390065904  1.3037530565809849   F   F   F
 14.6143770072474908  8.5127459038560218  6.5669451950980298   F   F   F
 15.5111663569432974  8.2967311813812827  9.3621888386528660   F   F   F
 14.5330260590519185  9.0685728242359325 11.4214028534469882   F   F   F
 14.2101040142746413 11.9555209843628027 14.2039223692617167   F   F   F
  0.0139402338105528 12.6127228046520496  2.6222166990092104   F   F   F
 14.9241250081583310 11.4159215008084622  5.5918973508188081   F   F   F
 14.1597831676202599 11.8608817757189922  8.5883146090051525   F   F   F
  3.5659828987193496  1.3902485906920161 -0.6629380919664223   F   F   F
  3.0998327330126303  0.4176745154896905  2.9277253141708086   F   F   F
  2.2269163265935434 -0.1102143535011651  4.7789789820915454   F   F   F
  3.8793322803985224 -0.1950906149791412  7.9910326187080258   F   F   F
  3.2285155550645892  3.0378510984850848 14.9780349529794421   F   F   F
  2.7809921772596913  2.7154989408797108  5.9338898830121662   F   F   F
  2.0262371351785951  1.5647393701080068  8.3472793817305568   F   F   F
  3.1688322453953077  2.1180265786372345 11.2942395825860533   F   F   F
  2.6612526886161167  6.7084143406978365 14.3722121189918539   F   F   F
  2.3000373067823121  5.4018939558544021  3.4313952101092271   F   F   F
  2.8991305274197523  6.9793230269449706  6.2283067079304786   F   F   F
  2.6282784436574791  5.2677826609769118  8.8605663941429675   F   F   F
  3.3266626103654637  5.7323068414123055 12.4794121531855353   F   F   F
  3.7432356327132714  8.8283896701635047  0.0444273476316435   F   F   F
  3.2006150766510117  7.7936572027552389  3.4643786833128449   F   F   F
  3.3551324273177920  9.2857675783315852  5.6790486721079434   F   F   F
  3.9209673471653663  9.5960852421248450  9.2446201877000824   F   F   F
  2.9852233956021315 12.3833784249870895 -0.1418721947169022   F   F   F
  2.4939479699984726 11.4528442774736874  2.5989195873036364   F   F   F
  3.9712328592212089 11.9890338522815760  6.1280781115772927   F   F   F
  3.8216074923549574 11.9879695763258134  8.8090542612334435   F   F   F
  4.0328280197329702 11.0806030814850551 11.8852723290958355   F   F   F
  5.5148713158400806 14.9002301750641770  0.8327275786207954   F   F   F
  6.9448053716524898 14.4381442712540444  2.9035280747384591   F   F   F
  5.7821987177698295 15.1086637496396765  5.4928162092453956   F   F   F
  6.4326468484686474 14.3080998569768418  8.9998062635566516   F   F   F
  5.9208869429262485 15.4112944288980529 11.1458364092256819   F   F   F
  6.9329624885282888  3.3841469411047038 14.2993562250145096   F   F   F
  5.3274062277747039  3.2866106391127685  3.1994869740263412   F   F   F
  5.4247233636613439  3.1543036379765228  8.4938661663445032   F   F   F
  5.1751416906784344  3.2366556853019928 12.5362640398605851   F   F   F
  5.3028560297331042  6.5542433099680864  2.4360966001766866   F   F   F
  4.8815903658893394  5.7858875942473107  5.9793016291946257   F   F   F
  4.7525725990563013  6.6277908602602427  9.6204459202503791   F   F   F
  7.2948491748410618  7.6033365887602065  0.5385919906720840   F   F   F
  6.1229407624781915 10.2227085212970525  3.2561824360590075   F   F   F
  6.8012693083091644  8.1309965240768616  8.0269140918571686   F   F   F
  6.1379121335065943  7.9857791617533156 11.6891471730964351   F   F   F
  5.6520618637166500 11.0232769241933681 -0.4393540937990839   F   F   F
  5.5888488492084800 12.6898256817100314  4.2898909607854181   F   F   F
  6.1486866580042436 10.6132633311885947  6.2275369588363851   F   F   F
  6.9234671827172125 12.0030122280215306  9.2027638251567758   F   F   F
  6.6084499854002052 11.8518849303568139 11.9159529220368778   F   F   F
  8.0614215358686270  0.6744690006679851  0.5102021715456112   F   F   F
  9.4801432939804187 -0.5837341697444572  2.2819376896337356   F   F   F
  9.4714823189560438  0.0474889965181431  5.7794334878951856   F   F   F
  9.6278312540426452 14.2596360698036975 11.1363758057811939   F   F   F
  9.6627684770884841  2.6838798663073389 14.4076119995002454   F   F   F
  8.3155444684840614  3.5673140448067646  6.2323247196529197   F   F   F
  8.9647379902678725  2.2208376158548226  8.6711780680250676   F   F   F
  7.9877101901384853  2.8164529628242843 11.0940241483234221   F   F   F
  9.1185042693114617  5.2416575458698915  0.5377726448913602   F   F   F
  7.3674712374087337  5.3674379586655538  2.2744806193121789   F   F   F
  8.4279494603512592  5.6752035113358712  5.9871428839806082   F   F   F
  8.2567838629007149  5.0926818634310056  9.1293247738264078   F   F   F
  9.1927735662161592  9.4023184308347023 15.4583535661692224   F   F   F
  8.0771202882381843  7.9679291711465563  2.9346134194301055   F   F   F
  9.4285665629985118  8.5529428537901335  8.1377651107180196   F   F   F
  9.4614046288115716 11.8553297504194326 -0.7290265400082351   F   F   F
  8.3823754498254868 11.7658292987012754  3.7606511754600049   F   F   F
  9.2067888685579788 11.2176641021305556  9.0206128294769297   F   F   F
  8.5201925611804015 10.4787285851612086 11.2170436080241167   F   F   F
 11.9878416224201079 15.8442975595255930  2.8354000397459700   F   F   F
 13.1158542339927724  0.2726531650749204  5.7077755910613064   F   F   F
 12.0269075992827812 14.8411057492577889  8.4083415354895816   F   F   F
 11.9002429471454594  0.5917171507723558 11.1005366624882491   F   F   F
 11.8414900970361092  3.6192589697036959 15.4828975610014101   F   F   F
 12.9272138257694298  3.2218650207575239  3.5876513301135819   F   F   F
 12.6760383618359853  3.3909936729403269  9.0140460757833303   F   F   F
 13.4576425793381702  3.0297845877059584 12.6826103546816018   F   F   F
 11.5502213750950737  6.2300566750491111 -0.2908524102376633   F   F   F
 11.3239666254076425  5.8688835765141478  3.6600130692373747   F   F   F
 11.9689641059571112  5.9768616352873725  6.5979876245029789   F   F   F
 11.9533828229120367  5.7745047243182333  9.2142773248113823   F   F   F
 11.3617168982798553  5.1483881716055366 12.0527519670537480   F   F   F
 12.2047543220585002  8.2431494437556125  3.3693958390117409   F   F   F
 10.7051755513065299  8.9668135067375463  5.5028462816205295   F   F   F
 11.8614461107147733  8.7953453230309648  8.9198869807397703   F   F   F
 11.7911130478489827 12.0686186151604318 -0.2534802913270514   F   F   F
 12.1927953623293011 13.3040741335759840  2.4379225256406460   F   F   F
 11.8041070081266444 11.3805201688187818  5.7699179136138357   F   F   F
 11.2216999610526891 12.6030628461377638  8.2064377936679627   F   F   F
 15.0384979696550598 13.7210500616276541  5.1477040848134523   F   F   F
  0.6605630487268515  5.7674594822568448  5.7080228006365505   F   F   F
  3.0806249122841716  3.0192774274059637  3.3967426146121169   F   F   F
  9.1980502360940068  4.9147685497536884 11.2883874830561908   F   F   F
  9.7397885799828696  8.6937366649260230 11.9006309900004865   F   F   F
 -0.2817125566737730 15.2152751713263559  2.9395607102036374   F   F   F
 -0.7164903241029926  2.4826281919427347 15.4301346524475100   F   F   F
 14.5613382643608560  5.7188836805807446  8.2150665006385530   F   F   F
  2.4952742482341397  8.1324359216230047 11.4381331658879226   F   F   F
  5.7765386917221262  3.0423637255109077  5.5943527735664853   F   F   F
  5.6452436060790205  5.6232791631999550 14.4270199832380488   F   F   F
  6.6323462075095909  5.3249176293990939 11.7781908664613333   F   F   F
  5.7169398961628159  7.9309327484199272  5.0706240546664043   F   F   F
  8.9350870476108479 13.9557029615086226  8.1001095397317950   F   F   F
  8.1173048255326723  9.0722974866984476  5.3927706945680072   F   F   F
  9.2373275869639571 11.3432472141237835  6.5352305623126297   F   F   F
 12.2326483063008933  7.7672694521919601 11.8544820829764355   F   F   F
