Ti V  Cr W 
 1.0000000000000000
    15.3720038313806135    0.0023998420144863    0.0001449001601191
     0.0024007571799185   15.3633006247875361   -0.0006442210894229
     0.0001450310074229   -0.0006449824026597   15.3697544548857330
 Ti  V   Cr  W  
  15 105   1   3
Direct
  0.0049328523334797  0.3954123575580663  0.6009646097765218
  0.9922267574393884  0.7998502932174545  0.2032715314356225
  0.0085994262818629  0.7993262051469343  0.6022206664893571
  0.2014742565819516  0.2047924241829335  0.3920517868655835
  0.1951947508758226  0.2042177294427514  0.6031850013184106
  0.1983444970639321  0.3952744757387071  0.2042892891379782
  0.2039922041296912  0.7976242220793343  0.2011289309914813
  0.3590231791750125  0.0018724152311420  0.7994907667185907
  0.4013003441499120  0.5972492848422165  0.8014747722028434
  0.6033293149899258  0.9954309768721594  0.9995924025977498
  0.7958015059037369  0.1989194415790144  0.7956037813117083
  0.8004782148197213  0.4038286113574193  0.1937732114451080
  0.8023494683031343  0.5928787636424072  0.0037361990999132
  0.8069419610028263  0.7971663660822464  0.3912173265897138
  0.7984765545939413  0.7965178219849832  0.6040133717092356
  0.0020638382791789  0.0008172465112113  0.9989634296895900
  0.9988884893874679  0.0011625059700879  0.2013949098828649
  0.9980376770006469  0.9998589701450102  0.4001657310481771
  0.0018519824984260  0.0009423374535871  0.5994724905168541
  0.0007027888005671  0.9997015286522534  0.7983743199024318
  0.0002380299970494  0.1996104471495743  0.0003310398459554
  0.9991401306059242  0.1994601073563307  0.2011402459994281
  0.9979198578437902  0.1970360819944468  0.5980211835908239
  0.0032513160502544  0.1979952657998788  0.7997337936269484
  0.9971432162319702  0.3993067951603263  0.0007188812009891
  0.0006021968930108  0.3990358249463665  0.2008575704426781
  0.0004624494208452  0.3981005909159635  0.3977549962901694
  0.9994501364762135  0.3993275995379374  0.8017972658180265
  0.0029944727494171  0.6000571213821342  0.0018410122078512
  0.0001566016566734  0.5973425533784028  0.2015028659620079
  0.9998240455197277  0.5987797292492767  0.4005132975161611
  0.0006571443308509  0.5995717429953309  0.5989090971772092
  0.9984956415038573  0.5999049106674463  0.7994812534035612
  0.0003010818963278  0.7992720496642373  0.9993707302714793
  0.0033111789114102  0.7994406017775312  0.4009889704288991
  0.0020011250866294  0.8015596113884739  0.8024399452206753
  0.1988757001925917  0.9987218254085615  0.0032090181393339
  0.1978931508243458  0.9999925117502790  0.2010813433851552
  0.1992873394397139  0.9985910988666249  0.3985977319500700
  0.1986785369708142  0.9997934577547470  0.5937479905910361
  0.1988531240126436  0.1999761502737753  0.9985098184653664
  0.2001027219096285  0.1973022816445545  0.1971364200167562
  0.1996986957172896  0.2046116233882066  0.8013353155851354
  0.1995415567613425  0.4001428899354452  0.9995463557071673
  0.1994742760811195  0.4026918777324580  0.4053483179153172
  0.2035863684212044  0.4041321593341392  0.6023054839103806
  0.1994856999779582  0.4023564310963730  0.8012469158463581
  0.1996557903797364  0.5992322904751840  0.0015482480650291
  0.1991560822155768  0.5996230956418345  0.2020500022889030
  0.1983929193884148  0.6006733953210448  0.4004996968035031
  0.2004029223371792  0.6021219665715178  0.6002155637810294
  0.1968296723656192  0.6002358600797701  0.7999533592429677
  0.1994166297547627  0.8001288129926343  0.9972611228507815
  0.2008092296644914  0.7997202111792983  0.4031308724064379
  0.2043124423183551  0.8012550178907873  0.6026552408007693
  0.2008846245151148  0.7961393138196755  0.8004475987099950
  0.3962344544051787  0.0003931631548885  0.0041985089101000
  0.3987698586145174  0.0003626640994920  0.2013486193424479
  0.4029274866512683  0.9999183036920558  0.3996381643278191
  0.3968244077431955  0.0010974168137925  0.5974068703998745
  0.4015383816609758  0.2003696770387217  0.0008187371861671
  0.4000691178820219  0.2007939127845017  0.1985573457360385
  0.4022416466508666  0.2010214414149282  0.3995566184168359
  0.4019673440062205  0.2013572634757053  0.5991273046475794
  0.3982107009688816  0.2021736652003432  0.8003271343907197
  0.3997870998114911  0.4010657315816642  0.0010795776449363
  0.4023470183264538  0.3999100790592178  0.2005661591879994
  0.4003734968207812  0.4003286119376857  0.3999392634218739
  0.4014195740361170  0.4014417241539143  0.5997694024613148
  0.3998810686206512  0.3999570641256240  0.8007154520970630
  0.3995195560838467  0.5991891209400575  0.0037286280199456
  0.3995764922419821  0.5994736749010403  0.2011154027928306
  0.3998165038544579  0.5998965386425296  0.3991758130756817
  0.4005761031549148  0.6005019770509468  0.5967482653855876
  0.4017327282608351  0.7995953717404927  0.9998825296760215
  0.4014443493808656  0.7994131627180614  0.1992567677477484
  0.3994617425582155  0.7993294611628513  0.3991482934626003
  0.4022984319797302  0.7997054064449807  0.6014764881315297
  0.3999906068057253  0.8015855482569272  0.8009298537026445
  0.6002690595269220  0.9995312599275202  0.2053708265080411
  0.6001858812576062  0.9994812196737084  0.5960451365793789
  0.6050040539040237  0.0038983106549709  0.7959291884402774
  0.6004007728251201  0.2012633150470699  0.9948132397224513
  0.5997636909692707  0.1997686063399123  0.1980742091301698
  0.6012095535129290  0.1968222021864036  0.4008350361589179
  0.6013660767416766  0.2004956279605947  0.6038881160938352
  0.6049622324598002  0.4010684145294490  0.9999195287005179
  0.5980884084209972  0.4006473709259405  0.2002676782089039
  0.6010555212363353  0.3984889761614441  0.4005983165139705
  0.6012725703953654  0.4009556165343913  0.6001242275799704
  0.6006133314619539  0.3955938401671061  0.7995616277521047
  0.5978223844827250  0.6004120764058500  0.9997335515922099
  0.6002983365407006  0.6011470645989280  0.2018229593599705
  0.6016790110769810  0.6016256132180176  0.4003406595045284
  0.6009743526111397  0.6007655364355988  0.5995074402214291
  0.6028265077241918  0.6004722505093208  0.7992530537335708
  0.6008136662262936  0.7980841775540241  0.9986221202363251
  0.5989764233776471  0.8001278769683532  0.1982281926678388
  0.5993358828432485  0.8043197953417720  0.4000633302360108
  0.5994059555548835  0.8003912008394334  0.6001006514121546
  0.5986480663193019  0.8035030636014988  0.8001011038476300
  0.8043822200446710  0.9999804409676841  0.0006520723620785
  0.7999766442661185  0.0000941304342396  0.1990792430463600
  0.7969152416045855  0.0013461252858136  0.3991141233369238
  0.8030766471916931  0.9998341506831431  0.5973402284599296
  0.8022353617570618  0.9973026481368912  0.7987424196039169
  0.8006830474971001  0.2028670727013412  0.0014017890224313
  0.7991732029647243  0.1988818813632277  0.1986914640997349
  0.8001066707192364  0.2017365518655197  0.3976634976857628
  0.8004578221750349  0.2013348734781244  0.5973013597869323
  0.8007426019775947  0.3998435048968710  0.4007021911144339
  0.8001362943716425  0.3999469637725984  0.6002036435140669
  0.8001899478449710  0.4025834405635395  0.8016999710806141
  0.7995149806999873  0.6034201853902281  0.2034910738986625
  0.8015402776139984  0.5966296843201023  0.4003282728995172
  0.8018084240731069  0.5971739872330458  0.5993483612889701
  0.8003304629397745  0.6006071204679826  0.7980689148345672
  0.8001948257454828  0.7996484790046473  0.9987239628509667
  0.7959346047658850  0.7995229033121555  0.1940903581841155
  0.8009370999882881  0.7981572640400179  0.8026545777126713
  0.9968294060368750  0.1996409786111697  0.3991895770635300
  0.6005305411215730  0.0009367376935125  0.4000103202842152
  0.5922461668216863  0.1976609881359138  0.7987475870552265
  0.8011146121254210  0.3985338234174062  0.9961985946184607
