Zr Ti V  Cr W 
 1.0000000000000000
    12.4460440271870478   -0.0309947616971239   -4.3989253883522315
    -6.2384413668072662   10.7678790108888940   -4.3662527767173627
    -0.0053679371909291    0.0306881249957397   13.1816589784411669
 Zr  Ti  V   Cr  W  
   2  15  75  16  16
Direct
  0.1845777920157562  0.7942160298019468  0.4013013302655606
  0.4117675896996165  0.2119489370054534  0.0077101397484739
  0.9954060737061319  0.0047487227631879  0.1995842353197932
  0.0043312141521799  0.6085553307482692  0.6078753370519487
  0.1937935480557421  0.3960189669945468  0.5919338450241131
  0.2009842122736784  0.5979034734567324  0.0004295512389785
  0.4072025133963955  0.2077767140176806  0.2144147972534882
  0.4017481379898854  0.6026623423928413  0.8020884690801930
  0.5917845177015246  0.9924259155890741  0.5898806062638736
  0.6001154637735168  0.9983546984495733  0.8007055997660047
  0.5970497624904868  0.2031367503352548  0.4024378297813276
  0.5989891994514577  0.3979120397123381  0.7935665274780730
  0.6148195384857308  0.8107440755044709  0.0100701315388113
  0.8032586770370704  0.9768898592705215  0.3962293968942429
  0.7987112318504980  0.1925133007455523  0.3950699044949320
  0.7975024223622686  0.4061285711072288  0.3978276266708438
  0.8097981198666935  0.3987181019424038  0.8070031215009403
  0.0065028960237082  0.9974446621860650  0.4008535128309399
  0.9974772557607614  0.0043617798317992  0.6021794183259699
  0.9966418505062387  0.9996714797105651  0.7988254709612492
  0.9964036825656540  0.2002958103041978  0.0000349064391882
  0.9932037478538639  0.1893931813075671  0.3889151484630056
  0.9995072285153166  0.2034837370815341  0.8020054595089681
  0.9991863515872750  0.3993913748400002  0.9994510120537943
  0.0008222232020346  0.3978438958525028  0.3970680171137096
  0.9999390457486602  0.3950811327115384  0.6044694123850270
  0.0044143893991138  0.6081630382823535  0.9984901873799008
  0.9921422112698186  0.5838911260974763  0.1888348144915518
  0.9918901034652873  0.5925214956366912  0.3942305727192946
  0.9986499015185328  0.8031353231676890  0.5990874212267416
  0.9980599790619048  0.7964370655983052  0.7987219390704534
  0.1976328656131336  0.9990077244271393  0.9988053586298815
  0.1989757594313829  0.9971249565882552  0.1971752349360625
  0.1996305898411439  0.0056043179709908  0.3977005488032946
  0.1952320386644608  0.2041790078554793  0.0035229955814889
  0.2029413242714601  0.2091287833301801  0.4062311625194825
  0.1941238369373763  0.1991084090138139  0.5981848823683111
  0.1967991097352533  0.3966718789135814  0.0041664400294028
  0.1947246123175524  0.4009277135976987  0.1979950735797908
  0.1946069426970815  0.3986657317374283  0.3927287044039751
  0.1943030996206351  0.4010997203180336  0.8025394890133674
  0.1971347080668868  0.5962708381087077  0.2000772083393356
  0.1904290029491324  0.5840605639172201  0.3921487446353872
  0.2016358854463373  0.6016152925772333  0.5972678059896213
  0.1923547964682548  0.8002207639334517  0.9933131903425926
  0.1973879232292841  0.7960793981559998  0.1927754919545589
  0.1983892666523602  0.7974388471356406  0.6090738088956505
  0.3978575585753562  0.9920004830434129  0.9972143242280326
  0.3989502671826808  0.9984454718000062  0.3995419925085347
  0.4027854565471647  0.0042374310239821  0.6149705963920996
  0.3954129620200217  0.2001014093038480  0.4079445123634782
  0.3973577881425627  0.1999874730565739  0.5953182760682383
  0.4046097742495285  0.2040625704387975  0.7963664043643742
  0.3991260489551827  0.4137416099790143  0.0045370081498794
  0.3981013753567912  0.4077460258003766  0.2020678420711111
  0.4012909481467739  0.4031594658306578  0.4038314273769211
  0.3967803938206070  0.5984112389221483  0.1961324981742311
  0.3957684352776356  0.5973356950219495  0.3966435808165687
  0.3978864366692815  0.5949046652676336  0.5940017209364989
  0.4018459206317262  0.7985799168099091  0.0030219366937671
  0.4035320125155184  0.8001303874204615  0.2031242387173292
  0.3975195842041427  0.7890636805475451  0.3914386372166913
  0.3973584224700795  0.7929856251304868  0.5947300207041619
  0.6039312005413512  0.0048048751781147  0.0052978735602184
  0.6001770320641402  0.9941365167979204  0.3921138382168253
  0.5939795759583006  0.2000889666626184  0.6017530094205158
  0.6074733231268624  0.2056233154897539  0.8088383144231139
  0.6076819954081134  0.4022169237413327  0.0056768289224594
  0.6124906070060937  0.4176916653992351  0.2184029632477776
  0.5981671337637668  0.4028519158687734  0.5934350776883189
  0.6050346124250914  0.6067155561963390  0.2053052807426957
  0.5935359403818031  0.5938359700133593  0.3999618272879197
  0.5989844437097702  0.6035334977771528  0.6002091844541212
  0.6016715421054342  0.6019135094788093  0.7932691725563705
  0.5981646488535176  0.7942099438896130  0.5978804873603323
  0.6010274078941931  0.7952873466831268  0.7957807532312101
  0.8013731563157687  0.0020818592827827  0.0015357421397726
  0.8039218120555273  0.0008097849598385  0.6074540017894559
  0.8012098734856392  0.9972209853860053  0.7971680699635750
  0.8024297292627193  0.2066260179277703  0.0045545736805319
  0.8059383971416102  0.1964698837081338  0.1962328147716650
  0.8023817327132664  0.1951866000038262  0.8049036308747586
  0.8020267769558113  0.3976206472913548  0.1911540383658173
  0.8035928749282890  0.6001300332320512  0.2013204626880710
  0.7986755857871235  0.6175878513368146  0.4023521060596035
  0.7934903868858065  0.6016034449868032  0.5952925816510326
  0.8055385285466947  0.6066460463371596  0.7999237701828720
  0.8039173871910333  0.7968298407389834  0.9918159143296490
  0.7982047555481160  0.8012385059622507  0.2000216560225332
  0.9248085650441182  0.7990033608019841  0.3981635291621630
  0.7992635013366520  0.8005947701071826  0.5953277739889767
  0.7974818012586196  0.7987629635467569  0.7948651449489849
  0.9969829824526488  0.2045598060548566  0.1969896545301314
  0.0002955367323767  0.2010379193690121  0.6007708660095977
  0.9987837348997755  0.3951936308683225  0.1977347467784804
  0.0030437729773732  0.3965541556312506  0.8017065016790292
  0.0003454928568826  0.6011179184776967  0.8044095218911641
  0.9993279144533586  0.8013137096172964  0.9968728287710886
  0.2022442148815170  0.8032264682694756  0.8029847244506535
  0.4027524183880396  0.0025684672756745  0.8016362898848167
  0.4016906718034564  0.4034890276156705  0.6001810837912722
  0.4074745008373937  0.6053505309601570  0.0093768076259090
  0.6021976674414882  0.9925839545532693  0.1983090581027561
  0.6091548747721957  0.1997258403823819  0.9998009582682335
  0.6012074558729227  0.4130756957854258  0.4074083433518810
  0.5938418046051690  0.7933383420477608  0.1964042697129381
  0.8005614160006426  0.0053481765180867  0.2030077608309992
  0.8030501156860672  0.4014082563087656  0.0037858996163655
  0.9972189950364800  0.9961627397137008  0.9943505951503039
  0.9990251811294141  0.7997000672388821  0.1981921326166522
  0.1978167695106821  0.0017437618448408  0.5994963956232958
  0.1971814567715990  0.9964651412449086  0.7995453970097839
  0.1961205930161608  0.2025810124341069  0.2016301027627713
  0.1977367704037181  0.2034630362821511  0.8023101979283918
  0.1951124861662032  0.6012420286299982  0.7974095855527629
  0.3986686726264059  0.9929816860768725  0.1968516887955942
  0.3960321333466452  0.3988653211250278  0.7953930850809930
  0.4028114055540085  0.8061595502143687  0.8015214298670392
  0.6055799473101574  0.1954431394909832  0.1942982959370357
  0.6010134745836463  0.5994654763351079  0.0006287583068938
  0.6036922467936489  0.7949248052786682  0.3963124133719573
  0.8014105919807720  0.1971015837829769  0.6029787766744046
  0.8070819502966071  0.4069172806995647  0.6064440892132122
  0.8030517347842231  0.5983913316342465  0.9987663287743588
