V27
1.0
  -4.5149999999999997   -4.5149999999999997    4.5149999999999997
  -4.5149999999999997    4.5149999999999997   -4.5149999999999997
   4.5149999999999997   -4.5149999999999997   -4.5149999999999997
V
27
direct
   0.0000000000000000    0.0000000000000000    0.0000000000000000 V
   0.0000000000000000    0.0000000000000000    0.3333333333333333 V
   0.0000000000000000    0.0000000000000000    0.6666666666666666 V
   1.0000000000000000    0.3333333333333333    0.0000000000000000 V
   1.0000000000000000    0.3333333333333334    0.3333333333333333 V
   0.0000000000000000    0.3333333333333334    0.6666666666666666 V
   1.0000000000000000    0.6666666666666666    0.0000000000000000 V
   1.0000000000000000    0.6666666666666666    0.3333333333333334 V
   1.0000000000000000    0.6666666666666667    0.6666666666666666 V
   0.3333333333333333    1.0000000000000000    1.0000000000000000 V
   0.3333333333333334    1.0000000000000000    0.3333333333333333 V
   0.3333333333333334    0.0000000000000000    0.6666666666666666 V
   0.3333333333333333    0.3333333333333333    1.0000000000000000 V
   0.3333333333333333    0.3333333333333333    0.3333333333333333 V
   0.3333333333333334    0.3333333333333333    0.6666666666666666 V
   0.3333333333333334    0.6666666666666666    1.0000000000000000 V
   0.3333333333333333    0.6666666666666666    0.3333333333333333 V
   0.3333333333333334    0.6666666666666667    0.6666666666666666 V
   0.6666666666666666    1.0000000000000000    1.0000000000000000 V
   0.6666666666666666    1.0000000000000000    0.3333333333333333 V
   0.6666666666666667    1.0000000000000000    0.6666666666666666 V
   0.6666666666666666    0.3333333333333333    1.0000000000000000 V
   0.6666666666666666    0.3333333333333333    0.3333333333333333 V
   0.6666666666666667    0.3333333333333333    0.6666666666666666 V
   0.6666666666666666    0.6666666666666666    1.0000000000000000 V
   0.6666666666666666    0.6666666666666666    0.3333333333333333 V
   0.6666666666666666    0.6666666666666666    0.6666666666666666 V
