Zr13 Ti17 V11 Cr14 W9
1.0
  -6.0199999999999996   -6.0199999999999996    6.0199999999999996
  -6.0199999999999996    6.0199999999999996   -6.0199999999999996
   6.0199999999999996   -6.0199999999999996   -6.0199999999999996
Zr Ti V Cr W
10 10 24 10 10
direct
   0.0000000000000000    1.0000000000000000    0.5000000000000000 Zr
   0.0000000000000000    1.0000000000000000    0.7500000000000000 Zr
   0.0000000000000000    0.5000000000000000    0.2500000000000000 Zr
   0.2500000000000000    0.0000000000000000    0.2500000000000000 Zr
   0.2500000000000000    0.2500000000000000    0.2500000000000000 Zr
   0.2500000000000000    0.2500000000000000    0.7500000000000000 Zr
   0.2500000000000000    0.5000000000000000    0.2500000000000000 Zr
   0.2500000000000000    0.7500000000000000    0.2500000000000000 Zr
   0.2500000000000000    0.7500000000000000    0.5000000000000000 Zr
   0.5000000000000000    0.5000000000000000    1.0000000000000000 Zr
   0.5000000000000000    0.5000000000000000    0.7500000000000000 Ti
   0.7500000000000000    0.5000000000000000    0.2500000000000000 Ti
   0.7500000000000000    0.7500000000000000    1.0000000000000000 Ti
   0.0000000000000000    0.0000000000000000    0.0000000000000000 Ti
   0.0000000000000000    0.2500000000000000    0.7500000000000000 Ti
   0.0000000000000000    0.5000000000000000    0.7500000000000000 Ti
   0.0000000000000000    0.7500000000000000    0.5000000000000000 Ti
   0.2500000000000000    1.0000000000000000    0.7500000000000000 Ti
   0.2500000000000000    0.5000000000000000    1.0000000000000000 Ti
   0.5000000000000000    0.0000000000000000    0.0000000000000000 Ti
   0.5000000000000000    0.0000000000000000    0.2500000000000000 V
   0.5000000000000000    0.2500000000000000    0.0000000000000000 V
   0.5000000000000000    0.2500000000000000    0.2500000000000000 V
   0.5000000000000000    0.2500000000000000    0.5000000000000000 V
   0.5000000000000000    0.2500000000000000    0.7500000000000000 V
   0.7500000000000000    0.0000000000000000    0.5000000000000000 V
   0.7500000000000000    0.5000000000000000    1.0000000000000000 V
   0.7500000000000000    0.5000000000000000    0.5000000000000000 V
   0.7500000000000000    0.7500000000000000    0.2500000000000000 V
   0.7500000000000000    0.7500000000000000    0.5000000000000000 V
   0.0000000000000000    0.2500000000000000    0.5000000000000000 V
   0.0000000000000000    0.7500000000000000    0.0000000000000000 V
   0.2500000000000000    0.0000000000000000    0.0000000000000000 V
   0.2500000000000000    0.2500000000000000    1.0000000000000000 V
   0.2500000000000000    0.2500000000000000    0.5000000000000000 V
   0.2500000000000000    0.7500000000000000    1.0000000000000000 V
   0.5000000000000000    0.5000000000000000    0.2500000000000000 V
   0.5000000000000000    0.7500000000000000    0.2500000000000000 V
   0.7500000000000000    0.0000000000000000    0.2500000000000000 V
   0.7500000000000000    0.2500000000000000    0.2500000000000000 V
   0.7500000000000000    0.2500000000000000    0.7500000000000000 V
   0.0000000000000000    0.2500000000000000    1.0000000000000000 V
   0.0000000000000000    0.2500000000000000    0.2500000000000000 V
   0.0000000000000000    0.5000000000000000    1.0000000000000000 V
   0.0000000000000000    0.5000000000000000    0.5000000000000000 Cr
   0.0000000000000000    0.7500000000000000    0.2500000000000000 Cr
   0.2500000000000000    1.0000000000000000    0.5000000000000000 Cr
   0.2500000000000000    0.5000000000000000    0.5000000000000000 Cr
   0.2500000000000000    0.5000000000000000    0.7500000000000000 Cr
   0.2500000000000000    0.7500000000000000    0.7500000000000000 Cr
   0.5000000000000000    1.0000000000000000    0.7500000000000000 Cr
   0.5000000000000000    0.7500000000000000    0.7500000000000000 Cr
   0.7500000000000000    0.0000000000000000    0.7500000000000000 Cr
   0.7500000000000000    0.2500000000000000    0.0000000000000000 Cr
   0.7500000000000000    0.2500000000000000    0.5000000000000000 W
   0.0000000000000000    1.0000000000000000    0.2500000000000000 W
   0.0000000000000000    0.7500000000000000    0.7500000000000000 W
   0.5000000000000000    0.0000000000000000    0.5000000000000000 W
   0.5000000000000000    0.5000000000000000    0.5000000000000000 W
   0.5000000000000000    0.7500000000000000    1.0000000000000000 W
   0.5000000000000000    0.7500000000000000    0.5000000000000000 W
   0.7500000000000000    0.0000000000000000    0.0000000000000000 W
   0.7500000000000000    0.5000000000000000    0.7500000000000000 W
   0.7500000000000000    0.7500000000000000    0.7500000000000000 W
