V64
1.0
  -6.0199999999999996   -6.0199999999999996    6.0199999999999996
  -6.0199999999999996    6.0199999999999996   -6.0199999999999996
   6.0199999999999996   -6.0199999999999996   -6.0199999999999996
V
64
direct
   0.0000000000000000    0.0000000000000000    0.0000000000000000 V
   1.0000000000000000    1.0000000000000000    0.2500000000000000 V
   1.0000000000000000    1.0000000000000000    0.4999999999999999 V
   1.0000000000000000    1.0000000000000000    0.7500000000000000 V
   0.0000000000000000    0.2500000000000000    0.0000000000000000 V
   0.0000000000000000    0.2500000000000000    0.2500000000000000 V
   1.0000000000000000    0.2500000000000000    0.5000000000000000 V
   1.0000000000000000    0.2500000000000000    0.7500000000000000 V
   0.0000000000000000    0.5000000000000000    0.0000000000000000 V
   0.0000000000000000    0.5000000000000000    0.2500000000000000 V
   0.0000000000000000    0.5000000000000000    0.5000000000000000 V
   1.0000000000000000    0.5000000000000000    0.7500000000000000 V
   0.0000000000000000    0.7500000000000000    1.0000000000000000 V
   0.0000000000000000    0.7500000000000000    0.2500000000000000 V
   0.0000000000000000    0.7500000000000000    0.5000000000000000 V
   0.0000000000000000    0.7500000000000000    0.7500000000000000 V
   0.2500000000000000    0.0000000000000000    0.0000000000000000 V
   0.2500000000000000    0.0000000000000000    0.2500000000000000 V
   0.2500000000000000    1.0000000000000000    0.5000000000000000 V
   0.2500000000000000    1.0000000000000000    0.7500000000000000 V
   0.2500000000000000    0.2500000000000000    0.0000000000000000 V
   0.2500000000000000    0.2500000000000000    0.2500000000000000 V
   0.2500000000000000    0.2500000000000000    0.5000000000000000 V
   0.2500000000000000    0.2500000000000000    0.7500000000000000 V
   0.2500000000000000    0.5000000000000000    0.0000000000000000 V
   0.2500000000000000    0.5000000000000000    0.2500000000000000 V
   0.2500000000000000    0.5000000000000000    0.5000000000000000 V
   0.2500000000000000    0.5000000000000000    0.7500000000000000 V
   0.2500000000000000    0.7500000000000000    0.0000000000000000 V
   0.2500000000000000    0.7500000000000000    0.2500000000000000 V
   0.2500000000000000    0.7500000000000000    0.5000000000000000 V
   0.2500000000000000    0.7500000000000000    0.7500000000000000 V
   0.5000000000000000    0.0000000000000000    0.0000000000000000 V
   0.5000000000000000    0.0000000000000000    0.2500000000000000 V
   0.5000000000000000    0.0000000000000000    0.5000000000000000 V
   0.5000000000000000    1.0000000000000000    0.7500000000000000 V
   0.5000000000000000    0.2500000000000000    0.0000000000000000 V
   0.5000000000000000    0.2500000000000000    0.2500000000000000 V
   0.5000000000000000    0.2500000000000000    0.5000000000000000 V
   0.5000000000000000    0.2500000000000000    0.7500000000000000 V
   0.5000000000000000    0.5000000000000000    0.0000000000000000 V
   0.5000000000000000    0.5000000000000000    0.2500000000000000 V
   0.5000000000000000    0.5000000000000000    0.5000000000000000 V
   0.5000000000000000    0.5000000000000000    0.7500000000000000 V
   0.5000000000000000    0.7500000000000000    0.0000000000000000 V
   0.5000000000000000    0.7500000000000000    0.2500000000000000 V
   0.5000000000000000    0.7500000000000000    0.5000000000000000 V
   0.5000000000000000    0.7500000000000000    0.7500000000000000 V
   0.7500000000000000    0.0000000000000000    0.0000000000000000 V
   0.7500000000000000    0.0000000000000000    0.2500000000000000 V
   0.7500000000000000    0.0000000000000000    0.5000000000000000 V
   0.7500000000000000    0.0000000000000000    0.7500000000000000 V
   0.7500000000000000    0.2500000000000000    0.0000000000000000 V
   0.7500000000000000    0.2500000000000000    0.2500000000000000 V
   0.7500000000000000    0.2500000000000000    0.5000000000000000 V
   0.7500000000000000    0.2500000000000000    0.7500000000000000 V
   0.7500000000000000    0.5000000000000000    0.0000000000000000 V
   0.7500000000000000    0.5000000000000000    0.2500000000000000 V
   0.7500000000000000    0.5000000000000000    0.5000000000000000 V
   0.7500000000000000    0.5000000000000000    0.7500000000000000 V
   0.7500000000000000    0.7500000000000000    0.0000000000000000 V
   0.7500000000000000    0.7500000000000000    0.2500000000000000 V
   0.7500000000000000    0.7500000000000000    0.5000000000000000 V
   0.7500000000000000    0.7500000000000000    0.7500000000000000 V
