V1
1.0
  10.0000000000000000    0.0000000000000000    0.0000000000000000
   0.0000000000000000   10.0000000000000000    0.0000000000000000
   0.0000000000000000    0.0000000000000000   10.0000000000000000
V
1
direct
   0.0000000000000000    0.0000000000000000    0.0000000000000000 V
