Zr V  Cr
 1.0000000000000000
    15.5364267418827353    0.0141760265446098   -0.0034442262972265
     0.0141671620811882   15.5240745923983035    0.0049821264813726
    -0.0034426786392167    0.0049831204927505   15.5354998368454975
 Zr  V   Cr 
   5 117   2
Direct
  0.9511916462890515  0.4079263973641645  0.3961201317780940
  0.1988898135592157  0.5994600745161398  0.5590768457784629
  0.2008072503523603  0.7960124069804915  0.2045843940298308
  0.8005473163859700  0.1994624261147189  0.3985661840754415
  0.8053302380755554  0.5964512832923007  0.3983265146055410
  0.9999177452902894  0.0002007570131830  0.0005590306682330
  0.0002339374485843  0.9992571218041216  0.2000600843892225
  0.0016341351862968  0.0005878148884004  0.4001847697712045
  0.9996937718933107  0.0003300035980782  0.6004158571032827
  0.0007797768778819  0.9994877532566017  0.8005207590988643
  0.0028415969143929  0.1990356208605319  0.9994589231055061
  0.0067705978211432  0.1979660254137892  0.4009976911755828
  0.0001003602720833  0.1994894417335628  0.8016905585047681
  0.9987816662107485  0.3988062238477945  0.9995096568537014
  0.0018258602334872  0.3989987212476750  0.1957008421687110
  0.0003185078796157  0.4002145258229611  0.6040656424205663
  0.9998397102178754  0.4001540568758319  0.7996933567591310
  0.0004321787088867  0.6005160308063135  0.0002717368117131
  0.0013019354400385  0.5985192890937062  0.1986969448402849
  0.0129747775229446  0.6078292014853344  0.4009590313767812
  0.9980306537614313  0.6012453739173037  0.6024975128649794
  0.0022906739017550  0.6003986948659811  0.8008808443222819
  0.0012304176351224  0.7994094253786554  0.0004586517391312
  0.9964689298694431  0.8001456458797839  0.2011586310226252
  0.9997701645255868  0.8030228258349732  0.4018533688891668
  0.9993755006217759  0.8013256372190821  0.6020992090939488
  0.0008247395489298  0.7997539795549801  0.8001766581054092
  0.2010008156387767  0.9998525057777806  0.9997976657406799
  0.2011916485654379  0.0019249463922906  0.2008161983612380
  0.2007878535833356  0.0005900578231340  0.4000874924453046
  0.2004563107319281  0.0014517458923786  0.5994304450603104
  0.2004759745717701  0.0004708947585317  0.7996967799950323
  0.2007439496114430  0.1999381410708987  0.9998669638298627
  0.2010003086339761  0.1997691764460627  0.2003108931909496
  0.1989669202184325  0.2030872874999824  0.3999277613736346
  0.1997538340449941  0.2004448555174976  0.5993142554740425
  0.2005715598590494  0.2000471051567879  0.7990938477670662
  0.2011813744766471  0.3987429813392883  0.9996814773044101
  0.1992338476914927  0.3960662585895588  0.2001903605372670
  0.2066686586526906  0.4043389208409308  0.3994197431870040
  0.1984651726134194  0.3965568037960398  0.5984153745657367
  0.2001818096663738  0.4010173062235209  0.7994970398597935
  0.2014394518061864  0.5988447189713998  0.9994965637514920
  0.2020142550561246  0.5929287716297678  0.1942480964578240
  0.2042325839811086  0.6036289795569247  0.3680291487403041
  0.2013645913747286  0.5995863174916737  0.8035367771620479
  0.2009932386078804  0.8006965298791435  0.9983672083623236
  0.2019479164206127  0.8007211260928407  0.4069612263536668
  0.2007031697541780  0.8041245537823878  0.6027892561835326
  0.2008516710399844  0.7988055520752629  0.7995205415064566
  0.4006208132875524  0.9987204910520419  0.0004632589603022
  0.4014401531641981  0.9994636156114038  0.2001900073139493
  0.3990811838784771  0.9986417576111705  0.4005970397605039
  0.4008728021381558  0.0001867647781832  0.6004421544363819
  0.4005329309484908  0.9991424083457207  0.8006322828197212
  0.4001171408167790  0.1989528679839619  0.0002513167040327
  0.3998096788856146  0.1994904670053661  0.2003670882541236
  0.3972157910003256  0.1986751828085563  0.4002580634514134
  0.3994842049960239  0.1995415046300635  0.6004247712432125
  0.3996457058196225  0.1995123609864777  0.8002558556804072
  0.3998355534539690  0.4001488247548121  0.9996208013028693
  0.4013863468059187  0.3987703931187265  0.1992221134330940
  0.3998166137153896  0.4000888948828843  0.4003344331494696
  0.3999586278035457  0.3991757565792324  0.6026718725306833
  0.3997825289100729  0.4001360799295631  0.8001769881484306
  0.4024620084423169  0.5999273537770520  0.0006757660210379
  0.4032040973447528  0.5977476079840974  0.1989725286785516
  0.3986210687935425  0.6018508386383266  0.3999758386756787
  0.4032425605934430  0.5992385520173303  0.6006965256984635
  0.3995164563213260  0.6000427297046333  0.7995577063577821
  0.4009708840337010  0.7993362124514740  0.0001047208478358
  0.4058394604843213  0.7989983214240408  0.2008320707704230
  0.4015823210918363  0.8005213391950305  0.4018627709298407
  0.4017468287230590  0.8000705363294598  0.6019415251626966
  0.4006750740932571  0.7992020338512597  0.7999435388172449
  0.6012991174741167  0.9996960490039204  0.0007895641612981
  0.6008657036062836  0.9986168158849210  0.2009544570735363
  0.5990093574189875  0.9978152979797342  0.4002143037951627
  0.6009098275242988  0.9992686975140912  0.6005131489895938
  0.6004884509873886  0.9990562627245150  0.8003963678648998
  0.5980499545448473  0.1990590867895931  0.0004002055347239
  0.6007864619268188  0.1992464537802827  0.1996634973559003
  0.5928933894012031  0.1959224899299080  0.4012676251354845
  0.5989298602671503  0.1991479331072455  0.6006109550225596
  0.6003611407204417  0.1991765318648155  0.8015580750112664
  0.6016636518240354  0.3982966301168713  0.0012152220684280
  0.5995908905881576  0.3987033149428428  0.1999862654714203
  0.5915298324280338  0.3999888042701608  0.4007616023446575
  0.5985370293179086  0.3989389903639858  0.6025785332255235
  0.5998589976134110  0.3996303500888546  0.8007830455411329
  0.6002561091324891  0.5995356112858503  0.0002208786512190
  0.6026017184321406  0.5976591413075913  0.2007186557772657
  0.5963358387686245  0.6016833293475229  0.4001457038127347
  0.6011445175805359  0.5988729417514527  0.5995963383864931
  0.6003708561829694  0.5993379787861006  0.8006515255857219
  0.6009052751736558  0.7988992104643395  0.0007033187698282
  0.6022378143969734  0.7989428927239283  0.2009813901303749
  0.6003857421101219  0.7983316406111176  0.4011291087858995
  0.6014799460950725  0.7994620678481102  0.6006606561341871
  0.6006765294938432  0.7990109373679091  0.8004440155166190
  0.8006301654673249  0.9966183584106723  0.0001932519078642
  0.8010286112486112  0.9997337973009021  0.1993024168307908
  0.8000648022421279  0.9948800244637154  0.4006108873041244
  0.8006675578214179  0.9998407906355204  0.6005458983152788
  0.8006081204445122  0.9997389659971987  0.8013661310842815
  0.8005637414343159  0.1962980376419465  0.1959255582764406
  0.7998199293981019  0.1987129852769850  0.6041916483095431
  0.8006472978717771  0.1996378263718642  0.7988774570995909
  0.8000241129974734  0.4008876612785979  0.9991777341114384
  0.8000955478880682  0.3309447528476281  0.1319968726485146
  0.7640654021306924  0.3985701828163102  0.4016305323972628
  0.7988490200933092  0.3980417214797274  0.6003252067655616
  0.7996747786141325  0.3988591655580622  0.8019273690121190
  0.8010872266289698  0.5990136933089535  0.9995902887504475
  0.8018958361639288  0.6010935253729242  0.1946495208490866
  0.8003052959499075  0.5994665094416859  0.6046011696366023
  0.8003011286440287  0.5990345718774541  0.8004976327343709
  0.8004201018582671  0.7993244708489020  0.9996486167931139
  0.8001141883154217  0.7985706517870379  0.2006639561921878
  0.8006132031686175  0.8009517228470532  0.4011112738349747
  0.8002199066468603  0.7990261452613313  0.6007444319880449
  0.8006421610892241  0.7990322057116920  0.8006141633686258
  0.0016347601490625  0.1992224698187272  0.1987115617267018
  0.0007517789192881  0.1999788071560489  0.6013378659527072
