Zr Ti V  W 
 1.0000000000000000
    15.4529206753737594   -0.0089219929548298    0.0139355642811389
    -0.0089343212131673   15.4627799901828133    0.0191221628419376
     0.0139437596884260    0.0191164033920139   15.4587375740632638
 Zr  Ti  V   W  
   8   6 108   2
Direct
  0.9907836976989042  0.3871608177856227  0.3661393149530781
  0.9973634806420821  0.3857977143209324  0.8092825421087897
  0.0318718811990851  0.5961576830244216  0.0027009960807203
  0.2439266692345118  0.5992274427175283  0.0015218309550249
  0.1984299299279783  0.7981916211409985  0.6038712777346957
  0.3994436946534705  0.2015780339670044  0.4023735439838021
  0.8156816817184032  0.0208695966175494  0.0138194951856959
  0.8080407478263856  0.3990585336963363  0.5963516447451731
  0.9844308312085820  0.1975072067344252  0.9749557989675555
  0.0064584249302203  0.2127104098947695  0.1912211875135233
  0.0003607603113254  0.1802078700278275  0.7835316852050856
  0.1915404510619370  0.1974881574064227  0.0067998405569207
  0.5911476939719765  0.3983506884557522  0.6012491249589754
  0.6120754921235680  0.5990911836222197  0.0011836814515875
  0.0129329136563798  0.9978552729184271  0.9975717491439092
  0.9973507815058252  0.9997030191992662  0.1966483086630338
  0.9997651524467526  0.9973912039844137  0.3984296529626865
  0.0000125078461482  0.9990239269546480  0.5988511077364106
  0.9996693193838667  0.9901142077486355  0.7989193599839580
  0.9986608597372143  0.1913036627692365  0.3971166465120764
  0.9993594009345996  0.2001562634369754  0.5913060624099642
  0.9977735778423830  0.3934664850092315  0.0060204950686158
  0.9978604820017587  0.4115383182724724  0.1725626728588511
  0.0093535289032082  0.3980509776845174  0.5997245814081089
  0.9979412365221015  0.6034159503554608  0.2074920244505963
  0.9981726124600122  0.5994042719283870  0.4024667379391661
  0.9986590783671494  0.5958654446472470  0.5993073874492677
  0.9961941618514963  0.5987737149969569  0.7974708475772720
  0.9987183452548506  0.8024586230554945  0.0009167494322673
  0.9984709837227248  0.8001987424348918  0.1986914342251148
  0.0000607740798379  0.7986563236382104  0.3995418865798920
  0.9935529297850370  0.7997380334429314  0.5998334816764607
  0.9970130283953460  0.7959397426131637  0.8013623233789812
  0.2029539472247795  0.9991355543820666  0.0025165447759965
  0.1991792201625495  0.0006090486924033  0.2012863449646256
  0.1986564388045637  0.0004013819166668  0.3992976722239961
  0.1995207757130532  0.0035219612741337  0.6000303419317168
  0.1983132576738179  0.9999544705988047  0.8028549233105602
  0.2013844705200339  0.1982629361158709  0.2031961922791556
  0.1944222842579451  0.1996233236309032  0.4025278185198101
  0.1985850991188424  0.1999901010525200  0.6013593301341488
  0.1983234878652118  0.1979549001991646  0.7983689575965207
  0.1996319665816889  0.3977362114848471  0.0017555206599162
  0.1949563353405806  0.3989641934993742  0.2043512466948515
  0.1997620005093270  0.3983742801093894  0.4017424458894439
  0.2010654046037615  0.3974397483409705  0.6026718874418097
  0.2018770397500601  0.3965814649080890  0.8034734941714394
  0.1969692285099225  0.6008222881380668  0.2036903512741158
  0.1988410318521466  0.5971612269195510  0.4031041754835353
  0.2001984004653156  0.5937256491725752  0.6017109125133747
  0.1929893882110142  0.5964439794927677  0.8009608787945989
  0.1968995932270244  0.7992137239752385  0.0027866625726138
  0.1987691798773535  0.8007325112055933  0.2008820456330608
  0.1990929906968972  0.7995928909415257  0.3973666183006599
  0.1987110561075878  0.7986891469133781  0.8070078120001178
  0.3990890443909344  0.0009938432949930  0.0010109012730650
  0.4002796768271461  0.9998893193032810  0.1995165315689588
  0.3998695886027056  0.9957501925333366  0.4003915610187487
  0.3992528045584580  0.9997431052403939  0.6028965174522070
  0.3979889402702156  0.9988885320689673  0.8027174935467871
  0.3980638601428400  0.2047504775513498  0.0000807116854633
  0.3995509705721753  0.2004115274330439  0.1967415456359825
  0.3989215419600942  0.2005430601216059  0.6065708796161494
  0.3986494990557818  0.1988202478458035  0.8029038819515929
  0.3955121680086840  0.4013946527263629  0.1955421541566753
  0.3967158009809274  0.4052253293618709  0.3970706644752094
  0.3965263990558773  0.4004030554533405  0.6052034141658046
  0.3968040262992021  0.3999695762125307  0.8075336362913637
  0.4302677680169417  0.5944656516829567  0.0011243205592324
  0.3993899204320617  0.6008345438322726  0.2017413095186397
  0.3995577878627072  0.6007100289002009  0.4021949888127819
  0.3994755693139244  0.5984829349284667  0.6026564453562094
  0.3990495724331665  0.5996669483264043  0.8020271294187744
  0.3989534980228220  0.7965657035335379  0.0017449377398047
  0.3998672184317845  0.8005757601406304  0.2001958586651318
  0.3982716838098598  0.7981034479159370  0.4003857427104031
  0.4040927560586767  0.7989726955161658  0.6022231272946731
  0.3983100056744310  0.7988027881849439  0.8031888237893782
  0.5989089757373535  0.0024056890187591  0.0007013148737379
  0.6032123084431156  0.0013240246910997  0.2011717606027604
  0.6004254542297234  0.0017964140512755  0.4016775417610050
  0.5994623061134019  0.9994237252963337  0.6000169426412367
  0.5998064495922699  0.0004314869648282  0.8014579526377433
  0.5965421918730156  0.2000618777803121  0.9987918464647206
  0.5992108767674215  0.2016592207374844  0.2011618336267443
  0.6040701262294701  0.2014400484232389  0.4005933149421765
  0.6008669477058159  0.1976442273430315  0.6012326179452359
  0.5986048070863018  0.1989772723969940  0.7990640002010431
  0.5933985669057994  0.3967032438669211  0.0022783513582145
  0.5973834213591391  0.4012703038176400  0.1991498996224254
  0.5951419576649535  0.4003317557832484  0.3970865340130567
  0.5955956713800236  0.3999101705848313  0.8039567637216758
  0.6011747601171386  0.6031200729412999  0.2065333269837837
  0.5994868410058291  0.6002323480831856  0.4025376838132628
  0.5997198475539265  0.6027420060938753  0.6001724048524738
  0.5999108892046661  0.6005514229317271  0.7968419541121219
  0.5997079307209989  0.8046747209474118  0.0004052300689019
  0.5990621008323908  0.8013669554777727  0.1990397019615109
  0.6990465240439672  0.8005022573559901  0.4006615283538117
  0.6003964326415225  0.8015054977776206  0.6019124978934078
  0.5982503846828366  0.8003653802748840  0.8024490307864878
  0.8004037242113445  0.0030917789909039  0.4002739899680744
  0.8003014431694225  0.0000602695913230  0.5995613224960324
  0.7999708748570741  0.0004904398571768  0.8011736613102001
  0.7898410573907882  0.2149612581258438  0.9969542748015650
  0.7971975892436880  0.1988294470221193  0.1947887245138901
  0.8030411231721755  0.2038098132794556  0.3988429362360377
  0.8007020614496747  0.1966526033035571  0.5991340107605837
  0.7958150618972801  0.2011535391272702  0.7982565645725975
  0.7956468336750974  0.4063446124681944  0.0012408890146238
  0.7986623740888297  0.4026761321216587  0.1975946230841620
  0.7890712650593633  0.4004542112469923  0.3925850014281529
  0.7907584623380782  0.4020206603439688  0.8035654850862377
  0.8079849242173586  0.6028536096786795  0.0008215379278906
  0.7991312477564328  0.6055733603785862  0.2018999776032791
  0.7984420839899831  0.5982142828088692  0.4016281072832826
  0.7995027587809994  0.6045807353575398  0.5998349112857007
  0.7989537834901813  0.5998785059865096  0.7998911987073865
  0.8004477801781584  0.8028201664811405  0.9994659198970366
  0.7982468895097063  0.8064737716091109  0.1982020932626135
  0.7978215429403078  0.8011516856275870  0.6012483194688147
  0.7972094159018694  0.8014440483513693  0.8021436432026258
  0.3949304018594636  0.4016721073966947  0.0023220820693569
  0.8006779915300916  0.0025059305386808  0.2121742818290391
