Zr Ti V  Cr W 
 1.0000000000000000
    15.4149939690695010   -0.0041197707411214    0.0051244012526811
    -0.0041210926464625   15.4234402589122102   -0.0060663359120509
     0.0051270839828618   -0.0060686626181498   15.4040961855710652
 Zr  Ti  V   Cr  W  
   3  13 106   1   1
Direct
  0.9894243039308308  0.7842936045075767  0.7981342888410905
  0.2061485305797861  0.4393749901646764  0.7993505401104932
  0.8129568810787807  0.6057629436943657  0.7939228162335591
  0.9983429963687447  0.3998598763959764  0.4093608476626402
  0.9945962046892438  0.6003874719740283  0.4052216058214929
  0.9888198509018444  0.6099250496184021  0.6235901706353177
  0.9964051119037095  0.8041140024164650  0.4017681604241776
  0.1997885524643623  0.9877671422519694  0.7979549775278222
  0.1963769346230093  0.2032914615289444  0.7971389591719189
  0.2064477935316274  0.6024666719455926  0.4103243717547109
  0.3925934829112942  0.7995634915518793  0.1985892656989084
  0.3984584723471499  0.8070475722528223  0.8022429454525879
  0.6010081918046685  0.7989126556962595  0.9894428483034596
  0.6051475787568181  0.7974845068871216  0.2003273673479061
  0.5991868108309183  0.7923046381156950  0.5997323626787909
  0.7982473787108622  0.9933473430335790  0.9970601724127668
  0.0023603271556827  0.9970203007789238  0.9982464890925180
  0.9987234769941327  0.9990445852449370  0.1994199816602650
  0.9988281756311330  0.0025900389557418  0.3994813910769280
  0.0001733312982646  0.9996297992297671  0.6011812800152527
  0.9964851748801186  0.9970083619408728  0.7998779334489945
  0.0000844164646561  0.1969024543386208  0.9998575339755608
  0.9993131577760060  0.1990465040822547  0.2003496483154223
  0.9989726737510533  0.1977085301552154  0.4011292036077770
  0.9998790270406591  0.1992750567440091  0.6010136243026217
  0.9984557165953359  0.1951628217885731  0.8006885037264254
  0.0014018917696710  0.3965178596264051  0.0021244337277331
  0.9999099567687989  0.3995743947887830  0.2003031859685004
  0.0018770954903202  0.3982329159725643  0.6058263518540692
  0.0023458651225461  0.3916749393592273  0.8031976303200573
  0.0022463864353797  0.5982210511216681  0.0065385697239762
  0.0013387493826114  0.5991397201551332  0.2030276802654302
  0.0200628032074077  0.5821935984983556  0.8167552463349843
  0.0009699708069814  0.7978611010978741  0.0042661460016289
  0.9986470130889306  0.7993911465033894  0.1996213479195534
  0.0005211087939307  0.8042394242997157  0.5931887266113330
  0.2006858540155192  0.9984468857366867  0.0021096571296475
  0.1998009866892376  0.9998100979728939  0.2007017909686537
  0.1997171678251647  0.9990484782600749  0.3999648968481639
  0.1995273343968584  0.9993107001921873  0.5972956857468154
  0.2016051557664596  0.1988521356293593  0.0032658437871842
  0.1965645902131181  0.2002760823265162  0.2016868131545449
  0.2006209054867805  0.2000053566940223  0.3987901203357139
  0.1990207955807303  0.1994223957697048  0.5980360876639738
  0.2026289702831901  0.4003112050975241  0.0059448038586634
  0.1996424304433831  0.4009682082759699  0.2034152023152791
  0.2020766327046808  0.4006698603793168  0.4010287916837924
  0.1998297699849841  0.4028353881836098  0.5953172728631921
  0.2034685812630621  0.6004717707610335  0.0006862565610868
  0.2005060747238142  0.6012950987818997  0.2017067431462399
  0.2024241256073767  0.6018665468933737  0.6058456701885141
  0.2084400544142856  0.6278683547795026  0.8019623394731952
  0.1979481576359763  0.7994042679868398  0.9996867354907955
  0.1943426150676903  0.7987097393407305  0.2025646960342860
  0.1992383115136370  0.8010588761003149  0.4026823733150790
  0.1986064129137523  0.8013814802586614  0.7980083879445220
  0.3994653031556426  0.0009948539555832  0.9997796344389334
  0.3990742819535386  0.0000729020961735  0.1990931285526892
  0.4000552577247055  0.0014395496498982  0.3981814204914166
  0.3990039274976676  0.0000369202599420  0.6007303251652774
  0.4024910685688439  0.0045996054870658  0.7996380729014716
  0.3995975524541399  0.1998642817423582  0.9978042479726794
  0.3998610557218553  0.2000245937507120  0.4026527740878358
  0.3986248967465860  0.2014829215767432  0.6004337529596728
  0.4015131513372039  0.2012889312257058  0.7998100671850671
  0.4014534049502648  0.3979961308978993  0.0009064551225484
  0.3999307354575010  0.3690619086874140  0.2003817630832226
  0.4005525538664647  0.3987929348573291  0.3995071311366318
  0.3986200956833373  0.4003079952597633  0.6020848519584409
  0.4070385894966141  0.4006111847321324  0.8008317299386418
  0.4029597338376670  0.6010459344862448  0.0005916018240027
  0.4005644297660588  0.5987859490436342  0.2003372534155085
  0.4028413122999390  0.6014295798426376  0.4013672698757640
  0.4037248143446771  0.6027938715521604  0.6018194846188060
  0.4023802541550955  0.5997463526500219  0.8017062196741043
  0.3971353237375220  0.8003197725385651  0.0016312599191821
  0.3990837320211843  0.8023691472843770  0.4012647858396346
  0.3952961822890906  0.8008839759632433  0.5981634296928297
  0.5969914315411921  0.0009951757025320  0.9983103701686761
  0.5983377721376064  0.0022934665632576  0.1976323563207445
  0.5980776809338982  0.0001187834960006  0.3994867705228957
  0.5992769499446895  0.0003190167688295  0.5983396833182686
  0.5996163187664283  0.0016219356973560  0.7978306177381526
  0.5997305466523617  0.2002947871911354  0.9994294475729821
  0.6027204135278047  0.2007068584523009  0.1986160248090538
  0.5984392926781792  0.2003095769681567  0.3982183013270731
  0.6007297375885661  0.2018037286193740  0.5997432673121185
  0.6014994412806369  0.2011840126445087  0.7986097917331502
  0.6014233521864025  0.4011862724288400  0.9990586213408646
  0.6003420359344719  0.3995635789308423  0.1991701352886980
  0.5994881215211360  0.3998936348142237  0.3991318660553268
  0.6004840694940952  0.4032328654422040  0.5995033206984191
  0.6050149740257891  0.4015495372791634  0.7995644365138813
  0.6016967400364903  0.5988791633204490  0.9968549165285957
  0.6004091657277179  0.5985587331562098  0.2001268501291027
  0.5979320021935680  0.6008335219962848  0.4037095765037730
  0.6000108574455462  0.6018822618241362  0.7948564422061645
  0.5987515267617917  0.8005682662178981  0.3980100113180540
  0.5984868063550478  0.8006318200391424  0.7960570324996981
  0.7997940978507093  0.9979142110326679  0.1998045269797671
  0.7976880051861092  0.9988314501098445  0.3989773002424019
  0.7990863898844668  0.9989660671962570  0.5972631250545428
  0.7986218151400512  0.0015630158177617  0.7948613758228528
  0.8008957148971861  0.2003472735481815  0.9987966481736728
  0.8005353878625747  0.1996526643650695  0.1992690405948531
  0.7990698908329694  0.1994734250060717  0.3995434228360016
  0.8007264704816976  0.2003358226387190  0.5982184006039336
  0.7994354589506101  0.1991533257497538  0.7983316198268946
  0.8015184343474707  0.4006862534772972  0.9985031700115969
  0.8015280070785941  0.4014768979505536  0.2002991719080275
  0.7978146567856009  0.4001597600619775  0.3992134308101472
  0.8028737000777305  0.4021354497291732  0.5981240365197696
  0.8033207217781250  0.3975791432077342  0.7989018989102079
  0.8015925533834402  0.5992359015659748  0.0023246159066114
  0.7997623559443514  0.6007611223131352  0.1995747850964953
  0.7962443546145274  0.6015931909075171  0.3972700323557337
  0.7913192313600338  0.6014734467488547  0.5911258365259280
  0.8044775417686465  0.7956619129142867  0.9949566763289818
  0.8023125204038131  0.7990742330141287  0.1981318581343761
  0.7965075396298231  0.8011161249295391  0.3981003921045722
  0.8033342242464960  0.7993588612283954  0.5966115568884460
  0.7881602549004190  0.8110611389466085  0.7969794548634329
  0.1977228069494986  0.8009217203481166  0.5993523195875134
  0.5998120925924956  0.5955968842341920  0.6005921027943288
