Zr Ti V  Cr W 
 1.0000000000000000
    14.9326344855496096    0.0302776406784592    0.0641399835882246
     0.0305237001659294   15.1386832701230993    0.0723361143993863
     0.0643160966372768    0.0721224059444540   14.7903934552732679
 Zr  Ti  V   Cr  W  
  10   9  91   5   9
Selective dynamics
Cartesian
 -0.5604688666300442 -0.7870383453842089  8.2944296170460632   T   T   T
 -0.3119155162294618  9.1621124442537418 12.2800958002419929   T   T   T
  3.3229611809905442  2.6326946554172386  6.1387590035919093   T   T   T
  3.4620500831912313  5.7714789869867440 11.6402876793062156   T   T   T
  5.2283744728915833  0.0299421115534328 -0.3046508884768279   T   T   T
  5.4181159686905236  2.6457121585139203 12.1813993021061648   T   T   T
  6.3111245779412002  6.9232684299714897  2.9975123334536522   T   T   T
  9.4142399735853530  3.5571537893234817  6.7059556908787528   T   T   T
 12.4894449973268653  6.7591630666013485 11.9650385300995730   T   T   T
 11.1433882792288088 11.0033198869631512  3.0767904873258405   T   T   T
 -0.3612844457568880  0.2150812777935754 -1.3411352097276525   T   T   T
  0.7793546531971793 -0.9940556818982073  1.8693810834877356   T   T   T
 -0.8577347333865584  3.4864853644193627 11.5386495864352856   T   T   T
 -0.2953064367978354 11.1160037973169601  9.6886200535352529   T   T   T
  4.4725829216465343  6.2570515197831940  6.2971762625938155   T   T   T
  5.5263580557479770  9.0105653958800165  6.0854723699630036   T   T   T
  5.3145484825519107 11.8296400997833118  0.3769865888315634   T   T   T
 12.5656392767110301  0.8573047307909709 11.3732162581068028   T   T   T
 12.3780342468288076  8.7540179872533948  0.3867740400027502   T   T   T
 -0.5617639221155601 -0.3047513675124810  5.2058534616520227   T   T   T
  0.6263763549025009  1.2712383481114702 10.6989650168005888   T   T   T
  0.3790462006819525  3.3512051511766567 -0.3639398281773520   T   T   T
  0.4808427845350691  3.4438557901414111  3.8519450464412306   T   T   T
 -0.1381095154125891  2.0956903751789002  6.0958591447720289   T   T   T
  0.8210861288068176  2.7949961761287394  8.5607526335391864   T   T   T
 -0.4654944555362155  6.3321491746223533  0.2318162721767305   T   T   T
  1.2018359933572544  5.5867841103774092  2.7888826391220332   T   T   T
  0.0950901012856170  7.2684592465856968  6.2469003177899980   T   T   T
  0.7401883263660978  6.2457012059325763 10.2774587142660678   T   T   T
  0.2060003712452341  9.0061450969791697  1.2107070223921561   T   T   T
 -1.1428101571810609  9.3818948814922720  3.1706383758782799   T   T   T
  0.5239060452701383 10.0428587153980011  6.8074005267508273   T   T   T
 -0.0413016909056848  8.4492995425606630  9.0561530144738072   T   T   T
 -1.3673044607291542 11.2250204055764105  0.6979878395374336   T   T   T
  1.2670002470957880 10.1353827196416013  3.7730855739059446   T   T   T
  0.5206792021806929 12.3559828879454674  5.7298202596139767   T   T   T
  0.1710028857752828 12.6747758017482592 12.1845018048969518   T   T   T
  1.9733321766834258  1.3548662703477066  1.0749835578109905   T   T   T
  3.2533539903502957  0.4879742083475377  3.1308293265251370   T   T   T
  3.1034279885463674 -1.0996645678164845  6.6375829483319198   T   T   T
  2.1862503739330545 -0.1624375145290364  9.3046271915594794   T   T   T
  2.9715789078660428  0.7120464998197369 11.6118838372204909   T   T   T
  3.4027286788172448  2.8610291764263898 -0.2733004142933509   T   T   T
  2.7974742057486472  3.3672460103998221  2.5378577226611556   T   T   T
  2.1342540831702173  6.3720669574324642  0.3159087555719393   T   T   T
  3.5812242000617180  6.1042124833259610  2.0160792432469932   T   T   T
  2.4903385632182720  5.4508575311700751  8.4861869241024426   T   T   T
  2.3320001325460193  9.4825508796338021  0.1419108428737559   T   T   T
  3.7801015186964024  9.5490884617858356  3.2459914061116972   T   T   T
  2.5279973411327425  8.6130139350877251  5.4562379072513680   T   T   T
  3.4338558349991910  9.0657156601881308 12.9843720912749241   T   T   T
  2.8712645797153384 13.0124783303887934 -0.2821120510708115   T   T   T
  3.9306373241205876 12.8431615949798950  3.2763220019068249   T   T   T
  2.0658095469614239 11.4382260540907073 11.0703781164403399   T   T   T
  7.0709179954741606  0.4691715288028074  3.9495334235752884   T   T   T
  5.6828786789973478 -0.1691510093966093  6.3740234355940686   T   T   T
  4.6337285314377681  0.6846560126785025  9.0325227117795404   T   T   T
  5.4056644879823565 -0.1116104459886053 11.5813486597995894   T   T   T
  5.5419974984843448  3.7863273996496183  0.8694288911190933   T   T   T
  6.2282719344838169  3.2258503955841440  4.6668536558701383   T   T   T
  6.0966218282969660  2.9864337790680642  8.7589129375960439   T   T   T
  6.4140202751750852  5.7861340581817666 -0.6324755735884185   T   T   T
  7.3609443615849592  6.7813895823681216  6.5083324951193582   T   T   T
  4.7420534282772744  5.0418467003694465  9.1295655379195466   T   T   T
  6.6483049460051626  6.5548605978816648 11.5969863418637988   T   T   T
  6.3865840097799476  8.1495750844521275 -0.8196952221231726   T   T   T
  6.1001765438735989 10.6188498460662863  3.9367620310504714   T   T   T
  7.3219056277454264  9.5361004275088739  9.3825772693610148   T   T   T
  6.8361049062453523  9.6227587551318834 11.8781267689388290   T   T   T
  6.4708986415860732 13.3171023860080631  2.7172506671108416   T   T   T
  5.6548006108563387 12.0675984044123705  6.2747425644888910   T   T   T
  4.7785549819770248 11.8159823879747066  8.2508625295153966   T   T   T
  5.5365486863691595 12.5572911029700442 11.8664173671903566   T   T   T
  8.9206283719991628 -0.3721437829163547 -0.6211979927026701   T   T   T
 10.1284927665878648 -0.7641765689088768  3.1169390806349937   T   T   T
  8.1328316640805003 -0.1507291866243229  6.6004883741965887   T   T   T
  9.6978851726959601 -1.0238158901234462  8.9027436809612777   T   T   T
  7.9731711859011849 -0.3090515147277950 11.8411860692748476   T   T   T
  8.3949562284348307  1.9387657418087452 -0.3793885620771469   T   T   T
  9.4699257227831328  4.2860440586794937  3.0871165424577072   T   T   T
  8.2226581849639739  2.7876316066552178  9.9353868760740962   T   T   T
  8.8958091022350558  3.2333011981245026 12.2817483453489533   T   T   T
  8.7766666441315024  6.6557909782629778  0.0551165379086046   T   T   T
  9.7113220291592715  6.6877104254792288  2.2965207839928365   T   T   T
  8.9037348649115149  6.5783933033094391  4.6029505727701236   T   T   T
 10.1622508269355496  6.5104029389079896  9.1025327359808585   T   T   T
  9.0548418272771229  5.8063907396170240 12.4157256904403308   T   T   T
  9.4164038371916714  8.9167753716499227  0.9174967972189101   T   T   T
  9.6527821115978831  8.6928107632726235  5.9422967648409530   T   T   T
  9.2992876563135312  8.1841970222058791 11.2733417484879528   T   T   T
  8.2997883023367294 12.3611599034071524  0.4847211886913292   T   T   T
  9.9041129542853028 12.5884389747612886  6.4174870894168565   T   T   T
  9.3217412362199035 10.0112287954908297  8.5572309742804507   T   T   T
  8.8865186090312438 10.9712830350017541 12.6011280444969529   T   T   T
 11.7070847589911526 -0.2567460068384481 -0.7785912501033133   T   T   T
 12.0639486603128034  0.7454787999359515  1.7898394005135212   T   T   T
 12.2309960560999702  1.0717096834190314  6.2035648664264684   T   T   T
 11.1712366874640203  1.0066365216464643  8.7629882216701631   T   T   T
 12.8980648710962651  3.6649798645538172  4.9133697488855592   T   T   T
 12.8047184337310025  3.0144935110036615  8.1026042344239713   T   T   T
 11.1817599045006979  4.2098977495246537 12.9485341542301491   T   T   T
 12.3525449351885115  4.8973218364113853  0.4023081666718815   T   T   T
 12.0694274286377556  5.4915404281254006  3.0288357970057618   T   T   T
 12.2286998160329858  5.5564929763869397  8.1640735140022862   T   T   T
 12.3817387897456008  8.8369818630517702  5.9370972194927152   T   T   T
 11.8894745273222888  9.7517594997190340 10.0124829886808957   T   T   T
 12.3949744663077812 12.1851574307589789 -1.3755333038195923   T   T   T
 12.6720979280709773 11.5373650816131885  6.5081981059405782   T   T   T
 11.3324204875508645 12.0882359336825260  8.6760486778582848   T   T   T
 10.7093758601676363 12.3037644030898150 11.2384277937166406   T   T   T
  1.8907232331419939  9.8331420383652457  9.4251843834181770   T   T   T
  7.3285898138647578  3.0131648046772046  2.4608430191787427   T   T   T
  8.4786910702771348 11.8094091694196184  2.7495713254175556   T   T   T
 11.7042220231060643  3.1540371209361284  2.1876084455656626   T   T   T
 13.1273554295419412  6.5120547887674540  5.3794694020048999   T   T   T
  0.6904030210974725  5.4374560791763624 12.7727645872293269   T   T   T
  3.1847026529934657  2.7568715704025641  9.7414089944303495   T   T   T
  2.1072371786481039  3.2557761016747913 12.1745763078045144   T   T   T
  3.1853848620837906 11.2475759484657658  5.6196798567394248   T   T   T
  1.8908300229608790 12.1439482931526701  8.1267291529404542   T   T   T
  8.6291611145468590  9.2599137815141681  3.6037674778272928   T   T   T
 12.5762556937726035  2.2202099786728944 -0.6634404579266489   T   T   T
 11.3461555966716983  8.1270980153665402  3.6477932449614014   T   T   T
 11.1691179580469750  9.6499843435025401 12.5544847080943747   T   T   T
