Zr Ti V  Cr W 
 1.0000000000000000
    15.4232430954959501    0.0024634115428034    0.0013068356567792
     0.0024630313677734   15.4480188046633575   -0.0049125705009612
     0.0013071056929354   -0.0049160983647616   15.4327482268049074
 Zr  Ti  V   Cr  W  
   1   3 101  12   7
Direct
  0.4010680020029563  0.0103830960582507  0.8099236852645931
  0.1964302387055788  0.8033374423784189  0.2054416418112173
  0.3980911753462245  0.1884182239760173  0.9865858229926473
  0.7953125206441264  0.6094431050812068  0.0006514731105492
  0.9991784957205480  0.9988786903869831  0.0019646671187474
  0.9978614618676602  0.0029614040257904  0.2004592797813137
  0.9994468350617616  0.0010143977887877  0.6012990875880107
  0.9990653810296581  0.0004691390489455  0.8017661213395153
  0.9998102467826957  0.1987319752464780  0.0002332668724673
  0.9990568488640196  0.2009539890558209  0.1999765588815688
  0.9997792539565099  0.1987583396113494  0.3998215533824230
  0.0003878681805859  0.2011907472057490  0.5998578692900257
  0.9992869545949314  0.2007957989993330  0.8003923687768123
  0.9997875702228229  0.3997538488484246  0.2000570755598217
  0.9998471351880910  0.4019191975959751  0.5996382406031542
  0.9996144801325866  0.4000033029935650  0.8009897758597868
  0.0025677618944284  0.6004374298685783  0.0000979106625165
  0.0002902833711255  0.5974274127471694  0.1987143174164109
  0.9998681039846486  0.4661862563298200  0.4000202983499855
  0.0014389020588798  0.5997325843064947  0.6021026523830822
  0.9992680863631250  0.6002088057421541  0.7999853926018413
  0.9966799554571887  0.7997282845302315  0.9999431491947107
  0.9991534419926237  0.7995681020040669  0.2010654494322933
  0.9992683260003487  0.8015102809585362  0.4009619589032646
  0.0000891357475035  0.8002407859977360  0.8004596217451062
  0.1988554278469674  0.9977210591195971  0.0021918866065153
  0.2004650974672280  0.0037028931143790  0.2014620734343335
  0.2003107894226582  0.9963146886924751  0.3998783624129816
  0.2007808783564836  0.9999036293531438  0.6013844319865151
  0.1946662644940611  0.0000438379894541  0.7996771532413828
  0.1983538511617672  0.1981017134876019  0.9988734377320581
  0.2009824613099477  0.1999756105590363  0.1986410906510948
  0.1995165573692557  0.1977120875992907  0.3998384312086992
  0.1999528636218123  0.1996209196132784  0.5987891017392735
  0.1995898394287227  0.2015559387646265  0.7995646654515952
  0.2013680396182171  0.3992279893280503  0.0001681161629563
  0.2001856051850601  0.3983102606747059  0.1986942488814136
  0.1996558617449203  0.4009161864546361  0.3980505358281634
  0.1999318432918779  0.4001085425387120  0.5991740746966452
  0.1996480410577748  0.3998504809337804  0.8016381066083919
  0.1997631076898265  0.6000441783016275  0.0004605338125676
  0.2009725389871985  0.6036292197255639  0.3996688797205187
  0.2027796843182489  0.6006953812188055  0.5999334895453833
  0.1989624484222156  0.5993864243065458  0.8001351420544052
  0.2034051415622537  0.7993711663712288  0.9998217281167746
  0.1994302556407659  0.8006668602213241  0.5994874809556334
  0.3996848908366014  0.9876551112319752  0.0101019893480672
  0.4030850521953501  0.9999559486520220  0.2030791543959792
  0.4034654943041002  0.9981778507975159  0.4017779885163452
  0.3999601217553086  0.9990451867904913  0.6002252056635531
  0.3989685707123803  0.1998643111708879  0.1991329813516085
  0.3988405628305262  0.2000249998373174  0.3991977973830664
  0.3995022124847259  0.2036368175409041  0.5977406568153977
  0.3999416193161717  0.2111948296382784  0.7924865238721164
  0.4005894770919437  0.3975493032910818  0.1969202708031216
  0.4002993463308225  0.3998832622128451  0.3983110312176633
  0.4004824959522467  0.4049456631926897  0.5994182401776200
  0.4006350891090714  0.4034535529068628  0.8012674042208543
  0.3993803958578608  0.6017426004427175  0.0002982993099744
  0.4009459348318640  0.5968727044354915  0.2010692897247117
  0.4012215552376749  0.5996318812165359  0.4029534183413306
  0.3995469645095583  0.6006164554653736  0.7970795339111910
  0.4017367219836546  0.7956360202493182  0.1970570270294215
  0.3955639291470461  0.7987062630214659  0.3995489348730907
  0.4001571822269580  0.7964302059313694  0.6044323430095391
  0.4004814096608588  0.7988911969962851  0.8060042484409607
  0.5995877837112470  0.0002285892793064  0.0075476333112405
  0.5987036096994013  0.0006712896429938  0.5968620255512207
  0.6052763116118479  0.0015210559723845  0.7993472193082218
  0.6009015101871457  0.1992523411839000  0.9992087939966835
  0.5982268248916671  0.1978407578662585  0.1978875815941047
  0.6004462749388614  0.1962122504922166  0.4000837837668217
  0.5994583352353546  0.2007148105117567  0.5995646064103036
  0.6008770837009145  0.2014400196873585  0.7994941684593884
  0.5992181085485597  0.3985462632941217  0.0007212732783173
  0.6002226739463601  0.3973245464878690  0.3983391472500639
  0.6004284535526369  0.3998858650718798  0.5995708140535476
  0.5968670466794619  0.5989017801714099  0.0004947713940137
  0.5993603637669456  0.5981419563212148  0.2019609132050945
  0.5992034684058598  0.6005089539400579  0.4004011475870839
  0.5965564121152935  0.6008513836330368  0.6000217895169354
  0.6010704867166101  0.5994279658518141  0.8003014639806925
  0.6007193257411800  0.7997338158081764  0.0003401660673537
  0.5995859542797188  0.8026913442581288  0.2015344472147534
  0.6047039749812247  0.8036261611480249  0.4008542901643252
  0.6000212370252311  0.8004447711872941  0.6018067739842308
  0.6008324829825206  0.8020312910417143  0.8005875645543675
  0.7990473551220477  0.9956614327797929  0.0013802889455923
  0.7952526569620378  0.0023135575462492  0.2004164610111137
  0.7977637896361175  0.9965237522613076  0.4006653148920187
  0.7999773126117942  0.0000150463777109  0.6011215483630857
  0.8000074463620984  0.9998967926761145  0.8001650466666631
  0.7999594967004116  0.1995398573370872  0.9986869777628488
  0.8008678472671370  0.2000457240144661  0.4000621512760711
  0.8000594448674090  0.2003671948450724  0.6009764131573031
  0.8002985176182297  0.2003871658337038  0.8001173947838233
  0.7994251866334768  0.4000156150844588  0.0001314661694612
  0.7997315032499405  0.4008178076389337  0.1996789351769996
  0.7984238859190973  0.4002828960486689  0.3997192288693894
  0.7995637427819218  0.4010446597626712  0.5996746521182322
  0.7996010219766362  0.4011353807886777  0.8010665819600188
  0.7998185041189468  0.5985760352559354  0.2035107500990684
  0.7991431113523807  0.6003749125941292  0.7978027608008812
  0.8008192801327763  0.7979060900743644  0.2010830016392295
  0.8009446399619385  0.7994255798478482  0.5973795020165468
  0.9987887452889961  0.0008627257858351  0.4007559918268341
  0.0000039821523665  0.3997430152333227  0.0002013024064220
  0.0001698667291758  0.8002433601185658  0.6017034188081185
  0.2007990596146317  0.5962967250241843  0.2005384449158915
  0.1990365106412826  0.8005934732944994  0.8002055740720632
  0.4004216549845928  0.4029273914872857  0.9988209535139624
  0.5999661621618965  0.3981054336505181  0.1996752707806441
  0.6003407900551961  0.4004068588225465  0.8004099280610670
  0.7994086032111094  0.2006993803703690  0.1994883502238497
  0.8001395668315948  0.6007977005267536  0.4017572087866607
  0.7990253888271966  0.6003204144007284  0.5995401848383938
  0.8003973974351821  0.7999256531971347  0.7996565178387103
  0.1988083486734769  0.8003536023033679  0.4030529317710041
  0.4002571850835921  0.6002147647592840  0.6018697221115138
  0.4004774415553601  0.7950831286217561  0.0009780218318901
  0.5986373721433567  0.0003829910687876  0.2049925018726103
  0.5997293085989591  0.0005773471352626  0.3974933579081918
  0.7991703975761025  0.8022039183515335  0.0040134392368307
  0.8010527744361996  0.8007070590277369  0.3984571240669141
