Ti V  Cr W 
 1.0000000000000000
    15.3660384737921660   -0.0005376361430344   -0.0071098524204557
    -0.0005380862180412   15.3658728178464994    0.0022583698723901
    -0.0071112580112583    0.0022581408279047   15.3780529877332786
 Ti  V   Cr  W  
  14 105   2   3
Direct
  0.9978255804695018  0.0036868941730083  0.4016275405727223
  0.0031027543674055  0.1926275956724626  0.2011751963103146
  0.9901642270042013  0.3932904770846377  0.4018880708901336
  0.9924038163075211  0.6053881479011454  0.5946054908052735
  0.1922442152639023  0.0010946127932223  0.7968167659051261
  0.2006798172613886  0.3982413681407788  0.4018855026099797
  0.3979532062660959  0.1991864041375565  0.6068724429326305
  0.4038843155761589  0.5933698903919877  0.7941091401274709
  0.6105388676163641  0.0006496589968672  0.7896654039910416
  0.6063431530536297  0.8017378642176967  0.2049385782222974
  0.7923213441905752  0.0021464202953088  0.6027237982735381
  0.8042155337598218  0.2061927675109842  0.4030514697540926
  0.7986877503628181  0.4169411667003169  0.8004951827215593
  0.8014575676686257  0.7903262804861237  0.6000608560429826
  0.0012293434399817  0.9987667629032864  0.9965525981644138
  0.0007511928926422  0.9965333231823544  0.1969894678353669
  0.0005307296281500  0.0014003173827632  0.6060966055460774
  0.0014510774723167  0.1997044028103284  0.9978059084733321
  0.0030973137816296  0.1983402338545176  0.4052833973096135
  0.9989744654427130  0.1992977876536912  0.6022772162038424
  0.0011701291805878  0.1967934803684409  0.8005851793758672
  0.9991468954412075  0.3992211482037534  0.9991632048927517
  0.9997649247610044  0.3998830687779501  0.1986847171551991
  0.9975255793139203  0.3980599282466440  0.6046349638836549
  0.0012990608116055  0.3988965657455265  0.8003073563562754
  0.0017186528771304  0.6012500361309980  0.0004251252970116
  0.9998705370329618  0.5991823953663593  0.1999231701553441
  0.9982694689096216  0.6019029749934166  0.3978973174331812
  0.0016884289495053  0.7984974672976962  0.0003395872729317
  0.0014567238638354  0.8003347471992385  0.1999187822260448
  0.0002443541393245  0.8009425582694637  0.4010866452058782
  0.0017999734780527  0.8040222329296872  0.6007382032700074
  0.0014051087010194  0.8036399898560005  0.8014250742900574
  0.2005467404626523  0.0001645139755202  0.0025727325620119
  0.1994450416279031  0.0007440290957892  0.2008947493366369
  0.2023154976738296  0.9992366474787961  0.3988011109620510
  0.1989338895657697  0.9999803237126405  0.5940817015845055
  0.2017340315969569  0.2000425018697781  0.0007920828500126
  0.2031892771603254  0.1998890117443480  0.2010214025125202
  0.2004493133610926  0.1974605217810847  0.4004406760777401
  0.1968712636628562  0.2005372176975482  0.5989437404118814
  0.2046497577121915  0.2031927219676047  0.7978265515194025
  0.2007531239808884  0.4004683458701846  0.9999467856557045
  0.1987722381813313  0.3987260263562912  0.1991671305502987
  0.1972145900835724  0.4012073620708950  0.6010009628794529
  0.1992303583641820  0.4011665942194931  0.8002244640057160
  0.2006143466617908  0.5991618062243388  0.0006386691267726
  0.1989674162097072  0.5985306333491252  0.2018644883707094
  0.1985461413660136  0.6010310226716331  0.4000746405216521
  0.1984194949167578  0.6004068070071784  0.5992455468414670
  0.1962738574327623  0.5992422865552596  0.7988164388176515
  0.2056585016682688  0.7994943268786238  0.9999557636866604
  0.1993258168619054  0.8007651985634520  0.4006404140720853
  0.2013494137347433  0.7997191316142411  0.6004146271812014
  0.2009621612838202  0.7968136279422644  0.7989071210002860
  0.4015637228056350  0.9958504404823897  0.9988504027996100
  0.4013092586586889  0.9997363772920660  0.1993423057849595
  0.4005424477281784  0.9994772719844358  0.3988507482212947
  0.3986027010046365  0.9974482309006034  0.5997036390933315
  0.4007045443114063  0.0036304600429147  0.7980028460086950
  0.4017502080091355  0.1979467953284682  0.9976610351320720
  0.4003224535835813  0.1992303135427368  0.1984035437038805
  0.4004221390545141  0.1990131248058329  0.3996366227061219
  0.4002376190819252  0.4014656329594814  0.0001163315573798
  0.4000449529980415  0.3991569290271725  0.1993111342803842
  0.3999117951205209  0.3994934601742314  0.4000291539757416
  0.3988082226941695  0.4030480347605150  0.6002182609719700
  0.3990969978833067  0.3930382535324899  0.7994473552014517
  0.4011373241702050  0.6030976470352500  0.0003401540631214
  0.3996488643358684  0.5995356249127899  0.2006766675310613
  0.3998455074340878  0.6017303133456353  0.3993784564155541
  0.3987066083903434  0.6005767840664682  0.5980383115588122
  0.3987858844538952  0.8003808376574315  0.1961887198494848
  0.3995599416752544  0.8007077589747370  0.3992013344137704
  0.3988836559964004  0.8003310297252154  0.6023167640082411
  0.4004785698407173  0.8037034070245489  0.8031027168104498
  0.6030157952090754  0.0002460579473931  0.0006166866216193
  0.6017107456936400  0.0032356654977315  0.2009321660179191
  0.6004229337959099  0.0010782151400607  0.3995568193631127
  0.5962805273683877  0.0000379691057644  0.5950065598331805
  0.6003017000528782  0.1993840602850795  0.9994316562743129
  0.6008586668192266  0.2006032708947581  0.2012274211658470
  0.5982872066362596  0.2003426492743939  0.4018540214842109
  0.6021909273604295  0.2000572899312202  0.5997422134066085
  0.5984252185655173  0.2025588915554790  0.7991915842184920
  0.6007171193475001  0.4004931637362394  0.0002060323023871
  0.5999792262925245  0.3990632736523776  0.2005143045133091
  0.5977701350478172  0.4000284307368794  0.4005622733949666
  0.5987404654890294  0.3989735105578161  0.5985375838915319
  0.5985197199324455  0.4013640110749461  0.7985834817513691
  0.6002722580514558  0.6007943366359748  0.9987979903184185
  0.6017514102547272  0.5973883196194752  0.2006505783177194
  0.5989268527880115  0.6011798411942013  0.4009140564189648
  0.5990731833168027  0.5995468737719686  0.6002150264017354
  0.6034615941227556  0.5993542621069736  0.7987870075424306
  0.5978819479496480  0.8002824090226376  0.9971144277160063
  0.5996639541864370  0.8008518543411792  0.4040466555677112
  0.5968163993622425  0.7996354005256083  0.6009478740423726
  0.6027176985515933  0.7979289862776077  0.7980940254926446
  0.8007656175495890  0.9986951588846641  0.0027279398612840
  0.8023865402353737  0.0014256405771234  0.2013486368472796
  0.7978407278717640  0.9999197845811159  0.4000059738791800
  0.8069413136580568  0.9983014014064379  0.8038251997056827
  0.7999986608330396  0.2002994526811885  0.9997311551624422
  0.7992171109872404  0.2002650091137521  0.1991613431540471
  0.7999354457314699  0.2034072189554045  0.6045602845669279
  0.7994105023816718  0.1953437127948418  0.8004776275576443
  0.8000179608515344  0.3994962193432144  0.0005935516561577
  0.8008178773259799  0.4002009822388611  0.1998222760271584
  0.7945486420473394  0.4037669750716271  0.3994146230722000
  0.7985720338977950  0.3990968281458752  0.5979888789471252
  0.8017518479176431  0.6003367301483000  0.8993151937984249
  0.8007394072279422  0.6004006190087114  0.2010724312425993
  0.7981194565434019  0.6012356655213050  0.3987280248301130
  0.7972087054574952  0.5956857503170168  0.5976936705141438
  0.7991665854024366  0.7990568724781072  0.0008264395021437
  0.8035191004127302  0.7997241213583777  0.1997973816408432
  0.8000262606579551  0.8017720236442191  0.3981843209408829
  0.8015410656061011  0.7993578832374766  0.8034155445360213
  0.9990295949089368  0.6016402135058322  0.8022709587890615
  0.2000493864658701  0.7993555168839920  0.2007795345667433
  0.9995468209206747  0.0009322639004236  0.8004260829715301
  0.4007141342414011  0.1981982727459534  0.8043719338361297
  0.4021173482688122  0.7995368271605131  0.9989349031503765
