Zr Ti V  Cr
 1.0000000000000000
    15.4889002550493640   -0.0195313770937778   -0.0155534076795571
    -0.0195267745976093   15.5102089440028070    0.0059105293967036
    -0.0155475950656657    0.0058984254639578   15.5083315327291498
 Zr  Ti  V   Cr 
   5   5 111   3
Direct
  0.0009978295503392  0.9954491052061040  0.8009884491621447
  0.2085273251724899  0.8019748894166033  0.1947728860461454
  0.2166415619313724  0.8090333522347724  0.8032915288859849
  0.3937669552760028  0.9641732302918353  0.8365817798676267
  0.3843742128309937  0.7946184282636669  0.9973769601169160
  0.1985324533750610  0.4003870749179700  0.9995084675323874
  0.2100628065717887  0.8135533475337852  0.5929252262256093
  0.3979382050561257  0.0140178237039164  0.0257690554051545
  0.3900202303031650  0.9891119025171767  0.5972698156947103
  0.7997118339241367  0.6356514643311715  0.1989777133740676
  0.9960108170589496  0.9997608329200800  0.0052147793257156
  0.9977341871326499  0.9993714023852098  0.2009856249443402
  0.9990988104917393  0.9995654251077559  0.3985063144447845
  0.9979068990277515  0.0003011612981971  0.5951286816085013
  0.9979572170988075  0.2006439811969955  0.0000244721555198
  0.9991122067469778  0.2005853103845147  0.1991168062066014
  0.9991240567923905  0.2004302842314502  0.3987677134945105
  0.9986857102979512  0.2014633236171328  0.5993856655866600
  0.9983738647557275  0.2036666056192527  0.7997225945104753
  0.9970116555392469  0.4010853183193530  0.0002429543226878
  0.9990115374559291  0.3999052085657808  0.1998888420199273
  0.9995971255569078  0.4006241931741400  0.3994555827040165
  0.9998145877202202  0.4008642015443213  0.5985728097477164
  0.9997481567994658  0.4007798207608141  0.7997280629115374
  0.9994858456221449  0.5993144862200870  0.9997095735590448
  0.0036521416429028  0.6000760253071565  0.1993862682927028
  0.0013927272327760  0.5998049752893451  0.3998711299927210
  0.0027221339297208  0.6009541463570233  0.6001342003062823
  0.0031209481476743  0.5994613347367185  0.8001370123453944
  0.9933592223546176  0.7986991931424618  0.0020511886897981
  0.9989165826329349  0.7984028206757652  0.2015299955303914
  0.9996274496840950  0.7987482246971815  0.3985477902555141
  0.0021945092333612  0.8003939330970073  0.5998228094481799
  0.0031520592747343  0.7935500213994705  0.7982681040805388
  0.1945362873671975  0.0032228851188194  0.9999218259091580
  0.1994507059486548  0.0046446089497133  0.1997324770345142
  0.1980889833480227  0.0019567665221822  0.3987110198545483
  0.1942871277987646  0.0085827261682840  0.5980775411042526
  0.1986833285317227  0.0131006743152640  0.7988713323251272
  0.1986894327403838  0.1997912809941687  0.9982532139614939
  0.1991503603953880  0.2011812472311290  0.1993273528307394
  0.1999073942026075  0.2002465672584773  0.3999367003204951
  0.1988230363465230  0.2029524067336619  0.5990368383963550
  0.2000485865580341  0.2042788689435021  0.7993297132265982
  0.2001476988485174  0.3994459486400783  0.2014069331831251
  0.1994646901198209  0.3992185675907909  0.3996466710232879
  0.1998788498976553  0.4006517666211850  0.5989361867495928
  0.1997048910285923  0.4013410220113650  0.7976962926262663
  0.1991925608548859  0.6027577884959679  0.9986749683432559
  0.2014703759804634  0.5959961819311347  0.1996266053041914
  0.2002347238934705  0.6005925190930963  0.4005884249337145
  0.2018160236405518  0.6008466848700956  0.6010330179268443
  0.2016544643908129  0.5987662620434403  0.7994926382131369
  0.1845417393906567  0.8016163741461091  0.0019771284460444
  0.2000333678725609  0.8010023541584613  0.3988454642335061
  0.3991814394722926  0.9997814550549324  0.2090530096243482
  0.3985324673451672  0.9986289817229779  0.4000680908421533
  0.3978942704632277  0.2034232222322282  0.9981672657959192
  0.3994992802297180  0.2012756679567548  0.2010602688733550
  0.3991907914404849  0.1988596417515347  0.4006535642091641
  0.3988026540387411  0.1978953237330808  0.6013107933846644
  0.3994175331726209  0.2023050847261287  0.7985932638550561
  0.4013502873030073  0.3985372313493603  0.0007810521204328
  0.3998877446858277  0.3986193344769499  0.2006797691179030
  0.3997340391409382  0.3992140903295500  0.3994643122826939
  0.4004666570940288  0.3978689725325872  0.5982208809681596
  0.4009187000813391  0.3973300083862514  0.7983543757282180
  0.3983807795918827  0.5910905214945863  0.9997836765707906
  0.3998489487397829  0.5976363727480830  0.1992550245137943
  0.3992423128977395  0.5984722921714039  0.3993402694829959
  0.3999053850198926  0.5952793832764645  0.5979009969901435
  0.4009257382480208  0.5907486856582860  0.7996808254490558
  0.4082691355500807  0.7979138054609101  0.2049757014692749
  0.4021613980940918  0.7971549110686290  0.4009743539528737
  0.4078006036272702  0.7919150413951289  0.5950715398982838
  0.4170803393728647  0.7763642437109217  0.7886513308907360
  0.5966640791514846  0.9994027693905669  0.9991014060791074
  0.5997692918145546  0.9989722517754284  0.1991636606683883
  0.5991022845233440  0.9996654723169180  0.3995341471774935
  0.5990417823467459  0.9984987574762796  0.5991161104164178
  0.5990349743987881  0.9994344501460072  0.7984769367555639
  0.5981719268721082  0.1990016400716174  0.9982319151293509
  0.5985925099564676  0.1995618099976496  0.1993560438139888
  0.5986312156154244  0.1985592443657390  0.3995998853861825
  0.5990664563265290  0.1978723556747225  0.5995973797370462
  0.5998444928129449  0.3988103644944832  0.9989181761228334
  0.5999692451245809  0.3992372050748118  0.1988630458119404
  0.5999807659042092  0.3990087648870500  0.3992060207766592
  0.5998929575736015  0.3982125375759543  0.5991109157243355
  0.6012788368115777  0.3981426275871655  0.7995640022457715
  0.5981311032228473  0.5998811070935659  0.9980141850320562
  0.5977394904397301  0.6000638148054289  0.1981712186065261
  0.5999671238905995  0.5992445050089914  0.3991774128487263
  0.6009387052791539  0.5985322851090206  0.5998116449253286
  0.6019647152375533  0.5970205410766323  0.7992245329062533
  0.6004917764364002  0.7989674339501636  0.9984315597512704
  0.5982523537053401  0.8000847144608183  0.1967385245347855
  0.6030374536904742  0.7995875686070596  0.3973106216868925
  0.6041717569493726  0.7990528349260730  0.5980532221076852
  0.6049086693160958  0.7984980041353740  0.7982687756306507
  0.7974964201943904  0.0001257681164368  0.0011778278001717
  0.7977694799109734  0.0031396451496277  0.1997011822843417
  0.7993277801406962  0.9989250459780563  0.3980786916307333
  0.7988769133875814  0.0010428872669921  0.5993855255689905
  0.7959074548400432  0.0011528988992002  0.8000040999500067
  0.7984427965208580  0.2004222816239427  0.1991723689575080
  0.7990944398844949  0.1995152138198215  0.5993446431888276
  0.7988510896491920  0.2005068220205426  0.8003072398909478
  0.7986570210430846  0.3997743993713386  0.9994890582161031
  0.7994090860333669  0.3995875506703327  0.1997334419344190
  0.7995872989790480  0.3999968684540662  0.3992293220793758
  0.8000326217595595  0.3987105291883860  0.5995737610838482
  0.8003644806191142  0.3997122320233222  0.7993276827978490
  0.7999400373976219  0.6005226097869200  0.9972021001564926
  0.8009770717351783  0.6003560270938491  0.4014611605929547
  0.8014872433871567  0.5992690842230632  0.6002475873031261
  0.8012788645152146  0.5987033226204704  0.7987256865617006
  0.7974704093697950  0.7996966179194194  0.9959088624398652
  0.8005484668506622  0.7993716491552333  0.4020768057183888
  0.8022563547552394  0.8001365662986543  0.5995105589064317
  0.8021848361292734  0.7993774471314513  0.7985264889405942
  0.5989538500235286  0.1984023090196851  0.7992761613980315
  0.7975315158547281  0.2002923241009398  0.9995177041224594
  0.7988954205542942  0.1997613811281283  0.3996424390311735
