Zr V  Cr W 
 1.0000000000000000
    15.4863295998759050    0.0024137293282322    0.0105674120120943
     0.0024156779473548   15.5040449564505511   -0.0174543962439357
     0.0105707746262879   -0.0174578174046017   15.4782021514271442
 Zr  V   Cr  W  
  10 107   6   1
Direct
  0.9996042666372121  0.9685946769227128  0.7607347475902116
  0.0009342147714744  0.2051917943522075  0.6072306516156466
  0.9998422761036355  0.4313456724991510  0.0419566788127114
  0.0021830938967504  0.5773904393324587  0.2220272525721887
  0.9608990826624539  0.7912029678795528  0.1931180169194580
  0.0014522589230253  0.7989418557657697  0.5991365299651724
  0.1931642699480705  0.4837386691077771  0.5980961651859653
  0.3589451762964656  0.8030763593629201  0.1983809907752465
  0.8409279450367699  0.4317262295253458  0.3969603623969569
  0.7503634896529306  0.7915167233336956  0.1978099585885187
  0.0008724716273592  0.0059221405038739  0.9985338607936161
  0.0042079126468535  0.9979509153459371  0.3921738070522372
  0.0014345345379476  0.0059331921826560  0.5741551309780120
  0.0016181095457244  0.1984654489642351  0.2022422014861812
  0.0017049683419972  0.1936356118163680  0.3983669104835809
  0.0001789495573377  0.2040319796727093  0.8102050082301315
  0.9998005031630336  0.3865070217772537  0.2368250982702452
  0.0296281001387371  0.3806619473617732  0.4272310674564751
  0.9884150505907003  0.4072727833069819  0.6031804926925225
  0.0004267104092035  0.3969530487669069  0.8013524491937140
  0.0003098273878603  0.6217782266405975  0.0124966243614284
  0.0070038761326812  0.6138133649252897  0.4198813482406630
  0.9945947047233269  0.5982447725073030  0.6097564253295111
  0.9986710038321687  0.5935385435575310  0.8093120834874987
  0.0011976981333677  0.8116025055514341  0.9926774791683778
  0.0020695125644401  0.8032852219122002  0.3955251497359031
  0.0000935598451539  0.7815463072601826  0.8040274791282944
  0.1997640763126547  0.0020198766711974  0.9967994994287054
  0.2004413860115787  0.0015401769465598  0.1985888499799173
  0.2028362130822961  0.9989031880281819  0.3968685670091968
  0.2008758917112886  0.0015402307893764  0.5973249635092290
  0.2024909691223159  0.0002061977825438  0.7987662960713493
  0.2018523976537618  0.2005621705014274  0.0008625688759076
  0.2017044984003236  0.1999009443959264  0.1990114022941572
  0.2060874212734043  0.1976193850361658  0.3985774500134260
  0.2006355874302597  0.1998263018656841  0.8004065225949900
  0.2026498706921878  0.4004272656057868  0.0004741368883512
  0.1981516229731641  0.3990206751990097  0.1992671717796221
  0.2099391354170792  0.4020101412107938  0.3950436017727346
  0.1988881067462726  0.3989074538445436  0.8042819899879746
  0.2009903353319313  0.6018903009357962  0.0004367630558354
  0.2065588587570469  0.6004144662474732  0.1989276311861266
  0.2005480193975110  0.6000716405350733  0.3941520115992583
  0.1988958632274696  0.5978955169159305  0.8035061754445654
  0.1991934322937564  0.8024031347051067  0.9987057329463379
  0.1718956867801288  0.7967703252638503  0.1967255771057763
  0.1998048861578364  0.7993961279971370  0.3980662115375706
  0.2049120592390805  0.8008123704560955  0.5976861444292506
  0.1999209045111707  0.7976666967015039  0.7971913235252959
  0.4015137511370358  0.0002455211240011  0.9980991602911827
  0.4026918842465485  0.0035450187138413  0.1976979363003616
  0.4008850467571546  0.9987785006118703  0.3985075831276727
  0.4023715301980400  0.0001900372657140  0.5982907763886381
  0.4001153181318257  0.9987744757577218  0.7970579654377103
  0.4011854753618415  0.1996455286925918  0.9983744840501804
  0.4013396158256514  0.2003339089224078  0.1993283534390050
  0.4033616628930531  0.1982806987370668  0.3989656025984298
  0.4030839143947959  0.1997217958367469  0.5986463164600692
  0.4004243355623966  0.3997828378683236  0.9995961352731136
  0.4007380190536337  0.3973014062894861  0.1991031674937234
  0.4034915442637373  0.3976243054761391  0.3999623257444198
  0.4019350837634066  0.3987982819127169  0.5996298339138565
  0.3995059191155997  0.3988239909524309  0.7983116273196983
  0.4020147675570955  0.6002164979257651  0.9991792495805646
  0.4041885458698145  0.5932794179423506  0.1998968657661111
  0.4011016467971218  0.6008290396483885  0.4006509939809954
  0.4045546647225166  0.5983637335738958  0.5986779999592224
  0.3993550529523603  0.5998329850263246  0.7991163559602130
  0.3992638306169478  0.8007093411655680  0.9944890210010585
  0.4006730928998404  0.7993627556404360  0.4025562610124963
  0.3991940209447277  0.7988988571926178  0.6001523077677688
  0.3996558524204809  0.7981169114481362  0.7984507945391226
  0.6008249123823448  0.9991138048101795  0.9986210324129277
  0.6012608400831064  0.9963412794752332  0.1986083135212422
  0.6012642485434581  0.9976780837072835  0.3977014434029729
  0.6009798745007385  0.9991346252266988  0.5970206554814704
  0.6005342376071946  0.9977969923416407  0.7977766316467768
  0.5995659260316200  0.1984026576819320  0.9995718681334177
  0.6020222048592490  0.2000710636699282  0.1985305068415247
  0.6012136085324719  0.1984353434045880  0.5991869746222267
  0.6004680388229289  0.1993549425761629  0.7996766794486877
  0.6003149203635159  0.3985031058874138  0.9988615391204018
  0.6032928333359860  0.3999928710574138  0.1995383704250173
  0.6053522028839448  0.3992595425990610  0.3980872783872764
  0.6016389094840047  0.3995005268498251  0.5978882374720252
  0.5991139206237721  0.3997657788578087  0.7995175440865051
  0.6019068610500675  0.5997346302067478  0.0036161890259494
  0.6040661671572788  0.5994295551206573  0.3955174636941219
  0.6012225161925987  0.6000156799638066  0.5969539865443091
  0.6014155277428480  0.5991299556771172  0.8016995955566638
  0.6005309314218418  0.8001875640852016  0.9980382601983701
  0.5644581272034231  0.7900946200041927  0.1989961956763335
  0.5995429072246633  0.7998615092792030  0.3984618116453907
  0.6003719173667263  0.7996241858540818  0.5987902112699693
  0.5993029376507036  0.7979684752436282  0.7985696479322022
  0.8013045167372853  0.0012822153752701  0.9972224084412719
  0.8019662034853888  0.9972636683937472  0.1982644665800650
  0.8004225343003835  0.0009557250550207  0.3983866995754329
  0.8032313137829853  0.0007852965322034  0.5989219926894505
  0.7978513259723367  0.0002130975741598  0.7989309209779963
  0.7996863980768035  0.1999408921942127  0.9995462552528088
  0.8000105793387969  0.1991797439268248  0.1990304773527032
  0.8007910857940349  0.1962115180590995  0.3987622196090739
  0.7956994872037401  0.2011808016594633  0.5996744641347886
  0.8008339206328995  0.1991341037090942  0.8009982825987078
  0.8051480237676547  0.3973650871271225  0.1945201421784924
  0.7962596832386392  0.4002650083784620  0.6012459590013726
  0.7986712147474901  0.3999718285934720  0.8013775698458536
  0.8026638322738682  0.6006554434480259  0.0003816604412538
  0.7932642777962301  0.5946083701560536  0.2066617574469568
  0.8027211355198465  0.6181024010356927  0.4032640998627867
  0.7981811388949600  0.6005760928921019  0.6003364863322209
  0.8000998809361664  0.5989076460751188  0.8027639025255969
  0.8020260992429067  0.8022781647425311  0.9969483739688143
  0.8047429252675539  0.8071829488598802  0.4004749646891699
  0.7948282169499905  0.8007891887086570  0.6007212016264341
  0.7997490673526229  0.7989249074192857  0.7988646080545644
  0.0004257978575364  0.0021834011285569  0.1962581982773008
  0.0007847681283697  0.2004834489614773  0.0040102928986124
  0.2064736470049137  0.2019258645319413  0.5998044785494402
  0.4011297232076903  0.1992938937189023  0.7990207016128165
  0.6015875339125007  0.1986115000086964  0.3981684328203345
  0.7977905228027551  0.3993531378094967  0.9982269242921847
  0.6015226865683666  0.5971559692228948  0.1989924512999567
