Ti V  Cr W 
 1.0000000000000000
    15.4171836946855763   -0.0006458025225840    0.0021743795697675
    -0.0006464432342440   15.4108214600062574    0.0048957167363750
     0.0021730867805691    0.0048939939426410   15.4267125679285311
 Ti  V   Cr  W  
  13 101   9   1
Direct
  0.0010734898229474  0.4028181765876576  0.3996738212695017
  0.2068634541340055  0.1960411807870015  0.7914301350874599
  0.1997676860317234  0.6069347008534295  0.0059387893155234
  0.1988942070358404  0.5962032208169482  0.7930567019978880
  0.3990234340654449  0.9964264959512249  0.6009161901746398
  0.3940852474388117  0.2042167261245336  0.6063072968316024
  0.4026114529636242  0.6020661204079694  0.4000812392258321
  0.5968737784465098  0.9995644615051532  0.9951253528460521
  0.5949384735214144  0.3990898420322306  0.4035715980956927
  0.5909258330745133  0.7978071762587444  0.4014578788504917
  0.8025150921874090  0.4056602839322623  0.9907531752721579
  0.7974997548641262  0.5927349897364943  0.8054252722472887
  0.8048635869497643  0.8018197516455755  0.4019819054005621
  0.9997612549125493  0.9999300864862533  0.9998969558477646
  0.9989012715506106  0.9995591997894098  0.1989931528036109
  0.0014910759561846  0.0006801900696405  0.7981761699083012
  0.0016997931649765  0.1997612753692496  0.9984667391445515
  0.9991645539270796  0.2001919653583077  0.1998249650933032
  0.9998954370065223  0.1967647102324503  0.3996433984501605
  0.9992764924192920  0.2004342199566930  0.5997233531139888
  0.9990807180582769  0.1995887492453498  0.7993948487708111
  0.0038892694892378  0.4005052738146115  0.9985887474575659
  0.0001273978330696  0.4000846449630013  0.1960564977674403
  0.0012858107805349  0.3989130547665176  0.8004003753915001
  0.9969719777409225  0.5996648549981948  0.0006645637853331
  0.9977540825088922  0.5983960120250370  0.2011520027856897
  0.9994020851764924  0.6015070449011238  0.3999891700609470
  0.9973787632650978  0.5986577395017737  0.6001497050904605
  0.9993211267456856  0.5990083908496624  0.8002087185796206
  0.0025959032149923  0.7989142031541064  0.9991538395630172
  0.9985314373621528  0.7992853724284685  0.2014065879344210
  0.0030184656365890  0.7987863883664902  0.4015173466270271
  0.0018179956881783  0.7992211142019975  0.6023098501380989
  0.9995230134637980  0.7989922180047651  0.7996934615825049
  0.2002168843548584  0.9971322004179322  0.0004264153242860
  0.1999205726843196  0.9994413063224202  0.2016649160586575
  0.2012492765558904  0.9999052163289232  0.3980090634809436
  0.0667320068475371  0.9993211502634183  0.4671552730486282
  0.2020056768029657  0.9980985319313960  0.8008677136299064
  0.2010069180502515  0.1986648969797598  0.0013201788526311
  0.2005358818446961  0.2001660464794103  0.1996128735774716
  0.1992133331031045  0.1980524181144448  0.4002163341345287
  0.1965460520936977  0.2029673233633681  0.5957855232352592
  0.2005892431927353  0.3990287208104313  0.9999182193382665
  0.2007993247085605  0.3997030016148064  0.2005641420193706
  0.2019138668932685  0.3996456480554001  0.3998966016682606
  0.1982566134974663  0.4013076926942953  0.5994866347116286
  0.2014711660299206  0.4000299188535198  0.7997681424756571
  0.1999955225961922  0.5993558698539696  0.2045047451870647
  0.1984036593475462  0.5998031505869623  0.4002166904366439
  0.1993986745680708  0.5997834854422051  0.5962311815502642
  0.2006803789778103  0.7987755861545940  0.1968060565618358
  0.1997347038217593  0.8021167675746109  0.4019021577087045
  0.2001565021320602  0.7969864649967375  0.6025840841615856
  0.2016535615441559  0.8016608986240276  0.8030554130498064
  0.3993540012480996  0.9996699986931633  0.0013494656389070
  0.4018814227194496  0.9995443782269607  0.2000304921740653
  0.3990276010820239  0.0005751677312078  0.4000474568522919
  0.4022554947854408  0.9987298710401274  0.8021746993365313
  0.4002083731410527  0.2001401590951346  0.0020423906148806
  0.4013082933121175  0.2001766457934606  0.2000131881743038
  0.4003928855829234  0.1998405066315449  0.3980686551822181
  0.4051055749241595  0.2000310027615075  0.8044129150778417
  0.3985637326746925  0.4004202516471312  0.9987526341929562
  0.4012027082327490  0.4008741173185023  0.1991001567821197
  0.3977402821187324  0.3982822210710815  0.4005902899940540
  0.3991056690688534  0.4035011161117785  0.6015916160121018
  0.4000327842546259  0.4000966208630254  0.8015336957638336
  0.4018287152410906  0.5993124339808702  0.0003706504500670
  0.4018506209352554  0.5993125605718805  0.1987661311927731
  0.4006098687980545  0.5997685951873781  0.6020952602008033
  0.4025193741019705  0.6002468349575297  0.8007335056777248
  0.4008103352055535  0.7992220463666403  0.2012344790527678
  0.3957753580749442  0.8013094967649685  0.4005212784293022
  0.3988204860072526  0.7968475989739302  0.6021744571584242
  0.5993649162889330  0.0010160009219867  0.4002346557449372
  0.6010406028697303  0.9993816895474655  0.5991655196463798
  0.6006587334622561  0.0002419446271713  0.7962249192673141
  0.6008821296947229  0.2022156723342915  0.9998222318656230
  0.6012855819570170  0.2001245287714231  0.1992717048912858
  0.5989454325078899  0.1986294866483203  0.3999975661604036
  0.6016987733035851  0.2003285717937356  0.5999797801628959
  0.6015972840083581  0.2000631596675645  0.8000514388615837
  0.5978143163710519  0.4010000134669174  0.9992366328308623
  0.5992355840063441  0.4002408905923558  0.6020954237693152
  0.5993899666014576  0.3995734784316359  0.7987664431933944
  0.6004996560892280  0.6002968366236382  0.0004537294681315
  0.6009903933715867  0.5989357138408069  0.2013835825770527
  0.6016148637218678  0.6000018206062879  0.5986908888158704
  0.5987667709281164  0.5990863014361670  0.8000692408423945
  0.5994103902867420  0.7980620593552911  0.0001676164309712
  0.5999673691474469  0.8005107476279889  0.1982105961853138
  0.5993521961280514  0.7989040966538679  0.6027678591713284
  0.5995748879458556  0.7989988970198850  0.8008238054453326
  0.8020006959814645  0.9996266721553994  0.0002658308408432
  0.7980436904264063  0.0001858425839822  0.3993535097830669
  0.8013178519773287  0.9992630618000438  0.5984088864652893
  0.7999212402890060  0.9989951652065678  0.7992094595241525
  0.7999365785636177  0.1984378432871709  0.0002070787389603
  0.7996002120983604  0.2007305033966808  0.1984499107789325
  0.8005759341308720  0.1993406451645496  0.3988577382935020
  0.8000070811561000  0.1994339545938388  0.5988515289166212
  0.8003556045996594  0.1983801707522373  0.7992377756455633
  0.7985266444630605  0.4006850654459572  0.1995231535013969
  0.7992858672815303  0.3990318133312891  0.3981925781573937
  0.8008099223031914  0.4000685545501247  0.5985498013075022
  0.7993466906456397  0.3955105679401020  0.7960482356952912
  0.7992395270054325  0.6030461789487069  0.0050744860634894
  0.7987339435918166  0.5979002190729409  0.3989345344785103
  0.7998061645095211  0.5993177519195104  0.5977622521323456
  0.8009286761704466  0.8006624450266459  0.0002781639983629
  0.7988476419192572  0.7992108545746903  0.1992835381134897
  0.8001518454356945  0.7982434453605869  0.6034872837201213
  0.7999533925202494  0.8012639576903503  0.8017562499538982
  0.0014290984932066  0.9988494125608687  0.5993017558705797
  0.9997638467006673  0.4004466583976334  0.6025307427429816
  0.3993084762449287  0.7994011595304417  0.9999489520862112
  0.4004430326120481  0.7987049985509215  0.8017895236767884
  0.6009397066665483  0.0000053678913958  0.2020035764906286
  0.5997436975167346  0.3994767415628283  0.1970302106294798
  0.6021625739001673  0.5989877737973861  0.3998852152587209
  0.7993332757536158  0.0000731893240733  0.1999554737208971
  0.7994357664920579  0.6000010587030749  0.2007436022149612
  0.1972098967191695  0.8016157289639461  0.0010244705176929
