Zr Ti V  Cr W 
 1.0000000000000000
    15.4863295998759050    0.0024137293282322    0.0105674120120943
     0.0024156779473548   15.5040449564505511   -0.0174543962439357
     0.0105707746262879   -0.0174578174046017   15.4782021514271442
 Zr  Ti  V   Cr  W  
  10   1 106   6   1
Direct
  0.0024296598846660  0.9699845077198073  0.7590798601069271
  0.0071475625767753  0.2130535898231722  0.6044564840843547
  0.0001301513799798  0.4365323333262524  0.0358673469909302
  0.0040422773972201  0.5754065897882593  0.2211188189348267
  0.9624358656350390  0.7868006943796073  0.1956907833092543
  0.0024993246758156  0.7997929420235901  0.5981433642843170
  0.1913779855959690  0.6258389934444261  0.5966001438380210
  0.3595680139137432  0.8009695706578779  0.2026616722979006
  0.8326404141572964  0.4302281731246192  0.3975634068596726
  0.7519081029248776  0.7917215292670634  0.1985743941575446
  0.1895062587096518  0.3879367016859004  0.6002144763384308
  0.9978146725089214  0.0075832274780613  0.9975526055185376
  0.0038235362715027  0.9990490262806075  0.3965827454852233
  0.0002732105320572  0.0078562399650890  0.5727341984423814
  0.0007707635213827  0.1996731769131929  0.2012109872610254
  0.0008864169802433  0.2011008379700925  0.3972366196702014
  0.9998946421524523  0.2047842671040042  0.8091173574612432
  0.9988658950687552  0.3853686986638712  0.2261589978445928
  0.0199615505890011  0.4000047828759619  0.4099332124323051
  0.9924524596393309  0.4106298684529585  0.5999341025940059
  0.0008724728727287  0.3972183565743445  0.7999354548506693
  0.9998618740515240  0.6254254674734560  0.0135299966931510
  0.0063906834591805  0.6035609945814017  0.4187376333243418
  0.9903379114957251  0.5988024902214998  0.6110744066048773
  0.9986864192293284  0.5917005741607262  0.8110867635622621
  0.0050612863901283  0.8153230696642909  0.9921444219347382
  0.0029377565755238  0.7993707462686707  0.3959491778960966
  0.0012099995670413  0.7828644995978568  0.8032510945190484
  0.2000929701022794  0.9993276628498433  0.2008368841682575
  0.2020406256334980  0.9991795234835514  0.3976045834411437
  0.2024324006865123  0.0037950086073755  0.5985054993103943
  0.2036516892680694  0.9988738852027205  0.7999191189070992
  0.2001961108888005  0.2018131608835259  0.0013023742298426
  0.2005126075907088  0.1978643924862857  0.1987407794079888
  0.2040867240804573  0.1988527369456811  0.3995018967530890
  0.2030670028506611  0.1964812307929159  0.8031734824368978
  0.2029094970342166  0.3997140818007237  0.9996469992200602
  0.1975818702555319  0.3988910361166825  0.1987736743915351
  0.2061411222191979  0.4018130873154796  0.3977505671343462
  0.2004269498022800  0.3984133278807079  0.8021679352285900
  0.2006221669586613  0.6013705644357409  0.0007726310632167
  0.2066340341626193  0.6006476758972478  0.1988348909796673
  0.2024830210462777  0.6000368886973779  0.3927936000751232
  0.2002165187632176  0.5972799358901049  0.8038112811278558
  0.2010142243946242  0.7993549339984469  0.9995895406021924
  0.1724875004257875  0.7981968530632260  0.1970998529532201
  0.1993058571049704  0.7997027775540160  0.4003552489971121
  0.2083926670139669  0.8137876043430504  0.5998666682182610
  0.2007959673217789  0.7978814996133864  0.7997528834875842
  0.4033244610933882  0.9993425349872123  0.9989130659176756
  0.4010155329783874  0.0029953723559708  0.1980556983100100
  0.4007528379164894  0.9986941421181537  0.4001320274331902
  0.4042616148064628  0.9996051133955818  0.5989087594560069
  0.4001905305306023  0.9990534905435217  0.7985638861910153
  0.3994586618033519  0.1983728084978962  0.9986311308030098
  0.4006276219755365  0.1999184686617621  0.2001198241882296
  0.4016740268439701  0.1992988087361711  0.3993896636677143
  0.4048933364961906  0.1986454096054413  0.5996788484774168
  0.4003473725528660  0.3997323721035643  0.9996397501494036
  0.3991112834366304  0.3967767186172073  0.1992181305896700
  0.4011002832159434  0.3992379844563254  0.4007782136678673
  0.4008661566515840  0.3975933092933621  0.6006042962339813
  0.4006927593559365  0.3992956197547839  0.7986575958244787
  0.4024358984116224  0.5997758000005894  0.9995196517433440
  0.4041108258475778  0.5930515582587241  0.1997066068670670
  0.4016557783894058  0.5997332677496976  0.4001042562805475
  0.4008019045259810  0.5969062349405276  0.5987527264696296
  0.4004044117073686  0.5982257786087307  0.8000586490021370
  0.3990492022608086  0.8008572735398538  0.9953486268159377
  0.4003932711990080  0.7987729776665671  0.4043339751831073
  0.4013202326540734  0.7998674508151908  0.6010077831136362
  0.4003696979311928  0.7974515125638728  0.7988390544813794
  0.6004624064121000  0.9985883123907211  0.9986757065427488
  0.6008079928487482  0.9960403709096246  0.1994493113959755
  0.6009582899357749  0.9974964035265959  0.3980307221774685
  0.6012505384861551  0.9990463655389907  0.5971070062046628
  0.6015457938937706  0.9973244218513266  0.7976192593145195
  0.5990983823973355  0.1984961074930271  0.9997251818087708
  0.6008861914565937  0.2000867926593597  0.1987476862533785
  0.6021510338053744  0.1990298190264317  0.5987963251752949
  0.6011089074703797  0.1994939329747905  0.7994730188581829
  0.6001764199312321  0.3986712909524225  0.9987008000031397
  0.6013325151269874  0.4002212409016659  0.1995539053262253
  0.6013829934792023  0.3982243190830495  0.3980882706812486
  0.6010785612722080  0.3992514375492722  0.5978170382146233
  0.6002271702997786  0.3998037577741196  0.7989894453051526
  0.6023267627785958  0.5994672039295272  0.0037487490538244
  0.6043535826054802  0.5990649938551652  0.3956271848183776
  0.5996859816389313  0.5994329986711392  0.5968232103551880
  0.6016198984748382  0.5991444585537530  0.8010124815566319
  0.6016988969345261  0.7995357798157937  0.9983017391910223
  0.5661519151232517  0.7900865428754706  0.1994073562263081
  0.5995186680699559  0.7991941667956050  0.3988962196139669
  0.6006406817237867  0.7986658060404490  0.5986650089685044
  0.5997623268293651  0.7974643306710497  0.7985757987111239
  0.8011218503727718  0.0007491086626508  0.9975594485478683
  0.8004623627943737  0.9976635304425038  0.1988661440823131
  0.8007709290462949  0.0003395595998214  0.3983647886745340
  0.8013867797290529  0.0008220345340591  0.5989573929848323
  0.7989211188355091  0.9995009536765512  0.7984143217775358
  0.7983501697284596  0.2004904088405127  0.9995096204485137
  0.7986615941881748  0.1989670595052469  0.1988651199567952
  0.8010628523295654  0.1966407798445657  0.3988043861952099
  0.7990679728646640  0.2016343603061907  0.5995393757559784
  0.8013486162142648  0.1989391349660239  0.8005782299458530
  0.8031808747955722  0.3972644273585670  0.1940274751907223
  0.7973471702625571  0.3999301043775677  0.6006637607068877
  0.7995726157818488  0.3998460615633823  0.8002561988412148
  0.8030539650591726  0.6000165861390817  0.9993118612611573
  0.7939468634018770  0.5933865323601243  0.2095884552250084
  0.8029961818820097  0.6176795999268694  0.4046074686287520
  0.7964239843575759  0.6011092380110749  0.6005610377944233
  0.8003097514748534  0.5990635269483351  0.8018181999082303
  0.8035124654404058  0.8011967338073336  0.9976868183540445
  0.8069779220633981  0.8058917767323465  0.4017176338732840
  0.7957922545777146  0.8008281239010386  0.6007776767014161
  0.8011860523054638  0.7982562488400212  0.7991790305809389
  0.0333647466853897  0.0024241044231230  0.1642190981861069
  0.9997109272849414  0.2019737355138403  0.0036172959370161
  0.2095514998126347  0.1953877628217276  0.6006816991571332
  0.4025069370330652  0.1993875066996635  0.7999076564433344
  0.6008021827737865  0.1984040845148363  0.3983467371777047
  0.7978189204597447  0.3993768928038900  0.9979114456237642
  0.6015441789090078  0.5975600549700678  0.1989266654243406
