Zr Ti V  Cr W 
 1.0000000000000000
    15.4863295998759050    0.0024137293282322    0.0105674120120943
     0.0024156779473548   15.5040449564505511   -0.0174543962439357
     0.0105707746262879   -0.0174578174046017   15.4782021514271442
 Zr  Ti  V   Cr  W  
  10   1 106   6   1
Direct
  0.0002176892217631  0.9694947035970843  0.7592759651015826
  0.0071731054044385  0.2119928300006079  0.6071908226569610
  0.0021139542688513  0.4346209739708214  0.0372029446276573
  0.0034383883686725  0.5767262254230011  0.2208225739880638
  0.9612755816355556  0.7904096472176279  0.1947107196584560
  0.0033147912994054  0.8000161470707862  0.5978211376861193
  0.1916328280446295  0.6272834814256674  0.5973604224030289
  0.3584639090039767  0.8029913186455191  0.2007496432358458
  0.8326657207005498  0.4306774616993937  0.3984996492221171
  0.7501712096053177  0.7907300844997830  0.1988812565613153
  0.1913142527536847  0.3891554222643345  0.6006854820878024
  0.0009563797633853  0.0067870695921052  0.9986282224496913
  0.0038191086018695  0.9978866638508895  0.3943223033960294
  0.0007916700533402  0.0080342187747913  0.5723944357732821
  0.0013442012269369  0.1990485343755790  0.2022617967125686
  0.0013505482108204  0.2007326831143207  0.3984101599763216
  0.0035190935903340  0.2024643889462424  0.8096993089853339
  0.9981265946117626  0.3859245785262711  0.2271152765989229
  0.0205454974772429  0.3995987502874911  0.4094144608717861
  0.9935691450167247  0.4092480448773457  0.6000507084263387
  0.9989375701776976  0.3952233650806718  0.8017636182542398
  0.9993170758856810  0.6233174397548786  0.0128579408529987
  0.0067545531647810  0.6030629880149814  0.4185116358472674
  0.9908517695722514  0.5980785912262438  0.6105945132430594
  0.9995659714174080  0.5903823878556796  0.8102989828323028
  0.0021100461444585  0.8119641435655275  0.9920251478709684
  0.0030867199432707  0.7985056726205276  0.3956913612812315
  0.0018170218907138  0.7815600586404036  0.8029294163881980
  0.1998669428310464  0.0021325642874308  0.9975269687464150
  0.1998038874271131  0.0012313951752087  0.1991065010632717
  0.2017549916638576  0.9985239145868633  0.3969992776306994
  0.2018067454247644  0.0040639910541655  0.5978915333772254
  0.2029056767979837  0.9986566289749846  0.8000314881243565
  0.2026906837242459  0.2006328570015135  0.0014448243369100
  0.2013178898764704  0.2000848034972384  0.1999379550231143
  0.2037397720119644  0.1977799174947711  0.3992611655414078
  0.2040502646715044  0.1981871840795353  0.8017614585773803
  0.2034578978811541  0.3998613454103291  0.9992377672581848
  0.1973411164631437  0.3988511401298139  0.1984893594106696
  0.2060617824551057  0.4017700051402581  0.3978286294341188
  0.2001917760787660  0.3984268671945718  0.8025220046703738
  0.2002823920403445  0.6020036244998730  0.0012896011936069
  0.2061481632586236  0.6007500342562990  0.1991025633885039
  0.2022430251477490  0.5998634028314577  0.3931135331335545
  0.2001521911580963  0.5977058238024536  0.8046325116443923
  0.1995567418234172  0.8024328715250130  0.9997872139307719
  0.1717098120231291  0.7968021064439716  0.1975936723891910
  0.1991958571938946  0.7996241516254869  0.3995711217372042
  0.2089577603990387  0.8149248407896372  0.5992599506664988
  0.2006560664478872  0.7979332991250619  0.7983019598894326
  0.4012335050546822  0.9999801109509412  0.9988014105790319
  0.4017600872641933  0.0036897531128426  0.1986427132077535
  0.3999757456244335  0.9981608730534854  0.3991679332944387
  0.4039938298088908  0.9993469639919540  0.5982379171575438
  0.4004035376969557  0.9985286019021765  0.7970876515339470
  0.4014331335599944  0.1997847889360103  0.9990142016024675
  0.4006856897395585  0.2003686971950147  0.2002389700325709
  0.4012967903881074  0.1989749367138737  0.3997219112337382
  0.4046217361815204  0.1983703122067680  0.5994152223343656
  0.4001823615370923  0.3998668387084439  0.9999912710191274
  0.3989179011508669  0.3973706485417562  0.1992574540030167
  0.4006844126748113  0.3989161924365888  0.4007010919837445
  0.4004717247092439  0.3977914203169274  0.6006998288553561
  0.4003702090321349  0.3995142945473042  0.7989717013231697
  0.4015085138869516  0.6004954942025571  0.0000140500689246
  0.4034266122263716  0.5936431195937901  0.2004452531025731
  0.4011550580903142  0.5994484468362457  0.4003935599417834
  0.4007956926532573  0.5971710040481599  0.5988282900927990
  0.3999733755413591  0.5982203703531748  0.8003142430808247
  0.3990537402217167  0.8003940356236555  0.9949422760204951
  0.3996879385165057  0.7980843029408625  0.4032727187007779
  0.4013270550837072  0.7999068847587290  0.6003649812800683
  0.4003008116459194  0.7971912183477645  0.7985394142933467
  0.6008316651122179  0.9989943141072178  0.9983691868179725
  0.6004290739004144  0.9959671220491737  0.1989408239454396
  0.6007068344612100  0.9969656672939781  0.3977436411876054
  0.6018524268995099  0.9992220681633446  0.5978562235824753
  0.6013367122171354  0.9975238561104579  0.7985628373816878
  0.6004872559429907  0.1983841893534110  0.9993849271420505
  0.6006897905547494  0.1997587997111336  0.1992223637800105
  0.6023783990112008  0.1986508674748319  0.5993762379513480
  0.6026351872700803  0.1987835326025852  0.7998277050444400
  0.6004398512952803  0.3987749959013815  0.9989144171703388
  0.6010839827502663  0.4000585847256042  0.1995908276019212
  0.6006365205809010  0.3981192521329988  0.3982432089272648
  0.6007125488588811  0.3988859413495036  0.5981087685945975
  0.6004765993405634  0.3994555181121933  0.7994359876939015
  0.6018544834691537  0.5997606364862951  0.0039522889598449
  0.6040871056012904  0.5987242762892958  0.3957772933863961
  0.5998841183659404  0.5993142686833351  0.5970297682738622
  0.6005221081970902  0.5995424224547117  0.8012539438055493
  0.6007595767420285  0.8003424219274560  0.9982658003610938
  0.5642320632590014  0.7900942705777020  0.1988852970643003
  0.5987020188318286  0.7988795387565882  0.3988448874346502
  0.6007579343955756  0.7989796509256207  0.5985198524553241
  0.6000458658467784  0.7976748034711401  0.7985461364952375
  0.8012950248085909  0.0023774879182683  0.9974153947829404
  0.8010649360121401  0.9964931030975969  0.1990075185460256
  0.8007003646858162  0.9996860677990034  0.3981195877700351
  0.8015273460213783  0.0015218715585675  0.5980277591267144
  0.8001505504517650  0.2005866575930980  0.0005641967084538
  0.7991577985431472  0.1992725032223688  0.1986510977768948
  0.8008788764755396  0.1964870122972749  0.3978146315576459
  0.7989220610933472  0.2014837266472042  0.5971083118215664
  0.8000890395941578  0.0642515950804098  0.7990163697313220
  0.8025548470894651  0.3980519615411022  0.1957669726715515
  0.7976174240373168  0.3994758221992624  0.6018563731255042
  0.7995739305956422  0.4027575622554389  0.8009085312410654
  0.8026689843516911  0.6013947164722562  0.0008694599300038
  0.7936318565964333  0.5940212441183517  0.2088258379774593
  0.8029732343903544  0.6181416809288156  0.4039160690457855
  0.7967036142373318  0.6014528860457342  0.5996726754184591
  0.8005978539568639  0.5995318774532133  0.8023232495343166
  0.8024243789074689  0.8025694408758813  0.9972378617583022
  0.8075347897893026  0.8053250715283199  0.4010459760450212
  0.7960397159258047  0.8011771037118244  0.6002505656863180
  0.8015474339490013  0.7969341801943561  0.7986002576518361
  0.9997151993395733  0.0024020520854497  0.1974602380242519
  0.0016496314099254  0.2016668904946570  0.0037358013696695
  0.2096857724648041  0.1955590096414039  0.6004976387828975
  0.4031276296001960  0.1993764359054152  0.7999006747548124
  0.6003577330666706  0.1980077744534751  0.3983687236750458
  0.7984299184098844  0.4006541239812287  0.9992194815044345
  0.6008400248680504  0.5974246629920534  0.1991475618917467
