Zr Ti V  Cr W 
 1.0000000000000000
    15.4411249493602298   -0.0057725826640909    0.0015034816595225
    -0.0057736157285930   15.4404920489432147    0.0129561230258158
     0.0015050534304008    0.0129519398306557   15.4493068869615229
 Zr  Ti  V   Cr  W  
   2   1 100  10  11
Direct
  0.4042014936417435  0.1953821139933920  0.9982490351346466
  0.7966867382360950  0.3982316776892340  0.2000980487499426
  0.7927969947350127  0.3952799411780503  0.6045922319028770
  0.9977143159692169  0.0002718131168036  0.9995209440782646
  0.9972324659260038  0.9988339692288297  0.2003232964180361
  0.0009789733047689  0.9989097535123956  0.4003237514880283
  0.9989869694988831  0.9978569797006888  0.6007888915053144
  0.9996068423783937  0.0005723435280986  0.8006532389218413
  0.0005846456010763  0.2007678830339698  0.9993578429973103
  0.0011629158028734  0.2020087766424733  0.2007166216854982
  0.9943909525386230  0.2009405941638905  0.4018924487440909
  0.9999960435195953  0.2010471632936091  0.6009006758563366
  0.0003033334117759  0.2018645429501009  0.7981942498224575
  0.0034046676208574  0.4014860351236282  0.2002039057508938
  0.0014175426371825  0.4015064302169263  0.4010566752566568
  0.0035082111578741  0.4041571577917947  0.6001562300774381
  0.0015575073452090  0.3992765315743807  0.8001770351088532
  0.0013923678982903  0.6018315328037147  0.2003134771804548
  0.9992749648081077  0.5992432179458769  0.4040487775045137
  0.9965446893634153  0.5991807379540138  0.7961245874437571
  0.0027808542960335  0.8004762530000361  0.0022313578415925
  0.9973105720601451  0.7988599010721659  0.2007682668121049
  0.0017580435686512  0.8000053043445133  0.3980065140290222
  0.9996149012219417  0.7961380724690146  0.5985623069281829
  0.0000219206352545  0.7999430579443300  0.8003197845430333
  0.1990138508104537  0.0015617494385276  0.4005176169657758
  0.1987281134063979  0.0001398450541024  0.6020903108711229
  0.1984378295030408  0.9985763658537948  0.8000251566637813
  0.1960705428564546  0.1988491899500697  0.0025977078352076
  0.1986900644273385  0.1976138046453038  0.2018883654056610
  0.1978930289333956  0.1983327503680947  0.4016752712416590
  0.1990777234079520  0.1988882271298954  0.6002142967380419
  0.2013343901685401  0.3993435058685735  0.9995146104653073
  0.2004153609854002  0.3990831867810664  0.1987260889286488
  0.2042077994403952  0.3967928294507680  0.3992988899068689
  0.2007333612392126  0.3978746890765594  0.6012590825192851
  0.2002264568495030  0.3992419607412471  0.8018247178786350
  0.2010067574035554  0.6016483134161110  0.9999494057750158
  0.1991236857457466  0.5972774815051084  0.1975961650629700
  0.1989430903081993  0.6013875264954063  0.3962495194291286
  0.1982797484289345  0.5993064103557528  0.6018968005234581
  0.1994553651090963  0.5984601062956194  0.8018320159838550
  0.2013590568078079  0.7997212466512229  0.9982231539844925
  0.2015209075055108  0.9982169275069996  0.0006195758168634
  0.2035158912211367  0.8015631661717084  0.4009039506768907
  0.1993120741424586  0.8005024544184073  0.6002598587136764
  0.2000386379016814  0.7995824447649268  0.8005297260630533
  0.3996213199646854  0.9991595696257445  0.1999818930596750
  0.3994723949933713  0.9988196739745673  0.3998736553850624
  0.3995351915699657  0.9980790258578236  0.5988774097404576
  0.3999254991974188  0.1989371054357773  0.2060688637280056
  0.4009787094816724  0.2020718021808500  0.4040069985305771
  0.3983526934864407  0.3998834925731289  0.2038874427977519
  0.3989032323759159  0.4042880456405618  0.5963981354787198
  0.4005975944957405  0.6007972650343610  0.9977810550882805
  0.4000195150340404  0.5993982919857495  0.4026851458950730
  0.4000858309382319  0.5986215976167393  0.7949696917803947
  0.4017354400298973  0.8012762716595232  0.0014292906715625
  0.4034172828325076  0.7991705251284952  0.2034334718802606
  0.3993477510160622  0.7958617415754518  0.5957360033104654
  0.3999933268753252  0.7984237776239652  0.7968783808736182
  0.6004899891417184  0.9950820414554222  0.9989797821395265
  0.6052429235107765  0.0013186776924179  0.2011471157850268
  0.5983462751987316  0.0013495424330165  0.4003378539457338
  0.6002879733308518  0.9992721021249604  0.6012300221683419
  0.6027042579118902  0.9994591578828564  0.7990880370103808
  0.6076910816661673  0.2018606418971410  0.0010216896664414
  0.5994327566411213  0.2004852292341004  0.2006818034371616
  0.6045985240352628  0.2003528066950719  0.4025605029187848
  0.6005314872803128  0.1992083428915535  0.6012974006993732
  0.5977079358269453  0.2012484833744713  0.7994954030814966
  0.5993517746079406  0.4026290053828633  0.0007438666532951
  0.5939619138451083  0.4011857465354499  0.1988413335339538
  0.5942862929871104  0.4012500698744212  0.3993708975027001
  0.5973490880915652  0.3998697486522144  0.6015490547957342
  0.6003334446289926  0.4003519742992150  0.8013519857951941
  0.5999295956137175  0.6042826695495546  0.9994856523312675
  0.6025968123697337  0.6006358820764940  0.1984310743083507
  0.6019848997270354  0.6001349618514826  0.3990465681811129
  0.5969282838553893  0.6008174629091133  0.6003929923930522
  0.6040574638925789  0.5981437483333660  0.8000059484463617
  0.5995451649202383  0.7992014289803434  0.1965528167141239
  0.5956251937565423  0.7999920210792384  0.3983724277376412
  0.5997684152873407  0.8012132795120952  0.6001782670666058
  0.5988275256715870  0.7994188963537651  0.8023747029677949
  0.8004995547484038  0.9982786014894827  0.6029965092230284
  0.8004561589119760  0.0015797293418489  0.8044617733479420
  0.8022450888987153  0.1973067810437318  0.9977838831139521
  0.8013664279984793  0.1922367116520854  0.2063041195272893
  0.8002111404139537  0.1956687579637507  0.5967017883010095
  0.7998914528542065  0.2012106104095854  0.7974928347136399
  0.8003121474527679  0.3997595900272748  0.9976230496108970
  0.7976501970942532  0.3963572463209489  0.4051624903325157
  0.7998831895813163  0.4022681632433708  0.8031680182121096
  0.8017034458270678  0.6026238677585817  0.9955449498956165
  0.8028583594797130  0.6041835700754854  0.1992848272322830
  0.7995869476826331  0.5997597678657539  0.4016617691589980
  0.8036950633020340  0.6027285386468946  0.6041923306515805
  0.7945225108555147  0.8040500473051219  0.9991622773410874
  0.7996553569896405  0.8042085256907566  0.2014580714638682
  0.7965750157021718  0.8004476328238971  0.4002624416998704
  0.7985369399137143  0.8023317970754299  0.5986024529301530
  0.7996155328049231  0.7970835418847561  0.8005163476378472
  0.0009550434172871  0.4014213923639690  0.9994140769472072
  0.0005384911520337  0.6006917993352995  0.9989116336976612
  0.1978937721724366  0.9968973767298861  0.2013721785703413
  0.2013519089446492  0.1991949784509766  0.8000848805942207
  0.3997453852030693  0.9979040742551404  0.7985850915215963
  0.3995023621760219  0.1995929750540378  0.6023731002782956
  0.4001528739457023  0.4036850473740243  0.0012927346700140
  0.4000167753838443  0.3993440830875073  0.7994543840797217
  0.4000221342248633  0.6002391697816755  0.1994066177071430
  0.7998745527066240  0.0000342462876717  0.3995564613995193
  0.0007351105984225  0.5998962667324427  0.5992621420757969
  0.4008892984855165  0.9962326054114637  0.0032235182959877
  0.4033484488978256  0.1985803410504333  0.7991209892905774
  0.3996366731597941  0.4001600496035291  0.4003694380043762
  0.3983606224007188  0.6008489152107747  0.5987695833079048
  0.3980335195529040  0.8013635916241095  0.3973588232612140
  0.5974890954193214  0.7999218178190505  0.9992869773911534
  0.7997721061219530  0.0001653635586225  0.0024504060038164
  0.7997863725897216  0.0001343671009346  0.1922237558760935
  0.7994764142911186  0.2020720341834356  0.3999264686430860
  0.8006475470873150  0.5999862749810153  0.7989801329688794
