Zr Ti V  Cr W 
 1.0000000000000000
    12.2882735461728885    0.0000000000000000   -4.3445607757035454
    -6.1441367710433559   10.6419570608175889   -4.3445607757035454
     0.0000000000000000    0.0000000000000000   13.0336823299999995
 Zr  Ti  V   Cr  W  
  11  17  74  14   8
Direct
  0.0020756023508266  0.0025657235416167  0.2039419089383527
  0.9919883785419974  0.1919368698744971  0.3956598166713253
  0.9892660420747976  0.6044237698896597  0.3437402793426084
  0.0002010594083394  0.6077605078666514  0.5938922839284024
  0.2126316332963948  0.2138296580261131  0.2039157835908737
  0.2142403336314266  0.6072692213231818  0.4103665198253073
  0.3814015808793110  0.7930565016778229  0.7900916233191216
  0.5970572507277087  0.0099555047092392  0.8069685722146733
  0.6019003730761681  0.7979684050665291  0.3902306999136964
  0.6034090192491905  0.7969708105439922  0.6026825737411173
  0.7908067841479042  0.3977846330665099  0.6027754444123965
  0.9953733690477216  0.1935764090844495  0.6063128164753802
  0.0014343181434861  0.4065802066772018  0.0051273030158137
  0.0059410998560766  0.3943923076380315  0.7999272266089265
  0.0081351330781116  0.6110457535793705  0.8457825698782747
  0.2088367354400126  0.0058014957480036  0.1950284929515629
  0.2013241879707901  0.0020734429059381  0.3981650749974822
  0.2014219157467872  0.1989102764239249  0.7979933914011852
  0.2098068159305675  0.4020558524256730  0.6112552746831726
  0.1993689046009791  0.8072220061883820  0.3923277487099212
  0.4085902762550765  0.1972565470999727  0.6054355035841957
  0.4225120454756473  0.4072314603362407  0.4134428322483840
  0.4013313061306604  0.5993569527050423  0.9991654251001322
  0.4044257391908535  0.5919314705053675  0.3827214802594647
  0.5972730060323317  0.0004961254307599  0.1967477074505874
  0.7991764342806185  0.2006223946186796  0.1999482566661943
  0.7973198907252951  0.6003410707154614  0.1881721907778477
  0.8052637001397963  0.7940507819774765  0.7984216522703558
  0.9923001542968282  0.9897142144974851  0.4069578258881309
  0.9949765574888889  0.9934153697128899  0.6008152112129028
  0.0042143977776506  0.0015752362793153  0.8015073429236896
  0.0019121579755185  0.2036001873724223  0.0026502795877864
  0.9975711707749221  0.1962222906255603  0.8086547732004452
  0.9920818185275279  0.3884247083771544  0.1996675090339714
  0.9884113714847526  0.6009566981648997  0.0724997290260973
  0.9985977907094616  0.7944021966489888  0.9980358423203346
  0.9925473921421857  0.7886587332470595  0.1997084024517440
  0.9980073614039160  0.8175174033582981  0.4090757109164936
  0.9983530296903681  0.8066009529159143  0.6029209678135553
  0.2028536742829665  0.9999877705299250  0.9937121182543907
  0.2027127523929236  0.0085008538626206  0.6078432889778687
  0.2045472747634346  0.0018813827839592  0.8033573719629608
  0.2078571415712173  0.2005070093239309  0.9968052504606552
  0.2233826600404614  0.2121821059913270  0.4189456665006464
  0.2012210743113602  0.1910703781883498  0.5958024565196511
  0.2029193125653512  0.3981970191563571  0.9969613448481810
  0.1959640473391798  0.4057710432277508  0.1896673803479774
  0.2082787049152187  0.4030879319487248  0.8072866758322105
  0.2012955624863824  0.6031449918919456  0.0072304388484224
  0.2164294192091117  0.6057502533347244  0.1988860488765316
  0.1878841377558935  0.5875260449532363  0.5929002418880115
  0.1971024636189535  0.5971554850116030  0.8073119285371179
  0.1969862331804351  0.8129184673756017  0.6027641334772251
  0.1874968910013200  0.8062761864888149  0.8104210782187480
  0.3984432450429591  0.0059425405913660  0.9960789400916764
  0.4030517846906906  0.0031796025675059  0.1960781621900244
  0.3991716960200818  0.0039363674564051  0.6016274813821987
  0.4076609076336097  0.1981307036016947  0.1916891738446785
  0.4153253161584757  0.1945813483173440  0.4024231112449879
  0.3994982255434044  0.3943383826003153  0.9987977004625518
  0.4092960934321782  0.4016279914236132  0.1957188257147684
  0.4087487302111692  0.3971381504878713  0.6061803209136843
  0.3991252733047190  0.3905872759612699  0.7983579605505933
  0.3980454350072786  0.5913824187624027  0.1840968692294841
  0.4037211024160874  0.5908899343376257  0.6034741657612893
  0.4056847344321218  0.5929953286867282  0.8056414819849010
  0.3927827937025429  0.8018880214597052  0.9997517895538984
  0.4055823218415857  0.8018742698094808  0.1927135951665049
  0.3997716507119839  0.8125589596341949  0.3934122499031669
  0.3920883479237561  0.8153031206330582  0.5923858024174780
  0.5930592372734824  0.0052057625063766  0.0036150747334455
  0.5944346111558819  0.0073103248375047  0.3974473609424325
  0.5952885298632843  0.2009534659329159  0.9986245210266858
  0.5944220768308029  0.2037817101278135  0.1960326241766636
  0.6045768920659780  0.3938196755194544  0.3923482924273619
  0.5980063897765894  0.3952120422242558  0.6042518049987236
  0.6013973665714217  0.3937392176354161  0.8021338010755757
  0.5998274981186766  0.5964364655291252  0.9958873178513504
  0.5991617705808678  0.5908683855710678  0.1953759463260681
  0.6083152553786239  0.5909641785245008  0.4016675332556572
  0.6014673991847190  0.5923900563747433  0.7976290633338303
  0.5974674345410245  0.7962249463442672  0.9970010134331393
  0.6030609586850684  0.7957890134496002  0.1888433706155367
  0.7830681108283341  0.9808388485259276  0.1883584306754247
  0.7912208508797060  0.9959069864567813  0.3963239421045360
  0.8070057701573108  0.0092411619449589  0.6068295376981402
  0.8151450750803518  0.0160649556876406  0.8068948337653504
  0.8064219967176853  0.2151422767269200  0.0043062952346970
  0.7856220156155003  0.2011568117043498  0.4013716570275916
  0.7892787586497891  0.1930071362917349  0.5966342575980798
  0.7976499521454312  0.2065444800577527  0.8012442265751442
  0.7845801946691814  0.3911048550987031  0.1918603435575915
  0.7926566045468221  0.3961805633227694  0.3870041677829117
  0.8004477930149891  0.4012075320360941  0.8184298270412390
  0.7889729681794183  0.5946745132979024  0.9906982329270855
  0.7879512889686920  0.5956020324922717  0.3897676722453036
  0.7941851809855615  0.6046446310290444  0.6021651201652004
  0.7998416751342324  0.5937381547519829  0.8060880067654366
  0.7993102334334085  0.7910327533345534  0.0007980588680670
  0.7939931245349061  0.7971513959249368  0.1972503159626108
  0.8005064036856567  0.7961174847095146  0.3974144752550131
  0.8104105419061354  0.7977346830472083  0.5959550457864297
  0.9975897350914865  0.2085213279118789  0.1930952698822893
  0.9976191063551039  0.4028944755524356  0.4020771059065107
  0.0043652415267589  0.8005922911034915  0.8047677771310147
  0.2100697002436336  0.8115392958511096  0.0057038881914175
  0.4018044163750967  0.0009166525231106  0.3946066975411059
  0.3920594075124311  0.0120906360687755  0.8005933447380240
  0.3994225015277483  0.2013167836660591  0.9978291778013035
  0.4022267981446043  0.1952886399088757  0.8037959205199227
  0.5933338412589410  0.1923205045559695  0.3911576287965371
  0.6013011911233094  0.1998486124782370  0.6006110623420050
  0.6015720817915471  0.2105689552347461  0.8046465331970345
  0.5935145809707111  0.3968818522602663  0.1947758118660694
  0.6088760412920572  0.5913976024309601  0.6035591952834335
  0.7926730474217608  0.3985220187041344  0.0028923399980950
  0.0031810266955025  0.9981990872981881  0.9929101394241098
  0.9982394909761168  0.3964152966205797  0.5935638793963444
  0.2009130182810683  0.3945216916881319  0.4019222992828437
  0.2037011624200332  0.8019468280271056  0.1899872382544683
  0.5991619139781841  0.0100668704821255  0.5983501001074522
  0.5928470979878925  0.3945439773881160  0.9963958380280099
  0.6002060596749152  0.7919761947480122  0.8045633934454327
  0.8001534349838244  0.0019784132343321  0.0008860863198395
