Zr Ti V  Cr W 
 1.0000000000000000
    15.5633147981762434   -0.0105082892338306    0.0011052113616143
    -0.0105224976463168   15.5390273600018674    0.0056805954645976
     0.0011054290159095    0.0056800010957864   15.5617863503600393
 Zr  Ti  V   Cr  W  
  10   1 106   6   1
Direct
  0.0088250215409577  0.1881809307077630  0.7958632641051631
  0.9991144224729384  0.5983285862973710  0.7993496361486224
  0.1919857461317845  0.0045947829872909  0.8022494087042515
  0.1966637935419881  0.8005687032393217  0.3978213684309007
  0.4020432279649315  0.9983816076611507  0.9977620248517508
  0.3987390553807630  0.7738696301493715  0.0017135944105389
  0.5979207151234769  0.2008487577590758  0.2011222846457731
  0.6105705929068612  0.4096670213565142  0.3989038124033649
  0.6009092073004986  0.8004484549600599  0.6015571434150712
  0.7939323082878750  0.5925318650045284  0.4003852800832302
  0.9997860877193285  0.9946845901403808  0.2018809926634989
  0.9988484061642674  0.0003818800323878  0.9998609299026786
  0.9986352251879869  0.9992689486536337  0.4012035094503182
  0.9990048805540473  0.9980153520765477  0.5976561157566671
  0.9880571560655648  0.9892447603597004  0.7990579504081846
  0.0003502075762040  0.1991621708295560  0.0033098766955566
  0.0015695812823810  0.2015285622750093  0.2005486799523463
  0.0024840132680104  0.1981349741396993  0.3989991342747421
  0.0026966794412451  0.1987462598924400  0.5941626608242490
  0.0014477082514506  0.3991447550994281  0.9998823421428295
  0.0012143718877049  0.4003686510200559  0.2003244846698299
  0.0039954155780966  0.3986738477824841  0.3989559709624684
  0.0022301332323817  0.3989830071022952  0.5993816439734151
  0.0001967098584737  0.3954890905301662  0.7993856593726005
  0.0003981411638108  0.5989207342697687  0.0038305320714283
  0.0006819740411603  0.5995113785215087  0.2008216321401934
  0.0019550931245471  0.5989259431663478  0.3993003365799497
  0.0008346858994364  0.5990782153598664  0.5950130978984265
  0.9989975013308060  0.7985614198331737  0.0006263646647377
  0.9984997705077067  0.7967937096048939  0.2000369348033109
  0.9941636788930635  0.7980946038027028  0.4001544147827251
  0.0001569801378425  0.7985039130557254  0.5996987240469034
  0.9988947018497257  0.8000559458634873  0.7994874047134533
  0.1953219995742138  0.0018367908513697  0.0053500539381376
  0.2014533998245600  0.0020063057242499  0.1989576254148784
  0.1987928896265738  0.0043410364826653  0.3982804025009107
  0.1983904338491033  0.0004042604899219  0.5965373760206591
  0.2006447859914613  0.2019343154352854  0.2005962121616804
  0.2004290109730643  0.2011484319593768  0.3986429763168344
  0.2071846568996849  0.2021687691649396  0.5975686429181004
  0.2096050330931311  0.2085999805538292  0.8010170997294151
  0.1996356222483103  0.4009692844587798  0.9998187369225207
  0.2009085518324565  0.4020110077253963  0.1981551789561575
  0.2005394407942281  0.3998619841136471  0.3988076292123391
  0.1997841996935334  0.4004616511079143  0.5999702429992575
  0.2021025065679339  0.4024421544580992  0.8015422620005594
  0.2002861436986017  0.5995191875897666  0.0004326855337805
  0.2008498580133280  0.5998028073621909  0.1992169954226929
  0.2007292787775342  0.5970596040675157  0.3994033649241864
  0.2020954014018302  0.5990088877322646  0.6002383082201425
  0.1944773615805118  0.8009385959542638  0.9987544251391073
  0.1997680937565496  0.7998117509991871  0.1949266863068811
  0.1979640678997593  0.8008858062756563  0.6035480530247745
  0.2001296406957778  0.7977278040301925  0.8011465871945692
  0.3992833097005325  0.0009815457426183  0.2050930550057319
  0.3997518991988976  0.0008081583640811  0.4014882468478415
  0.3976534549867985  0.0049887614771695  0.5972042054264166
  0.4012777625666347  0.0005060509582271  0.7929238766275719
  0.4001161935362294  0.2051050932998645  0.9995068209886087
  0.3955577586003114  0.2021288799351109  0.2016472138875398
  0.4003406051161631  0.2018292107786092  0.4046413967331842
  0.4026262148033529  0.2013724705703436  0.7956276408714864
  0.3994478439437287  0.4010032663081348  0.9984079190313102
  0.4006065646219207  0.4018441118646572  0.2005377973655637
  0.4003139972441103  0.4011552174011389  0.3995651736021098
  0.4007592415644474  0.3973398081968899  0.6000585269814964
  0.4022273354779096  0.4015349201691213  0.7992146882823794
  0.3993961359530193  0.6010505892525905  0.2008618245733207
  0.3976843441400656  0.6003997320739896  0.4010670698678232
  0.3986164645422108  0.5986523682844255  0.5993951473150372
  0.4014990448799281  0.5998598844592633  0.7986516604580752
  0.3994881240472586  0.8008046540261139  0.2059584784259883
  0.4012927829922373  0.8014645808985857  0.4020318052792036
  0.3987788344009188  0.8007776399132127  0.7959945445952223
  0.5989865163175676  0.9964024680463474  0.2022023864182801
  0.6001387092873074  0.0004586205048144  0.4005451076298898
  0.6002761409712419  0.0038005294494843  0.5993690762072603
  0.5985916202527447  0.9993686763630359  0.7975311640046246
  0.5997132815314754  0.2017981603579627  0.9959316489419077
  0.6020641462822052  0.1994474549679200  0.4046607516493497
  0.5968362315774265  0.2022243497650746  0.6007594613152513
  0.6008722139126882  0.1994553063862531  0.8004850359717861
  0.6019477246759274  0.4009084286451223  0.9981687359684137
  0.6023642930927369  0.4005795185982880  0.6037188221821020
  0.6009557293300682  0.4018513622847593  0.8009593662160824
  0.5997163016882060  0.5999057160406910  0.9992815048472017
  0.5985674692683831  0.6023150646653465  0.1986222663797291
  0.5904550031107362  0.6108491365324358  0.3995108328165894
  0.5971796812002040  0.5970420457752066  0.6017066957897612
  0.5987418715636461  0.6005068209994345  0.8005896864526747
  0.6060061704194566  0.7986361873095102  0.0014112175352683
  0.5995896365900921  0.8006624478133991  0.1983569389386693
  0.6001052570967679  0.8036540477866421  0.3965954773323335
  0.5990612342435090  0.8008947390244838  0.8062853595524073
  0.7362786013670602  0.0004589896609106  0.0008004029318785
  0.7968201302289937  0.9998166604614898  0.2004099039908023
  0.7999203800836716  0.9995939355080028  0.4005115942289307
  0.8001403767814592  0.0011613166031552  0.5994290957937457
  0.7946543841165640  0.9988684190636876  0.7999918810450747
  0.7999496752516534  0.1999166594325500  0.9999907777701971
  0.8019660475957772  0.1967852064086916  0.4002541178663335
  0.8010791835911957  0.1995129850126647  0.6006422311244060
  0.7987003540342017  0.1980683186324600  0.7997583900825787
  0.8021264969592766  0.3988816966840827  0.9989487979407156
  0.8032183282402053  0.3995638970583793  0.1970791532774009
  0.8120335728014089  0.3895579298683174  0.4001202908855168
  0.8026635591748367  0.3969415867413059  0.6019936097674308
  0.8002362287173825  0.3976530927912126  0.8001767210164540
  0.7995727214501054  0.5975449692216297  0.0004140792262741
  0.7991003986228129  0.6002056660521409  0.1966812324390176
  0.8000543652423613  0.5973174722595004  0.6035078606285912
  0.7950562535141370  0.5992734660430813  0.8006555548638753
  0.8015793778434182  0.7986958906130878  0.0002826342259397
  0.7996366842857617  0.7998671117123204  0.1992558952190770
  0.7995900871370292  0.8007957446840855  0.3995533238432118
  0.8036793131751020  0.7985510276865837  0.6003784567311821
  0.7987877968109377  0.7997331690033551  0.8014133896068558
  0.2011160120884589  0.2027524472733901  0.0019371017097591
  0.2046068590438369  0.6001818917087612  0.7997755328882526
  0.4008983155822215  0.5907811352809764  0.0006510362592163
  0.3951851366843219  0.8003384713348618  0.5995232783730003
  0.6009787706928262  0.4054753383740040  0.1936443690673131
  0.8037913196454632  0.1995072777358959  0.2001058718434994
  0.4012389031362590  0.2015391205007327  0.5994089886762580
