Zr V  Cr
 1.0000000000000000
    15.5364267418827353    0.0141760265446098   -0.0034442262972265
     0.0141671620811882   15.5240745923983035    0.0049821264813726
    -0.0034426786392167    0.0049831204927505   15.5354998368454975
 Zr  V   Cr 
   5 117   2
Direct
  0.9522010611041486  0.4083881410365242  0.3984314283123290
  0.2015374432987044  0.5995003577704798  0.5596709874876027
  0.1968001980416711  0.7945651662878266  0.2043047186556046
  0.8002009772594983  0.1989079795175683  0.4001615987392960
  0.8055590539411880  0.5958403597660765  0.3966625232379820
  0.0007148334645606  0.0005854189090266  0.0007281394711505
  0.9994542272501097  0.9995268427304468  0.1999381515449000
  0.0012755573888373  0.0015601404394749  0.4010598411903289
  0.9996769574460315  0.0011329638833604  0.6005950660562650
  0.0007138139624348  0.9992505088524153  0.8014223612918314
  0.0005683124991835  0.1988536203347103  0.9992604189467280
  0.0060415799069347  0.1981786549187249  0.4001331324235336
  0.0008043081513320  0.1997237407255728  0.8007701003948734
  0.9998277411141366  0.4000282135159264  0.0001832426141537
  0.0009286184661812  0.3987756250378084  0.1960820714388704
  0.0006654583214245  0.4000923109368680  0.6047719578463050
  0.9997897740437104  0.3996860053417852  0.8000519680768458
  0.0003868596712926  0.5991756508307015  0.9997205608823033
  0.0014833979665054  0.6996438671655957  0.0993834536598310
  0.0129332863128039  0.6082744115177556  0.4038598791664575
  0.9991675315829195  0.6014110729465548  0.6027819059550769
  0.0024858651526749  0.6008799594594080  0.8015018047960563
  0.9948812352291273  0.8017190183898479  0.2036599094368740
  0.9991731604607774  0.8037761932000052  0.4026438433760688
  0.9992656662365735  0.8022814695867504  0.6024840813765845
  0.0008479985716294  0.7999138049534010  0.7992752250722683
  0.2002352374125091  0.9996964618160430  0.0001636997026905
  0.2009121486593714  0.0021311535009843  0.2010356945837838
  0.2007365939714962  0.0007676191697155  0.4002439721227181
  0.2006318927665506  0.0020004920295352  0.5997580435667157
  0.2005318552033279  0.0005543564261204  0.7998666836272593
  0.2005508529659062  0.2000032249218815  0.9998059193666087
  0.2003447520500185  0.1995443827408681  0.2001414916781330
  0.1988358645625377  0.2030537843224622  0.3997865162215609
  0.2000983468372596  0.2006016622217369  0.5993176615706612
  0.2003283755661698  0.1998721862430348  0.7996365304508088
  0.2007556170262318  0.3979514179541566  0.0000916029441922
  0.1983260540631383  0.3959829568701417  0.2002759366210650
  0.2057578176925895  0.4039892533911261  0.3997847085363789
  0.1990278879455037  0.3963141819418041  0.5989356096646405
  0.2005734555925955  0.4007236235608050  0.7997907322287385
  0.2006884284209679  0.5989995561442674  0.9996783881781648
  0.2037901915578838  0.5918658112216565  0.1949772864812943
  0.2021922845016430  0.6029277694602349  0.3682213774666926
  0.2016575156459438  0.5993671716174882  0.8030045880433407
  0.2029818079587723  0.8005919867763979  0.9983813116543871
  0.2023324342442245  0.8011655315923355  0.4074389143474846
  0.2013482325769198  0.8046857459711971  0.6030245446337329
  0.2005212779915838  0.7988892492922922  0.8000039932682417
  0.4010157469207478  0.9993494661199336  0.0004471123461529
  0.4011460526378398  0.9995159041631615  0.1999954563069017
  0.3991584498003641  0.9988429780907760  0.4003734364349061
  0.4012957539141140  0.0004688612042765  0.6004304156349460
  0.4005265912108992  0.9993313275444647  0.8006229989532099
  0.4003835342685272  0.1989190339378988  0.9999509182409347
  0.3998979839230175  0.1994135906543351  0.1999411133211425
  0.3973694317292526  0.1987484347294264  0.4001902124201309
  0.3998827023455309  0.1995883252221756  0.6001552426762735
  0.4000660551310005  0.1995041039456216  0.8002685711468223
  0.3999877025037535  0.3994629224478433  0.9994607657036431
  0.4011441855107600  0.3981999769615189  0.1989418934537575
  0.3998013264341019  0.3996864912643140  0.4000019215506667
  0.4007694762191848  0.3990492089864170  0.6023550262253620
  0.3999329061819793  0.3998281348288005  0.7998394000679157
  0.4026820370889691  0.5994301517545279  0.0001290401104838
  0.4030074827007489  0.5974312302245049  0.1985203397524113
  0.3981907199168455  0.6015202841386669  0.3998711391506524
  0.4047982393933621  0.5990872683676678  0.6008269092980206
  0.3999232921891667  0.5997277341572329  0.7994305111203117
  0.4014301876014308  0.7993526501795285  0.0002663922242620
  0.4050855930302417  0.7990175809404759  0.2007721489800467
  0.4015938589463581  0.8004919388324540  0.4014397109938467
  0.4023132215455302  0.8001504146101869  0.6018784113997663
  0.4010425677900805  0.7992881877632977  0.7998168536227312
  0.6006163458874147  0.9992956809322987  0.0005323259415237
  0.6011726827828228  0.9992299230458542  0.2007198423424485
  0.5987761196234587  0.9979156674213504  0.4003192757969212
  0.6010468368720547  0.9995885737885719  0.6001428524307789
  0.6006794577764774  0.9992770630421789  0.8001762766168707
  0.5999417242215985  0.1988027245394651  0.9998083452748221
  0.5993642083146588  0.1989602482193340  0.2000555437161036
  0.5935366241969926  0.1963013524480407  0.4002099078722124
  0.5995582570088380  0.1993736093257587  0.6004248380818120
  0.5997315148066887  0.1992210021953408  0.8002689423472901
  0.6004336149879146  0.3988003987960432  0.9999653113337166
  0.5996584400422190  0.3980292292280068  0.1987858775196284
  0.5918257356304458  0.3997880162100975  0.4001203495231390
  0.5995809475498155  0.3987027621116086  0.6013938989960755
  0.6001769095061801  0.3993179735770087  0.8000686124254754
  0.6001435839713454  0.5990269998596726  0.9995071776949602
  0.6016677062900007  0.5978074438704319  0.2000439134131139
  0.5960446325769525  0.6008857291240348  0.3995287972155188
  0.6019422696058978  0.5985440321810168  0.5991117640843330
  0.6006440409571928  0.5992679669448739  0.8001316575204690
  0.6011325166326339  0.7992143417977357  0.0004643533301207
  0.6017659309041725  0.7990005734036387  0.2010367421469589
  0.6003689990729643  0.7983233365237123  0.4010248559213239
  0.6018143181762541  0.7996153781710982  0.6005312479093975
  0.6007423181157873  0.7989874683533773  0.8000852518653149
  0.8011521445048597  0.9979501548802732  0.0003072651850107
  0.8005683023192732  0.9999311803819055  0.2001531530567707
  0.7996831925663982  0.9954098229831252  0.4002898047750867
  0.8006728392825064  0.0000871842578758  0.6009386974109752
  0.8005434397301542  0.9989395671138985  0.8007186163809831
  0.8004376127773267  0.1994192943194981  0.9997000884877679
  0.7998650832027995  0.1980877327632206  0.1953434837153178
  0.8001002120073898  0.1985234192629670  0.6051162651831302
  0.8006614160555691  0.1995195211965630  0.8004568973114391
  0.7994243628263341  0.3986948232229346  0.9992268255947253
  0.7999772092172444  0.3976931550770498  0.1993665650195919
  0.7652208281551908  0.3979801406718703  0.4011026653682184
  0.8000159795032836  0.3979703477756042  0.5999953048794834
  0.7997917961239673  0.3993524379406135  0.8008976398583345
  0.8017289011784733  0.5990708871717185  0.9992960264977410
  0.8001445074510063  0.5992131424770548  0.1939716457874184
  0.8008991242084912  0.5997075816320367  0.6042564202435354
  0.8002717805555787  0.5986674013262688  0.8005169868271418
  0.7991612163877863  0.7990575377101464  0.0004153530452973
  0.7998176008235963  0.7982335069415247  0.2001885348192406
  0.8001302702863523  0.8007007954014153  0.4014443410176961
  0.8001363082338924  0.7990107303233073  0.6005921548603099
  0.8011784112356994  0.7992809162035523  0.8018420263107958
  0.0009592471349755  0.1995418048649281  0.1986404409893011
  0.0010100964831077  0.2002854071634086  0.6014964490290177
