Ti V  Cr W 
 1.0000000000000000
    15.3660384737921660   -0.0005376361430344   -0.0071098524204557
    -0.0005380862180412   15.3658728178464994    0.0022583698723901
    -0.0071112580112583    0.0022581408279047   15.3780529877332786
 Ti  V   Cr  W  
  15 104   2   3
Direct
  0.9987136056925454  0.0006328648451986  0.4051464890593536
  0.0009047660776236  0.1955471276482148  0.1976348913173848
  0.9897339139474981  0.3945130982062908  0.4026680031257396
  0.9928957324830410  0.6038963847299147  0.6008655885420960
  0.1920297821630947  0.0001245362776792  0.7961453766043919
  0.2005356919462033  0.3988536948759777  0.4021172253794449
  0.3981850236762052  0.1996590516515613  0.6066272971429147
  0.4031345743736286  0.5943000812975274  0.7937950261038432
  0.6111366056835394  0.0005944214429652  0.7911049573907223
  0.6063420407646832  0.7989906584026388  0.2043748518148827
  0.7925562836312865  0.0001055114761625  0.6027939725540522
  0.8039424551368437  0.2066350210635670  0.4074090505445120
  0.8004037128207195  0.3948772993811577  0.7982706953189995
  0.8006261962504356  0.6065810462187232  0.7942458603228776
  0.7999123344195866  0.7906316429118826  0.6007422333016135
  0.0013672738913228  0.9996148784007031  0.9969780076327562
  0.0003641326497861  0.9970535336247894  0.1973333386246234
  0.0003263564819573  0.0006713581889044  0.6066796215096840
  0.0037337106146307  0.2003541063624319  0.9973123354821970
  0.0024985275090166  0.1985178133175746  0.4048615794366957
  0.9989779631986603  0.1993093930963599  0.6025468927405605
  0.0015075426465945  0.1967668014526786  0.8010993009803893
  0.9987690890471526  0.3993642759782423  0.9990973644831554
  0.9995315852468554  0.4009638552202146  0.1987964059309101
  0.9976378181857205  0.3986219112667443  0.6045463592199924
  0.0008757250158975  0.4000397801494602  0.8002431368062629
  0.0006286397753676  0.6013082063434455  0.9997965615828270
  0.0003407001032565  0.5996384910271491  0.2007628974380885
  0.9980102330079896  0.6020131793800723  0.3998795962323933
  0.0015363284656985  0.7994274421286823  0.0000532230674255
  0.0015267099648458  0.8003440630502349  0.1998238833310434
  0.0003166178895879  0.7996459518468594  0.4018992975965870
  0.0014759907179653  0.8030498943059102  0.6015362642153681
  0.0024171966042121  0.8039786194773977  0.8017742005681934
  0.2006699816624893  0.9996645404103108  0.0021885628777453
  0.1994358820260580  0.0005540865828100  0.2008998508463769
  0.2020737561956643  0.9993691840630248  0.3988086332218959
  0.1985013319624020  0.9999389060293202  0.5938728887112512
  0.2026011232822261  0.2002650652677825  0.0004152501214970
  0.2029782181063457  0.2000699312449150  0.2007542601476218
  0.2001440979217408  0.1978084812185812  0.4002525626331577
  0.1969454325443512  0.2006982060636054  0.5987169310110967
  0.2041731127573184  0.2031543175207767  0.7975144764367337
  0.2002326228021622  0.4011264200075704  0.9994216146390187
  0.1988107893512194  0.3990331989749961  0.1990740948911209
  0.1971250126542404  0.4010837564951395  0.6008601549662507
  0.1993804687387675  0.4008892668361664  0.7998955543869132
  0.2006177020455809  0.5992852941650898  0.0005915333634907
  0.1985492355841303  0.5985104792846495  0.2016780358511606
  0.1980424856465231  0.6012138973006603  0.4003546684781337
  0.1985723950097793  0.6002917773173094  0.5992928928323629
  0.1979778914241349  0.5989025597608093  0.7986028111401882
  0.2053010451238667  0.7986753425890681  0.9997574214027037
  0.1995626807214717  0.8005800180248793  0.4004569290784484
  0.2010921232301946  0.7993483617619374  0.6000136698623049
  0.2015137407471232  0.7969751260334254  0.7987165804537968
  0.4017270326920612  0.9954541314349521  0.9986744566454560
  0.4017147291121475  0.9995813039234919  0.1992592674731811
  0.4005194640134520  0.9995350617104581  0.3989697849591321
  0.3985883190894189  0.9975317535529691  0.5996403075697596
  0.4003191769079030  0.0036057200564468  0.7978436604461966
  0.4024801636559162  0.1985210173954405  0.9973756084530900
  0.4003325772791778  0.1994176178812070  0.1983709745632331
  0.4005034570231279  0.1992703571642962  0.3995549107871104
  0.4003008367109371  0.4022417609883461  0.9994991093887057
  0.4000029988254673  0.3995038368776880  0.1989778597191861
  0.4000264668723910  0.3999588400971902  0.4001924184526847
  0.3992025769135128  0.4035589390547988  0.6003924278615304
  0.3991064513807623  0.3934611515052628  0.7991221621518092
  0.4007581308858952  0.6031692149496365  0.0004603932541947
  0.3994050377065532  0.5995614154424663  0.2007894393697867
  0.3997660151338903  0.6020187776729985  0.3993724489804155
  0.3987486273095685  0.6009861036756583  0.5977512462167366
  0.3989013402741083  0.8002349277516645  0.1961266043953496
  0.3997239911657091  0.8009787733571748  0.3994947980475065
  0.3989663017467033  0.8002319896119182  0.6026789491536360
  0.4003359381964498  0.8037378253460474  0.8031286099791994
  0.6042854038529683  0.0005386610705720  0.0000523984824348
  0.6023280684399480  0.0028547025948367  0.2002458458842429
  0.6005206613633600  0.0012241050734305  0.3993350881355209
  0.5964464190260033  0.9999779355299022  0.5950549671277687
  0.6001699003527786  0.1992647195038189  0.9980786107466245
  0.6019042410074005  0.2007725784433226  0.1994459830643607
  0.5985320343243115  0.2008311343397580  0.4013117892848801
  0.6018674252355012  0.2006041744962078  0.5994949645863727
  0.5976054374316890  0.2020580495643822  0.7988021483136890
  0.6012254976145256  0.4002330646681685  0.9994402269317119
  0.5998078232124900  0.3992395233651285  0.2001870015799576
  0.5978097602592298  0.4005791569653925  0.4002306847840443
  0.5994391110618876  0.4005622252817364  0.5988899583981493
  0.5984780126415887  0.4007825467727331  0.7984158001718512
  0.6001182683499721  0.5999673630138732  0.9991654991363963
  0.6011538213424230  0.5974107980263179  0.2015361725738943
  0.5993010013069832  0.6016996406157631  0.4011178243932313
  0.5988790655746447  0.5990991153522663  0.5998179184667638
  0.6017922233358388  0.5991285610943800  0.7983348613238649
  0.5978974859144752  0.8004066221368347  0.9967199586642496
  0.5998747066827744  0.8009288907126717  0.4043343688319986
  0.5967889376878110  0.7991316038907519  0.6012105157142391
  0.6008723525677296  0.7987139516613668  0.7984033686258249
  0.8024808211745912  0.0026565235075298  0.2010653426694808
  0.7983417787029369  0.9997452105319732  0.3999074558623587
  0.8065474612679724  0.0004723090754857  0.8034353457516694
  0.8007872140609873  0.0659878884517773  0.0015642881948026
  0.7997943289257367  0.2005557986896803  0.1968641378804948
  0.7996613597707775  0.2020768390634761  0.6051180417768258
  0.7991173424721693  0.1970612902234308  0.8003074221708651
  0.7998847520394065  0.4033515825897575  0.0000081844088345
  0.8004564942596788  0.3992643353795449  0.1998114288401934
  0.7943012627085594  0.4043410414683725  0.3989075775615963
  0.7989055902272443  0.3980657071453323  0.5961866340138818
  0.8001032747903701  0.6012253487457420  0.0013478262210709
  0.8010088293157324  0.6004773097330424  0.2007587717502204
  0.7987817566299128  0.6016513262274715  0.3991975185294372
  0.7970709900349330  0.5951775509955506  0.5969056748885591
  0.7990955460718157  0.7996481707430877  0.0020049189580122
  0.8034068557278615  0.8006559777131029  0.2006508425220503
  0.8001177464333074  0.8015912601052329  0.3990713184127259
  0.8010177584224342  0.8038352526104809  0.8034460206076914
  0.0024445630841123  0.6014555406457872  0.8027580093148393
  0.2000225979208158  0.7993018682119918  0.2008746515748543
  0.9986407267809593  0.0013135151466674  0.8008718477987737
  0.3999961392663353  0.1985207049666078  0.8037889176366964
  0.4021016006385210  0.7989493826321546  0.9987451600530433
