Zr Ti V  W 
 1.0000000000000000
    15.3704372863088707    0.0041087699184726    0.0045828320708022
     0.0041071823098185   15.3593176205705255    0.0049868964281650
     0.0045832368054306    0.0049883200619353   15.3853693029952101
 Zr  Ti  V   W  
   1   2 107  14
Direct
  0.7917434616176356  0.4017684029411945  0.8101178323908589
  0.4084253799191794  0.7987578664616316  0.8041191939296183
  0.6130863157128954  0.4001160522134072  0.9888629377383614
  0.9957414493618519  0.9979183712572285  0.0016305303240185
  0.9960142549761992  0.0012912972082955  0.2003802922638930
  0.9991662142146988  0.9965452561618404  0.4008195080976376
  0.9942459616495506  0.0002471527398424  0.6017267751076695
  0.0024608677679239  0.9989591457070152  0.8027476202410037
  0.0015916794100409  0.1977628289086992  0.0001710617035973
  0.0009710964586423  0.2025520441874822  0.2021157971634334
  0.0007692260625221  0.1995029947540820  0.4005501254893021
  0.0027755957033107  0.2006905400527236  0.5994567097876766
  0.9996123681789436  0.2011245863642247  0.8011291596511515
  0.0037776418644420  0.3995938639129151  0.0059666314329736
  0.9985013067910494  0.4008723858363399  0.3969825566124111
  0.9974764112699325  0.3999752848808882  0.5997634214024606
  0.9994329804412239  0.4008995026517633  0.8028702771382258
  0.9980950677712505  0.6049361793619401  0.0002857194154179
  0.0030477639416597  0.5959727451630956  0.2010853489566726
  0.9993649106887611  0.6025552827493933  0.4026702762281601
  0.9994549861604162  0.5994483125790282  0.6013354459789211
  0.0025702956906577  0.6007428914461527  0.7999481422439301
  0.0039575440227708  0.7990644112924495  0.2022873046264985
  0.9994523156463871  0.7997860737778258  0.5958239277485319
  0.0000257451934353  0.7993637680236481  0.8056744477611939
  0.1981222802456337  0.9961852227541607  0.1669342207970241
  0.1977051725137684  0.9989489821215495  0.4023182845308769
  0.1982225057659374  0.0029794316054543  0.6063418615650678
  0.2006874214972141  0.2057688718603136  0.9987752293077369
  0.2005173413924044  0.1968186409150124  0.1991530501699343
  0.2025145759544825  0.1993859472395208  0.4036902600215614
  0.2009169928403039  0.1975380851209121  0.7963696726046273
  0.1963622765215091  0.4056886571729703  0.1958568178683980
  0.1993669415723045  0.4011854603060240  0.3989918503860467
  0.1977970506104548  0.3969691807384117  0.6006769138526333
  0.1979350816941120  0.4055259447761150  0.8042096167231545
  0.2006361552556049  0.5965030201739242  0.9964027840151913
  0.2008921447748742  0.5997600802733908  0.3992470808771901
  0.1996274176940847  0.5990265693768247  0.6044875240240161
  0.1961135630321725  0.7951878897894034  0.0035869802668937
  0.1961574893102031  0.8005074634160323  0.3988012219010030
  0.1996653629044743  0.8002637634828692  0.5993997342858716
  0.1990362420005649  0.7987819216172273  0.8019942958821211
  0.4024571062945872  0.0010392090361923  0.9994585605463353
  0.3996658309617973  0.9963144386535567  0.1981592320666883
  0.4006951958158532  0.0025367432769704  0.3998867009331534
  0.4005802441297291  0.9986514825477992  0.5996207074478570
  0.3974676542041809  0.0008585852444046  0.8008338283912374
  0.3997616425715783  0.1993818699268125  0.0013303925686046
  0.3984822432409906  0.1981051765297752  0.2035431714416256
  0.3960158586904270  0.2001056692255720  0.5949988344636493
  0.3996512072974013  0.2002861947737433  0.7982724960187306
  0.3965304347251721  0.3984198929044020  0.0000808058919875
  0.4019545516691858  0.4003941051305641  0.1979749929250025
  0.4000457585963371  0.3967509234632993  0.3975497474889784
  0.3992306242054232  0.3998112396596841  0.5979138824475509
  0.3967435930959060  0.3992695622594619  0.7994120338974900
  0.4023270750272263  0.5989968610995368  0.9993742205103278
  0.3985341785008284  0.6029146209922038  0.2004162534252765
  0.4004625675012948  0.5986802146783198  0.4006922336985978
  0.3985181618426578  0.5998185920511346  0.5985769832855848
  0.3960011064203627  0.5994849965601134  0.7997359297237187
  0.3998495850023671  0.8023666604027988  0.0067566913072857
  0.4014307180955682  0.8016531636540424  0.3964968560075249
  0.4000471274842977  0.8008702007043993  0.5943684969121125
  0.6006456510323994  0.0002402241834507  0.9978493443360091
  0.6026597699976327  0.9996705146640117  0.1988139894748835
  0.5992072857422641  0.0000331810378451  0.4010695426182454
  0.6019979295783399  0.0006311563101989  0.6021543827568038
  0.5983976739238300  0.9992265444351169  0.8005369859597538
  0.5994054075461224  0.1995587019860693  0.9987295351436243
  0.5981406180995473  0.2018803777571740  0.1986163612404609
  0.5948452042708208  0.2011720222270011  0.4008836604174177
  0.5978792686624144  0.2008130355995826  0.6007453018770564
  0.5964652042613799  0.2012846957394206  0.7996098846799459
  0.6025941950075530  0.4009862455330212  0.1992693994795033
  0.6010709823437836  0.4009521311218402  0.3984413922753210
  0.5997994458542043  0.4004314133224666  0.5990272627902686
  0.5899810741772405  0.4011194928464171  0.7942901686244531
  0.6007427828077209  0.6013256394882122  0.9983115789422471
  0.5983311380820661  0.5984722675897874  0.1980868047805322
  0.5993658015757853  0.5989220240679476  0.4018862834957415
  0.5983980166000830  0.5998990148844515  0.6020386290538446
  0.5958442608730483  0.6007401834381729  0.7999677495987898
  0.6019326890408561  0.7989151582181693  0.0000449769798915
  0.5955292370285263  0.7990086750012393  0.1999084670765031
  0.6033546308270207  0.7979460353982174  0.3993881978427301
  0.5995949781148392  0.7993378992706432  0.6001267322840971
  0.6025940500888248  0.7994314047796822  0.8010437094617053
  0.7989175367873630  0.0004271673972989  0.0050627553393233
  0.7983169106821509  0.9970397077050889  0.4011178863415553
  0.7987312118444029  0.9994441353510238  0.7966012782393682
  0.7994995464089946  0.2001631542228816  0.0008724107530200
  0.7988609669526575  0.1963694159400269  0.2024245421987657
  0.7978194418149533  0.1988217965155875  0.4014127889438970
  0.7991990255583158  0.1964985993601348  0.5999981901899382
  0.7998303546061188  0.1956528995363986  0.8005880461617628
  0.8081769949041288  0.4001133307049207  0.0107987879754634
  0.8042531976807981  0.4000971524490492  0.2046957617073600
  0.7997743547988574  0.4000101026748192  0.4017079625966357
  0.7992853063898891  0.3986317987379476  0.5992513734027929
  0.8000741382758428  0.6017331506175024  0.0014069734212342
  0.7979488640813491  0.6007927279803543  0.2012619443281747
  0.7982796027941929  0.6047272976580444  0.4017601334282430
  0.7985923317666755  0.5999861515643565  0.6028662414529213
  0.7992519662721029  0.6066041936218673  0.7994614856749801
  0.8041653627682761  0.8012344271459607  0.0034405873112100
  0.7988504035299411  0.8037558211862020  0.2054886477997565
  0.7998836032366371  0.8047700383488763  0.5963146989346162
  0.8009091886633631  0.8016427803330898  0.8001817790957139
  0.0010784252328035  0.4003940341270612  0.2017378737311381
  0.0002664643510644  0.8012774818711066  0.0041957129594617
  0.9981482598140022  0.7987685976936509  0.3989485630931114
  0.2000718579014487  0.9980280519941576  0.7970352328965264
  0.1992378928242834  0.2008140740335054  0.6002912146570162
  0.1999831357997846  0.4007744357308149  0.0000506914928588
  0.2023705267948512  0.6023784412513363  0.1994037634178575
  0.2006990349004930  0.6008432732673339  0.7995243597767291
  0.2022756839570083  0.7921953780503566  0.1998033086606020
  0.3987209952789640  0.1993261719323760  0.3984284908765646
  0.3969332278168431  0.8003253557141787  0.2017785855086523
  0.7976173646000337  0.0013454100514658  0.2023757965037911
  0.7982582582665516  0.0007914105793712  0.6002581460141284
  0.8032471430863294  0.8006560933742256  0.4000597603499222
