Zr Ti V  Cr
 1.0000000000000000
    15.4866812533483102   -0.0138389071891856   -0.0042650055420354
    -0.0138393523722023   15.4879634038831639    0.0014184031787679
    -0.0042741725747290    0.0014267905633447   15.4705250654031623
 Zr  Ti  V   Cr 
   5   5 111   3
Direct
  0.9987666779206441  0.6145476957068030  0.9986223423707711
  0.4331842787014283  0.7955458716692941  0.4133930229658052
  0.6023956317030265  0.6011158309258620  0.5941584786019171
  0.7852880128335221  0.9673316381887967  0.6000924390874652
  0.7849347594829647  0.7516690183111063  0.5998971915356077
  0.2023017810846655  0.9997374503414137  0.5967378056251101
  0.5963763724846358  0.8014412796513428  0.2274455754923864
  0.5851298264202826  0.8337813569326925  0.6028205774655577
  0.8014619039810346  0.2059880559967628  0.2055680033888204
  0.7965558248241994  0.3984251033784045  0.3920552192063121
  0.9993564618214594  0.9993097815401529  0.2009689856449765
  0.9986188431466700  0.0010397110373711  0.3992825345517740
  0.9983208738293932  0.9998266036638244  0.7990071348747635
  0.9991698320894339  0.2007845998421920  0.9992851226147593
  0.0015667212010748  0.1988637366855718  0.1997609659825910
  0.9999857754994642  0.1990668762601706  0.4011759834812835
  0.0003574532593711  0.1983125440192968  0.5995930759961120
  0.9994643831519580  0.1988199782603434  0.7984695170912350
  0.9999208515647620  0.4002033695336643  0.9991187210450433
  0.0007102309795897  0.4000897018048619  0.1996241300099282
  0.0024393134159113  0.3987826304191740  0.3995145559483932
  0.0025303369344879  0.3980954788294440  0.5983038337904675
  0.9995038376348588  0.3999561609845338  0.7983453546170990
  0.0002465315950666  0.5998358791854811  0.2042019874616445
  0.0003994618958827  0.5990484607530839  0.3996789286683325
  0.0009070749606232  0.5991850709176453  0.5967934279574734
  0.9997332245606919  0.6005661898979369  0.7938099812251536
  0.9988619222282109  0.8710639921911677  0.9991177003384796
  0.9998924068630033  0.8007425412119018  0.1991221371540793
  0.0034198774970939  0.8004199580578689  0.4002105606270388
  0.9963096734291921  0.7984333241623517  0.5989034715979269
  0.9988129616501966  0.8004171639351320  0.7983290744847027
  0.2010884964482979  0.9998752496545340  0.0003349231547265
  0.1984874332870305  0.0004363053138787  0.1991147673666867
  0.1999880336347497  0.0000184298035033  0.3979156391400779
  0.1979776030865491  0.0006342620846666  0.8021505600875161
  0.1995724615184984  0.1996910968818964  0.9998792866551464
  0.2000469404505141  0.2006864227550538  0.1998106190454260
  0.2001328684007782  0.2013153037251696  0.3994576500090299
  0.2002969609461110  0.2033699634833899  0.5993692553172772
  0.1996090054318065  0.2010689244308370  0.8001364580042648
  0.2004638153289224  0.4007468317460966  0.9993034752855893
  0.2006436005690143  0.4004881430007327  0.1989917544878067
  0.2009996227586153  0.4006631072355463  0.3988145767170044
  0.2004587595103934  0.4018523857024366  0.5991332288979740
  0.2003994139213555  0.4011784416960675  0.7997791791978426
  0.2045012983040649  0.6009493466627882  0.9991444434730830
  0.2005589230599712  0.6003402811994261  0.2003230115151446
  0.2019697293730473  0.6005025990956266  0.3988715358025318
  0.1997046869724921  0.6007561444696174  0.5979612483743643
  0.2004094974857322  0.6005031639577190  0.7979184745107087
  0.2007788388794982  0.8012642631700592  0.9998330413047192
  0.2003835895966326  0.8004394521672761  0.2004658363984221
  0.2019710680388927  0.8002212099334451  0.4004453850137063
  0.1975508279876243  0.7990581401912384  0.5999304858035993
  0.1984622257320517  0.8011149649267210  0.8003742033466463
  0.4008233978233190  0.0015375268468523  0.0008212809036397
  0.3988163698000008  0.0010869989702442  0.2000143007309939
  0.3990842509435746  0.0047878489532820  0.3991959134718380
  0.3957263606826441  0.0042137549568370  0.6000171131780154
  0.3988784400342720  0.0019132357524293  0.8018416345035780
  0.3991879484870864  0.2015454931741179  0.1999655355458981
  0.4011648133757061  0.2009517132177175  0.4008018271142137
  0.3985056974683323  0.2042621281018996  0.6004316757060271
  0.4003103506486009  0.2015031024297733  0.7995719414122793
  0.4010906862266121  0.4007228023802122  0.9990289773909252
  0.3997708861866634  0.4003060450314879  0.1989812798089393
  0.4018481033537666  0.3999106692821666  0.3995942568471962
  0.3999565032224940  0.4028708212470445  0.6000695819534618
  0.4002231976897514  0.4026028070049745  0.7990214552421407
  0.4017590716093209  0.6014051541859516  0.9993198992665233
  0.4000727309359852  0.5999688231600036  0.1983861401786407
  0.4008286712820653  0.5946727107034286  0.3990903834566664
  0.3964832271888619  0.6029577973740703  0.5976127075481752
  0.4013280573357372  0.6024131289961507  0.7981670281495858
  0.4015240997504571  0.8011850860392832  0.0010505646246457
  0.3981428870474544  0.8005787449530389  0.2007454500992890
  0.3926122009204328  0.8037461704986890  0.6095549311466226
  0.3994146786136356  0.8009063288929641  0.8013733148864728
  0.5979287986732587  0.0009309312388581  0.0016139130967282
  0.5988640196564582  0.0039218515058818  0.2006396657517465
  0.6002407416533642  0.9997909593761928  0.4000033400959701
  0.5901093229848698  0.0179626860209527  0.5998232416205267
  0.5990669347094921  0.0033323771581024  0.7979354786126441
  0.5995430752640505  0.2013078733946633  0.0004135575983266
  0.6011223238128889  0.2004195062742846  0.3992103519574299
  0.5985116494508489  0.2046500927776549  0.5987460125194358
  0.5997133583152859  0.2018674015152930  0.7999102451079456
  0.5994604794279020  0.4002612281539765  0.9996637782753972
  0.5995043687239403  0.3998976763494331  0.1991495371897158
  0.5990834323834228  0.3998229397397900  0.3984103839689679
  0.5986573387625996  0.3988061732386640  0.5983695949944070
  0.6004410725317292  0.4012437364525186  0.8003415516082005
  0.5993730717138938  0.6022349149939641  0.0002720246426853
  0.6006898097737728  0.5986770806571496  0.1987037997168287
  0.6017385098390353  0.6004814911611089  0.3923552112455932
  0.5996439775595477  0.6019398339520420  0.7999642761572358
  0.5990924212881962  0.8021552272448459  0.9927728181161074
  0.6249733518131368  0.8015120158074748  0.4197724142317955
  0.5992130889311705  0.8020243736769689  0.7978605687425786
  0.7959212837777826  0.0000602616218668  0.0024768689511210
  0.7986162859477995  0.9978288866932149  0.1980369067548467
  0.7998878070886475  0.9983117331964985  0.3951418001141070
  0.7994590637377483  0.9997857956437491  0.8054898136905696
  0.7997973337175051  0.1994036025321755  0.9993028725444491
  0.7990772956887803  0.1944036250943274  0.4024336188273730
  0.7995580838333070  0.1965981968116908  0.5996137993620185
  0.7992640070207574  0.1988854091925736  0.7996315516624495
  0.7987292573410966  0.4005279080564962  0.9979528490300335
  0.8003921287571316  0.4021838782545434  0.1957166722395274
  0.8018422605617048  0.3930352530800695  0.6001570745375422
  0.7995310327267092  0.4004777562996975  0.7997178641039986
  0.7950420973730918  0.6006207396641199  0.9988803199837306
  0.7996440070764188  0.5994875322708328  0.1984872474197786
  0.8013953222722117  0.6003373945342610  0.3981359166600282
  0.8070708366409088  0.5682800178441655  0.5960914660419081
  0.7996491815975010  0.5998511520870504  0.7974653117471094
  0.7962055734841036  0.8002291870298457  0.0011462731323961
  0.8015618046395013  0.7988550647327309  0.1994131027175435
  0.8098404656914042  0.7994142611949803  0.3961128812608269
  0.8000378914912394  0.8025643110277517  0.8006465874373572
  0.9963675279012864  0.9981947485191929  0.5985579481862096
  0.3996017335914826  0.2011794864630732  0.9995670074137026
  0.5971155107761364  0.2006922660970083  0.2003989422720188
