Zr Ti V  Cr W 
 1.0000000000000000
    15.4587842636866384   -0.0032293511975409    0.0082388701308688
    -0.0032271162884385   15.4523236864820461   -0.0077372164595043
     0.0082378582767830   -0.0077376883952526   15.4599035016914126
 Zr  Ti  V   Cr  W  
   2   2 107   6   7
Direct
  0.9992951659144295  0.8152494697517744  0.9970810681944696
  0.2003163502327527  0.8012842579273305  0.4018482326098177
  0.4002229362597964  0.8015786415555204  0.7932786856322057
  0.6166347712601357  0.1988282633836074  0.1995126914252184
  0.9996431735335333  0.0026579714954020  0.2020437311920454
  0.9992896218741133  0.0000996101733575  0.3990880679435551
  0.0001163073916860  0.9970276775578225  0.5995803477957405
  0.9988170796732561  0.9993787204799732  0.7994222735638694
  0.0002148899004661  0.2006581461501440  0.0052208642796912
  0.9999527447731471  0.1986954903515934  0.3977478407709848
  0.9998003046989538  0.1989635658690964  0.5963113202855861
  0.9993225391252366  0.0690938303168518  0.9332787081988061
  0.9999715172517298  0.4000387329126961  0.9980802027268385
  0.9968556339152199  0.3977193355707322  0.2011278727131328
  0.9994059342562833  0.4009562161664176  0.4012319202378783
  0.9991881155411828  0.4002375474543734  0.6000576322981533
  0.9988236006811454  0.4008218201360854  0.7996339277998039
  0.0007877435472738  0.6021498036027350  0.0004627627840286
  0.0007323087468445  0.6006247199254389  0.2005313268256966
  0.9995633421370269  0.5999758768536635  0.3995920202550842
  0.0005510588534845  0.6050424610787801  0.5990698470910519
  0.9995846043024914  0.5996350777255649  0.8001878268556910
  0.9995082515538075  0.8011749817525959  0.2039886730923964
  0.9934310166317812  0.8011670518585547  0.4034313006923234
  0.9979963958319835  0.8008897268509259  0.7919311007582528
  0.2007695492336223  0.9992251037561453  0.9981774320833775
  0.2045844689448221  0.0050095275811384  0.4010681658196177
  0.1997820049978597  0.0005280220645348  0.6019126584319204
  0.1989053189299763  0.0028804764383641  0.8003071877545372
  0.1982781880149975  0.1983412363104390  0.9977735553813426
  0.1962228978870003  0.2016199587648539  0.1993389459102759
  0.1987690912390740  0.2015545481691294  0.4007946062510921
  0.1980003849369995  0.2007532725077474  0.6016160740907996
  0.2011583277557198  0.2007801651793300  0.8007380006873465
  0.2010951239801749  0.4013826388827795  0.9997763461964041
  0.1982108105531736  0.4011225014167169  0.1992660431905399
  0.2011575390200618  0.4002138024029410  0.4006044915005851
  0.1994995941371337  0.4009394890812205  0.6005369192863231
  0.1986937311833845  0.3988673891295714  0.7999435535461326
  0.2004803998211539  0.5998001741440004  0.9997905235687707
  0.2014176205106477  0.5964748350036475  0.4000076935338492
  0.2005523531052664  0.5994047440487257  0.6012925307282909
  0.2001463021408556  0.5984936474789083  0.8006972243194027
  0.2068980848651999  0.7998069387349044  0.9997187090098868
  0.1982636738785857  0.7991719362741413  0.1975160610035808
  0.1950224538835062  0.7994069677990084  0.6069204324636489
  0.1983866549051689  0.7993680895343083  0.8020822192553847
  0.3995334234070176  0.9967006246637014  0.0003196525511055
  0.3989561170901005  0.0043180261972637  0.2046365443286738
  0.3980726947326897  0.0010008093954743  0.5965311304404768
  0.4000587115018214  0.1991100978929150  0.0046894587764272
  0.4005311636016926  0.1965815470541442  0.3963169884982876
  0.3996511178741408  0.2010211336275983  0.5997101030103185
  0.3998688579245071  0.2009109322851377  0.8007580134936308
  0.4007017716361665  0.4008712500966751  0.0007926858616014
  0.4013805109285186  0.3964043508283756  0.2003921571113481
  0.4016043424382721  0.3998499400162790  0.3997147679675966
  0.4000562116157339  0.3995560911923833  0.5992777295045024
  0.4004761818254397  0.3996176940920424  0.8008375515399407
  0.4001603079704631  0.6033861234029068  0.0009008637350272
  0.3998232451496363  0.5994094858494613  0.4000041110975686
  0.3996281583315567  0.5974195657418233  0.7999560610966087
  0.3988313707775163  0.8001832106549469  0.1997945381851134
  0.4062439013271862  0.8040035967647992  0.3991254079682323
  0.3987656720171016  0.7993525631703747  0.6005097293066232
  0.5976389148700216  0.9991778511987205  0.9992255343804435
  0.6006262718977199  0.9985959190299740  0.1990807865472946
  0.5948633085730071  0.9953920450722927  0.4012804345078860
  0.5999285632827438  0.9995655332244842  0.6018339761090120
  0.5987181320298099  0.0000397607053257  0.7991985625025592
  0.5982262865366109  0.1992418498675460  0.9977247297287480
  0.6001417031014538  0.1991074723114566  0.4023881026766229
  0.5995785213703692  0.2001730460443332  0.6007156709363091
  0.5994335955834476  0.2002815873463090  0.8000034084538342
  0.5982168763640398  0.4014857386412611  0.9995614636738014
  0.6045736894963605  0.4024242007445233  0.2007645867635321
  0.5980839663289643  0.4014552619376917  0.4012815072193986
  0.6006713694588963  0.4007976006801515  0.6001020981727021
  0.5986173830185444  0.6010661003128424  0.9995571185875897
  0.5998660270287427  0.5995104961739802  0.2000030807326201
  0.5982375757293860  0.6042213720900079  0.4013117483906392
  0.5996754814281980  0.5998796410937806  0.6010928077560442
  0.5995955974052962  0.5997338164432833  0.7998917143739819
  0.5943688450220402  0.7997725088701880  0.0002869151202922
  0.6012223443793001  0.7989104886316747  0.2043668391294002
  0.6015941136553284  0.7991058060940249  0.5975048938477252
  0.6006660334470183  0.8005938154091511  0.7984046763360749
  0.7968337314370970  0.9995019557881235  0.0005289962073756
  0.7994696190644413  0.0011727246946578  0.1996544609123969
  0.7966781444675568  0.0008426185768138  0.3995022738629530
  0.7990684210954040  0.0011383402267098  0.5998675149900740
  0.7995078158518276  0.0024230850766664  0.8008283187137129
  0.7998514376024543  0.1994447557102737  0.9986058560567169
  0.8085535057528560  0.2044026715029940  0.2002234672874960
  0.7979958395570501  0.1992209039420096  0.4007669433991820
  0.8017714108059896  0.2007922474579344  0.6008142047481803
  0.7984091014254778  0.2007492281334529  0.8007818916681868
  0.7979026185229343  0.4004978697376355  0.0035914365185148
  0.7977910290299395  0.4001086084439798  0.3968476954512690
  0.7998129806485634  0.4003442500770512  0.5989864484800774
  0.8004033592623906  0.3988622609650563  0.8016355116328603
  0.7986635152125561  0.6012059877455859  0.0001802617889591
  0.8016881032067221  0.5958885333955616  0.1997449489755564
  0.7987414402204329  0.5997037709825274  0.3995481755293694
  0.8000169984662123  0.5984344246009766  0.6005024481302695
  0.7990697469908438  0.5989128475767325  0.8010485405046404
  0.7935886615357467  0.8003779421560635  0.0011077045684803
  0.8000961614194545  0.7985422151968092  0.1997223266991597
  0.7941480520467364  0.8003514916938057  0.3990475641249183
  0.8030438979228172  0.7999365316774445  0.6000010613254568
  0.7974618601596413  0.7995909897166430  0.8004668342438934
  0.1986572409997139  0.0011582536442294  0.1985134721904515
  0.2004193035942147  0.5982952433010810  0.1995178424478047
  0.3993809832424167  0.0032483452805501  0.7988418488309291
  0.3995804701587006  0.5983969300593390  0.2011185068294765
  0.3995884139903694  0.5991722177076133  0.5997548605041643
  0.6000411348122316  0.3999565479997505  0.7997445710102572
  0.0012635821735798  0.2000557991977043  0.2001042827201610
  0.9984318809539002  0.8002221643277108  0.5976449028942953
  0.3999250302706246  0.9991774603264564  0.4007583572904471
  0.3915066887372158  0.2002546371087154  0.2005354764215145
  0.4002840122408062  0.8011044672691287  0.0065598399992286
  0.5994325168739004  0.7986551807612920  0.4009032742508365
  0.8007656879632891  0.4008468273661361  0.1998962167024631
