Zr Ti V  Cr W 
 1.0000000000000000
    15.4771126092992706   -0.0171409429028663   -0.0108832458615090
    -0.0171377985850307   15.4835452709138899    0.0089453070842751
    -0.0108770206815257    0.0089383803551370   15.5150560916889226
 Zr  Ti  V   Cr  W  
  10   1 106   6   1
Direct
  0.0262078780790319  0.0129062743828273  0.9785162227938062
  0.9958938620941264  0.2064711666836180  0.7909558449802085
  0.9906271348949811  0.3859234139855694  0.5998024731250828
  0.9930184494749982  0.7930767052738730  0.5934569225232285
  0.1726784782488512  0.9967140259884898  0.3385353794466044
  0.3872389479630867  0.9963875832945125  0.4057121181869348
  0.3998642015551001  0.2003313241079142  0.0009436986534954
  0.8103317701860557  0.3978298452114272  0.4155656047252723
  0.7718144796132456  0.4029322270621381  0.6334827116216010
  0.8085504795539368  0.6268936583839791  0.4182705978148732
  0.5971291020691518  0.7993525406322658  0.5988938525821818
  0.9881791972667582  0.9975637912234975  0.3976877829896631
  0.9990328584089432  0.9966486087096160  0.5929819736368727
  0.9996174385354016  0.9954353349222040  0.7856568373371818
  0.9996668615669856  0.2082643534277426  0.0013719319924304
  0.9990191996592926  0.2051554139150013  0.2002038098696640
  0.0033984075507366  0.1960947278591472  0.3960695167798073
  0.0019201133301606  0.1875061494111651  0.5888292718997600
  0.0023608625274563  0.4043799621147145  0.0064158343120102
  0.0132159851984894  0.3967889656676951  0.3906522444700398
  0.0017114695811387  0.4081017483645553  0.8089129121124421
  0.0008043422539995  0.6016960269498134  0.0000781560884617
  0.0009081843861223  0.5944443800498938  0.2013523149574858
  0.0091992645798225  0.5962157028156515  0.4002762744513000
  0.9976785518136028  0.5933793813062594  0.5985409825335692
  0.0006473402235586  0.6006366118912656  0.7974906136402720
  0.9995500527638504  0.7976934541789122  0.0007639237515060
  0.9981001861507836  0.7971846468330627  0.1973932761567253
  0.9978394979266764  0.7976862364561136  0.3924546072638656
  0.9977161177858714  0.7983391282434833  0.8005003453567532
  0.2039237511588120  0.9996375888644287  0.1068657243553046
  0.1988415244442282  0.9978011879884213  0.5874491897243127
  0.1987900026472147  0.9995707232106127  0.7971451248451302
  0.1958051440551292  0.1997294438940473  0.9984460803123908
  0.2027466182356365  0.1972869834474154  0.1984523487367004
  0.2049638418581469  0.1959831098037435  0.4005955064333218
  0.2007320165143143  0.1970923330876666  0.5976983199996964
  0.2013277923840167  0.4010088020996901  0.9995948287617006
  0.1988801720725477  0.3990370849037864  0.1993706183403474
  0.2048936404776242  0.3980951211582189  0.4009126262713458
  0.2006809065881094  0.3971471872025945  0.5997256648815767
  0.1996469835537365  0.3998462003756444  0.7998904423377294
  0.2015925812600970  0.6009607992926420  0.9984132355006659
  0.2015157560863091  0.5998629702314562  0.2003358233169482
  0.2029673059350543  0.5990240678501642  0.4011732845695875
  0.1998011669725213  0.6001138385513047  0.7990429488955526
  0.1985362748148620  0.8013026267952249  0.0004255066375685
  0.2001611771469692  0.7987200051223612  0.1996963254948781
  0.1996975935669522  0.7968402232851439  0.4005750656758065
  0.1996364511305595  0.7978011863347252  0.5982163786781498
  0.1992240728243793  0.7997722414219923  0.7991384122337598
  0.4049978200013979  0.9963095625319174  0.0004002836971503
  0.3996493547324795  0.9986449267640539  0.6066702609850028
  0.3979699924098149  0.9988604807062822  0.8019135322359535
  0.4023562623396485  0.2007811644909347  0.2045964822200079
  0.4028311954703367  0.2022511025692430  0.4018456056119283
  0.4004925695535850  0.2002904582211407  0.7969237391918202
  0.4004047554794769  0.4051308395038921  0.0021320926889985
  0.4003104566998445  0.4010660927647486  0.2017512039772345
  0.4002508023130101  0.3998148458928126  0.4005570895694532
  0.3958534833342808  0.3993591412905859  0.6024416104197294
  0.3997097627675984  0.4003486811111569  0.8015685236305585
  0.4010188910467945  0.6017723808901511  0.0009184936860414
  0.4008802760188891  0.5989484902531936  0.2017600528482648
  0.3994070942699862  0.5993416624936864  0.6018372069030529
  0.4000164948702094  0.5999600243640162  0.7996045833087698
  0.3987130615041140  0.8001007745459487  0.0006037539067224
  0.4007186853346402  0.7979506261436120  0.2005444220840076
  0.4010863084597026  0.7936582670302115  0.4004835605254579
  0.3974235122279731  0.7980017807721019  0.6013090494703679
  0.3987003630491828  0.7991208282457541  0.8009696146947299
  0.6027050068325249  0.0002607456313102  0.0017954012471943
  0.5990688726831452  0.0007683272517423  0.2014266981125628
  0.6015264379846500  0.0008394735738615  0.4023907597297591
  0.5989030705333928  0.0030176080466473  0.6018786588543711
  0.5995452566614879  0.0013862373189186  0.8010895147455612
  0.6056275057999988  0.2017215560976741  0.0018630288078691
  0.6022948633238394  0.2001481226291130  0.2028155206537824
  0.6013622537472301  0.2010984605702303  0.4032462423933836
  0.6010861413514618  0.2019303980781832  0.6010987624123906
  0.5997616240917046  0.2008518738105542  0.8006391068755102
  0.6020731400326360  0.4016839230620382  0.0038932515896613
  0.6027882944380005  0.4002321126457598  0.2034536055133817
  0.5992682882807610  0.4000542393288948  0.4006619535011032
  0.5849588872510376  0.3992263443941377  0.5996597658665606
  0.5978015119946211  0.4005749226722740  0.8050363983839389
  0.6009837738779311  0.6006277799392902  0.0023297405815774
  0.6018006765246495  0.5989966393409033  0.2037719499004554
  0.6006446557984030  0.5993452987568273  0.4030416499706587
  0.5997217706317377  0.5962159592153511  0.6015865008060298
  0.5989221047667850  0.5997388652499775  0.8020911481365095
  0.6002221202959797  0.7997342705731256  0.0023572011375747
  0.6001691482052774  0.8001683980734130  0.2010380832233884
  0.5991348154454822  0.7989856732167180  0.3984019571277462
  0.5997020062748847  0.7997062820922510  0.8039329747130213
  0.8037834024909704  0.0005536568818254  0.0017876033176238
  0.7997763764522432  0.0008951794550607  0.1994971283538604
  0.7968445126121937  0.0017862914661313  0.4010324419875873
  0.7984687575703390  0.9998968979352343  0.6032564016573368
  0.8005490454976922  0.0001816682608327  0.8012611285706219
  0.8027221595125212  0.1989291473613434  0.0013976102111157
  0.8006600237913968  0.1993460533420110  0.2035405431433988
  0.8007213194648117  0.1939857031214705  0.4019835302326781
  0.8008390090575038  0.1979015475630022  0.6013514969020864
  0.7953546421898835  0.2013046037631850  0.8013367488974975
  0.8001212036010584  0.4013611511267406  0.0066721225859646
  0.8049181654112501  0.3997466576148612  0.2016725161920804
  0.8006653742225721  0.4014208292121120  0.8201213643397109
  0.8001438456646137  0.6025350417985628  0.0020703151592156
  0.8011775199500206  0.6019467183097875  0.2048430790142783
  0.7983479448305966  0.6053637241285003  0.6150620856251484
  0.7999505217856194  0.6014304820775197  0.8046613542802050
  0.8009199736822102  0.8024359662530907  0.0018321698621957
  0.7996008712578976  0.8014116112410185  0.2016530296971114
  0.7968106043075744  0.8151494258722807  0.3987925020580920
  0.7906208105211375  0.8026605254095355  0.6028210478447331
  0.7983990954186071  0.8013785016019376  0.8037263493731007
  0.9978054074550978  0.0008474050322351  0.1957914574290477
  0.2029521099299331  0.1996725927413738  0.7975032774701023
  0.1986864809323155  0.5960735325914978  0.6001101172400781
  0.4006239869582490  0.9992278164346622  0.1978815460803819
  0.4004084836543984  0.1987667199915596  0.6011199068326081
  0.4004146025850072  0.5981789621097785  0.4023040523212726
  0.0015211367796970  0.3998254186461712  0.1996768931059176
