Zr Ti V  Cr W 
 1.0000000000000000
    15.4774007178547244   -0.0057270445464663    0.0060485456842571
    -0.0057275938548885   15.4869400142696509   -0.0016006725836938
     0.0060484205712483   -0.0016004018593464   15.4828342852602923
 Zr  Ti  V   Cr  W  
   2   1 107  10   4
Direct
  0.0024104559228415  0.4018139986482807  0.0007477449389377
  0.4013653400098259  0.5967801549380511  0.8025185952541972
  0.7985831261663026  0.1934138384230825  0.5998601033846119
  0.9996137232912603  0.9975042071184487  0.0653356144074888
  0.9996354335718954  0.0004236894540967  0.4007878806962898
  0.9969785163973018  0.9990565050674211  0.5994253588506276
  0.0006770100217466  0.0002306345321799  0.7976099507576545
  0.0008199211828844  0.1933683861487780  0.0023905857429301
  0.0000394946943336  0.2012958530206259  0.1998207928645530
  0.9999903998531585  0.1992960507200613  0.3986755038122056
  0.0035157085073731  0.2000423855357282  0.5990801964081487
  0.0018430903878537  0.1985810475285379  0.8007769662133526
  0.9996648385031268  0.3999788187351729  0.2048874113980290
  0.9997162692933654  0.3999429093769920  0.4020374033293701
  0.0013823056779745  0.4004045746633736  0.5984607019884529
  0.9952134742652986  0.4001289637603712  0.7947038052500641
  0.9999278566787619  0.6080905056159454  0.0001826023178586
  0.0001559172386136  0.5996837492810801  0.2010361717113696
  0.9992328803182500  0.6002942683234209  0.4000740703983799
  0.0005233462034087  0.6013678639614166  0.5989522302716312
  0.0005570994211272  0.6005116440861888  0.7979170776003104
  0.0001957282537568  0.7985742165460517  0.1967054301033190
  0.0000794899543194  0.8015052795831455  0.3974764609769017
  0.0014225311931058  0.7985514302679501  0.6009456379878043
  0.9995553823820615  0.8006626297757254  0.8025766790674290
  0.2016273358664651  0.9996611738508170  0.9993525823106407
  0.2020003532633677  0.0002186633759369  0.1995704547240301
  0.1990439803646739  0.0002299883877546  0.4003009986050330
  0.2000043931875229  0.0005933217280698  0.7984396777633825
  0.2009994403890234  0.1989922703574807  0.0003750755283647
  0.2000293211861897  0.1998146028367090  0.2000479082467520
  0.2000578196088565  0.1996212366097209  0.3995833572674662
  0.2000417232505801  0.1988008459423609  0.6001119941300362
  0.1996608496264096  0.1999501117338117  0.8008378658117453
  0.2058138593976913  0.4002564907278560  0.9992731859941243
  0.2022627696768977  0.4003362276038279  0.2017089285852949
  0.1999744291648161  0.4002182901780527  0.4011203087428661
  0.2048428147536660  0.4004642867219518  0.6007040451876191
  0.1980655263107683  0.3991498308442660  0.7992107268516131
  0.2010287058360634  0.6012153062872942  0.0001220571760725
  0.2005859238827688  0.5987273874100741  0.2002415559067947
  0.1989427314757498  0.6005898143415690  0.3993963030415639
  0.1963956425189316  0.5994284424071401  0.7997951330409617
  0.1978746439622259  0.8009198010494557  0.9989444782038698
  0.2003816405882145  0.8004588989063109  0.2000139276165048
  0.2000690552055529  0.8004713068376222  0.4005549897273515
  0.1999890552445837  0.8001776662733807  0.5998160364909340
  0.4011841054555094  0.0005826774313109  0.9997033754059191
  0.4010469762954240  0.0004028957668609  0.2006688886215751
  0.4008782958129607  0.0006706109422647  0.4015372177904906
  0.4007633555022220  0.0006909603279960  0.5997013591861631
  0.4004306731856884  0.0006545181865278  0.7981532386551642
  0.4006682638286063  0.2002589001193006  0.0004732948149615
  0.4010296816400779  0.2008085091226962  0.2001762191131052
  0.3999109811627044  0.1999646652107632  0.3993431727373408
  0.4000999079404092  0.2027135258353265  0.5996818608728801
  0.4001986691909585  0.1986295070528342  0.8008328670438041
  0.4020773884671596  0.3985717332456148  0.9999322245210620
  0.4008464796006270  0.3999448840094660  0.4042116203212544
  0.4022557715845855  0.3937852628687034  0.7952519238986148
  0.4002104682541086  0.6009013292750777  0.0054175094478034
  0.4002071506528583  0.5994937423398470  0.2019948959370201
  0.3997281313762861  0.6007093721924207  0.3997768281811893
  0.3999071234221811  0.5967225533541261  0.5964945969046865
  0.3993500991039678  0.8016199779217801  0.0009158671821827
  0.4002606067203683  0.8002732972894943  0.2001213362925108
  0.3996064499087468  0.8003236849833285  0.4000920897823081
  0.6005928696077176  0.9994353893712410  0.9992417466365200
  0.6016108540613213  0.0007586210587494  0.2002535423838371
  0.6003141309606290  0.0003477658504514  0.3996019899774422
  0.6029174613446190  0.9991958473662675  0.5996757078761986
  0.5999333975647447  0.0008211380340570  0.7999914477172708
  0.6004333563592692  0.2003427951317746  0.1993618592482438
  0.6009056233749118  0.2004215072538839  0.3982866123443510
  0.5984228010232804  0.1989247442341956  0.5990027305248032
  0.5996289604921854  0.1990205897187250  0.8011101924279621
  0.5982993737027026  0.4009131860693199  0.9998538601019419
  0.6005002240632165  0.3995640709329458  0.2001657793334373
  0.6011765469258533  0.3998303543977287  0.3999624970691061
  0.5962397369269461  0.4007465011145502  0.5997692598518526
  0.6060990963070587  0.3989358638297948  0.8002147733132550
  0.6003714479655184  0.6014373546836572  0.0013971965328937
  0.6004794072909025  0.5995643025249927  0.2002681351511973
  0.6010265497790942  0.6002408834202015  0.3993563795707858
  0.6004408081750529  0.6023057232920878  0.5991198100614963
  0.6050288040727817  0.6014059547125935  0.8001450310107022
  0.6004456282511040  0.8000791330535789  0.9996493136187907
  0.5998163907186771  0.8002552716704565  0.1993897767264161
  0.5994128913749825  0.8004972967776474  0.3999175516624895
  0.5985815849071772  0.7988449302564589  0.6006588835455018
  0.6010064648326620  0.8010181570332119  0.8003744940479068
  0.7982433609221761  0.0008555937709158  0.9985349457238338
  0.8004847930737440  0.0005768279700261  0.4029371540703833
  0.8001084103492964  0.0023201989669900  0.7957248248902410
  0.8006997337477795  0.1969463239054595  0.0013756880267883
  0.8006280566104279  0.2004496202632553  0.1988995524027145
  0.8007194875288884  0.2032799419905028  0.8028704731704707
  0.7954161679702226  0.4001049631414375  0.9947701683394041
  0.7993970956730265  0.4000535345025093  0.1989237704895172
  0.7997490609506286  0.3989570342703911  0.4021540967648332
  0.7986356612691573  0.4011726642912881  0.6038119557600318
  0.7994133614446949  0.6004077449888984  0.0003613433806455
  0.7997354324206053  0.5982795929681819  0.2003896177666683
  0.8004379296609530  0.5998741695447134  0.4003257485694202
  0.7999204311947878  0.6006568360170694  0.5987106249079073
  0.8017741217522742  0.8017325374787212  0.9993492211622104
  0.7997710977446659  0.8004271349280433  0.2009385307878709
  0.7998607565947028  0.7998644534765630  0.3988852001505180
  0.8004983575375521  0.8012462845127482  0.6003050378432585
  0.7998860515677644  0.8001770916276695  0.7999421485574982
  0.2003844013348778  0.9993713749687461  0.5998992370146570
  0.1997824851867250  0.6007844452265703  0.5996127867977511
  0.2001692225716166  0.8005193470462592  0.7989978561392006
  0.4013358380150482  0.3999536926452221  0.2017798442171488
  0.3993240955780522  0.7997986796212068  0.6001332410136512
  0.3998353920893644  0.8029685664283520  0.7998592553997979
  0.5999421244542671  0.1997580144197560  0.0006731081232842
  0.8014565793955435  0.0003045987679511  0.1999383609404163
  0.8002598352768759  0.1999418182766452  0.3970109933136720
  0.8013946615134868  0.6003568677757366  0.7991686790432273
  0.9984703230972024  0.8007431331252897  0.0007139203988222
  0.4009460072048558  0.3993442296737195  0.6005489698716708
  0.7995193288135402  0.9957851743458235  0.6008590846212055
  0.8003435637419248  0.3964759156905050  0.7995775241076635
