Ti V  Cr W 
 1.0000000000000000
    15.4464656596279237    0.0026393324307650   -0.0051499977500449
     0.0026392792308168   15.4360610524716844    0.0041620633854494
    -0.0051482900175055    0.0041619794273236   15.4439029048304732
 Ti  V   Cr  W  
   3  99  15   7
Direct
  0.9988770507670875  0.9986930332506758  0.2038009268371588
  0.0071810606477225  0.3975761099866390  0.4023075761726946
  0.2039529993615762  0.2089148741650306  0.0028218585333000
  0.9996170611705272  0.0004144979010035  0.4065232830392341
  0.9960276816883814  0.1974573776638740  0.0014417798050885
  0.9986837264335255  0.1986771035337895  0.3981568877520205
  0.9985161011195913  0.1965408290351958  0.5987687208846878
  0.0006789637962410  0.1951297905370812  0.8004657136319087
  0.9996314112826775  0.3999277666671922  0.2008265812490537
  0.0001230023022741  0.3981509712325667  0.6029035247013242
  0.0006150555265507  0.3982138343846185  0.7991700375540598
  0.9998829113059009  0.6011681258753027  0.2012960563111493
  0.9997854644347804  0.6014756923709297  0.4014538093663447
  0.9992841588944459  0.6014373379230148  0.6000663292158679
  0.0006255662861866  0.6013352513505561  0.7995473604699243
  0.9981755684441088  0.8004193105303484  0.9997961877890185
  0.9997737826540769  0.7998024382904911  0.1994351119247337
  0.9999346925308066  0.8000368832915611  0.4000129763941092
  0.9985465403771020  0.8028305055115678  0.5988686299717790
  0.9997052514348208  0.8039926450512709  0.8013053513079613
  0.1997827965287437  0.9993008536083040  0.9992275072429490
  0.2004658771123611  0.0013071925314196  0.1997608341553804
  0.2004864235701443  0.0006267815220907  0.4001392477599811
  0.1986141805786407  0.0001039426037348  0.5993965947435859
  0.1984788658052637  0.0006562723352010  0.8005680635089008
  0.1999044655100994  0.2001135726495837  0.2024146566721900
  0.1994382278700553  0.2005595016387585  0.3988534886562636
  0.2001882328900671  0.2011740965706862  0.5991304555580209
  0.2008034488445377  0.2008786891955271  0.7984120201900959
  0.1998688335412271  0.4010500328552504  0.1959289008248735
  0.2063787163874204  0.4008602302389824  0.3995120046875804
  0.1990769269157723  0.4004803759905525  0.6019107959807964
  0.1998548055768651  0.3996276412825442  0.8045271590502160
  0.1993707702048576  0.5976138121562152  0.0002418686876089
  0.1993044497167528  0.6005799627584842  0.2003509367523477
  0.1993032630039413  0.6007368987596129  0.3996108341597076
  0.1991049434741203  0.5997447551250759  0.6003383514927537
  0.1996736583224974  0.6000352119564624  0.7997765157955430
  0.2015511138769469  0.7988700738028934  0.0006329752540657
  0.2004910403499042  0.7995245408311636  0.1989251679578199
  0.2012734643548143  0.7999878268448586  0.3985418685239396
  0.2010577889692821  0.7992448659082644  0.5989346979692296
  0.2010023582663784  0.7989209632308675  0.8020719251445659
  0.3987344417999894  0.0000674515712231  0.9987096042467054
  0.3984641755341685  0.9997843392456884  0.1999540124804722
  0.3981098523161968  0.0007231521428024  0.6002843015570959
  0.4035350150216690  0.1997535732147494  0.9993528097516778
  0.4029468029785083  0.1988489005639453  0.1998799485357101
  0.3992597628094441  0.2027726385590102  0.4010237116416083
  0.3998238973318787  0.1991337891703254  0.6003753448254650
  0.4002377151183812  0.1998304397759348  0.7997429226079937
  0.3988211902661239  0.4008946433100016  0.9995513177544419
  0.3998210103030942  0.4009396984972845  0.2048457031902055
  0.3993856989393745  0.4005257638926039  0.5971975535668520
  0.4000584874718479  0.6005119827734093  0.1994382407117168
  0.3996211573307770  0.6004874433566086  0.6001215365515058
  0.3992232748696652  0.5995202961040889  0.7989865628145224
  0.4039283924941534  0.7996249872347405  0.0003384831563541
  0.4000321742160272  0.8005903353220964  0.2005185394234526
  0.4004793238772325  0.8010257352439694  0.3991001415623573
  0.4000785135610465  0.8008440144059288  0.5992130318098282
  0.3990748649993838  0.8005110762058131  0.7983219224193585
  0.5992257800957785  0.9963949400896823  0.9996305377807998
  0.6011802203402308  0.0031420063568610  0.1994159801059839
  0.5995661556166675  0.9992292211308308  0.4004031755703847
  0.6009789781871344  0.0014212296374676  0.7992393469361319
  0.6009503541463367  0.1972462818555159  0.0033209954152871
  0.6005517463966783  0.1983215192582749  0.3962307352941756
  0.5996982444511010  0.1997666118708512  0.5998636480372619
  0.5995380156060595  0.1988741542843128  0.8003869784227651
  0.6000500573284971  0.4024333025081316  0.9997114628280561
  0.5987435232445715  0.3967304534799951  0.1993945487261665
  0.5958501576686975  0.4015190189811955  0.3999997944369590
  0.6003859950568348  0.4003603453828989  0.6004814214570968
  0.5979399509673271  0.3994249016073053  0.8003159678626605
  0.5981284642675083  0.6044610878464063  0.0002966799227837
  0.5998539109347798  0.6001730378007130  0.2004972611392925
  0.6004492067099918  0.6019051876530785  0.3992074652433348
  0.6004071773311024  0.6005451327535348  0.5997754087742162
  0.5991186632927855  0.5996863081445660  0.7985057505658001
  0.5990655533408509  0.8012340498500217  0.3999825363327399
  0.5998373847953582  0.8008164075140086  0.6001232086989575
  0.5998263408167552  0.8016179603574439  0.8015015654578935
  0.8002991167880107  0.9981076285963314  0.2025339580082648
  0.7993282772933769  0.0012591974056704  0.3999537500329615
  0.8030725907150323  0.0002096620145099  0.7988809513073096
  0.8010615536355398  0.2058551999965448  0.9988212142530777
  0.7990467696263603  0.2018257854670673  0.4008663393158450
  0.7989719213991056  0.2013829579305387  0.5986816346069963
  0.7988092256706877  0.1995389169733889  0.8001359293619617
  0.8005688408799425  0.4025467361770276  0.1970588396077880
  0.7978836997771658  0.3999692986386906  0.3990004053099908
  0.7999957810282562  0.4004175372002471  0.6009593334741077
  0.8008843198073216  0.3997237954515587  0.8040478051547406
  0.8008649183927725  0.5956987626432247  0.0006547747756358
  0.7997959780395882  0.6004602937516702  0.2015411514004127
  0.8003566715821973  0.5997409995719143  0.5993703974636311
  0.8010240668586460  0.5996870784049810  0.7987420196574317
  0.7958434294088598  0.7957441729525988  0.0007406241238058
  0.8006340623457202  0.8002704075837511  0.1988279214899431
  0.7986781922352890  0.7990207311098142  0.5994395816084026
  0.7999107299993489  0.7996656877234126  0.8005951142382525
  0.9988483507312540  0.0000626341192015  0.9964151019400368
  0.9994246614790452  0.2014251480725048  0.1995311617182329
  0.9998079806261240  0.4007003852908268  0.0001320483983831
  0.9996159880645077  0.6003705613010901  0.9996452102512077
  0.3996005804638235  0.0011708353941846  0.4004130512371801
  0.3990564849727943  0.0001882604327469  0.7993801085759469
  0.4001289596524053  0.4000402174203782  0.7985522272568960
  0.3998326121165611  0.6002219305943743  0.9995485307961289
  0.3999733425052566  0.6009098374472347  0.4001636609408338
  0.5992677281008527  0.0002792105610927  0.5997523519896671
  0.6001980645501940  0.8013466155921137  0.2002215181900270
  0.7991345581595696  0.0000017966463046  0.5992003630095663
  0.8000013946603692  0.1006732245920078  0.0999896700605566
  0.7997525206007976  0.6004458322224598  0.4000450138006000
  0.7989773494430751  0.7999167923727897  0.3997311915591076
  0.0029829254952787  0.9993261068503539  0.6023201569469514
  0.0011792357206299  0.9994911891027966  0.7913069564696238
  0.2021401870439419  0.4017831020972922  0.0013857047927946
  0.3998122799176366  0.3984024174418278  0.4008577326273433
  0.5958994301310349  0.1985446693372611  0.1995281083707819
  0.6005399904188408  0.8015493842446964  0.9962561220331643
  0.7958522607990429  0.4001909556353457  0.0004767699374470
