Zr1 Ta1 Ti3 V111 Cr3 W5
1.0
  -7.5249999999999995    7.5249999999999995    7.5249999999999995
   7.5249999999999995   -7.5249999999999995    7.5249999999999995
   7.5249999999999995    7.5249999999999995   -7.5249999999999995
Zr Ta Ti V Cr W
1 1 3 111 3 5
direct
   0.8006898415783437    0.7941538496769002    0.3966409631130651 Zr
   0.0005217307070895    0.7991331345231975    0.0037155422510803 Ta
   0.6010378071623098    0.1989618642199233    0.9989800166091336 Ti
   0.9983390746556239    0.3994167832628323    0.6002422705550714 Ti
   0.0033305670979157    0.8030480391999099    0.3979507272079045 Ti
   0.8004062546592980    0.0015926452940095    0.0020726764708771 V
   0.6025684428153021    0.9995840032656071    0.9978474252688547 V
   0.7958448813964620    0.1941682906737073    0.0024602453407334 V
   0.8017199601115532    0.0003452280544506    0.2016771907450048 V
   0.4000916943416868    0.9987835642586267    0.0002258258005302 V
   0.8004288020640502    0.4017471619036475    0.9995636448901658 V
   0.5951289032820990    0.9939950352302769    0.1971624717631027 V
   0.8030627229869058    0.2028851045133434    0.2080935652289572 V
   0.7925137338645278    0.9978503568795585    0.3934463214088866 V
   0.1994983776354805    0.9994076800006123    0.0002923174030292 V
   0.3994158395218055    0.1992182877156798    0.9985047882191129 V
   0.5990132471278675    0.4007479281809051    0.9986397279768170 V
   0.7978593786212143    0.5992043661153718    0.9993465388441146 V
   0.4025523303185006    0.9987428035353008    0.2046481847989211 V
   0.6073708916588031    0.2028239790029164    0.2060447268326074 V
   0.7991631313210509    0.3986575085825861    0.1985544086549624 V
   0.5987411336135484    0.0034039374276426    0.4026472422256213 V
   0.7979282938747094    0.2059124295459531    0.4026197494214898 V
   0.7960073158457974    0.9973789499569282    0.5959828089579007 V
   0.9974361611357641    0.9964782327466520    0.0040721062591824 V
   0.2009025234310949    0.2014562922025695    0.0000284565455410 V
   0.4068509956367125    0.4049714548945814    0.0059460204326186 V
   0.6010279188724825    0.6010512975074812    0.9999911956185075 V
   0.1994934160481901    0.0004735171685660    0.1987967182962813 V
   0.6021923389071688    0.3941304316495579    0.2006872815651677 V
   0.8000687806635689    0.5988266435415518    0.2011850919513232 V
   0.3998849672854795    0.9999937746711665    0.4011468764091117 V
   0.5987611985425483    0.2003422167581951    0.3994687085920853 V
   0.7965986261552561    0.4044582009629230    0.4029054175591562 V
   0.6008664678991478    0.0031687132751530    0.6028251617538837 V
   0.7981509917449878    0.2013586484279045    0.5985478314604210 V
   0.9999547401677578    0.2012215093895818    0.0005052425845703 V
   0.3956542475553905    0.5928646086014574    0.9932320921841385 V
   0.5951360132070395    0.7955476381813495    0.9948827719683802 V
   0.9964836076752486    0.0024826119756309    0.1957493176633880 V
   0.2002511562338952    0.2001694005763561    0.2010409881412732 V
   0.4033018053663209    0.4019783008550875    0.1982935509663130 V
   0.6018451423426625    0.6055183859785694    0.2040614084602116 V
   0.7960720730496816    0.7953567998123797    0.1989769016132283 V
   0.1995216814215134    0.0020370021439695    0.4025824649685295 V
   0.4005298929144374    0.2023837369462311    0.4042445941281576 V
   0.6053261292248482    0.4021494287687263    0.4029669689257007 V
   0.8050719240620230    0.5993235401075018    0.4018467703590609 V
   0.3952839884515111    0.9992140938930991    0.6043774003705051 V
   0.5979335800304012    0.2015911678227952    0.5974473787456835 V
   0.7998650974268025    0.3990193976386474    0.5946736312002989 V
   0.5974904165755754    0.9976212288024934    0.7944539183301570 V
   0.8011008608551865    0.1960587277497075    0.7996992081393791 V
   0.0007789380365046    0.3996762463522927    0.0001254318606083 V
   0.1996704924994404    0.5979536390541195    0.9984616507277603 V
   0.0009606650919969    0.2008793290868831    0.1994366636409301 V
   0.1965786735268350    0.3973119502908735    0.1976731128223253 V
   0.4002008590900740    0.5988325099063780    0.2000739134308092 V
   0.6007524089758057    0.8003948864124999    0.2010584131795604 V
   0.0060408968402054    0.0061824839265558    0.4088139597028456 V
   0.2019605680735286    0.2046768659780695    0.3966260766868916 V
   0.3936181861817520    0.3992204675741942    0.3960746037349036 V
   0.6015671759017613    0.6038262177322097    0.4009087669953284 V
   0.2003049028503820    0.9994914445117069    0.6005164392187694 V
   0.3971695941915065    0.2052899690252396    0.5990044922966131 V
   0.5984336336400252    0.3980753380663247    0.5989128886401647 V
   0.7923677597387063    0.5957673371068040    0.5988421750151748 V
   0.5933990855297308    0.1951378223073101    0.7961764855094934 V
   0.8022740670628610    0.4032635240182237    0.7951343700997753 V
   0.0058700315300349    0.5970810730329466    0.0024987967301535 V
   0.1979222505051925    0.7966756808119315    0.9988969109800647 V
   0.9961224630773771    0.3998918849592907    0.1981408468886692 V
   0.2065913580745222    0.6071999309096022    0.2039978042791524 V
   0.3965658287443954    0.7936233715565640    0.1980626857066007 V
   0.9939976845625169    0.1921580509727087    0.3939574086104079 V
   0.2010636082886556    0.3978850396682569    0.3968337658763325 V
   0.4029232074845334    0.6017370113000851    0.4004127827694501 V
   0.6014022634229218    0.8009718905127621    0.4002879019252460 V
   0.0074822594000935    0.0032826958041562    0.6008244286373596 V
   0.1978258981036070    0.1968668159393757    0.5987204085830775 V
   0.3990916138917786    0.4063916870853523    0.5993913443173077 V
   0.5995751545711522    0.6000988667805852    0.5971135740508413 V
   0.7971665433052715    0.7945026745450813    0.5981904213530380 V
   0.1999364633876439    0.0000897614688078    0.7991959415507195 V
   0.3975084313883668    0.1992194863263516    0.8002949781836126 V
   0.6067881068388866    0.4077324177146982    0.8051123629085253 V
   0.8045568963329546    0.6038036315541784    0.7981702688767023 V
   0.9984503007156871    0.6008587843754720    0.2000644633138534 V
   0.1999901347135426    0.7937408675429689    0.1999265577232580 V
   0.9945548868021084    0.3975843148232438    0.3939228737994420 V
   0.1968213362934911    0.5955068582271426    0.3997218074836894 V
   0.4030346283630324    0.7961275607521052    0.4002903579752493 V
   0.0006564538947664    0.1946640986915694    0.5951448570232173 V
   0.1993141153864761    0.4005851133039239    0.5952635044683716 V
   0.5983474653552403    0.8036807595895809    0.6014475668688697 V
   0.2038137249329844    0.2064686631216746    0.8083906254610249 V
   0.3934369444604364    0.3921129669688160    0.7968897008421412 V
   0.8010648563160153    0.7993970840565490    0.7968636300584624 V
   0.9993566850508226    0.7978117861632539    0.2011053988050552 V
   0.0060608002736408    0.6035486563839078    0.4031898593758886 V
   0.1993665658473126    0.7989069795429410    0.3953595678237722 V
   0.2062681921940963    0.6033667162061828    0.6032935545106936 V
   0.4049623069612138    0.8013343442905181    0.5968274480604123 V
   0.9990510652284637    0.1960127838575966    0.7968255002943458 V
   0.1992919672743433    0.3987504467409226    0.7983957445832890 V
   0.4075396917185425    0.6033401790067834    0.8065406717607535 V
   0.6022061048064370    0.8012112397942053    0.8018419433911255 V
   0.0005868822561156    0.6006923310023587    0.5997788519324765 V
   0.2024727267413640    0.8022639138694632    0.5981681495683026 V
   0.0029044873501680    0.4020331393329191    0.8064253772231723 V
   0.1942513806752906    0.6010898007877531    0.7997686323108740 V
   0.4012628957640850    0.8012992760704372    0.8017323027454818 V
   0.9977621819876844    0.7949058203886163    0.5964840442335270 V
   0.0020144455639977    0.6001045878725729    0.8045341338621976 V
   0.1983916684089848    0.7989096804794449    0.8053408626497716 V
   0.0000152929105844    0.8021419950635713    0.7984587052079685 V
   0.4085599467409832    0.2024009577575226    0.2011448411505352 Cr
   0.3994675023913243    0.7948034009843066    0.9980893308177695 Cr
   0.4010973672278114    0.0041169872503500    0.8053683194218887 Cr
   0.7980614839099791    0.7934230579235501    0.9991470240858609 W
   0.2022318938718843    0.4022827396036450    0.9971625757283067 W
   0.3992279671527880    0.5991383063743982    0.6012070146802420 W
   0.9936719982423527    0.9913284605332495    0.7937035378657268 W
   0.6034008472257928    0.5947731097626469    0.7976951057508415 W
