V343
1.0
 -10.5350000000000001  -10.5350000000000001   10.5350000000000001
 -10.5350000000000001   10.5350000000000001  -10.5350000000000001
  10.5350000000000001  -10.5350000000000001  -10.5350000000000001
V
343
direct
   0.0000000000000000    0.0000000000000000    0.0000000000000000 V
   1.0000000000000000    1.0000000000000000    0.1428571428571428 V
   1.0000000000000000    1.0000000000000000    0.2857142857142857 V
   1.0000000000000000    1.0000000000000000    0.4285714285714285 V
   1.0000000000000000    1.0000000000000000    0.5714285714285714 V
   0.0000000000000000    0.0000000000000000    0.7142857142857142 V
   1.0000000000000000    1.0000000000000000    0.8571428571428571 V
   0.0000000000000000    0.1428571428571428    1.0000000000000000 V
   0.0000000000000000    0.1428571428571428    0.1428571428571428 V
   1.0000000000000000    0.1428571428571428    0.2857142857142857 V
   1.0000000000000000    0.1428571428571428    0.4285714285714285 V
   1.0000000000000000    0.1428571428571428    0.5714285714285714 V
   1.0000000000000000    0.1428571428571428    0.7142857142857142 V
   0.0000000000000000    0.1428571428571429    0.8571428571428571 V
   0.0000000000000000    0.2857142857142857    1.0000000000000000 V
   0.0000000000000000    0.2857142857142857    0.1428571428571428 V
   0.0000000000000000    0.2857142857142857    0.2857142857142857 V
   1.0000000000000000    0.2857142857142856    0.4285714285714285 V
   1.0000000000000000    0.2857142857142857    0.5714285714285714 V
   1.0000000000000000    0.2857142857142856    0.7142857142857142 V
   1.0000000000000000    0.2857142857142857    0.8571428571428571 V
   0.0000000000000000    0.4285714285714285    1.0000000000000000 V
   0.0000000000000000    0.4285714285714285    0.1428571428571428 V
   0.0000000000000000    0.4285714285714285    0.2857142857142857 V
   1.0000000000000000    0.4285714285714285    0.4285714285714285 V
   1.0000000000000000    0.4285714285714285    0.5714285714285714 V
   0.0000000000000000    0.4285714285714285    0.7142857142857142 V
   1.0000000000000000    0.4285714285714285    0.8571428571428571 V
   0.0000000000000000    0.5714285714285714    1.0000000000000000 V
   0.0000000000000000    0.5714285714285714    0.1428571428571428 V
   0.0000000000000000    0.5714285714285714    0.2857142857142857 V
   1.0000000000000000    0.5714285714285714    0.4285714285714286 V
   0.0000000000000000    0.5714285714285714    0.5714285714285714 V
   0.0000000000000000    0.5714285714285714    0.7142857142857142 V
   1.0000000000000000    0.5714285714285713    0.8571428571428571 V
   1.0000000000000000    0.7142857142857142    0.0000000000000000 V
   0.0000000000000000    0.7142857142857142    0.1428571428571428 V
   0.0000000000000000    0.7142857142857143    0.2857142857142857 V
   0.0000000000000000    0.7142857142857142    0.4285714285714285 V
   1.0000000000000000    0.7142857142857142    0.5714285714285714 V
   1.0000000000000000    0.7142857142857142    0.7142857142857142 V
   1.0000000000000000    0.7142857142857142    0.8571428571428571 V
   0.0000000000000000    0.8571428571428571    1.0000000000000000 V
   1.0000000000000000    0.8571428571428571    0.1428571428571429 V
   0.0000000000000000    0.8571428571428571    0.2857142857142857 V
   0.0000000000000000    0.8571428571428571    0.4285714285714285 V
   0.0000000000000000    0.8571428571428571    0.5714285714285714 V
   1.0000000000000000    0.8571428571428571    0.7142857142857142 V
   1.0000000000000000    0.8571428571428571    0.8571428571428571 V
   0.1428571428571428    0.0000000000000000    0.0000000000000000 V
   0.1428571428571428    0.0000000000000000    0.1428571428571428 V
   0.1428571428571428    1.0000000000000000    0.2857142857142857 V
   0.1428571428571428    1.0000000000000000    0.4285714285714285 V
   0.1428571428571428    1.0000000000000000    0.5714285714285714 V
   0.1428571428571428    1.0000000000000000    0.7142857142857142 V
   0.1428571428571429    0.0000000000000000    0.8571428571428571 V
   0.1428571428571428    0.1428571428571428    0.0000000000000000 V
   0.1428571428571428    0.1428571428571428    0.1428571428571428 V
   0.1428571428571428    0.1428571428571428    0.2857142857142857 V
   0.1428571428571428    0.1428571428571428    0.4285714285714285 V
   0.1428571428571428    0.1428571428571428    0.5714285714285714 V
   0.1428571428571428    0.1428571428571428    0.7142857142857142 V
   0.1428571428571428    0.1428571428571428    0.8571428571428571 V
   0.1428571428571428    0.2857142857142857    1.0000000000000000 V
   0.1428571428571428    0.2857142857142857    0.1428571428571428 V
   0.1428571428571428    0.2857142857142857    0.2857142857142857 V
   0.1428571428571428    0.2857142857142857    0.4285714285714285 V
   0.1428571428571428    0.2857142857142856    0.5714285714285714 V
   0.1428571428571429    0.2857142857142857    0.7142857142857142 V
   0.1428571428571428    0.2857142857142857    0.8571428571428571 V
   0.1428571428571428    0.4285714285714285    1.0000000000000000 V
   0.1428571428571428    0.4285714285714285    0.1428571428571428 V
   0.1428571428571428    0.4285714285714285    0.2857142857142857 V
   0.1428571428571428    0.4285714285714285    0.4285714285714285 V
   0.1428571428571428    0.4285714285714285    0.5714285714285714 V
   0.1428571428571429    0.4285714285714285    0.7142857142857142 V
   0.1428571428571428    0.4285714285714285    0.8571428571428571 V
   0.1428571428571428    0.5714285714285714    0.0000000000000000 V
   0.1428571428571428    0.5714285714285714    0.1428571428571428 V
   0.1428571428571428    0.5714285714285714    0.2857142857142857 V
   0.1428571428571428    0.5714285714285714    0.4285714285714285 V
   0.1428571428571428    0.5714285714285714    0.5714285714285714 V
   0.1428571428571428    0.5714285714285714    0.7142857142857142 V
   0.1428571428571428    0.5714285714285714    0.8571428571428571 V
   0.1428571428571428    0.7142857142857142    1.0000000000000000 V
   0.1428571428571428    0.7142857142857142    0.1428571428571428 V
   0.1428571428571428    0.7142857142857142    0.2857142857142857 V
   0.1428571428571428    0.7142857142857143    0.4285714285714286 V
   0.1428571428571428    0.7142857142857142    0.5714285714285714 V
   0.1428571428571428    0.7142857142857142    0.7142857142857142 V
   0.1428571428571428    0.7142857142857142    0.8571428571428571 V
   0.1428571428571429    0.8571428571428571    0.0000000000000000 V
   0.1428571428571428    0.8571428571428571    0.1428571428571428 V
   0.1428571428571429    0.8571428571428571    0.2857142857142858 V
   0.1428571428571429    0.8571428571428571    0.4285714285714285 V
   0.1428571428571429    0.8571428571428571    0.5714285714285714 V
   0.1428571428571429    0.8571428571428571    0.7142857142857142 V
   0.1428571428571429    0.8571428571428571    0.8571428571428571 V
   0.2857142857142857    0.0000000000000000    0.0000000000000000 V
   0.2857142857142857    0.0000000000000000    0.1428571428571428 V
   0.2857142857142857    0.0000000000000000    0.2857142857142857 V
   0.2857142857142856    1.0000000000000000    0.4285714285714285 V
   0.2857142857142857    1.0000000000000000    0.5714285714285714 V
   0.2857142857142856    1.0000000000000000    0.7142857142857142 V
   0.2857142857142857    1.0000000000000000    0.8571428571428571 V
   0.2857142857142857    0.1428571428571428    0.0000000000000000 V
   0.2857142857142857    0.1428571428571428    0.1428571428571428 V
   0.2857142857142857    0.1428571428571428    0.2857142857142857 V
   0.2857142857142857    0.1428571428571428    0.4285714285714285 V
   0.2857142857142856    0.1428571428571428    0.5714285714285714 V
   0.2857142857142857    0.1428571428571429    0.7142857142857142 V
   0.2857142857142857    0.1428571428571428    0.8571428571428571 V
   0.2857142857142857    0.2857142857142857    0.0000000000000000 V
   0.2857142857142857    0.2857142857142857    0.1428571428571428 V
   0.2857142857142857    0.2857142857142857    0.2857142857142857 V
   0.2857142857142857    0.2857142857142857    0.4285714285714285 V
   0.2857142857142857    0.2857142857142857    0.5714285714285714 V
   0.2857142857142856    0.2857142857142857    0.7142857142857142 V
   0.2857142857142856    0.2857142857142856    0.8571428571428571 V
   0.2857142857142856    0.4285714285714285    0.0000000000000000 V
   0.2857142857142857    0.4285714285714285    0.1428571428571428 V
   0.2857142857142857    0.4285714285714285    0.2857142857142857 V
   0.2857142857142857    0.4285714285714285    0.4285714285714285 V
   0.2857142857142857    0.4285714285714285    0.5714285714285714 V
   0.2857142857142856    0.4285714285714285    0.7142857142857142 V
   0.2857142857142856    0.4285714285714285    0.8571428571428571 V
   0.2857142857142857    0.5714285714285714    1.0000000000000000 V
   0.2857142857142857    0.5714285714285714    0.1428571428571428 V
   0.2857142857142857    0.5714285714285714    0.2857142857142857 V
   0.2857142857142857    0.5714285714285714    0.4285714285714285 V
   0.2857142857142857    0.5714285714285714    0.5714285714285714 V
   0.2857142857142857    0.5714285714285714    0.7142857142857142 V
   0.2857142857142857    0.5714285714285714    0.8571428571428571 V
   0.2857142857142856    0.7142857142857142    0.0000000000000000 V
   0.2857142857142856    0.7142857142857141    0.1428571428571428 V
   0.2857142857142856    0.7142857142857142    0.2857142857142857 V
   0.2857142857142856    0.7142857142857142    0.4285714285714285 V
   0.2857142857142856    0.7142857142857142    0.5714285714285714 V
   0.2857142857142856    0.7142857142857142    0.7142857142857142 V
   0.2857142857142856    0.7142857142857142    0.8571428571428571 V
   0.2857142857142857    0.8571428571428571    1.0000000000000000 V
   0.2857142857142856    0.8571428571428570    0.1428571428571428 V
   0.2857142857142857    0.8571428571428571    0.2857142857142857 V
   0.2857142857142857    0.8571428571428571    0.4285714285714286 V
   0.2857142857142857    0.8571428571428571    0.5714285714285714 V
   0.2857142857142857    0.8571428571428570    0.7142857142857142 V
   0.2857142857142857    0.8571428571428570    0.8571428571428571 V
   0.4285714285714285    0.0000000000000000    0.0000000000000000 V
   0.4285714285714285    0.0000000000000000    0.1428571428571428 V
   0.4285714285714285    0.0000000000000000    0.2857142857142857 V
   0.4285714285714285    1.0000000000000000    0.4285714285714285 V
   0.4285714285714285    1.0000000000000000    0.5714285714285714 V
   0.4285714285714285    0.0000000000000000    0.7142857142857142 V
   0.4285714285714285    1.0000000000000000    0.8571428571428571 V
   0.4285714285714285    0.1428571428571428    0.0000000000000000 V
   0.4285714285714285    0.1428571428571428    0.1428571428571428 V
   0.4285714285714285    0.1428571428571428    0.2857142857142857 V
   0.4285714285714285    0.1428571428571428    0.4285714285714285 V
   0.4285714285714285    0.1428571428571428    0.5714285714285714 V
   0.4285714285714285    0.1428571428571429    0.7142857142857142 V
   0.4285714285714285    0.1428571428571428    0.8571428571428571 V
   0.4285714285714285    0.2857142857142857    0.0000000000000000 V
   0.4285714285714285    0.2857142857142857    0.1428571428571428 V
   0.4285714285714285    0.2857142857142857    0.2857142857142857 V
   0.4285714285714285    0.2857142857142857    0.4285714285714285 V
   0.4285714285714285    0.2857142857142857    0.5714285714285714 V
   0.4285714285714285    0.2857142857142857    0.7142857142857142 V
   0.4285714285714285    0.2857142857142856    0.8571428571428571 V
   0.4285714285714285    0.4285714285714285    0.0000000000000000 V
   0.4285714285714285    0.4285714285714285    0.1428571428571428 V
   0.4285714285714285    0.4285714285714285    0.2857142857142857 V
   0.4285714285714285    0.4285714285714285    0.4285714285714285 V
   0.4285714285714285    0.4285714285714285    0.5714285714285714 V
   0.4285714285714285    0.4285714285714285    0.7142857142857142 V
   0.4285714285714285    0.4285714285714285    0.8571428571428571 V
   0.4285714285714285    0.5714285714285714    0.0000000000000000 V
   0.4285714285714285    0.5714285714285714    0.1428571428571428 V
   0.4285714285714285    0.5714285714285714    0.2857142857142857 V
   0.4285714285714286    0.5714285714285714    0.4285714285714285 V
   0.4285714285714285    0.5714285714285714    0.5714285714285714 V
   0.4285714285714285    0.5714285714285714    0.7142857142857142 V
   0.4285714285714285    0.5714285714285714    0.8571428571428571 V
   0.4285714285714285    0.7142857142857142    0.0000000000000000 V
   0.4285714285714285    0.7142857142857142    0.1428571428571429 V
   0.4285714285714285    0.7142857142857142    0.2857142857142857 V
   0.4285714285714285    0.7142857142857142    0.4285714285714285 V
   0.4285714285714285    0.7142857142857142    0.5714285714285714 V
   0.4285714285714285    0.7142857142857142    0.7142857142857142 V
   0.4285714285714285    0.7142857142857142    0.8571428571428571 V
   0.4285714285714285    0.8571428571428571    0.0000000000000000 V
   0.4285714285714285    0.8571428571428571    0.1428571428571429 V
   0.4285714285714286    0.8571428571428571    0.2857142857142857 V
   0.4285714285714285    0.8571428571428571    0.4285714285714285 V
   0.4285714285714286    0.8571428571428571    0.5714285714285714 V
   0.4285714285714286    0.8571428571428571    0.7142857142857142 V
   0.4285714285714285    0.8571428571428571    0.8571428571428571 V
   0.5714285714285714    0.0000000000000000    0.0000000000000000 V
   0.5714285714285714    0.0000000000000000    0.1428571428571428 V
   0.5714285714285714    0.0000000000000000    0.2857142857142857 V
   0.5714285714285714    1.0000000000000000    0.4285714285714286 V
   0.5714285714285714    0.0000000000000000    0.5714285714285714 V
   0.5714285714285714    0.0000000000000000    0.7142857142857142 V
   0.5714285714285713    1.0000000000000000    0.8571428571428571 V
   0.5714285714285714    0.1428571428571428    0.0000000000000000 V
   0.5714285714285714    0.1428571428571428    0.1428571428571428 V
   0.5714285714285714    0.1428571428571428    0.2857142857142857 V
   0.5714285714285714    0.1428571428571428    0.4285714285714285 V
   0.5714285714285714    0.1428571428571428    0.5714285714285714 V
   0.5714285714285714    0.1428571428571428    0.7142857142857142 V
   0.5714285714285714    0.1428571428571428    0.8571428571428571 V
   0.5714285714285714    0.2857142857142857    0.0000000000000000 V
   0.5714285714285714    0.2857142857142857    0.1428571428571428 V
   0.5714285714285714    0.2857142857142857    0.2857142857142857 V
   0.5714285714285714    0.2857142857142857    0.4285714285714285 V
   0.5714285714285714    0.2857142857142857    0.5714285714285714 V
   0.5714285714285714    0.2857142857142857    0.7142857142857142 V
   0.5714285714285714    0.2857142857142857    0.8571428571428571 V
   0.5714285714285714    0.4285714285714286    0.0000000000000000 V
   0.5714285714285714    0.4285714285714285    0.1428571428571428 V
   0.5714285714285714    0.4285714285714286    0.2857142857142857 V
   0.5714285714285714    0.4285714285714286    0.4285714285714285 V
   0.5714285714285714    0.4285714285714285    0.5714285714285714 V
   0.5714285714285714    0.4285714285714286    0.7142857142857142 V
   0.5714285714285714    0.4285714285714286    0.8571428571428571 V
   0.5714285714285714    0.5714285714285714    0.0000000000000000 V
   0.5714285714285713    0.5714285714285713    0.1428571428571428 V
   0.5714285714285714    0.5714285714285714    0.2857142857142857 V
   0.5714285714285714    0.5714285714285714    0.4285714285714285 V
   0.5714285714285714    0.5714285714285714    0.5714285714285714 V
   0.5714285714285713    0.5714285714285714    0.7142857142857142 V
   0.5714285714285714    0.5714285714285714    0.8571428571428571 V
   0.5714285714285714    0.7142857142857142    0.0000000000000000 V
   0.5714285714285713    0.7142857142857141    0.1428571428571428 V
   0.5714285714285713    0.7142857142857142    0.2857142857142857 V
   0.5714285714285713    0.7142857142857141    0.4285714285714285 V
   0.5714285714285714    0.7142857142857142    0.5714285714285714 V
   0.5714285714285713    0.7142857142857142    0.7142857142857142 V
   0.5714285714285714    0.7142857142857141    0.8571428571428571 V
   0.5714285714285713    0.8571428571428571    0.0000000000000000 V
   0.5714285714285714    0.8571428571428571    0.1428571428571429 V
   0.5714285714285714    0.8571428571428571    0.2857142857142857 V
   0.5714285714285713    0.8571428571428570    0.4285714285714285 V
   0.5714285714285714    0.8571428571428571    0.5714285714285714 V
   0.5714285714285713    0.8571428571428571    0.7142857142857142 V
   0.5714285714285714    0.8571428571428571    0.8571428571428571 V
   0.7142857142857142    1.0000000000000000    1.0000000000000000 V
   0.7142857142857142    0.0000000000000000    0.1428571428571428 V
   0.7142857142857143    0.0000000000000000    0.2857142857142858 V
   0.7142857142857142    0.0000000000000000    0.4285714285714285 V
   0.7142857142857142    1.0000000000000000    0.5714285714285714 V
   0.7142857142857142    1.0000000000000000    0.7142857142857142 V
   0.7142857142857142    1.0000000000000000    0.8571428571428571 V
   0.7142857142857142    0.1428571428571428    0.0000000000000000 V
   0.7142857142857142    0.1428571428571428    0.1428571428571428 V
   0.7142857142857142    0.1428571428571428    0.2857142857142857 V
   0.7142857142857143    0.1428571428571428    0.4285714285714286 V
   0.7142857142857142    0.1428571428571428    0.5714285714285714 V
   0.7142857142857142    0.1428571428571428    0.7142857142857142 V
   0.7142857142857142    0.1428571428571428    0.8571428571428571 V
   0.7142857142857143    0.2857142857142858    0.0000000000000000 V
   0.7142857142857142    0.2857142857142857    0.1428571428571428 V
   0.7142857142857143    0.2857142857142858    0.2857142857142857 V
   0.7142857142857143    0.2857142857142858    0.4285714285714285 V
   0.7142857142857143    0.2857142857142858    0.5714285714285714 V
   0.7142857142857143    0.2857142857142858    0.7142857142857142 V
   0.7142857142857143    0.2857142857142857    0.8571428571428571 V
   0.7142857142857142    0.4285714285714285    0.0000000000000000 V
   0.7142857142857142    0.4285714285714285    0.1428571428571428 V
   0.7142857142857142    0.4285714285714285    0.2857142857142857 V
   0.7142857142857142    0.4285714285714285    0.4285714285714285 V
   0.7142857142857142    0.4285714285714285    0.5714285714285714 V
   0.7142857142857142    0.4285714285714285    0.7142857142857142 V
   0.7142857142857142    0.4285714285714285    0.8571428571428571 V
   0.7142857142857142    0.5714285714285714    0.0000000000000000 V
   0.7142857142857142    0.5714285714285714    0.1428571428571428 V
   0.7142857142857143    0.5714285714285714    0.2857142857142857 V
   0.7142857142857142    0.5714285714285714    0.4285714285714285 V
   0.7142857142857143    0.5714285714285714    0.5714285714285714 V
   0.7142857142857143    0.5714285714285714    0.7142857142857142 V
   0.7142857142857143    0.5714285714285714    0.8571428571428571 V
   0.7142857142857142    0.7142857142857142    0.0000000000000000 V
   0.7142857142857142    0.7142857142857142    0.1428571428571429 V
   0.7142857142857143    0.7142857142857142    0.2857142857142857 V
   0.7142857142857142    0.7142857142857142    0.4285714285714285 V
   0.7142857142857143    0.7142857142857142    0.5714285714285714 V
   0.7142857142857142    0.7142857142857142    0.7142857142857142 V
   0.7142857142857142    0.7142857142857142    0.8571428571428571 V
   0.7142857142857143    0.8571428571428571    0.0000000000000000 V
   0.7142857142857142    0.8571428571428571    0.1428571428571429 V
   0.7142857142857142    0.8571428571428571    0.2857142857142857 V
   0.7142857142857142    0.8571428571428571    0.4285714285714285 V
   0.7142857142857143    0.8571428571428571    0.5714285714285714 V
   0.7142857142857143    0.8571428571428571    0.7142857142857142 V
   0.7142857142857143    0.8571428571428571    0.8571428571428571 V
   0.8571428571428571    0.0000000000000000    0.0000000000000000 V
   0.8571428571428571    1.0000000000000000    0.1428571428571429 V
   0.8571428571428571    0.0000000000000000    0.2857142857142857 V
   0.8571428571428571    0.0000000000000000    0.4285714285714285 V
   0.8571428571428571    0.0000000000000000    0.5714285714285714 V
   0.8571428571428571    1.0000000000000000    0.7142857142857143 V
   0.8571428571428571    1.0000000000000000    0.8571428571428571 V
   0.8571428571428571    0.1428571428571429    1.0000000000000000 V
   0.8571428571428571    0.1428571428571428    0.1428571428571428 V
   0.8571428571428571    0.1428571428571429    0.2857142857142858 V
   0.8571428571428571    0.1428571428571429    0.4285714285714285 V
   0.8571428571428571    0.1428571428571429    0.5714285714285714 V
   0.8571428571428571    0.1428571428571429    0.7142857142857142 V
   0.8571428571428571    0.1428571428571429    0.8571428571428571 V
   0.8571428571428571    0.2857142857142857    0.0000000000000000 V
   0.8571428571428570    0.2857142857142856    0.1428571428571428 V
   0.8571428571428571    0.2857142857142857    0.2857142857142857 V
   0.8571428571428571    0.2857142857142857    0.4285714285714286 V
   0.8571428571428571    0.2857142857142857    0.5714285714285714 V
   0.8571428571428570    0.2857142857142857    0.7142857142857142 V
   0.8571428571428570    0.2857142857142857    0.8571428571428571 V
   0.8571428571428571    0.4285714285714285    0.0000000000000000 V
   0.8571428571428571    0.4285714285714285    0.1428571428571428 V
   0.8571428571428571    0.4285714285714286    0.2857142857142857 V
   0.8571428571428571    0.4285714285714285    0.4285714285714285 V
   0.8571428571428571    0.4285714285714286    0.5714285714285714 V
   0.8571428571428571    0.4285714285714286    0.7142857142857142 V
   0.8571428571428571    0.4285714285714285    0.8571428571428571 V
   0.8571428571428570    0.5714285714285714    0.0000000000000000 V
   0.8571428571428571    0.5714285714285714    0.1428571428571428 V
   0.8571428571428571    0.5714285714285714    0.2857142857142857 V
   0.8571428571428570    0.5714285714285713    0.4285714285714285 V
   0.8571428571428571    0.5714285714285714    0.5714285714285714 V
   0.8571428571428570    0.5714285714285714    0.7142857142857142 V
   0.8571428571428571    0.5714285714285714    0.8571428571428571 V
   0.8571428571428571    0.7142857142857143    0.0000000000000000 V
   0.8571428571428571    0.7142857142857142    0.1428571428571428 V
   0.8571428571428571    0.7142857142857142    0.2857142857142858 V
   0.8571428571428571    0.7142857142857142    0.4285714285714286 V
   0.8571428571428571    0.7142857142857143    0.5714285714285714 V
   0.8571428571428571    0.7142857142857143    0.7142857142857142 V
   0.8571428571428571    0.7142857142857143    0.8571428571428571 V
   0.8571428571428571    0.8571428571428571    0.0000000000000000 V
   0.8571428571428571    0.8571428571428571    0.1428571428571428 V
   0.8571428571428570    0.8571428571428571    0.2857142857142857 V
   0.8571428571428571    0.8571428571428571    0.4285714285714285 V
   0.8571428571428571    0.8571428571428571    0.5714285714285714 V
   0.8571428571428571    0.8571428571428571    0.7142857142857142 V
   0.8571428571428571    0.8571428571428571    0.8571428571428571 V
