Zr Ti V  Cr W 
 1.0000000000000000
    15.4219977637485020   -0.0153525296692176    0.0018800521315798
    -0.0153399539639544   15.4042384266248558    0.0149563524432868
     0.0018828811446291    0.0149768248118706   15.4308175709018371
 Zr  Ti  V   Cr  W  
   2   1 100  10  11
Direct
  0.6004728832605667  0.9875818006641053  0.7907991104976080
  0.8063936370196717  0.4056369067312067  0.2021127993690507
  0.5970888010167238  0.4034317273798519  0.1969410925768637
  0.0017655186784079  0.0009763684168203  0.0001378074253151
  0.0004279271520697  0.9999940971138426  0.6008220683941180
  0.0011554315726157  0.9999206294067771  0.8002356040782274
  0.0049741380973688  0.2000654795970693  0.0008346649500964
  0.0009135914882439  0.2026778743033952  0.2005591571884290
  0.9969511678694388  0.1993564346227596  0.3998579248974731
  0.0013664894419176  0.1995876819532575  0.6006403150961556
  0.9985298905008378  0.3981065173691035  0.0042165854662708
  0.0008370921585723  0.3996711640574539  0.3980029488438420
  0.0009258951110677  0.3997285550214361  0.5994118593953760
  0.9992728216364288  0.3993961060369777  0.7994072063150922
  0.0018761721253367  0.6004297868208708  0.0014570663487545
  0.0011723220768379  0.5988822610300794  0.2004708127747840
  0.9996864503694721  0.5993230318447564  0.3995474490022461
  0.9986137153336082  0.5987533042811740  0.5991159152270746
  0.9997862231727608  0.5995097950192250  0.8012151996545088
  0.9978784448295058  0.8014228194382178  0.0005115936505771
  0.0027123897638209  0.7994146877429276  0.1993145707690586
  0.9992061395466451  0.7996567284879995  0.3990144140042221
  0.0026500403249138  0.8003337860835347  0.5993580582403116
  0.9989859102881529  0.8003659062007988  0.8014501397409155
  0.1996036736797263  0.0086897563196246  0.0001139459621361
  0.2017220901082087  0.9989721505873500  0.2002799213333901
  0.2009008427706807  0.0015967679860218  0.4004609485884763
  0.2011045904011022  0.9974957912971613  0.6002640425495139
  0.1990536476732809  0.9986215577148378  0.8002955616293781
  0.2001727263751004  0.1996909551161485  0.4010726632575943
  0.2004958921185355  0.1987471680118012  0.5998406890612321
  0.2007123252912460  0.3970665897530604  0.9995108414073258
  0.1996264677844858  0.4007363653579222  0.2028929113632716
  0.2001059575702500  0.3991459673906058  0.4018309808078482
  0.1997714608097584  0.4054482000070761  0.7979687993496437
  0.2043189557962934  0.6020970839554006  0.1963065829823093
  0.1995675099468433  0.5986518390707670  0.4022888116212073
  0.2010123099724689  0.6022573180155051  0.6042838767748436
  0.3652836178801762  0.9665379784836839  0.0003609967296881
  0.1991831530812458  0.8013433079979134  0.2043859257522380
  0.1998106242357818  0.7998100869832169  0.4041735797321559
  0.2004486400954106  0.7960802145825849  0.7940027231536846
  0.3998547852351335  0.9983200029906246  0.2013126380045988
  0.4016186639977898  0.0017673807751835  0.3977654152844255
  0.4036766790494366  0.0011439647462478  0.5990092504589586
  0.3938117766100366  0.0011585983949430  0.7995363061810673
  0.4007245035454042  0.2022834861952700  0.0006495287315793
  0.4024206972425386  0.2014362527786991  0.2018284625886407
  0.4025025128913747  0.2015976322619162  0.3990935195820182
  0.3998278300413516  0.2007901170167205  0.5991204598740475
  0.4011442027606954  0.2011535558427050  0.7987851973817688
  0.4005709996296571  0.3994912947591733  0.9993861641021405
  0.3970304573310333  0.4061154656327781  0.2021910839995187
  0.4006591942504624  0.3996144696052758  0.4003323304216196
  0.4001136214362022  0.3995924814733017  0.5988301371785537
  0.3997345076311978  0.3999723830234791  0.7976304778122130
  0.3967151182067478  0.6005680447415366  0.0025953408493444
  0.4020793703290156  0.8015102439116263  0.9988605480302831
  0.3992008853276339  0.7969487735705444  0.1985102542296322
  0.4020110518349004  0.8005971859528588  0.3997653904800181
  0.3962978480617985  0.7996487620260488  0.5969466828666041
  0.4005838811236554  0.8012782709629295  0.8005560530077583
  0.6014532555297264  0.0056611981843692  0.0010498392645641
  0.5993179961138081  0.9983346293640369  0.1994611131355385
  0.6011494060089217  0.9999137616408861  0.3998624433761739
  0.6005791235747659  0.1989246786792217  0.1946281346016845
  0.6051883185490415  0.2008992748959539  0.3978260003341070
  0.5999171650310666  0.1955333294167554  0.6038351878433357
  0.6010381421770219  0.2024112849354343  0.8037912293356373
  0.5998219787370522  0.3962618193610634  0.9960775274940334
  0.6004713730489286  0.4004036146873131  0.4032148421575157
  0.5993896541502446  0.3996814965461430  0.6005516910363184
  0.5999824118088354  0.4060096936895378  0.7975991608295471
  0.5992119177680049  0.5973307512729622  0.9958646688975624
  0.5946412773036361  0.6047444849767665  0.1973959088037958
  0.6010698455757684  0.6000793459161529  0.4001862545480520
  0.5994863192562466  0.5997178247041297  0.6023208057683328
  0.5998228609359449  0.8036809460038096  0.9945906637328000
  0.6008607201546452  0.8014851452457130  0.1985998956882178
  0.6015940956186863  0.7997977989411796  0.4005557195493155
  0.5983269394747993  0.8019867294527453  0.6015641766854407
  0.8020336211096043  0.0018826519887081  0.0006918329150551
  0.8022227795170651  0.9988777938744148  0.2007961263925710
  0.8013512286006977  0.0035074965728654  0.3993103742179086
  0.7977693430674364  0.9997937750250553  0.5994685156570362
  0.8068562907456381  0.0002527752690784  0.7993116164072421
  0.7955187895071141  0.2000565222558653  0.0006370625177664
  0.8011071678741890  0.1964886581957553  0.2041787185112261
  0.8007283230344509  0.2000179773885654  0.5966489822040907
  0.8006483888353741  0.2003197326156365  0.7992934910637549
  0.8013026368217403  0.3989785793708859  0.9965909060384257
  0.7999774171818481  0.3954834546700505  0.4064974155721765
  0.8005984526275105  0.3987398151892164  0.6016192342468354
  0.7994675064040341  0.6000500169199353  0.0002387536970479
  0.7977432918955926  0.6073180754416059  0.1996447562039637
  0.7986448798927974  0.5987284628576818  0.3999116670955871
  0.8002501349530762  0.5995124801458569  0.5987482341926984
  0.8003322954464843  0.5993048436471947  0.7999471591853397
  0.8003555954490660  0.8009668364847714  0.0001986724868873
  0.8005439533167349  0.8024384349898962  0.2001247090862611
  0.8007564654934856  0.8002741485419915  0.4002764201652850
  0.8029017959980213  0.7992884205926327  0.5982832915380266
  0.7989983483143708  0.7996048906262091  0.7988186683424766
  0.0022016114462846  0.0003806713448837  0.2003580200794837
  0.0008276493954744  0.0000838149618368  0.3996438335584931
  0.0005367563880807  0.2006532226638431  0.8004837598616145
  0.2015224070731722  0.2005406988831056  0.2015623244794537
  0.2001525244087305  0.2021534829052433  0.7994718624726450
  0.2004527527727295  0.4000443024912619  0.5997390163542207
  0.4004426246520345  0.5999499234297685  0.3993235866833164
  0.4005410725356325  0.6001095589517594  0.5994319293059317
  0.3991939486026819  0.6002626560319160  0.7999167368987965
  0.8013903128492460  0.3998161703293481  0.7988428027859960
  0.0072887906311480  0.4026357239214088  0.2015652855307843
  0.2035177621592539  0.2018768440389898  0.0009366261459005
  0.1999846584773957  0.5919687942429532  0.9970073571676943
  0.1955347152819306  0.6022410954321821  0.8042768120733774
  0.2007043832168454  0.8005905159152441  0.6003998315844925
  0.3989043112290455  0.6020375274669203  0.1969516528508204
  0.5998742394123311  0.9985451301722892  0.5926741477649535
  0.5990396552334999  0.2000480124436309  0.9977556513872242
  0.6026816070270945  0.6027370766648020  0.7999608265421938
  0.6005752345022061  0.7880894510079575  0.7980824326883039
  0.8000865181107762  0.1998230267419609  0.3999335917924736
