Ti V  Cr W 
 1.0000000000000000
    15.3720038313806135    0.0023998420144863    0.0001449001601191
     0.0024007571799185   15.3633006247875361   -0.0006442210894229
     0.0001450310074229   -0.0006449824026597   15.3697544548857330
 Ti  V   Cr  W  
  15 105   1   3
Direct
  0.0031503374308961  0.3934438299960424  0.6014809746793258
  0.9913758891968361  0.7997028196027263  0.2037330260840238
  0.0084423152503125  0.7978553153225304  0.6019988548984635
  0.2019564224348790  0.2024969337401125  0.4003739556613707
  0.1955481164473827  0.2049488191795096  0.6106185093843689
  0.1976530321985461  0.3974432596246121  0.2020001107246411
  0.2028159357241244  0.7986161660076254  0.2008028988214448
  0.3987886550664093  0.9997426667582507  0.8015614096720395
  0.4024191044551906  0.6021549597212844  0.8005705105044555
  0.5992357401951119  0.9952189062596607  0.0001134561289341
  0.7920836039894845  0.1978188481038996  0.7956493790059787
  0.7995964262493021  0.4039301352008561  0.1927873238929634
  0.8015349040052918  0.5934623127752560  0.0030484480955124
  0.8063967013391092  0.7978478971975411  0.3917238995129600
  0.7976362819584624  0.7964366404857799  0.6043319356973893
  0.9991783299491064  0.0010105659472941  0.0007060889694119
  0.9988776013237320  0.0012990395151062  0.2012978017864694
  0.9979994647552265  0.9998851080632392  0.4002234433725362
  0.9986698402429979  0.9997976884104931  0.5985131160250354
  0.9996097493894452  0.0001149828353075  0.7988687031401517
  0.0001423955236623  0.1995437688837705  0.9987352572093566
  0.9992676879438157  0.1996366835158036  0.2012973923913904
  0.9981752409077588  0.1963096989179250  0.5979465331250881
  0.0084032352439210  0.1990824458342251  0.7992345656536263
  0.9963991148594183  0.3990017020076327  0.0000484104138834
  0.0003874730219071  0.3991018498235362  0.2003348447062823
  0.9999893920131661  0.3982403647405641  0.3970068011322131
  0.0005548609197830  0.3984706370876861  0.8016432245891779
  0.0025532368375534  0.6000478777050645  0.0016604214563762
  0.9994852789468929  0.5974535483029397  0.2012872093434432
  0.9997623858033297  0.5989258424353692  0.4004022319505581
  0.0002340018063910  0.5985711809955108  0.5985932096682612
  0.9988756267690718  0.6006837128781372  0.7991520373155904
  0.9996214726103594  0.7992654769153147  0.9997419271969963
  0.0030411723426509  0.7995353923374997  0.4010874965703072
  0.9989359466515735  0.8002386081645468  0.8026193661014263
  0.1980135522792783  0.9997428052952690  0.9989325749239061
  0.1978022220480250  0.0006793892565221  0.2015231418839643
  0.1992521513320619  0.9990695901458493  0.4012766075216563
  0.1990366667409087  0.9995541235779902  0.6001351119810741
  0.1976229777058954  0.9985500855943724  0.7999389490781926
  0.1997995230520273  0.1977054074938662  0.2000839384377032
  0.2003868617355769  0.2001075761652793  0.9349124545603194
  0.1989385597498538  0.3995476538672288  0.9967087590126470
  0.1992167744723163  0.4027365265029034  0.4053710845652918
  0.2030719137476527  0.4035539982128892  0.6021719985295189
  0.2000628886521691  0.4030474074071623  0.8002042007821917
  0.1991277567444009  0.5993744159296757  0.0007843739654345
  0.1990343690085350  0.5999969177684013  0.2016484842944747
  0.1984650231311891  0.6009889236494564  0.4004934179071408
  0.1998398170395075  0.6019091575959481  0.6004905696952838
  0.1971746580834272  0.6004153730487303  0.7997488910861709
  0.1992258837630153  0.7995561034699441  0.9988631156703810
  0.2004786708441967  0.8003919282790009  0.4036015903578625
  0.2046139133304080  0.8000799004762408  0.6019774150871129
  0.2001435034714979  0.7996481670176263  0.8005725721770617
  0.3960377002892745  0.0004081659572987  0.0034933391811484
  0.3983632810215216  0.0002913458201614  0.2007370630329257
  0.4025962191395194  0.9998522780285862  0.3995037094754000
  0.3987941804992354  0.0004185097548519  0.5971436561200678
  0.4000158789281854  0.1998948786751593  0.9987708736413040
  0.3994600347526958  0.2004270747776051  0.1979477911728747
  0.4019042665328205  0.2008712119156161  0.4003601471673141
  0.3991381046155459  0.2007225586597886  0.6006428657755254
  0.4041251853554119  0.2017024303638631  0.8002807525626775
  0.3991051098938898  0.4004019380040368  0.0004584891037223
  0.4017696267832092  0.3997818285984435  0.1999403496743020
  0.4004274506511199  0.4002944274218261  0.3994357676253419
  0.4012398061241015  0.4015942127540648  0.5995223066738955
  0.3997586642346646  0.3985954249053712  0.8005112111095077
  0.3991871910422016  0.5989273799965111  0.0032532242604153
  0.3995723499264150  0.5998835055163663  0.2009885705315033
  0.3994980065196169  0.6003360109022776  0.3991506580621196
  0.4007123909243687  0.6003721528324872  0.5968971213643071
  0.3993010034210178  0.7993924730058326  0.0001378284570035
  0.4012067956326371  0.7997841059128135  0.1992837513323078
  0.3994669194400938  0.7996888170663331  0.3989651113408736
  0.4004914264573822  0.7995477710272018  0.6010634968413286
  0.4012934825484806  0.8008653280254457  0.8008017260554144
  0.5996100265213602  0.9993811578962689  0.2050933767667148
  0.6003688521345626  0.0000131442790538  0.5947021803170296
  0.6037083542957590  0.0040753882032592  0.7948733052015946
  0.5998427347574311  0.2013045919190573  0.9953846611863407
  0.5993685516160995  0.1996215333045437  0.1980493398447921
  0.6005165476006572  0.1971326900835901  0.4007130885496830
  0.6008990777925037  0.2005044984024748  0.6029925416900812
  0.6041524905144945  0.4010437278398821  0.9994577796083792
  0.5977610396049561  0.4007403999511058  0.1999417607011924
  0.6010662170709956  0.3987392336125359  0.4000662070227899
  0.6005405848761836  0.4007986178664318  0.5997385287545207
  0.6009605226972766  0.3975136272697024  0.7991706389776970
  0.5970144863305394  0.6000677251582895  0.9995792838553947
  0.6002280832308187  0.6013656212862467  0.2016275079219158
  0.6016395965156444  0.6018131835361911  0.4000610331896701
  0.6007290266699964  0.6006067748280626  0.5988958368487810
  0.6032755256238935  0.6007449199222435  0.7988804044620227
  0.5995004266399838  0.7974847940151673  0.9983474513216176
  0.5987490874454147  0.8003312060073041  0.1977804840611199
  0.5988429149774850  0.8043373022431169  0.3998246775302219
  0.5987187476582111  0.8005258856308927  0.6001327266284294
  0.6004477350559272  0.8028130448219993  0.7998094782952225
  0.8021971535299588  0.9994767787801232  0.9997928804602808
  0.7993171160451765  0.0001550674477402  0.1988921685683419
  0.7963082033684461  0.0015207796322347  0.3988490657560459
  0.8014148478816550  0.9997966311256586  0.5978568865007240
  0.8012201059884462  0.9977083379538935  0.7987956089476118
  0.8005205793041402  0.2023186561963317  0.0008203678931164
  0.7988230147675172  0.1987283147067830  0.1981728107896598
  0.7996206745270691  0.2016637226717831  0.3974775293692962
  0.8011150777739443  0.2014471081913065  0.5968421119947547
  0.8003464377934557  0.4000617151561963  0.4001758820789514
  0.7998547166237164  0.3998196863383012  0.6000316833211142
  0.8011497822331813  0.4030524974642237  0.8011988553916909
  0.7991514098016300  0.6037893475548550  0.2031474416831820
  0.8013965915519163  0.5970355299813399  0.4001861241775767
  0.8013673339703881  0.5974052290104247  0.5992308973817054
  0.8009322430409364  0.6009030249496679  0.7975849593134816
  0.7989142662737793  0.7998933253316326  0.9987380335500259
  0.7953444909207591  0.7999188982930365  0.1939253800403288
  0.7998784406476322  0.7992142148967984  0.8027443839463017
  0.9967828644532816  0.1995739517403872  0.3997758261875816
  0.6000847396513284  0.0009689146529974  0.3996179984328020
  0.5977003827272435  0.2002859102066447  0.7981399352026651
  0.8004878936716873  0.3983738262246446  0.9957304017232363
