Zr Ti V  Cr W 
 1.0000000000000000
    15.3161674756862691   -0.0038639056753981   -0.0081742366427040
    -0.0038625530149281   15.3180417040563182   -0.0084288121243241
    -0.0081714294601317   -0.0084252347079361   15.3251398317997438
 Zr  Ti  V   Cr  W  
   1   2 101   1  19
Direct
  0.0005713094992921  0.4059011531030575  0.6038374570802316
  0.4071987428122301  0.9896668476598962  0.3983417201500387
  0.3968807587923356  0.7975082463786645  0.6162710214804019
  0.0029036928152388  0.0022182773615756  0.9991532451590083
  0.9983421916342452  0.0005595249596664  0.1989289387264060
  0.9973195975733359  0.0059283697518392  0.3991502059427449
  0.0025835053450625  0.9979278670034863  0.5989295990623249
  0.9979276551024315  0.0014865328370219  0.8014582280514968
  0.9979214994216491  0.2032977154950609  0.9991828187668432
  0.0039778822868437  0.2027006323325644  0.2041480520948893
  0.9978946691536856  0.1978033975696981  0.5954986317306346
  0.9983283268190130  0.2029955165491460  0.7971793312698970
  0.9976237389570741  0.4026228049300886  0.1951317555710939
  0.9980733236517076  0.3975010556561948  0.3958776607767283
  0.9990859026286318  0.4048609293585447  0.8081825872413834
  0.0012080121602529  0.5979388721117901  0.9958026230893349
  0.0050417546770642  0.6007459217159963  0.2010198087352554
  0.0009451004197933  0.5989885723881240  0.4018610581293168
  0.0053552835386014  0.6097393111070386  0.6016763521364389
  0.9646257486390779  0.8346372768561477  0.9988951103570550
  0.0000481915300872  0.8002050820715785  0.2005910820513927
  0.9974546439167710  0.8011785442510683  0.4039901688976074
  0.9956142030357783  0.7953184779955430  0.7970526195907469
  0.1985221019922992  0.0007815163367311  0.9999925862727840
  0.2012275341509320  0.0051189453058027  0.2030176146235460
  0.2001647053074662  0.9998129127695397  0.4028219543840658
  0.1989634214679481  0.0021284646208812  0.7965672416095775
  0.2001372754271263  0.1998469147286449  0.0037284849369934
  0.1979886016323358  0.2002879306928774  0.3965013758913523
  0.2024246832745585  0.1965349356531671  0.5992483405894194
  0.2009776899941788  0.2006019008669820  0.7997212767044513
  0.1966693139913573  0.3999033496808141  0.0010607479261164
  0.2023265125033398  0.4007876658627608  0.1992291175747067
  0.1986484646560281  0.3999863122956272  0.3995625565130105
  0.2059988930568842  0.3975275439815154  0.5998202333971955
  0.2007361465602075  0.3997006998739054  0.8014641785520095
  0.2011837902674722  0.6012404682407987  0.0061077177224138
  0.2041992269391712  0.5999593518541345  0.3973282976728683
  0.2073803798061233  0.6038857765462160  0.5972734820800913
  0.1972043216201725  0.6004670283176391  0.7990381086475628
  0.2016737334355725  0.8023131037640664  0.0007949363518842
  0.1991994726858486  0.7978622847753120  0.1990192454312654
  0.1987925676399623  0.8023872060420997  0.3991139473927886
  0.1941666577742813  0.8060200304360865  0.6007700999936583
  0.2021076970959279  0.8010716379498740  0.8020203222928317
  0.3994247165606671  0.9964181202632334  0.9997036869445465
  0.3998211640811311  0.9987004248932398  0.1974981067108573
  0.3944807868413103  0.9999325901557817  0.6025371495268319
  0.3999543865721966  0.9952038956260668  0.7993833551014833
  0.3993106187993969  0.1987216305041979  0.9986301963114683
  0.3970227453012723  0.2016241286269973  0.1998383962377428
  0.3983504757876273  0.2038082068457142  0.4012224567807443
  0.4019002724220405  0.2010185522162592  0.5998196256967940
  0.4033581503563476  0.2001620047547261  0.8011235210272462
  0.3989614361513707  0.4027842324536913  0.9982836849033725
  0.4040349636233485  0.4019035552203697  0.1985010084747143
  0.3997491987511717  0.4035357841823661  0.4009344705056267
  0.4006419811903582  0.4023935820854082  0.6021221273160362
  0.3993206967057243  0.4021165252021764  0.8027225965741731
  0.3998512769969673  0.6036273667146198  0.9989165457953199
  0.4003503207080325  0.6007669157719115  0.2059228583063524
  0.3996873918825616  0.6024855565041762  0.7978261504670137
  0.3999373014701257  0.7995754410428841  0.1939122058270102
  0.3991166913874344  0.7945263335920094  0.3987684366189210
  0.5964044288755985  0.0011974971362665  0.0025442415550242
  0.5989933195953590  0.0030135296525027  0.2043088095750483
  0.5952649650113284  0.0051017486281351  0.5932074009558108
  0.5997072466168315  0.0034152891069994  0.7996288811036691
  0.6005217598893261  0.1984130650466315  0.9977624803340636
  0.5980698020288321  0.2041877706008607  0.2020814275667460
  0.5982319537111157  0.1972978143973846  0.4038383880679722
  0.6007735916974768  0.3994192896954017  0.0033991374016882
  0.6024873012897458  0.3960130068079724  0.3960821786165911
  0.5989622853546833  0.3981829354732125  0.5982986211884431
  0.6009191816078056  0.3965199250143661  0.8033787957235655
  0.5987189986229120  0.5983036560898680  0.0054470238303739
  0.5952684628990973  0.5986417793366928  0.4004959636707641
  0.6010386022999726  0.5954860454564709  0.7942390504200584
  0.5995098457287221  0.8010843054381219  0.0004821731687030
  0.5992528246339727  0.7943856415888400  0.1992390548179341
  0.6002474086451138  0.8026559957569752  0.4006049233499691
  0.6023443884501721  0.7953099741505979  0.6011443710320681
  0.6007183723306582  0.8008450439174303  0.7994212413643550
  0.7988414612319750  0.0003333981920398  0.2006066527646828
  0.7973186017790673  0.9981819466770508  0.3985551218320327
  0.7992052479314470  0.9996623231080577  0.5985797024543840
  0.7987381004280091  0.9968403274220810  0.7952002821187134
  0.8002183041734602  0.1996756763480255  0.9991912237102896
  0.7987425252207099  0.1988822879065304  0.1970834428412594
  0.7958079008913662  0.2001012958094634  0.6002829410903843
  0.7963572509551484  0.1974420201913203  0.8003874464227998
  0.8032715639214406  0.4003643419446197  0.0001639744366366
  0.7971521708064536  0.4016835494447078  0.1984808827206635
  0.8015580863984899  0.4014689778308226  0.3982688886870000
  0.7950585431686986  0.4019561334567880  0.5997247962751446
  0.7997985760561649  0.4019678393695257  0.8016652487224440
  0.7989805648862044  0.6049658927876422  0.0006578322533891
  0.7949289671502345  0.6019520987289306  0.2020569295789339
  0.7999783243329833  0.6019689245670099  0.4007618938013280
  0.7920023738100905  0.6016649535967274  0.5983224008132140
  0.8020509334213350  0.6042367250023637  0.7987315389932307
  0.7993848959484993  0.8006777189291080  0.1954124174650485
  0.8011292822412481  0.8004113693024336  0.3996264760655182
  0.8013896637279236  0.8016888956437108  0.6048465315313020
  0.8003738614721337  0.2000322055787092  0.3992998755602636
  0.0016534715735830  0.2024193908018698  0.4001715402458038
  0.9986835699640335  0.4016282679861206  0.0004651757205567
  0.0007818841203606  0.5993844728572196  0.7968382685065714
  0.9984915648778634  0.8032131147146625  0.6015205242553892
  0.1990175893017333  0.0017219053063971  0.5987575691393680
  0.2010652179408714  0.2022584511708287  0.2003944218630142
  0.2028651753636680  0.5991549917100268  0.2030285077404724
  0.3991428741899299  0.6006370219663455  0.4044135188341424
  0.4047715286269310  0.5975118646705713  0.5988878275224783
  0.3999500315094355  0.8001112261201344  0.9954601731929070
  0.4017286750053010  0.7983098125725551  0.8081827419115801
  0.6027549388565105  0.9999329279312821  0.4000500987808572
  0.5981841245487034  0.2020747416312849  0.6030185373161595
  0.5997662582235808  0.1998035272498346  0.7973026890731064
  0.6009399514760972  0.4007280788768365  0.2003213888103769
  0.5974084408152988  0.5958342229079725  0.2045054089738217
  0.5952775943721507  0.5968924100834732  0.5963411711186613
  0.7979658475072924  0.7983822828987049  0.9962515671510633
  0.7984868285784467  0.8020186987620146  0.8039748091542385
