Zr Ti V  Cr W 
 1.0000000000000000
    15.5025012111675391   -0.0012340279220979    0.0009674179831964
    -0.0012333392680093   15.5032162688686519   -0.0125459656457846
     0.0009693510165960   -0.0125545265931211   15.4792246816365271
 Zr  Ti  V   Cr  W  
   7   3 108   1   5
Direct
  0.2016348808942290  0.9946574531304844  0.1982953059749781
  0.1830041578661937  0.4013470232616020  0.8029543778625476
  0.1817903011936855  0.8115362120943004  0.4153892774776611
  0.4071389321112290  0.3998211335912911  0.8010419494267748
  0.6029914300551406  0.1841855282302306  0.9982120393934216
  0.5858598266731632  0.8048401608164437  0.3972552928255221
  0.7978130101151970  0.2011357351969988  0.5999021359616905
  0.0107591564089966  0.8034172867245267  0.5946064393036951
  0.1926966197235399  0.9828387161537433  0.5967381331708439
  0.4146772510944500  0.7903034662933717  0.2153186273971597
  0.9993567135118857  0.9996288524829674  0.9986850717066283
  0.9960284338819135  0.0010977043061623  0.1982552498639149
  0.9988530623619093  0.0020960088374438  0.3967934897251068
  0.9973762718119382  0.0025278536729800  0.5993084536751070
  0.0001780318674132  0.0004506986640676  0.7985079557826318
  0.0022454036947240  0.1988370094543455  0.9986585911132793
  0.0008434560926136  0.2017118409611921  0.1989867102034358
  0.0006053580257669  0.2000406113160351  0.3996200257407340
  0.0028610758144700  0.1996733388614229  0.7988292514808871
  0.0003283212892511  0.4000916997613784  0.9996660684070576
  0.9993131057081128  0.4011086580322090  0.1993572654259521
  0.9980641887685247  0.4001788118425777  0.3990166464623728
  0.9994192916614317  0.4015066453886478  0.5990598051467447
  0.9902146214152520  0.3993371472921179  0.7995260246894378
  0.0014091987503774  0.6011907419277130  0.9998971369367319
  0.0001142682683733  0.5993192586234176  0.1992107431653878
  0.9983777345536865  0.6021677167812168  0.3998980475649256
  0.0000817926872598  0.5996590450783941  0.5998293332884338
  0.9999978274271953  0.6020529657801398  0.7986619599427078
  0.9994238150836914  0.8010301995747651  0.9990571322885384
  0.9993776461322352  0.7993374406567048  0.1979956554290336
  0.9852546436321844  0.8019622377905364  0.3938889118547391
  0.0015098890422340  0.8017397488793304  0.8022791018355925
  0.2021820278721393  0.9988929677307703  0.9964175141396608
  0.2065833717365509  0.0118874544430287  0.4017553328402210
  0.1999280871056220  0.9975302578379336  0.8017359348092222
  0.2007091704868722  0.1983076888215736  0.9998046154938752
  0.1987881205665161  0.2032906572490212  0.1988723608170685
  0.1994579678330865  0.2053679011384532  0.4007344735025739
  0.2010249550564858  0.2012969356054639  0.6007562842687545
  0.2009489859355471  0.1946999497700936  0.7991101588916362
  0.2002289118688912  0.4004594591121288  0.0056666127126754
  0.2032234860507148  0.4007723607715282  0.2023014753952106
  0.1948969390474824  0.4031086264877988  0.3995957168660286
  0.2021738640624564  0.4000359644589745  0.5959001476178755
  0.2008935551290938  0.6007918193789107  0.0010063698597553
  0.2003473995338695  0.5998853032878444  0.2020026602066642
  0.1984934012551244  0.6010117974461742  0.4011695971348139
  0.2020238928105141  0.5983004588680115  0.6011214785330286
  0.1994399297226237  0.6052003264875930  0.8018420049898433
  0.2038768898319711  0.7995973550223452  0.0041064753097410
  0.1974475262127336  0.7935385160150547  0.2017166640754950
  0.2104370902397935  0.7899339296923551  0.6158585462901937
  0.2012277096479550  0.8007568825958121  0.8071302349682417
  0.4031491638543199  0.9981020360740906  0.0041122430302503
  0.4055345367634313  0.0018938688201593  0.2081942411904207
  0.4034715888658784  0.9999807689638429  0.5964502254475562
  0.3995851861554973  0.9998251937631012  0.7971311745973236
  0.3972990340497944  0.1985285665827786  0.0000264095517394
  0.4003325965756053  0.2043063354381509  0.2017212067141944
  0.3994032091181908  0.1940643293608444  0.4014158991268900
  0.3983480028557509  0.1992809901900363  0.5999464108815484
  0.3997154808167963  0.1940424121001124  0.7996276231704376
  0.4022711939774238  0.3989151397177892  0.0090435968336951
  0.4015932266872657  0.4007014963369282  0.5922394544773842
  0.3992950786523996  0.6013361909958510  0.0011382858643416
  0.4002685003989697  0.5940124574380957  0.2025127764651235
  0.3965409326047232  0.5746714939204158  0.3999826044312060
  0.4003695404686288  0.5989355143454251  0.5991129495400819
  0.3996953652475899  0.6044454060288084  0.7999732557117799
  0.4042997398520632  0.7994083887162328  0.0004209629269668
  0.3899461990168580  0.8108530035999195  0.4093083835150685
  0.4071998903287014  0.7988948183677483  0.6051746417864714
  0.4005971972676080  0.8028248907335698  0.8025722472755147
  0.6024716245428505  0.0026875584252997  0.1934948966332439
  0.5975988798695511  0.0079764785756032  0.3989675766554410
  0.6009294945506493  0.9947829514612621  0.5999671315258579
  0.6016882949121666  0.0006978313657542  0.8017992828125038
  0.6016073510819892  0.2026889126985248  0.2021421199907454
  0.5984743181636929  0.2030764601603115  0.3994156847649517
  0.5958830198870384  0.1991397723614395  0.5992753409223279
  0.6008755777583951  0.1997039843868725  0.7947505380696607
  0.6010659578474505  0.4004453692415456  0.9980145484778513
  0.5982365061006836  0.4008948450346334  0.1990518914498132
  0.6021033367328632  0.4012882223980446  0.3994693973651705
  0.5986532279443316  0.4025041137785773  0.5987612932255535
  0.6074571703750767  0.4006051502074465  0.7993901784664085
  0.6001826142951363  0.6046505435354279  0.9979394050812643
  0.6000850841230069  0.6005221817528268  0.1980135319396999
  0.5992727227095961  0.5956841787426370  0.3996754562244459
  0.5989022201430509  0.6049779524778282  0.5988882915005388
  0.6010077533749214  0.6004325936583907  0.7993187034647669
  0.6075148593093037  0.7984467800064660  0.1890737237132181
  0.6014637035844580  0.8003992548528328  0.7988334386974431
  0.7979682875487948  0.9996442325819176  0.9982502769855951
  0.8002865907184850  0.0008886539436131  0.1989336478706268
  0.7974312674298608  0.0011144996869433  0.3974342516986858
  0.8002776262057627  0.9952701313267490  0.5978637406505346
  0.8028774509229398  0.0009524152339987  0.7975983459366108
  0.8066577613171040  0.2010528849299654  0.9995667425760908
  0.8010554159404114  0.2017846150870558  0.1987527982576384
  0.8007876485658770  0.1997903286285205  0.3952379571239615
  0.8023179614498454  0.1997053686171515  0.8031953782524321
  0.7995606952024434  0.4007354895370251  0.0002165956651756
  0.7993404443867009  0.4013814444072049  0.1981947892351005
  0.7998162568532284  0.4009987214938655  0.3984126626079308
  0.7987062344244349  0.4060199215463930  0.5982328443890176
  0.8002150366875667  0.4009267415235340  0.7996641788925107
  0.8012578724235059  0.6002748763340083  0.9983271347467566
  0.8003932173630951  0.5994926004289732  0.1993249662318768
  0.7991790869130538  0.6020547573493293  0.3982913670898824
  0.8010254421091898  0.6021316649755076  0.5987497278697141
  0.8022953817128748  0.6007108293437993  0.7987246618356282
  0.7989847181457718  0.7994854625038846  0.9974388415289374
  0.8013063150065153  0.7998171907698516  0.1971066757726145
  0.7950724217636731  0.8014759326939085  0.3975879013114829
  0.7946406653633259  0.7997115851286721  0.5979737066834584
  0.8033925609055541  0.8000958614607918  0.7976103087815815
  0.0038512823395561  0.2002597190898893  0.5991476680079664
  0.4012964414742050  0.0035179289724308  0.4013289029005032
  0.4011623059405595  0.4012411411269520  0.2009163765752269
  0.6006635932743072  0.9861272110420864  0.9973183477934103
  0.6014882634037156  0.8010448983360133  0.9941569944500819
  0.6012874560516801  0.7990773974530515  0.6051216321056521
