Zr Ti V  W 
 1.0000000000000000
    15.3704372863088707    0.0041087699184726    0.0045828320708022
     0.0041071823098185   15.3593176205705255    0.0049868964281650
     0.0045832368054306    0.0049883200619353   15.3853693029952101
 Zr  Ti  V   W  
   1   2 107  14
Direct
  0.7917406402186120  0.4017267333593342  0.8100614538952909
  0.4090912740185703  0.7976981244598850  0.8044248560615925
  0.6130912964136466  0.4011646260834868  0.9887055672347701
  0.0004527254593069  0.9980326382874232  0.0007189452319276
  0.0624154748905637  0.0000390948304012  0.1993833697080800
  0.0008442850838286  0.9970216858631166  0.4001132668014485
  0.9945415237687357  0.0000745818740129  0.6020171726886023
  0.0027395077084054  0.9984932403438112  0.8011194661991693
  0.9998159138799571  0.1989045224516716  0.0013015420403542
  0.0010282698217054  0.2030335281757781  0.2020442084792343
  0.0003914662574960  0.1993946426033714  0.4001084471996498
  0.0026536779753226  0.2009199916159176  0.5991785592243885
  0.9993249259258136  0.2011741763517162  0.8014864769536947
  0.0039923635829930  0.3996157795153953  0.0058578573536865
  0.9986265274194592  0.4014534438724464  0.3970963989378574
  0.9975736576119264  0.4001685417644282  0.6000116061203823
  0.9995384461523866  0.4011025946947417  0.8029115880814335
  0.9984453293893611  0.6053803450344286  0.0002019819790914
  0.0030636866032530  0.5962179993855854  0.2005582635458897
  0.9996949993384231  0.6031425763205948  0.4022369255867335
  0.9994413842609230  0.5997028824543064  0.6014910827975096
  0.0026267171137835  0.6008766012747311  0.8002599016035633
  0.0036630322792867  0.7974221740608501  0.2011126663358361
  0.9990368122365308  0.7995503362606753  0.5945213380379869
  0.9994788150744460  0.7992215406792300  0.8064162725237028
  0.1999506699142101  0.0013581888651781  0.9937499569617694
  0.1979080000900518  0.9991424704791753  0.4047420546709849
  0.1984862021882358  0.0028267913276050  0.6058866330429779
  0.2002050271235461  0.2025996119703833  0.9998983610848493
  0.1998387732836213  0.1995838361751219  0.2005637338093917
  0.2024512676941640  0.1985780420920233  0.4031790837432448
  0.2008473181746143  0.1960410130365861  0.7957699315803705
  0.1964655032373730  0.4047665781145188  0.1953358312044706
  0.1994250898471217  0.4012876264836470  0.3997885567811371
  0.1978462419224387  0.3964629482097085  0.6011775931242529
  0.1978487098084516  0.4044080682817567  0.8046310339857384
  0.2006913821611737  0.5964371952000375  0.9957814303701457
  0.2010889746909395  0.5992275600521695  0.4004002096530072
  0.1996452357398759  0.5988465657616305  0.6048693103373817
  0.1963278357764206  0.8000681321506005  0.0020504442167204
  0.1965490788073875  0.8006000918238220  0.3991152605383382
  0.1995137543747491  0.8002722033479087  0.6001401554684457
  0.1985405818271737  0.7989583647552198  0.8000556557831912
  0.3994897127082899  0.0007622250085064  0.0004905938225590
  0.4031593224371698  0.9960656785214212  0.1992084388956945
  0.3999605351692216  0.0024364950449338  0.3990667327372656
  0.4008328524253610  0.9986365031863893  0.5999634103854050
  0.3971883474165673  0.0005998438579446  0.8002563738345928
  0.4009590844564571  0.2003746751560799  0.0021402175148332
  0.3979217898768813  0.1969524333427152  0.2036167657879840
  0.3963177006618845  0.2003248333485856  0.5950025967021424
  0.3999099456602183  0.2003596584343799  0.7990776527932614
  0.3958891387913712  0.3982099353819384  0.0002640232458543
  0.4020953049959817  0.4007865415685126  0.1981734558339133
  0.4001532489337009  0.3967979071668541  0.3977095606982424
  0.3992554359146507  0.3998386785597637  0.5983083167754522
  0.3965749166887495  0.3992274323445650  0.7997000456246164
  0.4016267133687924  0.5993686973758735  0.9989186665198759
  0.3981374269306782  0.6028419750385220  0.2005908168308069
  0.4004336325362275  0.5986969560247061  0.4009797981788391
  0.3985364476175204  0.5998229664387373  0.5988676668277013
  0.3957766414636193  0.5991130318993884  0.7996279082329640
  0.4019450640325485  0.8010259301798138  0.0071367377840245
  0.4013148981287735  0.8014400689008848  0.3965098404732037
  0.4003356520057163  0.8007453259884204  0.5940118441726930
  0.6009910201825542  0.0005408950251533  0.9971911392962273
  0.6028966937150697  0.9999306634196535  0.1981304185723625
  0.5993965630471888  0.0004643492358236  0.4016034323593805
  0.6018602312940722  0.0008355374406630  0.6025422792107549
  0.5976062746504203  0.9991863243767262  0.8006518613040700
  0.5993138646599750  0.1993316644700820  0.9989596716187593
  0.5981185632281645  0.2025813495909764  0.1987535940421934
  0.5947351334139961  0.2014336536881367  0.4009909725019289
  0.5979406294162749  0.2010005694213677  0.6009054056203306
  0.5966908106508014  0.2013126964814800  0.7998054786379175
  0.6021486300596389  0.4014039493138245  0.1990817106558594
  0.6011516618632122  0.4012854659021433  0.3985617982775279
  0.5997916917971035  0.4006428664667007  0.5991974497907558
  0.5898019386585907  0.4011393952200351  0.7944627850337140
  0.6003033642174084  0.6014499533202906  0.9982104693685859
  0.5981242968302836  0.5986491463021862  0.1978148150589652
  0.5994094503940280  0.5993478705647832  0.4018954643528612
  0.5984682398660014  0.6000195927124697  0.6019906015072845
  0.5954504484884704  0.6009444144117794  0.7999184296034469
  0.6019288679447389  0.7996691532088724  0.9995246078981268
  0.5960564828615560  0.7988620044457228  0.1996716052654069
  0.6034211432502162  0.7986834338801201  0.3991980174656935
  0.5996541594615762  0.7995075441784247  0.5999197362871874
  0.6028885909747355  0.7995091357615514  0.8004675066520206
  0.7996467986837807  0.0005544943590445  0.0038106782341159
  0.7983877927792904  0.9975363132107755  0.4022155696552280
  0.7995099684726276  0.9995495474572161  0.7972834904477220
  0.7997199678731159  0.2000042363936430  0.0012123115456324
  0.7979876852391095  0.1974691039656391  0.2028371506520430
  0.7981156108459558  0.1990674282326615  0.4017437241531431
  0.7992582615384353  0.1966207854682889  0.6002872795699997
  0.7996305383751082  0.1956949906936508  0.8007671178258253
  0.8081469148090092  0.4002777957088675  0.0106879284703221
  0.8040116082131634  0.4006065765325776  0.2046717063145932
  0.7998316043602020  0.4004196786346141  0.4019387299065572
  0.7993248467559502  0.3988790571349916  0.5994070056833084
  0.7996501132174463  0.6015298253934428  0.0011549215185681
  0.7977249520746107  0.6007429567358674  0.2012401566247845
  0.7982932765606929  0.6050749401987399  0.4018464072098024
  0.7986180669057712  0.6001389952969484  0.6029220556005214
  0.7992448371813601  0.6064753381183885  0.7994454560145381
  0.8035824623168201  0.8015402722285282  0.0031643416504232
  0.7985700976203184  0.8031712963262494  0.2049870878634514
  0.7998083581609902  0.8048303122228154  0.5963030507722991
  0.8007028768377665  0.8016405700902050  0.8001341014228848
  0.0007533844964067  0.4012755433912228  0.2018521601317455
  0.9984862649706124  0.8010869863443089  0.0050662461960102
  0.9981470004631490  0.7995483925212531  0.3976800615365291
  0.2002116870931923  0.9980701030707295  0.7997327206502006
  0.1992741987404022  0.2003663215450941  0.6008476340342462
  0.1998018774650946  0.4004246967446296  0.9994870447207401
  0.2023190267778093  0.6018648144600316  0.1980729679802380
  0.2006012967457280  0.6008946866661246  0.7995053619787820
  0.2028858042166877  0.7898263312891060  0.1997538654319113
  0.3986659693848716  0.1994158784658732  0.3985863658513523
  0.3978280991680952  0.8001723287414365  0.2018306083304959
  0.7965641167051766  0.0015515258239503  0.2019355343708814
  0.7984715764909532  0.0008282749542192  0.6014094544621882
  0.8032499660739112  0.8013108480342411  0.3997474522807886
