Zr Ti V  Cr W 
 1.0000000000000000
    14.5214331911485957   -0.1030050066882034    0.0032642114627901
    -0.1032524360332880   14.5310239414293036   -0.0150897614118206
     0.0037027598956272   -0.0147878899465374   14.8066548791565520
 Zr  Ti  V   Cr  W  
   3  15  75  15  16
Selective dynamics
Cartesian
  0.3555945913154153  3.3383715826552471 -0.5358651683499717   T   T   T
  2.8622274885122247 12.1325808994164888  2.9072940878171392   T   T   T
  5.8598734986408800  3.1583833183995531  5.8442497282866288   T   T   T
 -1.2598009585969601 -1.0579631963106173 12.6359211962447286   T   T   T
  0.0964971143989291 12.5127707197491684  5.9164735027558262   T   T   T
 -1.3039428073873893 11.9111684518303367  9.5639131587221868   T   T   T
  3.4040309402037772  0.1989974827110116  0.8756290991760867   T   T   T
  3.9125371488619685  0.2608534601124001 10.7865909900973058   T   T   T
  2.6936161783715433  5.6806389337946097  0.7660276877074024   T   T   T
  3.2238919523261949  4.8237790417402664  3.8384010796829200   T   T   T
  6.4830977047391745  5.9873139970839304  4.1563456713829119   T   T   T
  5.6902979426201865  7.7295518541419259 -0.4351350452782999   T   T   T
  9.7712470555353086  6.7617826126864706  2.4468316968588004   T   T   T
  9.0074933654924596  5.2306027086956863  5.3200215882918256   T   T   T
  9.2021351886540366  9.0430482859846233  0.6000170247612159   T   T   T
  8.7396798643239588 12.3412076616592170  3.2174796264940655   T   T   T
 11.8152767944962740  2.8510941415390825  9.6371926993567030   T   T   T
 11.5330293224542171 11.4679689252672716  0.2831560324871943   T   T   T
  0.1356838113929988 -0.1062672548017002  2.2151053953055730   T   T   T
  0.4924580442043497  0.8149097222224646  4.8796957678442769   T   T   T
  0.5374843138122800  0.2689342775708892  8.0539159387064903   T   T   T
  0.5939790866305874  3.5451018751192129  2.8703104109792932   T   T   T
 -0.6161437469240627  6.2875406323022700  1.8461668414123857   T   T   T
  0.5821753599720113  5.1350847471236927  6.4929596534579588   T   T   T
 -0.1034134513588685  5.3699464214601029 11.8352627725658568   T   T   T
 -0.7785472783344817  9.2267951229600609  0.7788508213448456   T   T   T
  0.4729384144979077  9.6082889147128050  7.4025453526863458   T   T   T
 -0.6706418956030626  7.6763241751592499 10.4654718783914849   T   T   T
 -1.5107329588254712  8.1151095596002616 12.8488590120067858   T   T   T
 -0.3467508039276574 10.9569933412664984  3.2603159061935187   T   T   T
  3.5288671560490985  0.9706433664959250  3.7555668938196849   T   T   T
  2.4211449950990209  2.6909997461021287  6.6247266565383685   T   T   T
  1.5952079559541930  2.6810371400835473  9.6631909329992904   T   T   T
  2.7628243092317835  2.6119547170887545 11.9070560984128999   T   T   T
  4.2369226392783359  6.3901418349717192  6.9248202945854134   T   T   T
  2.2602020741736717  5.4343933783970595  8.5933092477800201   T   T   T
  3.7472959864116766  6.0186603479051914 10.9198893863108761   T   T   T
  2.7603873813857804  8.1958828279216576 -0.7884727049474324   T   T   T
  3.2107264224929053  8.2231754325121624  2.0847704942801526   T   T   T
  1.4816602310852043 10.0678389843220142  4.9934217640304164   T   T   T
  2.9915650040029202  9.0878787464869202  8.4092887279846824   T   T   T
  1.8051192446983149  7.8224242581437755 11.4878378329069442   T   T   T
  1.9922529756401002 10.5606935882163810 -0.3090114322133237   T   T   T
  3.7193958687657749 11.5576076856370609  6.2153659454660524   T   T   T
  3.0798397100138395 12.9336966450023176  8.7424311444181413   T   T   T
  3.7898106702788303 11.9871041777022125 11.2652967588629114   T   T   T
  5.6439090098623526 -0.6678096698339908  5.4101068593732267   T   T   T
  5.1841124440466224  0.1078406948935733  7.8815255699984164   T   T   T
  5.4431677965086758 -1.0410354843658030 12.9836459348922375   T   T   T
  5.3886697424033363  2.8383174992655786  0.2485314459342320   T   T   T
  6.5046208580121849  1.9860187278056460  9.8048208174189000   T   T   T
  6.8742996102608460  5.1845616897990610  0.3438185789730351   T   T   T
  7.0284381012314681  6.4210560697861681  7.2729732745685620   T   T   T
  5.4415315695087534  5.4178526767171604  8.9826004411715452   T   T   T
  6.6345717651506142  4.3022514789978574 12.7613688732230592   T   T   T
  5.0868410682358789  9.3281929814362741  3.0561154750639306   T   T   T
  5.4391590660660780  8.9719202448492155  6.1191420078084935   T   T   T
  6.1186836797583020  8.9351776076760103 11.5109558487414443   T   T   T
  4.8703089695749666 12.4301391064429367  0.4525677275686469   T   T   T
  5.4404514891980371 11.3993561666869976  7.9203579379664681   T   T   T
  8.1843817952281004  0.8204640921304722  2.4637447811752957   T   T   T
  8.4431305065799762  0.3979041014225074  5.0717856554112668   T   T   T
  7.9219555894997793 -0.2931735943998860  9.1617781988390696   T   T   T
  8.0403162332796576  0.1127189953704200 12.7514541591026962   T   T   T
  8.9901693461856063  1.9153321693135779 -0.5953812859514138   T   T   T
  7.2965846505572953  3.1970443326000941  1.9914633408657592   T   T   T
  9.4154498563330353  2.9286690254007839  7.1363543523569533   T   T   T
  8.4639336338076507  2.8669852820719663 11.7309077055814495   T   T   T
  9.1198993373394952  4.8260159623252221 -0.9300951265296373   T   T   T
  9.5894055770842410  5.8318361391496616  8.4070982475144369   T   T   T
  9.0698663709188860  8.9602974613375341  4.2371378811635561   T   T   T
  7.5649368624773130  9.7671551273631678  7.0795085627303003   T   T   T
  8.0499794253887469  8.1965411544891094  9.5048320863063118   T   T   T
  8.9034271447136017  7.9683651178355781 11.9338722702768987   T   T   T
  8.4690068194031092 11.6226433006307754  0.4981179299356991   T   T   T
  8.3892060619055240 12.4387878257250080  5.8926229832886445   T   T   T
  8.2555928908159011 12.0092582271946426 10.6607727359290312   T   T   T
 11.5951075540045494  0.1687748067621614  2.4973414549616741   T   T   T
 11.9784681364501875  0.0897103126669946  7.6419067200779436   T   T   T
 10.5977171914184982 -0.4618369993039161 12.9405233751904625   T   T   T
 11.2168946070437574  3.2936153655351283 -0.1436440488026172   T   T   T
 12.8628371581138801  2.3885080082033712  1.9798264376790153   T   T   T
 12.3223390873725354  1.7978056343075082  5.8772032281704822   T   T   T
 12.0707868956999160  1.6786269045082260 12.2799248081307972   T   T   T
 12.0502834379698243  5.8438825211075072  0.0208509895280754   T   T   T
 12.3721772173870388  6.6846455804455642  3.8821888709148014   T   T   T
 12.3421400865957906  6.0358680543591277  6.8359315675534189   T   T   T
 11.4370062051446677  5.8423569907822372 11.0849334439006384   T   T   T
 11.9683904000959611  8.5673610215764988  5.3614191684850914   T   T   T
 10.9372436545383085  9.1060828030783050 12.2411847982148512   T   T   T
 12.3930753968100280 12.4182816142035080  2.9165852902368914   T   T   T
 10.6684626451364064 10.9589759885533873  4.9890434440417231   T   T   T
 10.4121431196213443 11.2540527829068182  9.1418610295930804   T   T   T
  0.2307691849903416 -0.2554492021488660 -0.2207229563461316   T   T   T
  0.0722266420449571  2.9242131963437989  5.5262178698325588   T   T   T
 -0.7661911354623919  2.5700936574977611  8.0708623903031782   T   T   T
 -0.5601975415499110  1.8516231104262411 10.7342541965358063   T   T   T
 -0.6692434201087200  8.6297519151275619  3.4359168536730569   T   T   T
 -1.1853056941381626 10.8533339897374166 12.4464610514353176   T   T   T
  2.9601119874662642  0.7073586545111011  8.3320895575507254   T   T   T
  3.2810241359848553  2.6407308921837269 -0.7961900615878275   T   T   T
  5.4000934212068907  1.7787231478381216  2.5061802773295550   T   T   T
  6.3683519012351342 11.1748449686341118  2.0853015018849010   T   T   T
  6.1304801172066163 11.2672042694430150 12.0312863499857663   T   T   T
  9.3085409899162261  3.7593252118080311  9.5107482654973516   T   T   T
  8.1602852068394256 11.9686001768345314  8.2772966255263487   T   T   T
 11.9401009677279841  6.8437306109222531  8.9368393794881289   T   T   T
 11.6260998695238538  8.3055035568391489  0.1741573817477484   T   T   T
  0.4529297874899489  6.6824911946888950 -0.6996154042344306   T   T   T
 -0.6756225742919815  5.0374713877914861  9.1638500407987245   T   T   T
 -0.1106485671184024 11.8786040858443158  0.5820856569906454   T   T   T
  2.6716800915855567 -0.4428922877566558  5.9463302297850475   T   T   T
  2.9652427271240329  2.9824045013456133  1.7669289459501025   T   T   T
  6.6042753498641815  0.4716544007102811  0.3211790176909020   T   T   T
  5.9303979822155126 -0.7580616641670824  2.7751737619029351   T   T   T
  5.5884523759828983  1.6714640124504319 12.5126717959895064   T   T   T
  5.4892450204917491  8.3712204585919459  8.8331943116342906   T   T   T
  5.9903840382379752 11.4452295799812411  4.7518373776671643   T   T   T
  9.5603881031758693 -0.4543554880738230  0.5993278618105733   T   T   T
  8.1916848676745513  5.6312525009740444 10.9159272946873589   T   T   T
 12.2120286239787550  0.7193348098961110 -0.0342263087415708   T   T   T
 11.1816957956774488 -0.8976518315853222  4.9998187027381107   T   T   T
 11.4578777270542318  9.5475542383869634  2.6691697616896768   T   T   T
 11.0324536428195685 11.6646444998972623 11.7919062814624844   T   T   T
