Zr Ti V  Cr W 
 1.0000000000000000
    14.8968074205055832   -0.0306966591709309    0.0213340461221847
    -0.0306330890936885   14.7623265562694694   -0.0006438448085418
     0.0208847029898603   -0.0005685860588741   14.7311565230960575
 Zr  Ti  V   Cr  W  
   4   3 108   3   6
Selective dynamics
Cartesian
 -0.2872845345722206  6.0284526403380729  5.7815996802312037   T   T   T
  2.7653297564282142  5.6412748665260191 -0.2715407316041743   T   T   T
  6.0872082372017138 11.4991328100219725  2.3865942880866444   T   T   T
 12.2670024415501953  5.8686763103538784  3.2415506551262210   T   T   T
  3.1910240875551046  2.1586177644897973  0.3151685250140003   T   T   T
  2.2809130318996238  6.1200674982699219  8.2144665718608287   T   T   T
  5.6143730939350229 -0.7273821754942822  0.4744931575979637   T   T   T
 -0.8489070557116316  1.2619812004429105  0.8963208547692687   T   T   T
  0.7306032295157506 -0.0839556033570809  2.3636753035383191   T   T   T
  0.7747753157783700 -0.0690157122915447  7.8935561140710284   T   T   T
  0.4437127752401555 -1.3215847331893513 12.2279949875680494   T   T   T
 -0.0499930527435232  0.4626502567043960  4.6735749878191006   T   T   T
  0.4522566660889544  2.0076504900570260  6.0383205991334643   T   T   T
 -0.5133002191987979  3.7864914595789010  8.3386884014455553   T   T   T
 -0.5607865017569413  2.5145631465833063 11.9799495453531328   T   T   T
 -0.3575070178539436  6.0110719794491807  0.4576035422264014   T   T   T
  0.9009302460605739  7.1859065688956605  2.5510540292992054   T   T   T
 -0.3804824716905778  6.5462076021260760  9.4349941197383025   T   T   T
 -0.2817235246453317  5.4239520431298462 12.3368719649820715   T   T   T
  0.3301172191285486  8.5742033016024646  0.2416172539905483   T   T   T
 -0.4878663629607241  8.7355420402293760  4.0672305717874382   T   T   T
 -0.2492996153722576  9.9125807885877677  6.4180033458518686   T   T   T
  1.3318439115790897  8.7203932230557335  8.0425292603321878   T   T   T
  0.8145719486557133  9.5308570619746540 12.7620593475815394   T   T   T
 -0.7251833263390495 10.7761015583199296  0.4094079278375534   T   T   T
 -0.0414294630341541 12.5161823675407060  3.8240702869514580   T   T   T
  0.6100252757891831 12.5335627432715437  6.7208778798388211   T   T   T
 -0.7602248922262079 13.3430346985318593  9.5275121161807572   T   T   T
 -0.8456184805963213 11.1469478510898750 11.2858050105945367   T   T   T
  2.0142604482175637 -0.8576234863262765 -0.1975410502339169   T   T   T
  3.3524663230400007 -1.2132182744410680  2.1908472749315653   T   T   T
  4.2732600024713143 -0.5701398527529450  5.1610088403615313   T   T   T
  3.1155239710749481 -1.3531901555682018  9.9590441678334773   T   T   T
  3.6770106139300447  3.5423384956072610  2.7424614117668304   T   T   T
  2.6063200863880422  3.6821581283219595  5.1204081106189969   T   T   T
  3.1092166097722584  3.4574657130944932  9.4791540151411962   T   T   T
  1.8139820360989716  3.5849019138151101 11.9505614712072443   T   T   T
  2.9565537107713729  6.0526574187887379  3.5713280970392876   T   T   T
  3.9315486852970456  5.9542914015466515  5.9969122380559288   T   T   T
  3.0806175951193633  5.6057240062233049 10.9876568764211111   T   T   T
  3.0693043895659073  9.3961537557041268 -0.6674167413348422   T   T   T
  3.2049065113890585  8.8053376343326857  2.6077731139747589   T   T   T
  4.0574182469201334  9.3787431696612256  7.4444198930227419   T   T   T
  3.1258800778345552  7.9177121713104182 12.0963261916441862   T   T   T
  2.3763918210378110 11.1571067482097703  3.1814788111510985   T   T   T
  3.8646617788768229 10.0165122886385269  4.9462592064192412   T   T   T
  2.6191793171331326 11.0814949841269197  9.6744809117131965   T   T   T
  2.6458485774031377 11.8395381556871389 12.7165360613569511   T   T   T
  5.9566951578298113 -0.1212473725900533  3.1816504839632040   T   T   T
  4.9707076016803802  0.9612599193105995  7.0697232303318582   T   T   T
  5.7314724426694470 -0.4837010785834395  9.1792395621316061   T   T   T
  5.1897881994435950 -0.0020727027257317 11.6014373630422707   T   T   T
  6.2673094333551278  3.8366840199903036 -0.4085138349031517   T   T   T
  5.8201233136872244  2.2530781217869307  1.8949937759659032   T   T   T
  5.2176574660034127  2.2777570388751647  4.6800373587277697   T   T   T
  5.4808004576501794  1.9955967185375207  9.6438230512826735   T   T   T
  6.0260832762567347  2.3643116209013701 12.0828393381115387   T   T   T
  5.1197746890777154  6.9803945412519024  2.2035674838882247   T   T   T
  7.4144124043883712  3.8911673033892789  5.7928094423973553   T   T   T
  6.1189079352234348  5.9732274133450485  7.8116987723621625   T   T   T
  5.3439049908739182  6.1848050732132434 12.3625497006101028   T   T   T
  5.3731456312790336  8.8923957159660283  0.5330124532172975   T   T   T
  7.0463500749498627  8.6432055219896622  2.6817764578102201   T   T   T
  6.4134304248987304  9.4233717155530794  5.2344493788638999   T   T   T
  5.9873744115918131  8.9223186334896809  9.0281852460204988   T   T   T
  5.3331668969142134  9.7150699926335218 11.5097632704122361   T   T   T
  5.4246143166127974 11.7104881952297184  6.1146271172685580   T   T   T
  6.7199274845827839 12.3050905599834675 11.3037643582727156   T   T   T
  9.6926908936082512 -0.4516374551341484  0.2526201680205372   T   T   T
  8.3893201193353946 -0.8312336234774245  2.3917829948218872   T   T   T
  9.6575019836989036 -0.7399343128338719  5.2745442400603846   T   T   T
  9.7364100457699756  0.2884555052223159  8.0342117558904071   T   T   T
  8.6874279150868237 -1.1047769553004805 12.5356689638290781   T   T   T
  9.4977478503589818  2.9629642093064810 -0.7123015871079036   T   T   T
  9.9104949184629856  2.9132099206795194  2.8197589779085037   T   T   T
  9.0352068614658396  1.6518712822522010  5.4544401843496226   T   T   T
  8.9997071879468820  2.9229513500101474  8.0258286160717152   T   T   T
  8.4335844369951953  3.6219386096389994 11.9888287889803049   T   T   T
  8.2452851628947066  5.5164971836635166  0.5896679351430357   T   T   T
  8.7156837605351480  4.9847726194154767  3.2291234195654566   T   T   T
  8.9132033172493124  5.9829658971282296  5.3722788747862191   T   T   T
  7.8115777934152435  6.9057717113999022  9.2576079758293055   T   T   T
  9.4715867545387447  6.3040869919490374 11.0904567682720625   T   T   T
  8.2878723231200322  9.8541086636639630  0.7897325146588319   T   T   T
  9.2817151720041693  7.4736983246201554  2.2762547472658472   T   T   T
  8.9565746333612797  9.8431998290697234  6.6525387048461244   T   T   T
  9.9993429205590036  9.3066892743703100  9.0933828654718720   T   T   T
  7.8048675066123963  9.4336983401908299 12.4038034437802906   T   T   T
  8.3250746230483053 12.0676824617408034  0.0299692781194019   T   T   T
  9.7437403788044019 11.8464269565655869  3.2455807763458333   T   T   T
  8.0456248095197083 11.9769644307086462  5.8047014444129239   T   T   T
  8.0567415860088456 12.5727839354517457  8.4747650544761672   T   T   T
 12.1778169982437134 -0.6553772730023734 -0.2716377775886087   T   T   T
 12.6321195308441006 -0.6437579855841703  2.5779014130203737   T   T   T
 12.1630905621492538 -0.8131862060041759  5.2231016871497582   T   T   T
 12.1439568264326780  0.3151468991861600  9.4458961048418910   T   T   T
 12.3559625564867801  1.0149094487469339 12.3898928039202065   T   T   T
 12.9347958732948776  3.9131472506870426  0.6927669127325151   T   T   T
 12.2105040796031652  2.2841853371001934  2.6459119546761656   T   T   T
 12.8143707282138450  3.5126545829200961  6.1677789074519609   T   T   T
 11.6592197138020115  2.4350958423367861  8.3419846772842359   T   T   T
 12.2092221696040930  3.4161567467915761 11.3649759122880667   T   T   T
 12.1267857553334224  6.1311604248553611 -0.5325211527130813   T   T   T
 11.4835102265672191  6.0807667538783061  6.1941208888382313   T   T   T
 12.2595742955465248  6.8210850484118462  8.5402349292422528   T   T   T
 12.3687673810819749  6.1331760179356856 11.3051098285920837   T   T   T
 12.0036968475047114  8.7671400523669956  0.2315308709146817   T   T   T
 11.0146967714092785  9.4537363651083410  2.4954419367803604   T   T   T
 12.4791168603767133  8.4319575659876858  5.9335996231329338   T   T   T
 12.4446234235943276  9.6763834450588249  9.8248103337432724   T   T   T
 10.3133180475139987  9.4021824075653484 13.0409629225205173   T   T   T
 12.4805084819172691 11.6115309648682761  2.9973762874927772   T   T   T
 10.8466907025967849 11.7824722316029753  6.3755609856647624   T   T   T
 11.1996624511769465 12.9596649475241215  8.9022597788703983   T   T   T
 12.2828031583256845 11.1062769423793810 13.2456553621018198   T   T   T
  2.7962219755686881 -0.2047980336687367 12.4069159317847966   T   T   T
  5.9458991023662513  6.2626772202222218 -0.0513866253123705   T   T   T
  9.0879298465852703 12.5289972833296002 10.5379486379270837   T   T   T
  0.5317224146737288  3.4648094642261085 -0.4286492652879625   T   T   T
  2.1141841389285787  8.1607245239991766  5.4842040873998137   T   T   T
  3.5826369942066969 11.5087832584956615  0.6386463239272563   T   T   T
  5.8252064366494345 11.0764284764866225 -0.7704091324857580   T   T   T
  5.2850208583613352 11.5632930372530094  9.0642519616404407   T   T   T
 11.0354983204519534 11.5538801683198589  0.6945599737382522   T   T   T
