Zr Ti V  Cr W 
 1.0000000000000000
    15.4426403378846846   -0.0320005039046650   -0.0557208927597321
    -0.0320601671519035   15.4795610846132128    0.0067732802617652
    -0.0556571551947803    0.0068453986319217   15.4616290361641866
 Zr  Ti  V   Cr  W  
  16   2 101   1   4
Direct
  0.0027091445465037  0.7674735013543820  0.7967368125786753
  0.2340868925623483  0.1970618439842068  0.0321445431956284
  0.2007918888948656  0.2034748547972782  0.2463681531412832
  0.2033275288908775  0.2040655054421960  0.4518958237880901
  0.1539796877053037  0.1995708942879903  0.8222944540249850
  0.2061370143062387  0.7987112670696944  0.4025563005740966
  0.3701822318106495  0.1903510664910050  0.8158182903810217
  0.4038467277965401  0.6014674967962148  0.2015947166590398
  0.4083445619795485  0.6007328089120461  0.4264404518110629
  0.5906860227182830  0.0288322159479997  0.5733780638187358
  0.6145953735739230  0.2392803097403254  0.6001363666122901
  0.5932555190555433  0.3976821067761756  0.9987532952005880
  0.5927040800302481  0.4506366991816573  0.5894963459689547
  0.5962021894133037  0.6215841599510143  0.9866418033170239
  0.7894368647314756  0.0054313392921069  0.4075279087696104
  0.8105493550641083  0.3613850067766195  0.5710384999557627
  0.5883612316273216  0.6407979061076496  0.5926115184101045
  0.8147463699743740  0.9807390241184374  0.6172562779115309
  0.0014741516417081  0.0007174701832273  0.9974624816659421
  0.0013847527773662  0.0003234620642801  0.1982342745002113
  0.0022858163673813  0.9993800285711044  0.3974158779783748
  0.0069508284721274  0.9973171540646849  0.5981399235116992
  0.0003538411188556  0.0088266342694137  0.7973289957663519
  0.9853399730992256  0.1984236187592452  0.9997396292885686
  0.9963481798679971  0.2008727578405195  0.1999453125081483
  0.0030241305638379  0.1987845878952400  0.4005232812231608
  0.9986476656935471  0.1961021706590595  0.6039704573930225
  0.9700954583006188  0.2027066413264786  0.8006676850947507
  0.0016257247789684  0.3962501035010256  0.9973142101566025
  0.0031629292307627  0.3990091578804439  0.1970661230447503
  0.0019594170687582  0.4014721767363049  0.4002034927796766
  0.0092195798994616  0.3957718414264786  0.6004050764987815
  0.9989144395250190  0.5995182038716413  0.9914718790569393
  0.0001902899742870  0.5981714255349112  0.1976936404927492
  0.0005392516338603  0.5992830765051149  0.4024679713494850
  0.9981716258526276  0.5970338921863683  0.6034775394265449
  0.0004776898347636  0.8012991328404776  0.9996196160768711
  0.0013441900611916  0.7991716205937555  0.1977831425718682
  0.9983327335197333  0.8007323090856044  0.3984878999641644
  0.0016891201872146  0.7999794175572085  0.5953836879010179
  0.1986671913220261  0.9969869245421447  0.9944551338972800
  0.2023822181385579  0.0022382893476132  0.1934059929977441
  0.2012218388397871  0.0051388387596341  0.3972512978838700
  0.2003398764833735  0.9993440112564137  0.5990360418949953
  0.2011733707287854  0.9954196972900687  0.7972845051259917
  0.2012117586223283  0.1985987791274751  0.6345708165808271
  0.1950511617342418  0.4011000109004120  0.9998648058860727
  0.2033622554328605  0.4032659652830359  0.1980603773311925
  0.2053948821049454  0.4011865982287235  0.3990165959973174
  0.2030073584949213  0.3993540549628017  0.6006545088110739
  0.2004342363601040  0.3992460707776247  0.8000107839174589
  0.1986327009935838  0.6010901776729007  0.0003786187118394
  0.1959207948196126  0.6021122864044781  0.1996847373451357
  0.1966732811846652  0.5949838950607891  0.4018442764381155
  0.1998778619304323  0.6003820056850973  0.5992666339831257
  0.1904599734571379  0.5974023631544345  0.8000350501327393
  0.2029710991293327  0.8004479795615093  0.9989321600611035
  0.2021712777393681  0.8007167031077117  0.1964553536569193
  0.2000377310415028  0.7995671731228109  0.6056923179755194
  0.2057869303136808  0.7960260019621958  0.8004802854382839
  0.3975454840375598  0.0101663247263848  0.9931514939970468
  0.4014415424708345  0.0039508559641061  0.1962816706311734
  0.4000026568035663  0.0028976477185996  0.4018864780323149
  0.3930694705952749  0.0014820383079133  0.6008863743083682
  0.4000061450108474  0.9893358178584026  0.7957363778772235
  0.4349223334536379  0.2114515470702400  0.0144975224328865
  0.4153201205983241  0.2005997042775833  0.2071582748663666
  0.4015784361244624  0.2014077109360853  0.4035082017749820
  0.4048377816990061  0.1982388527031746  0.6043684179121085
  0.3882513229731981  0.3997669957941541  0.0006341395123421
  0.4013390325337696  0.3964351088060165  0.2029940912360772
  0.4060004352116547  0.3970663715498607  0.4046005065731605
  0.3971243620864346  0.3996524561542453  0.6024406569710292
  0.3926872400991046  0.5999131694612113  0.9965174686489485
  0.3917739371239460  0.6021307185356211  0.6162572774400774
  0.4030313728928873  0.5984895229678331  0.8039835355612962
  0.4032149923291883  0.8001977587941265  0.9994588789372103
  0.4029516093137225  0.8078535626591212  0.1980279574767068
  0.4085898945191902  0.8066740629520986  0.3981763663549778
  0.3994325117462239  0.8029099126207925  0.5983190170634374
  0.4017810235598242  0.7959275069695032  0.8004252589518681
  0.5998337429228472  0.0006423462506057  0.9936662772458780
  0.6003589108808343  0.9940633081011729  0.1890985694699320
  0.5909583594628474  0.0055178691403572  0.3758389531339560
  0.5965882011584959  0.9944946505024176  0.7945065664443363
  0.6025221111887687  0.1945060722677261  0.9912903884975041
  0.7967670280159794  0.1979530809793177  0.2040150962829348
  0.6033476244459517  0.1971904200787804  0.3752428959517140
  0.5848440278343155  0.1962358779789319  0.7932298549045010
  0.5978955089971116  0.4087012491226248  0.2028949387418974
  0.6051548389161490  0.3930272675626734  0.3961265637156238
  0.5980477399788040  0.4013672698577475  0.7908112056651447
  0.6086921810361032  0.6029094452430481  0.2007488524505952
  0.6118929260769320  0.6071032573695595  0.4010942629009417
  0.5998845887384374  0.8129650201575775  0.9980558520547739
  0.6023789572380290  0.7973512629505860  0.1953796353820120
  0.6083920582258072  0.8121705274874248  0.3967426175061216
  0.6035230997311688  0.8239269580218519  0.5984183138782838
  0.6015200011500541  0.7940189972779316  0.7958184061752576
  0.8024343902568739  0.9979117455326145  0.9969641720127481
  0.8002947750619619  0.0000219583819923  0.1949135904100892
  0.7972001903090314  0.9947864934852820  0.8052694631749211
  0.7928798933029960  0.1960096301285952  0.0047421751564976
  0.8024643411542192  0.2099467608867013  0.4023442891347066
  0.7797562696237159  0.1958496328493833  0.7874697631930999
  0.8029692432541511  0.3962193039792921  0.9981369418371783
  0.7972848788439441  0.3969875896912098  0.1916262926216786
  0.8041849999154652  0.4028494171968121  0.3796197818546531
  0.7964006085652804  0.3933539442378687  0.8054239378647849
  0.8003586266591737  0.5984912929496968  0.9993655842575876
  0.8048629632694635  0.5988008607927177  0.1957557219120600
  0.8046261822128885  0.5972246274885403  0.3976686246251852
  0.7958806056235814  0.5945867344956104  0.5961809294917347
  0.7942777051578730  0.5902528904971622  0.7963080818719136
  0.7986349427840591  0.7982989596223860  0.9986402553214108
  0.8024978932298378  0.7986942072165567  0.1994330049530712
  0.8021889730356521  0.7957091104143612  0.3973495774025987
  0.8013473601155797  0.7902381274341214  0.5973721070324440
  0.7989027792997432  0.7960858157807903  0.7980908799938505
  0.3970981949841866  0.4034584127174312  0.8008152100172348
  0.9966345185611089  0.3898025967530663  0.7949474442535156
  0.9933136754012409  0.5718426467964554  0.7968410744826248
  0.6005009663325308  0.5920258969954560  0.7866163791005307
  0.7992158319458961  0.1606185531010486  0.5913276582569928
