Zr Ti V  Cr W 
 1.0000000000000000
    14.9326344855496096    0.0302776406784592    0.0641399835882246
     0.0305237001659294   15.1386832701230993    0.0723361143993863
     0.0643160966372768    0.0721224059444540   14.7903934552732679
 Zr  Ti  V   Cr  W  
  10   9  91   5   9
Selective dynamics
Cartesian
 -0.1073641805648777 -0.5179373349622787  8.1858027611526190   T   T   T
 -0.3263227629976814  9.1881696077096713 12.5871915215060941   T   T   T
  3.2253815756025852  2.3459355872655818  6.3602197462893173   T   T   T
  3.7804124151350180  6.2783534754839394 11.0990704632464929   T   T   T
  5.4226700255883733 -0.1412994402173242 -0.2554700907804798   T   T   T
  5.8398704366671561  2.9982108529642004 12.0260837535555787   T   T   T
  6.3176298287785864  6.7499185252612435  2.8670230809790924   T   T   T
  9.5467763883084480  3.7680964297350026  6.8201694361151839   T   T   T
 12.3929724987239140  6.7511015240984520 12.1455919385873763   T   T   T
 11.2077092138124979 11.3518671318560855  2.7865296691629244   T   T   T
 -0.3177695338765076  0.4527943173473690 -0.7710907339284840   T   T   T
  0.1594702968161608 -1.5459103694682259  2.0557452035931849   T   T   T
 -0.8083387266962876  3.4588432054771876 11.9285512178648272   T   T   T
 -0.4223066757106711 11.1594581298297975  9.4369876308466036   T   T   T
  3.8911867292288478  5.9355412688913782  5.6432792818978506   T   T   T
  5.6276464357792273  8.9313845001122694  5.9174932354755283   T   T   T
  5.5225218328462908 11.4297525196748353  0.1521302774887518   T   T   T
 12.1614398065206792  0.6221666569772262 11.5906439764175886   T   T   T
 12.3296036603004797  8.4965186826774080  0.6410748240915891   T   T   T
  0.3575686329660359 -0.0593514464702289  4.8470098827568187   T   T   T
  0.6675937823278574  1.2916323466390003 10.7942716387689384   T   T   T
  0.8366721036947149  3.6792297354468424  3.8511800955607498   T   T   T
 -0.2000106779970530  2.4109851303090162  6.0103389371740841   T   T   T
  0.4523217871892774  3.1787105961134894  8.6489359733432849   T   T   T
  0.1588705749740645  5.3260149552549985 -0.1201049301618723   T   T   T
  1.1129686066294577  4.1624109578805912  0.3191099834790079   T   T   T
  0.1038010953016030  6.8140085751756647  6.1085747801305397   T   T   T
  0.5938320929428040  6.2088979615692583  9.9417423716930262   T   T   T
  0.7524859104472813  8.5101597228347732  1.2995578370472745   T   T   T
 -1.1418096091748973  9.1952593812250623  3.8028563340036654   T   T   T
  0.7673455552730728  9.9495481758747299  6.9320765834024769   T   T   T
 -0.4368825295242109  8.4480910327774854  8.9603052291302081   T   T   T
 -0.9906884951120949 11.5244293938259812  0.3014806086494417   T   T   T
  1.3829625671991792 10.3504463330709253  3.2976709839657290   T   T   T
  0.5828201436770399 12.2701351137567087  5.6892045924582613   T   T   T
 -0.2971839112569223 12.8128511034029060 12.0691965323783563   T   T   T
  2.1091544529899457  0.9767067346956958  1.0959456787723618   T   T   T
  3.8345307486483398  1.2930843923484976  3.0451125626211684   T   T   T
  3.0635176635032053 -1.4144730272562085  6.4717783354457854   T   T   T
  2.6010595585307597 -0.2642981121380167  9.1637790080268680   T   T   T
  2.7780505323484959  1.0247555008258085 12.1698842046398941   T   T   T
  3.5291560138005584  2.9424490193574564 -0.0015029655749567   T   T   T
  3.1650806469151931  3.7680384427450608  2.6584167703598283   T   T   T
  3.1574972887472006  6.5711573787735125 -0.0270497268966465   T   T   T
  1.9455090049027035  5.9502964384105637  2.4136743435929731   T   T   T
  2.5193616697295256  5.1426812904279444  8.6319092567357920   T   T   T
  2.4315089564541457  9.8505724657940892  0.2229795335668037   T   T   T
  3.7773991139741434  9.2883517825845470  2.8060363155939418   T   T   T
  2.2772269694432996  8.7484125068693839  5.1644385521038689   T   T   T
  3.4770093682269927  9.4635951131578508 12.5965332730627626   T   T   T
  2.5471280792969258 13.1026346582838507 -0.2903748276679480   T   T   T
  3.6818070275334946 12.8331766492239492  2.8799099959893888   T   T   T
  1.8327549721126164 11.2639583880553751 11.0239674177783922   T   T   T
  6.3825128591787124  0.5724976229781938  3.2406344520812009   T   T   T
  5.0063119094070547 -0.1217618860857859  5.2056548913364962   T   T   T
  5.2278588154343089  0.4861764245690836  8.9875684887810756   T   T   T
  4.7455823210666059 -0.1238796842160066 11.4451212882450122   T   T   T
  5.8117472829707832  3.5440795040467132  0.9271580877636196   T   T   T
  6.3025740638526901  3.3904439287934998  4.8054181122850954   T   T   T
  5.8400288924651083  2.6468060847571038  8.2480498844179433   T   T   T
  7.0794124387114774  5.3999992896805065 -0.4647489447588694   T   T   T
  7.1537565660496742  6.5831636390551846  6.7074089997056561   T   T   T
  4.9205560121164611  4.7427194346771238  8.8334610039051054   T   T   T
  6.6192309254083437  6.6201400344057939 11.8641289520643483   T   T   T
  6.8872027764854007  8.0818150289625610 -0.5054312806768667   T   T   T
  6.1773267806913550 10.5410267514846439  3.7063228259382681   T   T   T
  6.8768337508272204  9.4237693778730200  9.2966131655512303   T   T   T
  6.3132773624475931  9.2834909449227041 11.8848422616101086   T   T   T
  6.4626038413622746 13.1381757298234128  3.1964356193699892   T   T   T
  5.8419523154480544 12.5214438171389677  5.8109095152945240   T   T   T
  4.8155185136698995 11.7875436100233468  7.9810176883700743   T   T   T
  5.2577373978305557 12.6665616923552058 11.7138494785943337   T   T   T
 10.0241623648729039  0.1481514316817689 -0.3096783852390402   T   T   T
  9.9966214133842293 -0.3441265367524425  3.4483998811864627   T   T   T
  8.2976072820067177  0.3624378052592991  6.1355840956608851   T   T   T
  9.6626771559775904 -1.3016397099851740  8.9723748488343755   T   T   T
  8.0457293236903027  0.1199800027901857 11.9395373039662136   T   T   T
  8.7549799859571671  1.9012237610922849  0.0151193535856058   T   T   T
  9.5221188714643308  4.3519677142412379  3.1441284249890673   T   T   T
  8.4322254702207999  2.6714833243151599  9.4537044619541213   T   T   T
  9.1725551717057101  3.0459570353119054 12.7854255999167457   T   T   T
  9.5876363260048265  5.9972483996288171 -0.0387591837223808   T   T   T
  9.4826376165021227  6.9657840024156661  2.2522995054365680   T   T   T
  8.7217173436747135  6.5699756412918875  4.7270556662547492   T   T   T
  9.6358319889821260  6.4613964474112091  9.6035951392140024   T   T   T
  8.8333987689892766  5.4473740045278625 12.2031398541586746   T   T   T
  9.0641041141871863  9.1886177152861048  0.9003242462982071   T   T   T
  9.3375337470445263  8.6155500288887481  6.3792798479819774   T   T   T
  9.6601522978049914 10.0106637358620318  9.0214557631366201   T   T   T
  8.9841513946142424  8.1627653659548436 11.6911224735535573   T   T   T
  8.4492306792392551 13.0490372885096164  0.6449532758967926   T   T   T
  9.7922198479252920 12.4828017588599245  5.8563146554457202   T   T   T
  7.4217575701557079 12.7975462127881681  8.7673292186140053   T   T   T
  8.4049914553811558 11.0473235617786774 12.2439902601190340   T   T   T
 12.2674585428949552 -0.7379302803901380  0.2761970088378855   T   T   T
 12.6064830771019434  1.3145952661777565  2.5520724996368345   T   T   T
 12.1704429284581952  0.4475321367360472  6.0228814450363508   T   T   T
 10.6409657301860339  1.0007938725022827  9.2463748590650798   T   T   T
 12.6108414721234787  3.8562871007871120  5.3741516565925176   T   T   T
 12.6681557602117412  2.5653162641055416  8.5708438943563348   T   T   T
 11.1985633058728276  4.0576959534639299 12.1786232462869002   T   T   T
 12.5067539992307726  4.8524389617244150  0.6167611949210668   T   T   T
 12.5529369059222962  5.8121976890732947  3.2107846639864492   T   T   T
 12.1590307178352539  5.6779927158872985  8.6184106658761372   T   T   T
 12.1893585296913827  8.7408743181277853  6.4316828506216766   T   T   T
 11.7994347854614556  9.7211063449497956  9.9346030167902430   T   T   T
 11.7966943181400428 11.7959819017850922 -0.8222179841523751   T   T   T
 12.3012273476521390 11.4859212846937524  6.3330025703812840   T   T   T
 11.7929571142063239 12.5326632133513929  8.6382760651628185   T   T   T
 10.5173350053544397 12.2802464029239395 11.6234454196942831   T   T   T
  1.6332563949466783  9.2602965898439695  9.4403659910700419   T   T   T
  7.4918868837944190  2.8894634439843250  2.7292127294553397   T   T   T
  8.4559962761773964 11.7232526036359044  2.8663488815875202   T   T   T
 11.8230209552662444  3.5476654010931039  2.4513510060415524   T   T   T
 12.7916202638714527  6.5886709832569714  5.5407837828354012   T   T   T
  1.1383421482590559  5.9406325758663412 12.4721272982906601   T   T   T
  3.2177777513519912  2.3958943504417545  9.6678799396427735   T   T   T
  2.4348116527880621  3.6344860136771429 11.7615495563831409   T   T   T
  3.3146388204318256 11.1151560829016205  5.5572271499542287   T   T   T
  2.1165425543059948 11.9893142055429340  8.2670141314033234   T   T   T
  8.6503193625225379  9.3039956621506068  3.8624236357557864   T   T   T
 12.0106084138446878  2.4759987190970083 -0.1833231612427445   T   T   T
 11.1616436854396603  8.2205860539991189  3.9349860291157488   T   T   T
 11.0141655669622196  9.6000350027444057 12.5839286093713945   T   T   T
