Zr Ti V  Cr W 
 1.0000000000000000
    15.3960504026614231   -0.0029059402776773    0.0109527228615838
    -0.0029019596058232   15.4211892961187402   -0.0178703021294289
     0.0109643357546517   -0.0178836246684765   15.3929296075496413
 Zr  Ti  V   Cr  W  
   3  13 106   1   1
Direct
  0.3840686779542227  0.4152524101074272  0.8020781089084900
  0.7998724946207880  0.9712235375803174  0.2284062383716574
  0.8080845507015195  0.2120814862945728  0.7833579359940671
  0.9843181465960188  0.3902550487323017  0.7981978717734383
  0.0071789286332105  0.6039982941715587  0.9886988302174031
  0.0010097730355627  0.6353796733266258  0.1967103284729077
  0.0115137074855471  0.7910900116762645  0.3897128096889526
  0.2089435662212036  0.0008609026584230  0.9999728627572477
  0.2000607292382464  0.5864852746395572  0.8085586810218328
  0.1880640652934721  0.7940304289132231  0.2042323651464132
  0.3956490791998340  0.0035704296651228  0.8085669561843697
  0.5939201214156604  0.6022456326031580  0.9999437934734542
  0.8019523835245655  0.9913242091929292  0.4375979705399542
  0.8006840022971451  0.1920590961586341  0.1883255067567148
  0.7989006622802206  0.2023223421116938  0.5808141326041053
  0.7978464077159647  0.7733087560528225  0.1948273730194539
  0.0006695736466835  0.0024732909665591  0.9991675571602558
  0.0043636422141298  0.0063875352180261  0.1969432788098257
  0.9999379380851767  0.0013472018881732  0.3957037900922767
  0.0009815018399326  0.9975237991049666  0.5982678945700055
  0.9982906770346888  0.9988990354286809  0.7989392194641056
  0.0016176963085219  0.2008697428901338  0.9955910027149040
  0.0034662694287508  0.2004643467243565  0.1962888840635450
  0.0004100350894738  0.1981462195902126  0.3975249129304918
  0.0037950549261865  0.1987617950866646  0.5981867764711105
  0.0080072913932031  0.1930571881330989  0.7985301263352947
  0.9989130322227233  0.4002810749996437  0.0026826414288505
  0.9990123633093516  0.3956905220282265  0.1996901334134245
  0.9996862054890883  0.3983586174586646  0.3982538970937216
  0.9995521230687813  0.3990783570472410  0.5970040588034745
  0.0007044974632102  0.5954739668840762  0.4008324734622530
  0.0002770284831144  0.6004655469439056  0.5997089502353757
  0.9962459529326383  0.6019994257332451  0.7958875840577827
  0.0008184493203051  0.8068665290571549  0.9942120219831587
  0.9908776566279867  0.8156645779212568  0.1918440793997342
  0.0009268396381883  0.8006641385407910  0.5963156647548801
  0.9990722907780161  0.8007253032703423  0.7953028742347414
  0.2013419626976739  0.0012143057883861  0.2036422853564306
  0.2004488666838994  0.9991307539685418  0.4005385079109078
  0.2000514886193965  0.9994766549377148  0.5988703564370375
  0.1961331146789066  0.9989425825138657  0.7977579903503578
  0.2002460037451695  0.2044359722065024  0.9989498301503155
  0.2010947477798321  0.2007639837822643  0.1988545046351316
  0.2007091130933019  0.1999463009224032  0.4002392036535848
  0.2012678810176140  0.1993167750387504  0.5991994555229067
  0.2023781210500212  0.1986054632066884  0.7985232430721846
  0.1984433261595631  0.4012850555117979  0.0008249814955188
  0.1977886534727123  0.4018534949303602  0.2006171749918416
  0.1994564581230530  0.3978923708929622  0.3996168093801167
  0.1981558054460645  0.3997509765999561  0.6013053195652203
  0.1865781154684729  0.3927566750109388  0.8008869185129678
  0.2013655359803826  0.6007243430046428  0.0066923243679974
  0.2013730950940450  0.5974177223863373  0.2017256438373124
  0.2020859583823890  0.5952537950142863  0.4025894660900460
  0.1996004018418451  0.5994753705717936  0.6005995364706339
  0.1988937969423712  0.7981228888481081  0.9979236677021239
  0.2057493183139022  0.7996100329633388  0.4041835800670295
  0.2001053346089057  0.7982794430767056  0.6022578699998592
  0.1988746016216386  0.7995364379708262  0.8011177566415819
  0.3985701779939209  0.9986965293802909  0.1996380958867218
  0.3991532069153572  0.0005829234270360  0.5992430221298362
  0.3992769182850436  0.1976820219821698  0.9994263163911087
  0.3992888491972575  0.2012681849078829  0.1999606617967159
  0.4001992310087575  0.1992392724532359  0.3982089597762772
  0.3996180228319923  0.2011080362029938  0.5992689962905740
  0.3997314883008754  0.2041129643364641  0.7998783446121634
  0.3993762157875573  0.4008578028667677  0.0053155307179611
  0.3994620869372573  0.4016254177496859  0.1999858803256054
  0.3998379890184493  0.4003030096849527  0.3988016581481946
  0.3995067437533849  0.4017690883064250  0.5966311015525714
  0.3964751088318359  0.6042426457356322  0.0010457737105599
  0.4009140540584872  0.6031142669939168  0.2000682971859564
  0.4009579364517729  0.6007110083069417  0.3992207757613013
  0.3995245196743720  0.6022444888221183  0.6001060196373399
  0.4031279544120819  0.6124990922730227  0.8021937634889591
  0.3988149492352132  0.8058676871157097  0.0021598034016398
  0.4006818163320502  0.8001643695145754  0.2004018624365543
  0.4011763640752875  0.8001692606519194  0.3987532195280624
  0.3999765164298342  0.8019388191577417  0.6013529238983014
  0.3985047918413205  0.8028533455725263  0.8012615723712025
  0.5984500222014763  0.0027813608221829  0.0017688758349195
  0.5969061134743898  0.0026217907955344  0.2013726284484400
  0.6011010227890029  0.9998090490407705  0.3980600769027576
  0.5986466025204240  0.0011957718444793  0.6009305049060750
  0.6034817039365379  0.0032059977676773  0.8004874665867715
  0.6006945391809283  0.2020246167768946  0.9976666725423021
  0.5976999848330586  0.2003987488658590  0.1981187574439270
  0.6002999854914469  0.1991228201932920  0.3981474603767685
  0.5978395078256160  0.2007656797273951  0.5988650524482799
  0.5974573493730490  0.2029198419794941  0.7983453234981549
  0.5984887666127963  0.3990160742599516  0.9996633845003685
  0.6007524163257574  0.4000915815330630  0.1996940329577313
  0.6006106059887425  0.3993344745941914  0.3996278919682116
  0.5987985430456509  0.4006523088696675  0.5997246826741197
  0.5977153098615690  0.4019906768839365  0.7998775811722262
  0.6009955804875674  0.6017992065666926  0.2013863383385915
  0.6005522852834893  0.5999231570022883  0.3987518028401209
  0.6014309921502560  0.6018841419377167  0.5992184304710514
  0.5994019269249385  0.6022189660958688  0.7979464185114226
  0.6003167779949603  0.8047804853350248  0.9995184506282301
  0.6025525875153320  0.8029667370616378  0.2008992922680280
  0.6011329981260056  0.8000575331031190  0.4018586728915308
  0.5978623412772103  0.8031043174762005  0.6001149046255340
  0.6013668281042303  0.8028168304443717  0.7985509101245313
  0.8004878136954765  0.0032625682372067  0.0059473416340772
  0.8005621572233362  0.9369102987813690  0.6108549605721516
  0.8002616412414570  0.9998391344182763  0.8059321671151697
  0.7996135667835488  0.2015513602199165  0.9950250231454018
  0.8010978553989899  0.1970857190671185  0.3905228812826794
  0.7999790793687562  0.4029356909790617  0.9997323587397047
  0.8010898690667303  0.4014539089572698  0.1983495376470402
  0.7997048894480767  0.3963121583156498  0.3989290384309266
  0.8006622144070220  0.4035267852083962  0.6006657877542867
  0.7924057259402305  0.4126889861469482  0.8021956970956866
  0.8037237463407634  0.6012513544817737  0.0001385409011494
  0.8004964859001874  0.5916309698841615  0.1990407241534349
  0.8021166657735586  0.5954123272391252  0.3994690816811274
  0.8005070492667929  0.5989765577175359  0.5982031918485354
  0.7984613667194362  0.6063176635267550  0.7982440923430582
  0.7992922684428548  0.8015345260462649  0.9967651972859939
  0.8004809729173699  0.7919976297678792  0.4150526198110598
  0.7998061940664618  0.8022779761505802  0.8008276321611992
  0.4009623764872420  0.9999658332259521  0.4000049897843114
  0.4042539318851222  0.0017212201657032  0.0056309578490501
