Zr Ti V  Cr W 
 1.0000000000000000
    15.4219977637485020   -0.0153525296692176    0.0018800521315798
    -0.0153399539639544   15.4042384266248558    0.0149563524432868
     0.0018828811446291    0.0149768248118706   15.4308175709018371
 Zr  Ti  V   Cr  W  
   2   1 100  10  11
Direct
  0.5988539681329716  0.9874709723117270  0.7906064929955483
  0.8061419275151371  0.4055828955899601  0.2021644657210864
  0.5975068764734457  0.4036873098781977  0.1972556033946097
  0.0005260583199074  0.0016343978236961  0.0003098455706400
  0.0005666831922543  0.0000958502063844  0.6006353706776731
  0.0004247699965825  0.0001636144340552  0.7996830680018808
  0.0057837168064758  0.1999336694951615  0.0009367137875496
  0.0015479930189332  0.2025684437684841  0.2007686240313080
  0.9969608338279370  0.1993934730717358  0.3999155866526211
  0.0014441338735298  0.1996656052813369  0.6006004156805178
  0.9988421415655828  0.3987301293961975  0.0039230524894871
  0.0008991989156874  0.3997787673382771  0.3980776294133369
  0.0008991324583833  0.3998540886636750  0.5993195502883295
  0.9994960465643451  0.3992071057991124  0.7991289702060267
  0.0028038788814837  0.6001810531210245  0.0010128133361792
  0.0013675274253390  0.5987668310585319  0.2002331233942885
  0.9998783132732008  0.5993519913358171  0.3994872982037485
  0.9991002958116678  0.5986464913297594  0.5988961855163309
  0.9994699154407619  0.5991331753212785  0.8008402119079088
  0.9996339417116052  0.8015232420314731  0.0004627285350974
  0.0012065478781060  0.7993189820309382  0.2006889051333932
  0.9993974992014780  0.7995346970106282  0.3990570381504375
  0.0026490915655039  0.8002645724723765  0.5996127672161257
  0.9971062682492779  0.8004818351591836  0.8001396044120832
  0.1977222907167395  0.0055981997078872  0.9992929619417448
  0.2029959481362821  0.9987809048845905  0.1992455829363130
  0.2005329110885776  0.0008837232665014  0.3999849546891571
  0.2006641014702140  0.9965884581523602  0.6005306365806682
  0.1993004345878837  0.9988013236005406  0.8002021645217954
  0.2000108862609243  0.1995405155930279  0.4009479693026257
  0.2003304530942183  0.1988284976877770  0.5999362680051920
  0.2006119804322018  0.3972142407436067  0.9993722076915061
  0.1996681258032262  0.4005890168499422  0.2020242198178195
  0.1998958585138682  0.3993777953395740  0.4017791529841942
  0.1998625172796590  0.4047776606763100  0.7980505504102013
  0.2043954159585303  0.6016955073470374  0.1955363510187925
  0.1994374846866626  0.5987621631788415  0.4014897526520183
  0.2010928132313085  0.6024674478365000  0.6048242435516589
  0.2022885114466496  0.8012937460830036  0.9982482106500833
  0.1992514131067988  0.8008900708601915  0.2010348596696118
  0.1997229740264103  0.7995381855728593  0.4037302661888770
  0.1994577155922767  0.7962623360455989  0.7958690563797344
  0.4002216203026218  0.9989190635265601  0.2031386010266185
  0.4013425790748681  0.0017425549314881  0.3979902573598779
  0.4033092435527790  0.0011682608366491  0.5981432064109210
  0.3933128382180949  0.0019751195269728  0.7964055440144567
  0.4003117435925548  0.2045598544777572  0.0005356208763361
  0.4021890542420232  0.2008115317754923  0.2011529535373312
  0.4022197138505581  0.2019452784070246  0.3992253199996250
  0.3995721829002066  0.2012453975473037  0.5988948290096290
  0.4009130356318604  0.2003167187554464  0.7999384399991794
  0.3998632823440001  0.4005690693561514  0.9992785643347992
  0.3969944920722147  0.4070020922477090  0.2026055638887461
  0.4004508881917453  0.3995658075027639  0.4003175730740567
  0.4000926126128976  0.3996940621618581  0.5988190510643537
  0.3993539573301168  0.4000527630992365  0.7971755438785304
  0.3963059927068976  0.6004359947359225  0.0027572364779447
  0.4004886237862085  0.8006906459095630  0.9993683886286476
  0.4010559546355741  0.7982614175009946  0.1992408895940914
  0.4016027089961561  0.8004054850930854  0.3999385098901334
  0.3957897476172055  0.7991928220629795  0.5972322768765578
  0.4019555935069932  0.8032166913820400  0.8010970340936474
  0.6060073795417464  0.0046667348665003  0.0013725448838042
  0.5988626656906524  0.9981804704294388  0.1986513211440267
  0.6012905134448958  0.9996402893422415  0.4000090139880280
  0.5999799313221098  0.1988320381128373  0.1948252276728697
  0.6052165220743698  0.2008421405672646  0.3975832429918165
  0.5999157891347435  0.1956983630500513  0.6039490696056787
  0.6009523968270668  0.2025460755069018  0.8038305924432877
  0.5996782204290122  0.3960905176588507  0.9961555230297451
  0.6006422640977850  0.4006057505506794  0.4033902032550973
  0.5995202871964792  0.3999106312459980  0.6004695684488142
  0.5998405285851228  0.4057706249973424  0.7976543583494242
  0.5990572486917956  0.5973616903610560  0.9958103368138049
  0.5947140777637635  0.6050495877994363  0.1970628223351167
  0.6011312259195056  0.6000807404226137  0.4001495295738093
  0.5994606698851004  0.5997948454374862  0.6023185806898799
  0.5988089745619543  0.8046898566103710  0.9951533672197576
  0.6007968078596827  0.8015201537369215  0.1988844851413230
  0.6016991152250942  0.7995985812326772  0.4006179484105540
  0.5982904116306544  0.8019354244615449  0.6018736445271314
  0.8030814861557559  0.0012944308810139  0.0007297854540083
  0.8024612835671497  0.9988868963624906  0.2012438930113603
  0.8014512111730173  0.0033127647221325  0.3994086219511924
  0.7972751236536063  0.9996251084881125  0.6002065794471326
  0.8066505512672965  0.0001531555978840  0.7993983403055031
  0.7954679353589765  0.2003241089686408  0.0007798807764050
  0.8011780574807648  0.1963766641784531  0.2041869140924661
  0.8007361718093783  0.1999332787409384  0.5968008388090265
  0.8008490535689304  0.2003234619491488  0.7994473253497029
  0.8015809497201921  0.3991443480771080  0.9965696626953270
  0.8001203627634359  0.3954851404764221  0.4066394756094878
  0.8006554956997937  0.3988770495863093  0.6017088921576934
  0.8002763197559569  0.6005028241576342  0.0000784966987925
  0.7979823873929316  0.6072847592046751  0.1993630071552874
  0.7989612825528203  0.5988742377347956  0.3997841427398364
  0.8005852174617468  0.5997099773548018  0.5988555622285150
  0.8002846976004605  0.5990773776407224  0.7998541843393374
  0.8007262250446319  0.8001305769475826  0.0004055708111703
  0.8003930921849094  0.8023631075051086  0.1998036720520884
  0.8008163493924123  0.8001053822943170  0.4005416145105172
  0.8026468552456689  0.7992530716436869  0.5984356266712788
  0.7987697110521483  0.7995894935682893  0.7996412144864160
  0.0023254218523739  0.0002448912926382  0.2007849560227309
  0.0008180805285119  0.0000557898026781  0.3999779327672050
  0.0007055185148657  0.2007527942953808  0.8004483679688008
  0.2017544440296717  0.1999735791183560  0.2012006736889368
  0.2001046728568065  0.2015807706145874  0.7996865561055603
  0.2003625664618477  0.4004667023371191  0.6000301150036227
  0.4003699437119079  0.5999223564573224  0.3995338554588896
  0.4004056764992844  0.6000208488850404  0.5993595490739982
  0.3992205862477181  0.6004063156831415  0.7997161728341164
  0.8015237378903997  0.3997573362756692  0.7989248876889348
  0.0069965633124709  0.4024523033014242  0.2017590461741720
  0.2041795772597700  0.2007545717786547  0.0006595223322916
  0.1993366481602893  0.5984658703937114  0.9971455636916461
  0.1942219773454680  0.6015653982327145  0.8055618824993820
  0.2005768564504476  0.7999820851760790  0.6004845845727356
  0.3987594542342947  0.6024381154757510  0.1974278101524078
  0.5997073201488106  0.9986203120664564  0.5923207492478364
  0.5977069210352768  0.1985784159128851  0.9980716026596144
  0.6033091638395690  0.6026642341977261  0.8000762423187179
  0.6004129333561423  0.7878863752571096  0.7985021375495580
  0.8002291150725946  0.1998138830985805  0.4001498303848169
