Zr Ti V  Cr W 
 1.0000000000000000
    15.3205282173675101    0.0002014824685806   -0.0032720455521328
     0.0002023707323046   15.3277042438828079    0.0007193262014022
    -0.0032728540049734    0.0007198926617368   15.3420216939870571
 Zr  Ti  V   Cr  W  
   1   2 101   1  19
Direct
  0.3912645337473940  0.4182973738261808  0.8169181126824678
  0.6092402500389552  0.6088640424814868  0.0068887395456778
  0.7903842207153028  0.7893220286601071  0.0074018497175674
  0.9968759944322418  0.9985483907761488  0.9962647763624831
  0.9998255810516863  0.9989949504412069  0.1982340147913654
  0.0002789413677209  0.9980230194573936  0.3976535893188414
  0.9982760905366643  0.9964171467807288  0.6034730022525054
  0.0019642413473599  0.2004989675223251  0.9989386871664943
  0.9987599797343638  0.1998416239876090  0.2006678791906923
  0.0001796499507174  0.1992150814988712  0.4019697590299005
  0.0002795760804101  0.2007161870003541  0.6002355539405789
  0.9976369792312074  0.2043351222546747  0.7990769369120206
  0.0036892490281011  0.3990343424641294  0.9985294818534416
  0.0000635549051953  0.4002626078562095  0.1965866092461131
  0.0012475043753080  0.4011779974671270  0.3985595706808664
  0.0022217907438022  0.4024052133204951  0.6053381193636800
  0.0025312215779396  0.5991784981825479  0.9950339705000111
  0.9986841364437740  0.5983874561889951  0.1983432811328568
  0.9959136673388286  0.5985120686227959  0.4060382992275589
  0.0027778592295300  0.7977870918807625  0.9991103771378498
  0.9954375253160278  0.7982208809393314  0.1986710531592366
  0.0020234365744778  0.7989229220334949  0.4056031264209057
  0.0002574557554824  0.7968567708174136  0.7980761848758219
  0.2002084005280468  0.0015458676846036  0.0011367309300029
  0.1988688618862606  0.9999486378421654  0.1988718676442928
  0.2038721531718952  0.9954728578866959  0.3978863139400886
  0.1998550003559616  0.0053248350394199  0.5986778855384440
  0.1945123207357854  0.9994995752876896  0.7999500521895466
  0.2008942457635617  0.1984782532211274  0.9999138393232759
  0.1991910680450502  0.2004057834138666  0.2019976411314553
  0.1998206450077349  0.1995100405717500  0.4044902012373542
  0.2011850933130670  0.2011852292641904  0.7942984163541473
  0.2069507006308438  0.3978751524609253  0.0002275051754547
  0.2008210931401393  0.3994889910839793  0.2009382782826443
  0.2011554584089326  0.4000886425462138  0.3980853042792938
  0.2016620566124009  0.3944353674747555  0.5996789313858925
  0.1912056037728437  0.3987933264459594  0.8004687288416451
  0.1986259665150347  0.6006640075412765  0.0010802401226551
  0.1988061350068088  0.5988612191795314  0.2004201318791608
  0.2011907816983927  0.6026494978731544  0.4004997024183934
  0.1970664419811563  0.5969744179892397  0.5985722240350766
  0.2019218576943574  0.5974701400243140  0.7994379688135207
  0.2001550826379717  0.8005452835872677  0.0030214655628689
  0.1991088824379703  0.7986002666589211  0.2038881870908998
  0.1968209459198048  0.8011367984471174  0.5944507146015529
  0.2016812344256468  0.7984368608828820  0.7992042216869931
  0.3989493868411198  0.0015119724192352  0.0012438051128446
  0.4009195590730151  0.9994896661756552  0.2008534327788456
  0.3994470691281214  0.9993927099153331  0.5956653683689433
  0.3989878749190844  0.9947369294911975  0.8018100115138354
  0.4002497441212931  0.2031939471255177  0.9982184375637175
  0.4002729088861779  0.2002033849424151  0.2016596438012956
  0.3994867385949170  0.1958617734857347  0.4016229787667666
  0.4011686166045300  0.1998964949337663  0.6018661879293541
  0.4003626573108935  0.1993176091184377  0.7989716893648638
  0.4041203217523638  0.4014007262962636  0.2024886294529268
  0.3992786131755662  0.4022030307264626  0.4003440572459277
  0.4000208550131173  0.3992175026190560  0.6015590719593430
  0.3987401815720254  0.5982362460668571  0.9967810217674903
  0.4020307145877487  0.6008483391135671  0.1997163608578391
  0.4004945674572084  0.6004787717341248  0.4033846444664114
  0.3999405662811099  0.5982117429710858  0.6047977000685850
  0.3981656062438628  0.8009663905474724  0.9979228430462278
  0.4013745141262141  0.7974210442421050  0.1970379653906466
  0.3993927430441920  0.8001596520762421  0.6030202418902164
  0.6004078181865936  0.0039253535000998  0.9990761401874196
  0.5995343379045364  0.0011728390506339  0.1992437129233451
  0.5949691226800279  0.9989201780770045  0.3974189335708743
  0.6008296796830757  0.0036067220940512  0.6010456106061792
  0.5957666082897145  0.9988527429494238  0.8001814550790464
  0.5996953557801303  0.2001499923319507  0.9991326451821740
  0.6022729182834173  0.2026473703970908  0.2024081667697751
  0.5991154539310670  0.2003355599720543  0.4053085815756160
  0.6018806367977509  0.2006137614607860  0.7969482879459300
  0.5967296049801940  0.3975725334340268  0.0059292646202914
  0.5981994475786758  0.3990860405778977  0.3962500422221271
  0.5974939693817141  0.3948653925559613  0.6001407270690415
  0.6003711454943192  0.4019439440147167  0.8036491222977380
  0.6005757205133481  0.5955008457205121  0.2055440290339167
  0.6026100795681441  0.5996281619467260  0.4045946163498723
  0.6021678404391506  0.5983232436387189  0.5995322183238851
  0.6028993398745423  0.5992791693801188  0.7964645249744537
  0.5937854459293157  0.8050668290949914  0.0006103379336566
  0.6015956898949132  0.7986247295616901  0.2003710652230513
  0.5994812604315682  0.7991867996842931  0.4017740157765148
  0.6010933654903370  0.8021019727790520  0.5990903571429210
  0.5990388252658072  0.8016378421542081  0.7988992060034751
  0.7994387015086768  0.9944645434205861  0.1949030094913483
  0.7988427067373013  0.9974680914922708  0.3964478098497355
  0.8001264789158492  0.0028138192398368  0.5928876554268443
  0.7998612651521902  0.1984787830439754  0.9957523633981422
  0.8007691804745686  0.1997147243725940  0.2031553428315744
  0.8008567231463060  0.1982614700799283  0.4031602607488468
  0.7990894785988321  0.3982008393017368  0.0033526163932764
  0.7968421596730474  0.4000543226164189  0.1995738555162512
  0.8005717686823376  0.4030491134591053  0.3990166425949838
  0.7996277426468067  0.3944383393240234  0.5982964130828423
  0.8015814858179745  0.4011772228902362  0.8029589965543176
  0.8034766972985675  0.5943074674813620  0.9938584699339792
  0.8012619453598198  0.6014358034692491  0.2061837998722359
  0.8030046403450217  0.5951647835811968  0.5992968674943474
  0.7988408494736304  0.7955037454857404  0.3978364385004629
  0.8026380670911002  0.8045918270562492  0.6012482468799009
  0.7978595925981143  0.7888137207843805  0.8011844694472607
  0.3995002767267109  0.7986884676739422  0.4001539715259352
  0.0038128155563059  0.9951538431434899  0.8004076590318641
  0.9983199985687620  0.4048125623895574  0.8040972075101159
  0.0007828470679114  0.6027822789201560  0.6041235902729248
  0.9975637613095936  0.5963275653051600  0.7959267167595603
  0.0004907819674154  0.7971087551554168  0.6022649185748437
  0.1992085806162340  0.1993792693171942  0.5986564792059612
  0.1967069808982859  0.7994096279660188  0.3990098717840049
  0.3992674314801941  0.9991205032959395  0.3974684618607964
  0.4022412568715189  0.4013222572616730  0.0121779310425880
  0.4027480745771703  0.6142135760664278  0.8007868346765581
  0.3976737118059429  0.7994204556966819  0.8002551932566330
  0.6027870689269290  0.2000367014139411  0.6013734567033546
  0.6005914235958146  0.3984140010497755  0.2011898796545741
  0.7988247315075220  0.0026783401337271  0.0057035174691519
  0.7987351567827313  0.1989743043605365  0.6000700238360046
  0.8001889015696424  0.2094571983202045  0.7940856858898308
  0.8000547798344473  0.5993354446390613  0.4037110104398510
  0.8027909081521327  0.5969333060156425  0.7959500957060571
  0.7990394051631002  0.7982283593343296  0.2049650790255739
