Zr Ti V  Cr W 
 1.0000000000000000
    12.2882735461728885    0.0000000000000000   -4.3445607757035454
    -6.1441367710433559   10.6419570608175889   -4.3445607757035454
     0.0000000000000000    0.0000000000000000   13.0336823299999995
 Zr  Ti  V   Cr  W  
  30   9  50   9  26
Direct
  0.0098040561092635  0.9952510963315617  0.9857155422444004
  0.9485264157935424  0.1443469807697310  0.1438951887394501
  0.0245128383872062  0.6275119012537290  0.5938393323791437
  0.0295779652687642  0.6112539834265690  0.8419646253998876
  0.0066236743694724  0.8052115059436199  0.0168932646066558
  0.2044154045372374  0.0124690120678343  0.1997695928457380
  0.1836336964942814  0.9760492921067908  0.3812637226402367
  0.1576646337862916  0.2306834304553582  0.8232204315021152
  0.1711876179287251  0.3781407840950797  0.3592146282228327
  0.1331361031199156  0.3635569114776692  0.5778979416856699
  0.0142328172523169  0.4462209632508723  0.7843515196407279
  0.2300230787942684  0.8387797617537759  0.0093239985634686
  0.3689655272929397  0.9633027341306257  0.5594889734461816
  0.4031042712752901  0.2085737809231845  0.0139213508776412
  0.4002556429910263  0.1967205687290582  0.5994286175393744
  0.3017651395382923  0.3830918305211712  0.8008955991307172
  0.3721037909969817  0.5652971590282839  0.9951765568582949
  0.4290910450374183  0.6088326652000132  0.5931428470478580
  0.5756419093190938  0.0041971513172244  0.0197116938177739
  0.6132590384658420  0.2173331251916284  0.4035538251725664
  0.5709728799367360  0.4137318017905072  0.9996546396247540
  0.5835733805071790  0.4092858050995229  0.8064785570776273
  0.6015310844042019  0.5997118982108575  0.2253847929636115
  0.6202726830246950  0.8373060023404221  0.8470253030607771
  0.8020375230189248  0.9855010989817058  0.3954880917043183
  0.7915773059667541  0.1983852284534390  0.1884480787489823
  0.8219024348915430  0.2107886021577112  0.3904391322712052
  0.8538079610416606  0.2316921795445928  0.6105998527600491
  0.8099230825667372  0.7842509494649823  0.4125393954086454
  0.8135912389422383  0.8002916810118065  0.8202246162957965
  0.9808897219897501  0.9906698240177312  0.7804911312156160
  0.9942010821710365  0.1941138463648907  0.9618931211178622
  0.0127375138962001  0.4199594396234818  0.3897503415643332
  0.4084100311577389  0.4016223367531172  0.2451014415025221
  0.6124334611122411  0.9809790757628516  0.2048575895016925
  0.5924884195795364  0.1807851740044556  0.6080340545450434
  0.5921579763822108  0.7881406145742283  0.0134882281812373
  0.8264521794718531  0.0189434235382035  0.6087004371880738
  0.8170798874748173  0.8100591702337422  0.6206880077658730
  0.9863920127953112  0.9831169163780863  0.1954766309140978
  0.9889134834181667  0.9601236784639581  0.3813041824863341
  0.9932287903449909  0.1731511345147496  0.4026514486103355
  0.0160338416287851  0.1577009075649972  0.5899224584100404
  0.0492330353437539  0.2513874442523911  0.7940307581175153
  0.0213610910936096  0.6278771425191515  0.0547517335124258
  0.9734327577306586  0.7919845925276010  0.1941584266785528
  0.0140982590867130  0.8207977731317007  0.6101423975337685
  0.0244202483552735  0.8130222666782182  0.8043353499989875
  0.2165802786698994  0.0096080646984416  0.9948161286498514
  0.1874584392906322  0.1931507635388821  0.3914403511979592
  0.1683135041502223  0.4673809095397874  0.9445557686690412
  0.2082046811701393  0.6123073439736447  0.2032136699127904
  0.2043794701598419  0.6091009554488713  0.3968155392686615
  0.2301208444697162  0.6052297423525140  0.5954176603007215
  0.0222930756035525  0.7919992894469585  0.4107317784782437
  0.2113322239283124  0.8049696382181440  0.5939758766379873
  0.2289724640251231  0.8274388474636536  0.7938917178516631
  0.4013441200629030  0.0102762538324382  0.9914806570144508
  0.4187207689917042  0.0037369074327573  0.3895009373082334
  0.3966830214544693  0.0027435096303750  0.7911953052446641
  0.4073962611643634  0.2048434238498721  0.2099374031253351
  0.3783683554248163  0.1946259169472770  0.7995370196785330
  0.3918425329851397  0.4016513851821778  0.0588602932912709
  0.3911392026560542  0.4011500553712016  0.4102301882351659
  0.3912296838181366  0.6024195292348623  0.2069996219978822
  0.3898128387919678  0.5995789229854461  0.3835455435633864
  0.3968957532559390  0.7880373266605162  0.9887653858780006
  0.3657431960601031  0.7600423622391878  0.1546609702132969
  0.4046298364832587  0.8009084984031779  0.3927965573043258
  0.3923986246952896  0.7976956728175526  0.7998118368257962
  0.6071790536412996  0.9957582210620203  0.5871976292815329
  0.5949486718111724  0.1971082629786626  0.7962623805933233
  0.6098297344471360  0.4102860827542872  0.2246567931472050
  0.6010893122467991  0.4125914472028447  0.4143224815106405
  0.5972838959738400  0.4094813245017784  0.5949982870204703
  0.6133239090718734  0.6033011656887473  0.6205259277687245
  0.5860651906494203  0.7876328473895486  0.2047336627955988
  0.6174621659946770  0.8164691087428778  0.6073550330890597
  0.7840201341878001  0.9917192368861814  0.9925502184668854
  0.8039398583831067  0.9763878515360117  0.2029629290127449
  0.7837722322683670  0.9888167755280068  0.7872433194944416
  0.8098094853072969  0.4164087276125096  0.0165206435847512
  0.7800531312490294  0.4076013883816217  0.3678052751694716
  0.7985551651832492  0.5990871459721434  0.0155580001700426
  0.8056218186749335  0.6140119919954968  0.2102021312045214
  0.8080279626140134  0.6027262420236960  0.4203981909831683
  0.8125428163118528  0.6222526051720915  0.6254359834948328
  0.7967654831747784  0.7889062510302066  0.0166433408977222
  0.7866904923399296  0.7863762073700244  0.2006521005807738
  0.0095815055091829  0.9857766575669555  0.5931058616525450
  0.1052364960592014  0.4029033753981863  0.7046706399723915
  0.0138793257056698  0.4464382563612229  0.7841768045083248
  0.0082601579085465  0.6104250942731334  0.4027244427532649
  0.1909787648569239  0.9846284575013609  0.5943625874638943
  0.1956965051092903  0.2008315287298867  0.2118588312617925
  0.1670016310338274  0.3702178683458235  0.9141845301695504
  0.5959906597500013  0.2118106152224957  0.1917790300710834
  0.6097098389659724  0.6092527844227327  0.8067676778897835
  0.0286447980698714  0.4065492408035937  0.9860130977489028
  0.0024798948618860  0.4018901794297742  0.1775496195706077
  0.0196055528941592  0.6269825560309900  0.2335987219409958
  0.2014734682057185  0.0085954943461225  0.7959098787610938
  0.2035267964052240  0.1947607259764307  0.0221376044719415
  0.1887643154708060  0.1644401458995547  0.5805654135871989
  0.2076599410930339  0.4119830811554359  0.1546918679151981
  0.1835317203622408  0.5373709445613936  0.7867196842424430
  0.2278860363759761  0.8140583551990742  0.2351399839512626
  0.4328474432750650  0.0102125918627726  0.1969690248403052
  0.4014600481133289  0.2144342572277882  0.3991702544401132
  0.3887765670188741  0.4011842884748885  0.6081024872744607
  0.3943220828371492  0.5980633713860264  0.7869912377981647
  0.4054962475246885  0.7996248613541034  0.5951217634121464
  0.6079650017612189  0.0058884463877303  0.4012861865548649
  0.5921526425479022  0.0070045690576922  0.7876528815669245
  0.6012084916684760  0.2106029427015957  0.9895913373009324
  0.5876754007225597  0.6142029430335636  0.9940133515568523
  0.6075141975729169  0.6115830481018522  0.4406995503964548
  0.5959082290530633  0.8037478930608812  0.4014667413935087
  0.8021487928160377  0.2163361709616874  0.9744453529709579
  0.8118548646427491  0.1718095421515496  0.7757852111432471
  0.8041909036139475  0.4192293327238307  0.1970711335536162
  0.8303360905039407  0.4315892165926542  0.5683155120289338
  0.8358516407161006  0.3837070727035756  0.8363301211328376
  0.7888661698165135  0.5838412361770555  0.8040975646711527
