Zr Ti V  Cr W 
 1.0000000000000000
    15.4642957915060411   -0.0235515696902267    0.0121868429968223
    -0.0235389800277635   15.4481827200202471   -0.0001532957350023
     0.0121980095284862   -0.0001543975415909   15.4404202583964452
 Zr  Ti  V   Cr  W  
   4   3 106   4   7
Direct
  0.9636260498548792  0.2010351569911208  0.7820738824153822
  0.1983829560395199  0.6003849013047631  0.6044711838680726
  0.6043215279713282  0.0056571472020057  0.8001069647451264
  0.6032142981407764  0.3868864547498683  0.2015424757765861
  0.2046346951727628  0.5951455674314206  0.1899319589115660
  0.4307085007374498  0.2110526120837526  0.2005550944818416
  0.5994866741035141  0.9998791652538513  0.3982310375342614
  0.0033097894048410  0.0000097083208257  0.0012821277216535
  0.9989730753657552  0.0000992094464900  0.1999042969834825
  0.0024251274321470  0.9968619885988691  0.3989183241938642
  0.0014431479228264  0.0051568873264352  0.6005509555767077
  0.0001465718304229  0.2000768382915414  0.9955153703432195
  0.0001485413821298  0.1984128844223854  0.1981450035644080
  0.9981558277398133  0.1978958130907641  0.3992955845716047
  0.0029549428103832  0.4010612584190549  0.0002145683777555
  0.9984493230621593  0.4001342991933221  0.2009519042711442
  0.0049495590850327  0.4019624559476789  0.3999355699595783
  0.9978515146140677  0.3948286292783680  0.6006297369377830
  0.0007449380467902  0.4037295615725224  0.8007360287039853
  0.9991581736662717  0.6007425212146864  0.9994220551313334
  0.9953145299358260  0.6009355065988272  0.1986225751504757
  0.9982762583520595  0.6043119611036146  0.3991023455130288
  0.9942009312719292  0.5973892423689973  0.6001391925351899
  0.9985391370433156  0.5992851398454818  0.7996030032480649
  0.0030912323727882  0.7995939703957343  0.0021176027631735
  0.9996925826258408  0.8013716186249445  0.5954103596364709
  0.9977208093889951  0.7979948613008520  0.7971698857352978
  0.2016067732530941  0.9987862171891739  0.0009224494953787
  0.2049727482815294  0.0044170868915170  0.2005810096934880
  0.2015986008206467  0.0022496024794401  0.3992922967440914
  0.2009007837147347  0.0019284646000287  0.6007008201720185
  0.2009596574226443  0.0011915996420143  0.8014380911428034
  0.1952738906153242  0.1994869840900811  0.1983426939961353
  0.2011644839912576  0.2026441808061122  0.3974464542848350
  0.1943485852862676  0.1983862455443388  0.6027006259048707
  0.2048592228592345  0.2010298029885054  0.8012706438192948
  0.1991462827217772  0.4000250490303300  0.0027420449030695
  0.1987708459748646  0.3963094500954459  0.2033570550363093
  0.1991771870301310  0.3942184365230346  0.5960034997206805
  0.1993474547057693  0.3989589326808179  0.8014346407700074
  0.1996130036487329  0.6048050472645951  0.0002370174300921
  0.2045784307172567  0.6000010221806397  0.8057726366525101
  0.2013030048334787  0.8029603440306299  0.1957675362803816
  0.1956156103704212  0.8006635840311572  0.3976428429110192
  0.1992761661304627  0.8060276453485150  0.6019273023346413
  0.1981741668181377  0.8015965197609707  0.8055992659191137
  0.4001735950045500  0.0018522424174685  0.0004360911579266
  0.4050658159568711  0.0011221856323846  0.2013495791064466
  0.3966089311321003  0.0000429807306620  0.4001967195842697
  0.3995699275346163  0.0010255959026884  0.6011878308560170
  0.3998374640849242  0.9985074100859653  0.7996313720604753
  0.3999104768469703  0.2016496559293486  0.9995022072412133
  0.4004173383400058  0.2004015405460943  0.4032748545820855
  0.4013898351650418  0.1997478112849531  0.5999805913274078
  0.3993768268026761  0.2029697579092749  0.7998282026196804
  0.3968416937048951  0.4010948303308259  0.0005459437110109
  0.3958771479857995  0.4059525019354073  0.2007930555349392
  0.3925932791223537  0.4017940698466914  0.4014477366485321
  0.3996121234596689  0.4062309300112186  0.8006027133289091
  0.4013669071696328  0.6014772775819376  0.9966503024226548
  0.4040035354170581  0.6010327646713339  0.1996549864104850
  0.3999769000973210  0.6004871328793975  0.4016677460237905
  0.4051755661079396  0.6009928214043322  0.6049963669836865
  0.3965322759633211  0.8012491287394066  0.0008771013893981
  0.4010331976506779  0.8006274485104576  0.2019376793209699
  0.3973434093023994  0.7987766205145387  0.4010930559946732
  0.4002277828498954  0.8018544283026068  0.5993332523667251
  0.4010849875976323  0.7964907354275148  0.7997540824359477
  0.5998206210676836  0.0001866279872020  0.0049807557277637
  0.6047568002643994  0.9937267375615915  0.1995458707016158
  0.5995777791183535  0.0011226790210867  0.5940624987187210
  0.5988820068057277  0.2000083765432370  0.0023704708039461
  0.6144234425698023  0.1866831121110287  0.2006850877514077
  0.5989950989482916  0.2020926526800911  0.3990473661503904
  0.6000005880435456  0.1999991969731496  0.5986360966636501
  0.5953842150416561  0.2071594466214528  0.7997273625452405
  0.5999025944173285  0.4002262134909794  0.9958870088856436
  0.5976674036668969  0.4012786047686860  0.4059536849797699
  0.5998588718185134  0.3979088751407813  0.6003060392453625
  0.5999731099385083  0.4021329134659827  0.7992812694778105
  0.5992467000756748  0.5995633114860177  0.0016680947454762
  0.6005239052501244  0.6000790642419170  0.1999285239294912
  0.5983291721390679  0.5987875423687580  0.3998877171005388
  0.6002866191865107  0.5986689475307098  0.5985227036908582
  0.5964850258966639  0.5992821572509976  0.8005629684123076
  0.6007835933961441  0.8010654426070966  0.0024500145100422
  0.6008585598458459  0.7980406090163998  0.2008249896145433
  0.6018990939796564  0.7972803013542723  0.3995130820568099
  0.6002003555021769  0.8007626009070664  0.5991260534688880
  0.6045226839692447  0.7983001372226910  0.8000304716864706
  0.8033202417800267  0.9990796835888122  0.0017068348099831
  0.8024331466167230  0.0013118739452396  0.1992654021118055
  0.8012266932603374  0.9995867972322697  0.3988811710747435
  0.7996050983226969  0.0003468503875736  0.5993477340889001
  0.8082515090241146  0.9966840948675936  0.7998046784275761
  0.8012722452785941  0.1991995986858332  0.9954658391355860
  0.8041805651489643  0.2014936005937077  0.1990778935806115
  0.7995791189369512  0.1999867041215077  0.3992872952652767
  0.7984079488479630  0.1991161126252859  0.5982382391151351
  0.7723585125091582  0.1957467131626794  0.8008674568980725
  0.8000129238858309  0.3989702562543231  0.0028718002420756
  0.8001406740148871  0.4000806604042686  0.3970827360538955
  0.7986567710942241  0.3988085015322996  0.5992446174049422
  0.8008862900510912  0.3977986923849482  0.8010361281908422
  0.7990936768172061  0.6000985797471411  0.9999467211851646
  0.7977947913984484  0.5916803267918136  0.1992240234358379
  0.7980448123520075  0.6000261314240612  0.3992266254385931
  0.7975521301166060  0.5963840389416804  0.6004124213423053
  0.7980538515904745  0.6013983489753557  0.8004535879716439
  0.8020768812673135  0.8000628218060175  0.9936037900529500
  0.0024542987643938  0.8004220724615723  0.2040499262915064
  0.8023955761088930  0.7985229396763815  0.4042980562484443
  0.7998525864376499  0.8011709059810793  0.6048195744786615
  0.0034359857141999  0.9957248759689212  0.8004506239138497
  0.1998445879276012  0.1996334785496316  0.9994677154913200
  0.1997577990177901  0.5999875859032257  0.3973829205235711
  0.3993665610002951  0.3990034275974135  0.6011223644984109
  0.9969132474851718  0.1991314534417531  0.5878501458603640
  0.9973158382860935  0.8017727550389740  0.3994883422020191
  0.1983734836238555  0.3983043425425774  0.4000499310002270
  0.1990429387966372  0.8038570848218575  0.0000801957467982
  0.4010523313729693  0.6009427028502243  0.8005016239687635
  0.8057176298186653  0.3976534764612879  0.1998376120347458
  0.7999290281005309  0.7981118713217763  0.7999607069805414
