Zr Ti V  Cr W 
 1.0000000000000000
    15.4774007178547244   -0.0057270445464663    0.0060485456842571
    -0.0057275938548885   15.4869400142696509   -0.0016006725836938
     0.0060484205712483   -0.0016004018593464   15.4828342852602923
 Zr  Ti  V   Cr  W  
   2   1 107  10   4
Direct
  0.0024287550955207  0.4018929550771904  0.0006804403099023
  0.4013917353109585  0.5967367019055843  0.8025168699400682
  0.7985571054618360  0.1935303923080328  0.5999737644827214
  0.9996132998883788  0.9968120667114097  0.0303469644881126
  0.9995867169759716  0.0005075164246839  0.4009452892106302
  0.9969987787113590  0.9990024700667933  0.5995336073468743
  0.0006756131107759  0.0002665249315395  0.7980470126521559
  0.0007533135807185  0.1928566823493460  0.0026403381294398
  0.0000080661443020  0.2020668369388010  0.1999131048989707
  0.9999557050783511  0.1989416645913065  0.3983591851760943
  0.0034749462716746  0.2000045484313803  0.5991781440661619
  0.0018492596187047  0.1988056069632502  0.8006762942134116
  0.9996982676901036  0.4000539977857930  0.2048060675470408
  0.9996788602769301  0.3999395099369613  0.4020850036425591
  0.0013850481266207  0.4003839093671608  0.5984525325773605
  0.9952513802193940  0.4000375070215921  0.7947408479197033
  0.9999090151525959  0.6081567419231018  0.0000927848538363
  0.0001733546400069  0.5996290533565825  0.2009494460304780
  0.9992185126452008  0.6003164295215162  0.4001174519697944
  0.0005300991592785  0.6014193534437692  0.5989576954578695
  0.0005394462801045  0.6004327850914094  0.7979232525673756
  0.0001849300001397  0.7978001571678257  0.1965637343230446
  0.0000341765503997  0.8019065554388480  0.3969456519890071
  0.0013903982978003  0.7985834117958878  0.6011337009936364
  0.9995418986412080  0.8004288764516287  0.8026900348801257
  0.2009696222029654  0.9996802806475846  0.9994238517976909
  0.2027107849807707  0.0002598650240677  0.1997565640582060
  0.1987408217357794  0.0002325911620862  0.4000471528326484
  0.2003113269668396  0.0006371141202572  0.7981095310286445
  0.2010235319988984  0.1991210589716212  0.0004165614593312
  0.1998053462183334  0.1995855541485686  0.2000751136277785
  0.2000265407757922  0.1996167289384567  0.3995999036934969
  0.2000114186451796  0.1988160387308725  0.6000795844137842
  0.1996387635826782  0.1999613528733810  0.8008996936918005
  0.2057782427984509  0.4001174206630101  0.9992617251685363
  0.2023268949012753  0.4003854125067786  0.2017031408956950
  0.1999639461553679  0.4001667989793953  0.4011391302168777
  0.2048308401272845  0.4004715369724279  0.6007473076107759
  0.1980864186459565  0.3991945224533694  0.7992225759484605
  0.2009890957196665  0.6012142197448738  0.0001441566779912
  0.2006737689341353  0.5986070619124969  0.2002331430709680
  0.1988925435995255  0.6006306799307595  0.3994156929061618
  0.1963999907587054  0.5993892716792927  0.7998222474481617
  0.1977346252719284  0.8007853895446536  0.9989631964833153
  0.2002701828530959  0.8006181128751059  0.2000884259143210
  0.2000351822922845  0.8004890206301900  0.4006100260680840
  0.1999354366835095  0.8001857091805366  0.5997825733607476
  0.4011353948774034  0.0005426261838126  0.9995834596184174
  0.4011070868455149  0.0004109036289748  0.2005491186376065
  0.4009708059315886  0.0006729524533420  0.4015920998953988
  0.4007638536904139  0.0006967889073067  0.5997171947533781
  0.4003958165036636  0.0006585750368326  0.7982342424132270
  0.4005928989367608  0.2001633956531992  0.0004840457403627
  0.4011066612771108  0.2008849855193922  0.2001579993772450
  0.3998707661487138  0.1999551760885196  0.3993455440028521
  0.4000794024662130  0.2027199196392459  0.5997565698990299
  0.4002165071530603  0.1986350084699444  0.8008561301773007
  0.4020804739326909  0.3985639885903125  0.9998961434248681
  0.4008511911414872  0.3999670411152449  0.4042327613319057
  0.4022420770014610  0.3937571790318204  0.7952756052645983
  0.4002064293338491  0.6009141948597164  0.0053844094826205
  0.4001958376302474  0.5995028680508763  0.2019753411962928
  0.3997198643379838  0.6007049970991769  0.3998013784583057
  0.3998997049341681  0.5967294795337204  0.5965177061836746
  0.3991988028834338  0.8016802961179176  0.0009156400440548
  0.4003352278217812  0.8002014683068231  0.2000833577266867
  0.3995753580545330  0.8003423381406806  0.4001036262682537
  0.6006517898581021  0.9993996915519529  0.9992315911924419
  0.6018395410534554  0.0007420924969789  0.2001911518378370
  0.6003141292951999  0.0003675813692861  0.3996213965830533
  0.6028968526043215  0.9991932680014572  0.5996875444934520
  0.5999843481239656  0.0008175160884198  0.8000990626505619
  0.6004096201628193  0.2003632238649811  0.1993633461819683
  0.6009003805722944  0.2004317607366988  0.3983131867817960
  0.5984226872467016  0.1989247536036690  0.5990781365764039
  0.5995928122249089  0.1990624720316409  0.8011701760549875
  0.5983106642671483  0.4008873316978072  0.9998270438238306
  0.6004887503401923  0.3995719684968341  0.2001399425126627
  0.6011844328558075  0.3998241545615524  0.3999921272364048
  0.5962341657816371  0.4007582822132406  0.5997956705919288
  0.6061075167614345  0.3989228062983606  0.8002258789752099
  0.6003743947651089  0.6014473804079933  0.0013681621625052
  0.6004880718073401  0.5995633100184696  0.2002394368791910
  0.6010317920273600  0.6002339119779802  0.3993736922270478
  0.6004467816170702  0.6023054465957537  0.5991577508520604
  0.6050333866688351  0.6014102932322982  0.8001698983821214
  0.6005831791530906  0.8001609331354826  0.9996452762662557
  0.5997452953974357  0.8002235369501238  0.1993938832899033
  0.5993783502005500  0.8004712777464736  0.3999636815175907
  0.5985637548131599  0.7988454694136234  0.6006987312078972
  0.6009666651406842  0.8010001182859829  0.8003928212373578
  0.7988700430882919  0.0008542232922699  0.9985123318534996
  0.8006468834585346  0.0005440198214124  0.4028168794747797
  0.7997465459274694  0.0024252381446416  0.7953359064660211
  0.8005935468787636  0.1970124893353109  0.0015054460294468
  0.8007157310456716  0.2003931479246276  0.1989380117967199
  0.8007778670571808  0.2032722537670684  0.8029904853152576
  0.7954984702217180  0.3999615087788665  0.9947633896752704
  0.7993327572522065  0.4001209319764345  0.1989136121969444
  0.7997640274025909  0.3989141855530232  0.4021864440841127
  0.7986182892923956  0.4011748007262183  0.6038590120240549
  0.7994552694259982  0.6004051367393958  0.0003244436742733
  0.7996478244982511  0.5981234627309335  0.2003852944472515
  0.8004899222983528  0.5999074766159633  0.4003551165045147
  0.7999225024953096  0.6006465585781904  0.5987316840934215
  0.8017489718497892  0.8015456806903322  0.9994306642232025
  0.7997672267535094  0.8005015416731709  0.2010638468154256
  0.7998214755863660  0.7999376456664974  0.3988700053532463
  0.8005586703563647  0.8011729244924473  0.6002195166146566
  0.7997909761361287  0.8001334947087504  0.7999028146866168
  0.2003699886849178  0.9993833597491222  0.5998390218923331
  0.1997769586553863  0.6007894037687087  0.5996372179493349
  0.2001978371178296  0.8005014968478795  0.7989989282455932
  0.4013499291128272  0.3999637433149154  0.2017596136198036
  0.3992960628327981  0.7998021837856032  0.6001691180171624
  0.3998454196730709  0.8029450924870134  0.7998768280645132
  0.6000099587124417  0.1996649247297919  0.0007065705841136
  0.8017636079601260  0.0003555020417687  0.1999245744999944
  0.8002175402239572  0.1998848788204277  0.3970107059308643
  0.8013953684378624  0.6002867369739133  0.7991691913918535
  0.9984350563103929  0.8016677050909609  0.0008914489767716
  0.4009415287812039  0.3993469674381598  0.6005740044327643
  0.7995062502397065  0.9957600550226238  0.6009719180874782
  0.8003474327739061  0.3964874583800073  0.7996123347613321
