Zr Ti V  Cr W 
 1.0000000000000000
    15.4243531601052801    0.0069213360103042   -0.0227130969377285
     0.0069117328085832   15.4243730448160701   -0.0099851585265742
    -0.0226677546087976   -0.0099574154515165   15.4321734753061364
 Zr  Ti  V   Cr  W  
   7   3 108   1   5
Direct
  0.2050335703944565  0.0020225352690667  0.2119313219924548
  0.1701334021726159  0.7674957423947890  0.5988170379379051
  0.4011364257986971  0.2000375553986933  0.9973531987046539
  0.3641778599345978  0.6341150040273398  0.5996094943889830
  0.6363655131021713  0.5987718213852776  0.0372870017435715
  0.8043916062306562  0.5972527448127383  0.2078704018994913
  0.7599183873657029  0.7999749284095279  0.5977139587527367
  0.9906483266311055  0.6016839870131071  0.3878077649573887
  0.2032097187561697  0.6009950590467166  0.0045018795672191
  0.5593127438249844  0.7868998721459086  0.5976688144721349
  0.0017493210914894  0.9940983304455793  0.9980524025490651
  0.9988228133986153  0.9993089282864058  0.2005527537852371
  0.0051022379191870  0.9970063353351947  0.4044656886726943
  0.0034215199885356  0.9988059952030436  0.7936781991430940
  0.0015188058256690  0.1990739963809204  0.1981389966472041
  0.0005151539074419  0.2001772695445153  0.3979818215474900
  0.9984154481412473  0.1943971996289161  0.5993250178126750
  0.0068396833546092  0.2002432230583118  0.7998903692122776
  0.0013405833695376  0.4038158846761783  0.9982725533574098
  0.0001375206284531  0.3999778195563096  0.1962465903758485
  0.0016632135620671  0.3987777710526781  0.3988242581945806
  0.9967506454304756  0.3962146137611133  0.5977918723757262
  0.0019038612729725  0.4015654486251565  0.7998131586241004
  0.0125233609700317  0.6055737853022830  0.9971635720552662
  0.0095723829634540  0.6005115652629816  0.1957240843062965
  0.9921771032881936  0.5998329525567009  0.5997531266150474
  0.0047608484292321  0.5988817066144488  0.7978670862841152
  0.0002135336061968  0.7989422713236488  0.1922234255367670
  0.0014972650006739  0.7984426407521645  0.3985287042963197
  0.9748595192368503  0.8040696323274914  0.5993611552160688
  0.0048267214166151  0.7982378752227018  0.7997228855656970
  0.2015705851282502  0.0005677290234360  0.0017659650905794
  0.1954798132855453  0.0047892193537278  0.6003405959967535
  0.2049716765462095  0.0039461034079198  0.7989533748504997
  0.1949456262611060  0.1994594983149993  0.9963039069255333
  0.2005652806446919  0.2056135690877022  0.1984084480932430
  0.2015661450633229  0.1965034498901440  0.3983906479067019
  0.1976536790947999  0.1999055769481573  0.6036649349876443
  0.1986505216448815  0.4001081347923496  0.0002070425570004
  0.2023343250717182  0.4017228094252583  0.2004332172250969
  0.2011792910686828  0.3974548359120879  0.3996800015283126
  0.1971832345690055  0.3954773849216088  0.5975310793436209
  0.2082115252230392  0.3954098963237159  0.7992432018476316
  0.2032584197390089  0.5978299531968243  0.2081725156310601
  0.2008120197062329  0.6017403196224670  0.4057574556560426
  0.1737758972589891  0.5794314499007386  0.5969350829051993
  0.2040483318904684  0.5995278928616345  0.7911490356457512
  0.1975203754057517  0.8033262368153758  0.9995172942425634
  0.2012073008432217  0.7941290655940842  0.1981596011265916
  0.1997511469150104  0.8041992189334886  0.3937948024752320
  0.2039178069188219  0.8018371565424307  0.8044948193251913
  0.4027319443073878  0.9950527762299035  0.9998330420992546
  0.4083273381369016  0.9976739881804018  0.2006375962858420
  0.3983164633932709  0.9997895808258475  0.4003240167654479
  0.4017631917080751  0.0047746989155815  0.5997420628413267
  0.4035561975020489  0.0004531322083254  0.7984914840642000
  0.4034659022236047  0.2029805640804578  0.2016589514506530
  0.4009682367050281  0.2005805392379426  0.3997786577217182
  0.4012453007162767  0.2025697692121164  0.5965767350321791
  0.3982368596453734  0.2048827284573872  0.7932632807723993
  0.4024434626760774  0.4076180693044612  0.9962506126074455
  0.4017413724234397  0.4024628712964747  0.1980253059293252
  0.3993290463934040  0.4022150203760507  0.4012096134447711
  0.4008277536491860  0.4041590110450536  0.6040407511357885
  0.3967688719927751  0.6046658316053695  0.0011746843582896
  0.4006364904226281  0.6012585242943351  0.2010603717479884
  0.3978689927992067  0.5999189706427508  0.3984528862853552
  0.4044488363916103  0.5962738584856445  0.8064771852521131
  0.4025670038232412  0.7993134250471701  0.9992124841237838
  0.4010779747634060  0.7991217197903326  0.1973647676249644
  0.3995205690141183  0.7996718528617935  0.3989211769499589
  0.3742752486621283  0.8218953894289429  0.6008529711121223
  0.4009938928133103  0.7997841386940383  0.7993019364852747
  0.6048898872700308  0.9965229957554167  0.0005180512527825
  0.6001696236755444  0.9976330473035157  0.4003896893237220
  0.6016117912005835  0.9972737009679897  0.5995969352979891
  0.6012800522368567  0.9994791847244379  0.7997519417624640
  0.6088780501191210  0.1991938585286370  0.0009597974799668
  0.6023593873925294  0.1994215575766819  0.2006232366645074
  0.6004942943208500  0.1990093605497788  0.3996935705993768
  0.6024632479513358  0.1973428305386373  0.5999080934761823
  0.6014871909343991  0.1985237763225865  0.7989108474405224
  0.6010831337494352  0.3982500869555832  0.0009150857413625
  0.6012045809898252  0.4014870637122636  0.1998525538099586
  0.5984300635382772  0.3993132304641620  0.4013161652982336
  0.5985667965448079  0.3990351874456738  0.5987346936274622
  0.5972172193911254  0.3992613072845546  0.8023942460793788
  0.5948422481477823  0.5999963759261400  0.2233733721169865
  0.5967377981834796  0.5992118237528282  0.4096221878319903
  0.6040391138392261  0.5973807412522820  0.6038773380828878
  0.6007794232867555  0.5991187842624511  0.8005221852662749
  0.6023529656489961  0.8004865934950174  0.9998652760314990
  0.6003617594433602  0.7969637115012141  0.1989751348632509
  0.5994520762499237  0.7997991115509777  0.3986929571972679
  0.6006364521705506  0.7978435646902047  0.8026591001474375
  0.8038243796591511  0.9985741137292977  0.9989565736243693
  0.8009519665487603  0.9996568608518508  0.2018332139955568
  0.8021802433331182  0.9989815774479797  0.3999098584485361
  0.8049009369191131  0.0020871048767999  0.5987519281866384
  0.8019159106962754  0.9995433022915818  0.7990858621226538
  0.8043687831103680  0.1956268355105014  0.9998437642446977
  0.8018444627214768  0.2001850185903129  0.1989141092106646
  0.8006997049074487  0.1983278784640253  0.3992372501751546
  0.8006276727602861  0.2004370929995013  0.5997956204938762
  0.8022312510650917  0.2021532900176305  0.8019564018126839
  0.9665392624828216  0.2340824638983138  0.9987813850321914
  0.8010539395052061  0.3947879066095273  0.2047276580469637
  0.7987378206683383  0.3997024171644044  0.4013448471317222
  0.7992752436108785  0.3978231489425659  0.6010222489200938
  0.7995336209393915  0.3992807589444329  0.7981794491781635
  0.8229029863803131  0.5989715782463785  0.9957425786753858
  0.7961386764576943  0.6005837559250764  0.4104492184165720
  0.7999010565021281  0.5959844564162058  0.6034631444856744
  0.8023163142547927  0.5965874287612799  0.8016701722431142
  0.8069880144849206  0.7970739877629656  0.9991901094520219
  0.8009362531970095  0.8029283970782672  0.1976832393164689
  0.8000217642168317  0.7977702681280648  0.3930979786303867
  0.8005966909974335  0.7969392844183122  0.8010784006843017
  0.6035393941071373  0.9992292547220191  0.2008813952495095
  0.0012776779842076  0.9953379812373221  0.5992233402116410
  0.0023571566867856  0.8017412419702696  0.9965038612153283
  0.2020246162324363  0.9987079436405646  0.4106080229956618
  0.2036814001706385  0.2007866532187367  0.8010651054553883
  0.4014642305063039  0.4023497550154310  0.7985950680265637
