Zr Ti V  Cr W 
 1.0000000000000000
    15.4119853477336850    0.0092002105036784    0.0075686985216924
     0.0091978282521091   15.4168317070722267    0.0033033723005877
     0.0075647771218920    0.0033039266611125   15.4231482065347798
 Zr  Ti  V   Cr  W  
   1   3 110   3   7
Direct
  0.3995279419061258  0.2011418956982004  0.5987309846877227
  0.0168588335974938  0.1984002248843201  0.0014925612783488
  0.1957107712080209  0.3975963292010091  0.1931663089676005
  0.3719364705036012  0.0011184179870608  0.0028025687494259
  0.9992546964414776  0.9985054823360340  0.0002564209637768
  0.0002787719569817  0.9993689981210312  0.1984075339297972
  0.0002371139917297  0.9984394589691000  0.3999474918138192
  0.9981494550933513  0.9990957768598736  0.5990434306904285
  0.0002300002236852  0.9998513839451657  0.8006121443003795
  0.0010526393394106  0.1997328863822290  0.2023660640054360
  0.0046772957148975  0.1991017448706666  0.3994538019440432
  0.9974106722755720  0.2000316900324112  0.6003237746423385
  0.0005722804799597  0.1991030357763934  0.7997308663272183
  0.0007929994405149  0.4017393326137581  0.9990951908356239
  0.9976380579883518  0.4003927563016377  0.1993943720904390
  0.0008274336423060  0.4011152856428211  0.3996310494014327
  0.0023872449342565  0.4013007253348514  0.6012720857317793
  0.9995904685357212  0.4001389158074967  0.8005225512202291
  0.9990796935086302  0.5988849405353563  0.0008188916897302
  0.0006129781755200  0.6007074594034528  0.2009070604667015
  0.0013953945782410  0.6004938956974444  0.3990523978518396
  0.9977913124147452  0.5994064638741917  0.5986284969430241
  0.9988753759330884  0.6000914116125965  0.8002670089587420
  0.0013681146534978  0.7990926658016979  0.0008038207378856
  0.0011940712482992  0.8000337106008782  0.1999663307647772
  0.0028242462881941  0.7995328639075355  0.3995684037906401
  0.9995479159058818  0.7985706954193865  0.5989282961447955
  0.0044280454652152  0.7992439691874303  0.8000162191212890
  0.1995991423559786  0.0011655165340588  0.2005638486576639
  0.2004303718825048  0.0044076314792680  0.4010531042341522
  0.1979758421043151  0.0015237089672659  0.6001274414757160
  0.2000074639514772  0.9975595487202287  0.7969781190046715
  0.2023025570568801  0.1361376250134363  0.0012871483816233
  0.2006738515475098  0.1981586403169292  0.2047409657736055
  0.1946233986353995  0.2037867140649024  0.5968219880553631
  0.1989197202780135  0.1971238278830624  0.8021738276909182
  0.2005845840260348  0.4015910087533089  0.9942260778646865
  0.2002589307392516  0.3952432774364742  0.4060844846117498
  0.1999766791548461  0.3994396907408735  0.7954932648097943
  0.2011837926289296  0.5988288767062978  0.0000879704246179
  0.1998066252844516  0.6011780328628243  0.1996582127720354
  0.2042265283648763  0.5990545796755461  0.3998443652696467
  0.1994954789112069  0.5949695095869579  0.5998601652617650
  0.2007408879352607  0.6040308651495802  0.7988487279840838
  0.2009157416943234  0.7972593631709729  0.9956956755818921
  0.1991784506225388  0.8017716260286062  0.1975835613554247
  0.2034432925390002  0.8019624942758108  0.4013425944768287
  0.1996029870510141  0.7985095404902550  0.6040095855317902
  0.3995892155019008  0.9990163717146026  0.2013683177135820
  0.4010829659368029  0.9950889677454164  0.3989973431045904
  0.4019050812562778  0.9953242440904994  0.5983476765593422
  0.3996286837915510  0.9990995775087251  0.7968194577656863
  0.4033868356101434  0.2031558257813334  0.0022457551492085
  0.4010462354005329  0.2008265258146299  0.1992077682189568
  0.3974524724441456  0.1995581745832051  0.3933978585808344
  0.4000436831708344  0.1988948921286554  0.8055338352003893
  0.3991667109635785  0.4023443687988520  0.0004830345308572
  0.4011075727806953  0.4019306931028067  0.1997131771235950
  0.3999110077283263  0.4053177897893461  0.3975653458088914
  0.3958453613304374  0.4059795471080838  0.6007970395483931
  0.3982930457436105  0.4014179492362885  0.8004967973446698
  0.4017805665894549  0.5996668228986674  0.0021891642969689
  0.4006083899896057  0.6002394043525489  0.2039890497630786
  0.4053088511118902  0.6009032252310221  0.5952962008705333
  0.4004937193955423  0.6006881222591584  0.8002285939938305
  0.3999116325765802  0.7971926075670676  0.0022349413856603
  0.4006610437456275  0.8004923985697067  0.2025942151160762
  0.3995629341261802  0.7986211754032708  0.5955290436262493
  0.3967425571726350  0.7997139580050907  0.7996359406381273
  0.6034714428326784  0.0044762483066392  0.9990620939289294
  0.6008667080347556  0.0008830430354404  0.1988532253906725
  0.5999300744037812  0.0007825035278326  0.4006939006197826
  0.6023652865039297  0.9989472011462939  0.6004154911939341
  0.5994116410762437  0.9998659686308643  0.7997854408719722
  0.6007836647962810  0.2001534745892816  0.1969865085668338
  0.5995720971916022  0.1998673503495383  0.3982684257114090
  0.6007297395413594  0.2000744127839498  0.8038276787972661
  0.6003023410444203  0.3970184775702090  0.9985362996229402
  0.6016276698036161  0.3999343316741808  0.2000854808843432
  0.5995944252904595  0.3984534969821781  0.4006967436131386
  0.6011643311278367  0.4025608665165274  0.6012785320326945
  0.5991864048622482  0.3992817464825407  0.7993935415361528
  0.6001451159144419  0.5982462203954448  0.9992895969884369
  0.6015055099399894  0.5998552953144771  0.1995908842461828
  0.5968737252168722  0.5992832719646441  0.4038334041280778
  0.5995867667919262  0.6002565104211597  0.7971225245822720
  0.5983937556561131  0.8024698887560694  0.9992073415926276
  0.6009237174800059  0.8008471061006360  0.1990631847910741
  0.5963251041941384  0.8016457543402706  0.3995394132112713
  0.6009041149257766  0.7960499739652127  0.6012993049866916
  0.5979148804332708  0.8009600628995156  0.8005781148847307
  0.8016222762063671  0.0001377794170135  0.9996964679527655
  0.8019212961194585  0.9996747663721264  0.2009779076580162
  0.7999018108661426  0.9995797142331626  0.6000340992616996
  0.8013531753684785  0.9989826204244909  0.7987347091092879
  0.7945291829864837  0.2005837242218020  0.0007640841391001
  0.8019458338342246  0.1996548376324773  0.2007046224869082
  0.8010823500608578  0.2001620213661731  0.4000679544192931
  0.8011181968693940  0.2007132651143102  0.5995030924643151
  0.8014816564453033  0.1992204725723165  0.8007081102596328
  0.8011325031742268  0.3989271163787775  0.9997612189489231
  0.8013324400528649  0.4004301614256225  0.2007071217089893
  0.8010862520890212  0.3990841827952341  0.4001442408703998
  0.8019817178260674  0.3992980194696609  0.5998529794563952
  0.7987517345021495  0.5992629898666262  0.0000953544258506
  0.7994201232990661  0.5998211883669795  0.2010321685087832
  0.7992558879863602  0.6000524321082874  0.3995984696650611
  0.7966575055957347  0.5989189806235767  0.5994069967798077
  0.8001713155157343  0.6003258258197278  0.8003342500533116
  0.8001799634136891  0.7990679529188843  0.9996153910648606
  0.8002136308516360  0.8001855213967720  0.2000903163123166
  0.7995394487684331  0.7998588538417841  0.3995683271942890
  0.8002925958647128  0.7993595025297119  0.5995040959469350
  0.8014159419466464  0.8006612774670088  0.8006143545286012
  0.6041788851438518  0.2006195833524810  0.6010276448589937
  0.7998320636093741  0.9999759181093015  0.4001200958637111
  0.8004318646533318  0.3997263951747806  0.7997094650980135
  0.2025335628828643  0.1999494976214841  0.4015503955056356
  0.1992355444061715  0.3990522188069162  0.6014582345653862
  0.2005678337641411  0.8013572842711073  0.7999903107463527
  0.4012553150389129  0.6041164520971789  0.3993429213210785
  0.3981637483336622  0.7976916322897928  0.3986074837969369
  0.5987850684837648  0.2005962905840077  0.0001525265774562
  0.6014788342524482  0.5985796857076280  0.6011577110891499
