Ti V  Cr W 
 1.0000000000000000
    15.3947628529237015   -0.0004726939770559    0.0021267196503963
    -0.0004726263884090   15.4017912768726095   -0.0008921615345846
     0.0021270963932924   -0.0008941263393480   15.4191178141427301
 Ti  V   Cr  W  
  13 101   9   1
Direct
  0.9946721104567905  0.1914616374867482  0.4000769202254969
  0.9995986569777700  0.4044596818484125  0.3992572200287217
  0.2066576355618814  0.0071830693589134  0.3950189220741582
  0.1976769870419636  0.1981882490931373  0.0066867114410087
  0.1959818930495348  0.1977173290312587  0.7956359242925208
  0.3959431279834272  0.0035257475478120  0.2032707012363761
  0.3945098698522993  0.1953290214374559  0.3974279243769718
  0.3994644454258343  0.8027377187664140  0.3958217934714949
  0.6049368101739453  0.1945181621565111  0.3991811277921272
  0.8001369146005292  0.0094456342305802  0.9968975229920812
  0.8010239463094666  0.0086380717155621  0.4000562356680499
  0.8005118078512876  0.1909450089331263  0.8037895943358315
  0.7991431909575204  0.4012476250335274  0.8012641101309288
  0.0019981355156269  0.0012517523444031  0.9984301775593788
  0.0005942773881426  0.0002990500165376  0.1993237240656525
  0.0024645226017508  0.9977383514762205  0.4008899525403069
  0.0014041111289749  0.0001107169550192  0.6001398665416097
  0.0004726144586655  0.9992395372819403  0.8004522519606974
  0.9982697451897284  0.2005469741140713  0.0003168758866868
  0.0012825519183983  0.1997915271322642  0.1982804196246324
  0.0012331502117330  0.1992143805601111  0.6022740009522662
  0.9999051107414227  0.1989275347184165  0.8002869115916035
  0.0013245502255577  0.4008999879375914  0.0007351099021908
  0.0009978093893535  0.3961050008305564  0.1986809525283075
  0.0005844590612468  0.3981577637047439  0.6028044155526457
  0.0024952615883441  0.3984106375301131  0.8011962818331781
  0.0003886024823598  0.5991765399865510  0.9982300640060133
  0.0004329898081021  0.6013504467764333  0.4027659698830184
  0.0006592604752511  0.5998391177325606  0.6005411800626629
  0.0003140389856833  0.5999832376724027  0.8008131454619222
  0.9999961344784107  0.7992554205842867  0.0019033709251661
  0.9997094595563777  0.8041271420904060  0.1995343281436613
  0.0008230782573804  0.8004483801768456  0.3988258645247675
  0.9997787616125128  0.8014218257231656  0.6007447322703674
  0.0000275953803066  0.8009030299795122  0.7999984292000263
  0.2015710645308105  0.9989825436300326  0.0002468665570790
  0.1980685999538235  0.0023151433134248  0.1975402198870051
  0.2004247783271303  0.9981548330462358  0.7991024156087307
  0.1968390886068244  0.2039438678548660  0.4005835427131883
  0.2045506221694518  0.4001675238253607  0.0011148822609228
  0.1993933942062645  0.3998911474136926  0.2024057354035649
  0.2028172063921185  0.3998416384079386  0.4003653798359646
  0.2015979897841464  0.3984858331223572  0.5992295121013373
  0.2004417502669311  0.4005202208726249  0.8000631039730076
  0.1986637038271478  0.6005572113221068  0.0035463538842621
  0.2009514529888458  0.5994415417154022  0.2022687808328542
  0.2000780693225931  0.6004299263788000  0.3997030095643457
  0.2008092621254990  0.5989907958553252  0.5992967501898327
  0.2002200985297060  0.6005542723138501  0.7980831698174208
  0.2011729015843255  0.8002516596569716  0.0005822814448109
  0.1651925466704051  0.7665694207988359  0.2002525375905806
  0.2000194575876036  0.8001476530476896  0.4005781776843794
  0.2006804647014185  0.8008354999634471  0.5988787490938363
  0.2003865472091200  0.8000569274841473  0.8010442677316457
  0.4001276356600066  0.0015595137721077  0.9979067129831511
  0.4030234997305716  0.0008042607490262  0.4041928831707815
  0.4013627130266840  0.2027516926041224  0.9986620582729567
  0.3994932947174528  0.2021254306025404  0.1974984276056115
  0.3984312946657841  0.1996042345380597  0.6026360077339384
  0.4001624134894879  0.1985103960959551  0.7998936164836520
  0.4008488204862461  0.3990720939325953  0.1977258088942098
  0.4016946472829000  0.3992846241908949  0.4005655236924588
  0.4004022528761497  0.3977760840713215  0.6018246940841446
  0.4001103630874287  0.3989687962517041  0.8043655655780526
  0.4006990741545384  0.5957895365875452  0.9999337014193674
  0.3995321919389764  0.6003017355456653  0.2019190960817733
  0.4001933829143193  0.5990281357874928  0.6004859633983272
  0.4000954479020572  0.5995805316890878  0.8004384047173754
  0.4001246737360255  0.7994854591077308  0.0003768055322888
  0.4008788442850540  0.7997284068499125  0.1973542822142817
  0.4008176117008982  0.7989556674717339  0.8008080951547814
  0.5973945122876174  0.0007520565643260  0.9998420026344810
  0.6015645048698918  0.0001750433830097  0.2003682574699762
  0.5980208316428617  0.9973501091819010  0.4012308308477816
  0.5996092889468849  0.0004074978383313  0.6003338125516355
  0.6000880321352110  0.9983440989103306  0.7995626192490244
  0.6007724935627565  0.1997011101634879  0.0010166017538509
  0.6012557599958289  0.1989732885098609  0.1994778634552816
  0.6001754245341011  0.1991444559066293  0.6018850354657495
  0.5994340524565633  0.1978509835780293  0.8001612113079091
  0.5967679678490538  0.3991758193953877  0.0013451834988278
  0.5999406828640286  0.3991631478202210  0.2023753780849193
  0.5987675313875219  0.3983821696918453  0.6000624760947234
  0.5993533670539615  0.3982760153893301  0.8004042284701322
  0.6004208271488700  0.5995975625183666  0.0008981749387884
  0.6011799426158833  0.6012651448695578  0.2017678902379114
  0.5995018529683849  0.6003844669815792  0.4013802874403645
  0.5999465177746709  0.5997487479410437  0.5997816068874259
  0.6008076279461521  0.6005778408839657  0.7995989059608766
  0.6006196938824547  0.8006439888859261  0.0005514439266556
  0.6010626497202802  0.8017452889895649  0.1998054860573083
  0.6020429080605567  0.8001734226174088  0.4000851037295795
  0.6004333866934866  0.8006887636045402  0.6001572483333385
  0.6008301586280405  0.8005408989286783  0.8008812830869161
  0.8002297369342268  0.0026080909164637  0.1988477860907847
  0.7999935830835607  0.0015795896116062  0.6011661534444152
  0.8003072964194670  0.9961440340741338  0.7973660216129941
  0.7994637377023942  0.2056312698786590  0.0038195913789318
  0.8017185744542151  0.2017685858361983  0.2025659657042065
  0.8000554756622487  0.2062172076032283  0.4004292681744892
  0.8013184802850690  0.2002996260013024  0.5985058740512020
  0.7987490368151408  0.4009721942660189  0.0031417947535349
  0.8016185848421457  0.4011616137656831  0.2015737218305050
  0.7966855937774991  0.4029370788614326  0.4007206892867218
  0.8000970189912499  0.3982888846316419  0.5990169696800738
  0.8013010334920817  0.5997841677651529  0.0026662366873615
  0.7987056858100792  0.6000310177344367  0.2012892440301542
  0.8020055968205615  0.6017201054821769  0.3992313407022631
  0.7999394728597498  0.5993293193494912  0.5997142303374716
  0.8005282502574032  0.6011067146671587  0.7996731290865619
  0.8024957103158848  0.8012094722828066  0.1998573087429031
  0.8002146044456196  0.8006837849157984  0.3997017959266325
  0.8008243447152875  0.8013384884459283  0.5986358845856198
  0.8003452865229934  0.7993290444733663  0.8008613091377240
  0.2010842796759053  0.0005575289328443  0.6010014693603563
  0.1990809902826612  0.2007834916202206  0.2038607063086897
  0.1992540831853689  0.1992522321842642  0.5961751902127004
  0.3997140148453089  0.9994512117290211  0.6014021579634575
  0.3999579348928969  0.9990542713613140  0.7990228690359399
  0.4004740329603624  0.5984837341989722  0.4008381208896435
  0.4004434306250721  0.8003546653824346  0.6020948228709307
  0.5996097547087379  0.4014747961733487  0.4006344697424941
  0.8001118765482058  0.7989442851410141  0.0004231965988499
  0.4005452232260726  0.3997511155517923  0.0013277806960427
