Zr Ti V  Cr W 
 1.0000000000000000
    15.4411249493602298   -0.0057725826640909    0.0015034816595225
    -0.0057736157285930   15.4404920489432147    0.0129561230258158
     0.0015050534304008    0.0129519398306557   15.4493068869615229
 Zr  Ti  V   Cr  W  
   2   1 100  10  11
Direct
  0.3907845239632099  0.1962977326000034  0.9984377306949493
  0.7970850315867096  0.3988727645627361  0.2010683003372236
  0.7915089170895119  0.3972165099992540  0.6028381882577734
  0.0010776767996415  0.0017356341637955  0.9991220311613629
  0.9983486287769976  0.9991555984448791  0.2002554476056962
  0.0008907072378632  0.9988204133950023  0.4004892296744392
  0.9993315238841001  0.9978029880237493  0.6005509394304689
  0.0005628392391789  0.0001813307099099  0.8004520353328058
  0.9990338252120310  0.2007422744951082  0.9988996607925918
  0.0039863450192303  0.2009786142823999  0.1986682133263320
  0.9941351060115574  0.2009310263442072  0.4021597081514969
  0.0000470415951539  0.2009364299973131  0.6014742298116742
  0.0017751283397767  0.2013287681452773  0.7992871905269020
  0.0040169879765592  0.4015003348634840  0.1996826422070275
  0.0013714331919932  0.4011613067055160  0.4004719664967045
  0.0031635383894656  0.4041261440507959  0.5999009253995773
  0.0014947145321452  0.3985343378462243  0.8003534987245712
  0.9997933495817569  0.6003668957089390  0.2002938269366360
  0.9991824834381816  0.5994416219250240  0.4037340329706512
  0.9965135147511941  0.5988287292481378  0.7957990976698953
  0.0010773724951358  0.8003983561615081  0.0004961193375224
  0.0008271822188724  0.7989659877468517  0.2007675130186533
  0.9999951829003884  0.7999929430522487  0.3993221970884641
  0.0002728101314526  0.7959356373283643  0.5982816491181550
  0.0003890427758618  0.7997379383489447  0.8004283744567182
  0.1997230073123159  0.0014312663580580  0.4002974041557096
  0.1992695245764724  0.9991803483195978  0.6007827071178556
  0.1987760594583476  0.9981119644868106  0.7997197927916433
  0.2028877912071148  0.0313637865991091  0.0001592726968159
  0.2003115728987425  0.1992922473851951  0.2043280667122545
  0.1978922951806057  0.1985365314256848  0.4018474267981793
  0.1989354403497702  0.1989154962569579  0.6003830781877888
  0.2014002951961023  0.4045586633526582  0.9996380522491499
  0.2004355099321660  0.3992366196485177  0.1974617504397394
  0.2041908049878579  0.3982855274867078  0.3989679343693984
  0.2003678653191119  0.3983247064523204  0.6012368822958984
  0.1997107599965331  0.3991691816372183  0.8026619917398576
  0.2010862563609373  0.6018015280142548  0.9988921601244255
  0.1987187461022171  0.6005274378595175  0.1985991104677385
  0.1986198847836807  0.5997867723221835  0.3979045339440042
  0.1980266103682300  0.5999697429695827  0.6010916509709843
  0.1996038226373366  0.5996254113967099  0.8010004752879232
  0.2020991048719115  0.8000389914142139  0.0010366758951503
  0.2001461099250763  0.7995478674601145  0.1993723032347406
  0.2042445712136800  0.8010221290998559  0.3982786488964698
  0.1996770735965217  0.8004827733745473  0.5997612296844373
  0.2004825089643110  0.7995793621986828  0.8005201563566190
  0.4010186566976033  0.0011601031219265  0.1993840122450007
  0.4001877520219413  0.9987517642777466  0.3999006312758148
  0.3995119043915215  0.9982679717408479  0.5989247209919912
  0.3996493272739666  0.1999585191137267  0.2058804447831722
  0.4013632031570915  0.2026736610464236  0.4046787782028985
  0.3987660774061052  0.4016902298052041  0.2043778984456966
  0.3980647607327163  0.4045676498291021  0.5967948074478171
  0.4014338075639127  0.6015778420221144  0.9978555173774510
  0.4000837798471887  0.6003413159798998  0.4029710138156166
  0.3999107098617128  0.5984505963638075  0.7946318836008316
  0.4038562897427901  0.8012997040628119  0.9993406647258480
  0.3992646214350858  0.8000966749460876  0.2040789130995508
  0.3997227256080794  0.7960614425774085  0.5962499070858975
  0.4000755621747649  0.7985524024803075  0.7973324952958493
  0.5999872532033432  0.9948589948083104  0.9988771894117546
  0.6050054411317489  0.9997816712803335  0.2016315286587937
  0.5985272325486134  0.0001348001639121  0.4002082372073976
  0.6006528625679812  0.9983115180653448  0.6009371788371125
  0.6036166824130015  0.9981539597737927  0.7985432920168106
  0.6012325446936123  0.2012166443229719  0.0010603813486283
  0.5990187271842080  0.1997210852608756  0.2006140644904530
  0.6043375537630217  0.1992977975864568  0.4024866465106436
  0.6001828236743909  0.1983395815107223  0.6014610736800455
  0.5972521828630477  0.2004781721105308  0.7994837910495654
  0.5984044911821591  0.4016648602496614  0.0009228673516076
  0.5941610748256462  0.4013990773297841  0.1993565024252205
  0.5938688610820346  0.4005111550788477  0.3996385498499712
  0.5969579806718507  0.3995816916587845  0.6014346914117520
  0.6002145095765302  0.4000832228801042  0.8015545378530178
  0.6001341489622872  0.6035982055290184  0.9997960742374311
  0.6015362246470367  0.6008361521600413  0.1985544960378615
  0.6018615341337162  0.5997064507615373  0.3992470661427496
  0.5965641011090157  0.6004245971712308  0.6007056698426084
  0.6037200116085585  0.5976788768012149  0.8002886239310062
  0.5995311464608224  0.7988617245855392  0.1969816175621218
  0.5962981971721975  0.7993277814892227  0.3980751959838388
  0.5997478929505882  0.8003768944198114  0.5999385708771400
  0.5993672155402107  0.7987967178536570  0.8025287664857281
  0.8008468195310163  0.9974334715173494  0.6030378635851439
  0.8013867069772815  0.0002258476995498  0.8051123853202722
  0.8004469443940572  0.1973822604122108  0.9980150802026715
  0.8014316697760026  0.1920509054743417  0.2063967126594627
  0.8000125650998189  0.1952223391216825  0.5969079484261937
  0.7994369501850184  0.2002453081647300  0.7972818363766173
  0.7998319986509634  0.3992489425303737  0.9981618253496277
  0.7973096643166347  0.3957548721288348  0.4056111339889776
  0.7996021477383202  0.4018005083584100  0.8031080529659219
  0.8008976881785359  0.6019081593319451  0.9957828212041984
  0.8024720545323482  0.6045804677634862  0.1996765314658824
  0.7990855108545004  0.5992413797120038  0.4018270946720250
  0.8035599889877322  0.6023491392052029  0.6041580063786059
  0.7958667932719401  0.8030119503739035  0.9998265298337826
  0.8005015378712012  0.8035984984779346  0.2016439328872273
  0.7972875731428299  0.7998584654084917  0.3999518100906194
  0.7984895188088140  0.8017072890000662  0.5986926268412371
  0.7996825750674424  0.7959760463767737  0.8003328605606125
  0.0010405911234976  0.4012445011638519  0.9994135353834489
  0.0001122756694606  0.6007590159424648  0.9988336382650232
  0.1990223070589351  0.9997246268348937  0.2005133233515072
  0.2029542143063271  0.1989673544096279  0.7993113538412304
  0.4005617747083370  0.9986445093441714  0.7982408890000279
  0.3996050442997874  0.1995950061669052  0.6022661240422289
  0.3998692827053741  0.4041607447690372  0.0015693409821695
  0.3998250762713336  0.3994195086723992  0.7998671645287859
  0.3995260714751240  0.6009640310395390  0.1993257350067654
  0.7996840161928734  0.9996241601563289  0.3992959522615884
  0.0005098193277334  0.5998580175616655  0.5993741338034118
  0.4033686708288904  0.9967400654691074  0.0018039129765470
  0.4044902865897433  0.1993309817476423  0.7983485324907060
  0.3992290390073659  0.4004856913507132  0.4005767238192099
  0.3984292727570631  0.6012068639350140  0.5988425446311474
  0.4000908772936939  0.8016297034350740  0.3993386601605564
  0.5982448239570262  0.7988220855836856  0.0003899414627864
  0.7992707665302800  0.9994738370135199  0.0028506583274794
  0.8012825118221850  0.9990856287708841  0.1908977218113950
  0.7992433789747979  0.2012990108271351  0.4000692414760830
  0.8005636018402814  0.5992804672382649  0.7992209696888748
