Zr11 Ti18 V74 Cr13 W8
1.0
  12.6123060246146821   -0.0368126948996922   -4.4530651834682597
  -6.3036619766939070   10.9047906797021934   -4.3563236811892425
  -0.0123797559937588    0.0973503794640193   13.3239852141866635
Zr Ti V Cr W
11 18 74 13 8
direct
   0.0067901853712249    0.9970314954164605    0.9993247487114899 Zr
   0.9874742590681307    0.8026026592075144    0.3807135758707669 Zr
   0.2032541073009498    0.0075171251856187    0.6009734405313203 Zr
   0.2061978342465987    0.2093751911229223    0.0000158786819267 Zr
   0.1874964149096968    0.5918895629761570    0.5835233570794031 Zr
   0.2025386378145064    0.7921099184558513    0.3917266305778401 Zr
   0.4052632090102041    0.2045775108545276    0.2058631698912990 Zr
   0.3989063786911291    0.7940767458001146    0.2041876715421216 Zr
   0.4036884457072124    0.8065353899519128    0.7952727794027887 Zr
   0.6023810723886481    0.4038147668889294    0.0004696440100379 Zr
   0.7937153089750705    0.8018908015133329    0.6057451186741268 Zr
   0.9935886889841015    0.0015122371171928    0.2091263698925494 Ti
   0.0038760347189786    0.2106942723793297    0.8016696807969564 Ti
   0.9880252008005952    0.5889423524264646    0.3913614827882995 Ti
   0.1932976952774275    0.3914435700610291    0.3939383271194761 Ti
   0.1980605575370534    0.4048413928231165    0.8040867382685337 Ti
   0.4229985595332126    0.0093833838149083    0.6131623876570957 Ti
   0.4138401638951476    0.1979494814523095    0.9909606369099507 Ti
   0.4006099560276697    0.5988371823532038    0.4018182285351987 Ti
   0.6072982496640784    0.0118103389710463    0.0177940664219578 Ti
   0.6090930248917961    0.0116586164109924    0.4024714535969312 Ti
   0.6049517903139419    0.0052829426273818    0.7998513433188222 Ti
   0.6077382965783487    0.4075726694064046    0.2178540117031298 Ti
   0.5967407879686981    0.5954025047907744    0.6008687904671308 Ti
   0.6134655471728586    0.7950639643327025    0.8060952267094530 Ti
   0.8016162659292989    0.2136142769180278    0.0088712515210348 Ti
   0.7968388990758989    0.2023947845677807    0.7951790562236902 Ti
   0.7968694006565200    0.3961495395392544    0.3987860188117515 Ti
   0.8082792896665950    0.7799977172326996    0.8161066888610857 Ti
   0.9940793328440086    0.0193881572124400    0.4108083963737304 V
   0.9921178449618132    0.0061922915620364    0.6019821473691156 V
   0.0089278204196335    0.0046708380505635    0.7903774551637471 V
   0.9942258424675624    0.2084284757597163    0.0018349384784160 V
   0.9945434537661541    0.1981674688620346    0.3966982355385377 V
   0.9950309215104315    0.2012185326693030    0.5942977802076949 V
   0.9957150656458261    0.4047000555952788    0.9986594045965786 V
   0.9835246206429465    0.3796739507469180    0.3827104332239195 V
   0.9959048739026892    0.3965576628306325    0.6011707621177329 V
   0.9995005173084867    0.6013970590734574    0.9933695351321825 V
   0.9818862958889373    0.5820242468299240    0.1785748137058398 V
   0.9945575267574697    0.5966464001866928    0.6113003977684459 V
   0.9939339564400841    0.7916111291758036    0.1721659858862341 V
   0.0064398598578142    0.7885178923104109    0.8052896000630658 V
   0.2077361093014529    0.9809171602545500    0.9968091482449596 V
   0.2016295053764703    0.9967139681265650    0.2009596250811422 V
   0.1992580608066460    0.0069690338108943    0.3860723166637447 V
   0.2019476363891846    0.9941495444042120    0.8047233250413007 V
   0.2036243976470208    0.1997160217403799    0.4082207368799263 V
   0.1994165760304498    0.2106749850492492    0.6037099569130639 V
   0.2084151455237521    0.2022887282999125    0.7932484873775592 V
   0.2009708436774487    0.4177523532122795    0.0105859834814088 V
   0.1897207941215182    0.3996759315072287    0.1933419225203153 V
   0.1914060567051700    0.5896664041344725    0.9883108273402209 V
   0.1881298316955549    0.5929480792358856    0.1863747170713512 V
   0.1768695072162447    0.5708127809902998    0.3602791720870677 V
   0.1917454310359197    0.5996880306226525    0.8024208454196357 V
   0.1987562966797684    0.7935877862662338    0.0002467678927820 V
   0.1899457135875973    0.8002846652253695    0.1870762478254968 V
   0.2054158266749233    0.8128112101403158    0.6198386834250812 V
   0.1941964281232866    0.7958186731360941    0.8054576007571118 V
   0.3983705785217924    0.9957073102573714    0.0042001095753999 V
   0.4079904647990881    0.0020148025066289    0.2050767865022342 V
   0.4002494461952130    0.0083851035025806    0.3966006500229965 V
   0.4035757252307657    0.1993054917036497    0.4075636813077553 V
   0.4084283741085967    0.1995044728385287    0.7931947593403749 V
   0.3964921294488686    0.4173631393081574    0.9983522631392253 V
   0.4032462774840046    0.4214723078777367    0.2116821115255345 V
   0.4034456219445005    0.3953018154759925    0.4076680897606714 V
   0.4017532322180123    0.4036316140840381    0.7965144890464212 V
   0.3993848779719148    0.5896002843247037    0.1912754258198877 V
   0.4042246741359037    0.5855597410519036    0.6071785983460275 V
   0.3972460433804166    0.5920925750875582    0.8026918709734583 V
   0.4164745404035683    0.8092397582050349    0.4134793035574633 V
   0.4051379545088861    0.7920377823297172    0.5861491486601524 V
   0.6084533245336692    0.9986274691281914    0.5971312405911814 V
   0.6047366286784206    0.1887853878106749    0.1964323756794616 V
   0.6034741945329737    0.2087290101634584    0.4040432403765135 V
   0.6073720063623783    0.2037080751557871    0.6014954511102164 V
   0.6113829086672883    0.2183322270967638    0.8122262514436749 V
   0.6002895961512451    0.3945754438171214    0.5974534525370604 V
   0.6062284367689224    0.4046709308816615    0.7948032070820426 V
   0.5921226827759474    0.6046142943807289    0.9974568710639590 V
   0.5974967804583419    0.6046542546434776    0.1953880183220771 V
   0.5954030376927816    0.5861181359599476    0.3870766521286775 V
   0.5963410365130939    0.5891067895486352    0.8020099673659185 V
   0.6014497406774318    0.7984951711135272    0.0101303519366014 V
   0.5993775005375934    0.7986844934282029    0.3955389166390266 V
   0.5962201066476108    0.8148369382561396    0.6071982043013969 V
   0.7992976600682876    0.0029293347016791    0.3950982083789506 V
   0.7984414201094823    0.0124493168670685    0.5999319779758356 V
   0.8110646956380315    0.0103804046939444    0.8088057094528411 V
   0.8048132902817224    0.2019786737563889    0.2105522060174049 V
   0.7971399071228190    0.1965393587394522    0.4005091747755899 V
   0.8099544910260914    0.2118678727440175    0.6038342392585772 V
   0.7988544434732735    0.3924531067027210    0.1919556804250743 V
   0.8020657334088577    0.3958469482578378    0.6029957473057772 V
   0.8041750248051495    0.4056359410421412    0.8005183305710232 V
   0.7982641450508772    0.5952608944513895    0.9959431195844273 V
   0.7961975005311372    0.5958638204472997    0.1989961286090349 V
   0.7991830304635631    0.6058402229164667    0.4027620224901053 V
   0.8025025402696671    0.5863949997036979    0.7995228593182504 V
   0.7944532554716898    0.7932931663129766    0.0065945189938051 V
   0.7887356969995897    0.8035833005516755    0.1951346817305581 V
   0.9927530414639455    0.1989532075579509    0.1954800874894025 Cr
   0.9952253864310753    0.3971061502771053    0.1962815954439597 Cr
   0.9967425841577032    0.4088384681912960    0.7995269987949216 Cr
   0.0005725766682683    0.5911955462835861    0.7992927101582772 Cr
   0.9983921910543012    0.7858205615956324    0.9956552870036079 Cr
   0.4094991803760631    0.0177985117297278    0.8126695119799929 Cr
   0.4021502187201986    0.4010173470634619    0.6023724815664799 Cr
   0.6048647134477372    0.9994583407457622    0.2022503734180615 Cr
   0.6014819984037468    0.1978769576233057    0.0016941775771670 Cr
   0.6031540685173788    0.4031515217061282    0.4142627486014367 Cr
   0.6032911854663220    0.8000780966441755    0.1936626867279906 Cr
   0.7944035057507338    0.0015985911022990    0.2043104702275030 Cr
   0.8077024295008016    0.4082530184010278    0.9969670673576195 Cr
   0.0031115931628475    0.7979968746661611    0.6056760128498383 W
   0.1967602455118250    0.2080113453499589    0.2160665697358177 W
   0.1988250766619050    0.3955315398024178    0.6006714966767838 W
   0.4066000611672251    0.2079620553530997    0.6009124085404264 W
   0.4020984664566722    0.7976119018918316    0.0012260868044093 W
   0.8066692092217816    0.0052480488495450    0.0145052986181036 W
   0.7987303974091969    0.5873290004351440    0.5991904426235257 W
   0.7887748313166772    0.8027371827236499    0.3932893680966479 W
