Zr Ti V  Cr W 
 1.0000000000000000
    12.2882735461728885    0.0000000000000000   -4.3445607757035454
    -6.1441367710433559   10.6419570608175889   -4.3445607757035454
     0.0000000000000000    0.0000000000000000   13.0336823299999995
 Zr  Ti  V   Cr  W  
   3  14  93   2  12
Direct
  0.0093475159110911  0.1917454242902913  0.9971213609440309
  0.9931525691247891  0.6039771942986161  0.1964898807108494
  0.2023274167806529  0.3705092536733458  0.9911599920693235
  0.9978014464048391  0.9953915209894584  0.5921305576501841
  0.0205262692421177  0.0143510111604003  0.8165503585688962
  0.9910453514281509  0.3942584954392465  0.1969251910697095
  0.0020178475836479  0.4021306083232627  0.6074006022090119
  0.0029965524103898  0.6068399121849442  0.6066140650462678
  0.1973019891260139  0.9808325922620730  0.7829466916376374
  0.2042053727341736  0.1974638521547519  0.4020718551084336
  0.2142453233628015  0.4141577849487806  0.2217929637757298
  0.3666795778294507  0.1986037178337528  0.9977482638103902
  0.3957444320034544  0.7982677714588520  0.9966323215636150
  0.5932191279652438  0.0068068105542581  0.1985458857373165
  0.5996382169647700  0.3988166086666284  0.6019473774779006
  0.6012530375121058  0.7997133017225277  0.2004387099516167
  0.7965642915428670  0.6055362911527873  0.2072744186633430
  0.9893812499288858  0.9775435355531766  0.9973716328444243
  0.0009407040278620  0.9960259541629468  0.1987030003284370
  0.0014359235523662  0.9995592520081945  0.3954294811294621
  0.9982738825178149  0.2011105907003061  0.4028910015818838
  0.0032043507922735  0.1991209517314328  0.5958374883912408
  0.9859603082505479  0.1943028831746722  0.7718072263733814
  0.9947734152071838  0.4023102248741359  0.9871821191234283
  0.9989327126337380  0.4062200699570053  0.4035655647149143
  0.9956013858787118  0.6015404047976345  0.9904744744482602
  0.9993587067873847  0.5995432213060995  0.4053242306714672
  0.9985461843123625  0.5976588288124447  0.8020669117612051
  0.0011616729154455  0.7977310497101471  0.9987560543021721
  0.0000795070163500  0.8100122590910764  0.2009276451428450
  0.0063760785264965  0.8073012286270610  0.4079990341247563
  0.9903422566498705  0.7921727543984891  0.5919695996993176
  0.0012441758848073  0.7985332696100457  0.8001894876773434
  0.2024555006478276  0.0003649316535444  0.2020824292091387
  0.2030554002759517  0.9957312691498822  0.3995697407040663
  0.2054730910035914  0.0023988769293371  0.5918927267562724
  0.1976425501667740  0.0024723842820297  0.0023288133326952
  0.2096453319100497  0.1953951489891228  0.1921066093076181
  0.2010615357947068  0.1985296469209548  0.6008567039889992
  0.1999698261450545  0.1973786397593110  0.7894220905477364
  0.2055453782694575  0.4028309239534442  0.6029004340164472
  0.1989786384323103  0.3999729529916917  0.7927116040832569
  0.2057747581953221  0.6088812738834052  0.4088940642599152
  0.2065209425288922  0.6071331829300415  0.6049660035220623
  0.2014690004500631  0.6023828797138933  0.7984375154083339
  0.1975236333218131  0.8046592344579548  0.0004477421628012
  0.2039733562418359  0.8055959758703900  0.2020584530824699
  0.2085741378588551  0.8100756334328220  0.4086179299026102
  0.2012689826841157  0.7996623223128514  0.5993260730811896
  0.2073233319496111  0.7997361684043276  0.8098059148290425
  0.3976821787264738  0.0055263241553086  0.0017898632804659
  0.3933329417037478  0.9982991671160865  0.2001651409687293
  0.4025113251634208  0.0025529445844465  0.4023628794511830
  0.4012346161544472  0.0019631322466926  0.5988310006316517
  0.4015987006305715  0.0001852175258415  0.7996424586000207
  0.4062296436055521  0.1970273665429142  0.2066666900331423
  0.4003895585392392  0.1949407883270775  0.3985183829160633
  0.4010867158953735  0.2000094140551144  0.5985733662504176
  0.3952013824978923  0.1943336592575226  0.7941390755457171
  0.4110876516164560  0.4087937361045912  0.9954690702338609
  0.4058563467206880  0.3986649668251576  0.2048778184073156
  0.4029083355676627  0.4006639079805614  0.4043790874268781
  0.4027086588171170  0.4026630623419014  0.6061413069166529
  0.3973321432680486  0.3966553796622644  0.7943105803714808
  0.3991897194915306  0.5953094513827543  0.9943629406446172
  0.4139148518508345  0.6112083030669420  0.4143598837604036
  0.4044932255082944  0.6067805523482572  0.6065966767064002
  0.4002857579506275  0.6028213940734656  0.8014949533910437
  0.4030185342227869  0.8095493393618033  0.2079896916869439
  0.4041336723133235  0.8070137672610156  0.4049717018087889
  0.4002541029167917  0.8013245615785243  0.6000265849394141
  0.3979552337623712  0.8011355018419323  0.7969649800223364
  0.5945203889217215  0.9969167078636896  0.9953242254267717
  0.5978840970799476  0.0011947303232289  0.4032074233849203
  0.5990557448674918  0.0011590934630312  0.5973317217798690
  0.5919683265439966  0.1948984172487751  0.0022456614448232
  0.5990515867088324  0.1990019003913040  0.4006525741225927
  0.5982070442588501  0.1974570332957235  0.5973602805010436
  0.5949561350108807  0.1985946494374452  0.7959664761214846
  0.5984957849693411  0.3967929603909292  0.2010793195478474
  0.5992846512011079  0.3977752261733318  0.8009905967853025
  0.6019752818233804  0.6036497205877411  0.0013979247628589
  0.6011069285191593  0.6008265632145203  0.2052183989005811
  0.6054704562776290  0.6043241218030823  0.4055488045304300
  0.6027425518311059  0.6066545220706305  0.6028721227989052
  0.6012025623495844  0.8016727493722573  0.9953881031446292
  0.6067610369592807  0.8072581138620366  0.4085878246247205
  0.6014165655389774  0.8011909727532315  0.6007991727725998
  0.6002915252461257  0.8005739143638024  0.8004410312327154
  0.7958514777924688  0.9957286499808103  0.9960865928140044
  0.8013961452744485  0.0023472321182877  0.4023255697146108
  0.7944211883742612  0.9973790921503360  0.5946432532745065
  0.7949802900508789  0.9916696265166801  0.7918891092355712
  0.7894269793954072  0.1942894491600865  0.9969410447377639
  0.7936985898597633  0.2000450414969896  0.1976164376380681
  0.7973497811133147  0.2023768008562941  0.5986821969228751
  0.7887358416387175  0.3906710163577822  0.9922132571394564
  0.7938724845434376  0.3947796458812538  0.2036155196365450
  0.7966637137201846  0.3980307544769282  0.3979898368333734
  0.7993256191037041  0.4032093894700728  0.6035539491177875
  0.7980195520958518  0.4006801721238686  0.7974550506472837
  0.7992356087625903  0.6011945161872324  0.9953402964617174
  0.8045586483063114  0.6030592627228389  0.4086033954769485
  0.7987597643622341  0.6025662516795547  0.6044104166876332
  0.8036489238939503  0.6025613116683556  0.8002075800274449
  0.7989195968265316  0.7977497390197809  0.9979328438379024
  0.8038923112153598  0.8032861060890905  0.2003916083624700
  0.7975922401782776  0.7975476207635838  0.3960872878381648
  0.8001583889611005  0.7990184217135817  0.5994169530024079
  0.8011218764155406  0.7995501749727340  0.7968905095241625
  0.9981088070155284  0.4021679055456380  0.7995177373702265
  0.5919364935222692  0.2008640554775248  0.1938068397134934
  0.0028581120826229  0.1962311297708104  0.2050725703933547
  0.2042925097198108  0.4062342603519453  0.4103863046114982
  0.2002564188353795  0.6011203168565068  0.9958261050668485
  0.2054750620224180  0.6065144825203637  0.2030861869973921
  0.4097328582225780  0.6068706883970071  0.2071114673261801
  0.5968963163964691  0.9988993587046022  0.7991335018059879
  0.5963664702928912  0.3950888202840636  0.9971909823083658
  0.6019725645199930  0.4026688764571916  0.4016084175855707
  0.6008452564062772  0.6000073163744243  0.8004097265385548
  0.7972185276589400  0.9965486572235889  0.1973979691538975
  0.7985708312854485  0.2022889182227595  0.4015061441454027
  0.7971105364194928  0.1994348622219906  0.7978972456734548
