Zr Ti V  Cr W 
 1.0000000000000000
    12.2882735461728885    0.0000000000000000   -4.3445607757035454
    -6.1441367710433559   10.6419570608175889   -4.3445607757035454
     0.0000000000000000    0.0000000000000000   13.0336823299999995
 Zr  Ti  V   Cr  W  
  13   2  83  11  15
Direct
  0.0021038738198826  0.0044571373195948  0.2062195347906762
  0.0025321859094467  0.2094659825100101  0.8028082660874563
  0.9837010760631072  0.5913865259749965  0.3949373450129224
  0.1927752758851911  0.3859095229359997  0.3892105181418091
  0.3962817505925409  0.0053562760679272  0.5988392508167678
  0.4147228995626104  0.0103239794631426  0.8152910286451287
  0.4011494135221988  0.5923643540980806  0.3899514076407742
  0.6048781793648405  0.9986327255381522  0.0036959331674502
  0.6115980664479569  0.0105366073216885  0.6048545574848334
  0.5967650298729986  0.4039990063616727  0.2033049820748853
  0.6438550389873450  0.8031584086196188  0.8020370328632982
  0.8024422024853872  0.2042387405175849  0.9949632183781727
  0.8020270832050889  0.6384196253825004  0.8067443526016931
  0.4010979765507480  0.2196285061837377  0.8119994607768199
  0.6136705910888608  0.2179835687830343  0.8146085128168316
  0.9989767977479905  0.0052112034973250  0.4092005667191583
  0.9987091314802857  0.0030767912218074  0.6031596567234050
  0.0049038520868549  0.9978145882919723  0.7972532838069688
  0.0076866462987395  0.2018386523510995  0.0080150519313073
  0.0001476352054631  0.2001423209500306  0.4034592762464916
  0.0048658039954739  0.2054543738392269  0.5992366147338486
  0.0002974678205543  0.4098234119721399  0.9983836710760555
  0.9933002183465255  0.3928512423664298  0.3971029095899470
  0.0033423164095303  0.4018261401021702  0.6051864905219101
  0.9982147053229197  0.6024341764926610  0.9922860695175143
  0.9904990215160813  0.5925336999611764  0.1855367816421152
  0.0051768746316466  0.6038857099012320  0.6134979200246468
  0.9931331279010028  0.7936463801867684  0.1953857458757221
  0.9982691827752995  0.8023729678373819  0.6052451641416147
  0.0095312316655831  0.8025549130025318  0.8020018882893578
  0.2011374528176608  0.0005166430032350  0.0012793160471590
  0.2029731434443665  0.0017441350055539  0.1956240121879780
  0.1971309112061928  0.0018510859829576  0.3986887629518601
  0.1965638893043146  0.0015218973091012  0.8060691347993217
  0.1995706400285279  0.1984978256520814  0.9993221201700260
  0.1993138357577968  0.1968708264476449  0.1930698928871259
  0.2082708251384166  0.2015125517533285  0.4108654695945886
  0.1993993864338095  0.2057467827285222  0.6054223335235203
  0.2046911930077193  0.2099701858062750  0.8059278015148613
  0.2056476978416795  0.4083483887452360  0.0031643077610994
  0.1865840280835356  0.3912202627658272  0.1785308480564112
  0.2007315019979857  0.3981461597283127  0.6052860900061902
  0.1994058347609594  0.4064788956579727  0.8043212420860448
  0.1977748721106585  0.5976234021004935  0.9947721723078083
  0.1964211046950056  0.5982803889788184  0.1895377404404330
  0.1980390257079108  0.5999177192176596  0.8014370572387687
  0.1976795891214545  0.7969135020796095  0.9935749899375673
  0.1915004041281779  0.7940338109500101  0.3919097065726478
  0.1978021857321015  0.8001187201097907  0.6043746754999848
  0.2024404741979938  0.8023791285604341  0.8015138740594133
  0.3957105615940684  0.0014935956596838  0.0106141526051267
  0.3974903895286607  0.9976085797507107  0.1948587209138643
  0.3948959635347009  0.2010494694289175  0.0042280080989827
  0.3980275638181773  0.1997422151543149  0.1973982345429023
  0.3937988342888635  0.1991081064722548  0.3946003314479598
  0.3960207629500483  0.2143281552414120  0.5986160220762075
  0.3964171892926676  0.4044188174821767  0.9986452579985077
  0.3861979819563531  0.3929111249243434  0.1897296229536345
  0.4065619969848991  0.3885929379634945  0.3957897197052150
  0.3928083566655201  0.4075419018432135  0.8004014612723027
  0.3956737243986879  0.5984537897289021  0.1840839677378094
  0.4031950556837810  0.5905808224600997  0.6063587172240809
  0.3982183793213377  0.5972023401032222  0.8043392964494233
  0.3995524517696981  0.7965958190480171  0.1964001831765780
  0.3953284683524858  0.7980626753882344  0.3894456912658057
  0.3972080728623163  0.7851628641650770  0.7967905854390650
  0.6014352617895112  0.9960584333147169  0.2056201799269048
  0.6008015720307177  0.9995425334752275  0.3941985819886369
  0.6082023510803002  0.9918602681564894  0.7924870288646120
  0.6001858964729646  0.1967015232587963  0.1966536164124305
  0.6021568778322370  0.2174558521034292  0.6014826108447414
  0.6046808249183839  0.4086909291410882  0.0031254355051274
  0.5928627382485337  0.4005176194854369  0.5948992377220986
  0.5947384847154075  0.6019011139814309  0.0044766943488101
  0.5938252633820515  0.6083361120857722  0.1958375139091785
  0.6050464357165101  0.6013026990569195  0.3980814246859328
  0.5924113485512096  0.5887248619102592  0.5908172141199223
  0.5838057189926514  0.5903502850331050  0.8023071568543948
  0.6033403226642526  0.7957451362265757  0.0117820485821340
  0.5974747422142332  0.8008989375201799  0.3925301501501576
  0.6023074357843069  0.7951780994661152  0.5868572034919236
  0.8209699940902976  0.0121980577912585  0.0244973776513607
  0.7996482144212166  0.0013623555309310  0.3993397938528378
  0.8053992152560155  0.0006061984673090  0.5958847598546971
  0.8117628700259144  0.0058782436380746  0.7998602195366112
  0.8102674011975902  0.2040796450097422  0.2101116306282743
  0.8062796060023985  0.2091369841533663  0.6037346267705832
  0.8099280843587801  0.2147178097716256  0.7990441107466792
  0.7936276266572616  0.3888445395935635  0.1836077853766018
  0.7984274239521351  0.3983907640901622  0.3991923255839078
  0.8053684978125243  0.4079992905727254  0.8046181076012654
  0.7981818513266619  0.6034121357007970  0.0033070226130880
  0.7925604205872780  0.6015933623869948  0.1933165977928087
  0.7933968554245814  0.6054271861110747  0.4036866107625638
  0.0110512131011785  0.8055463573194797  0.0087371036211129
  0.7953651360554503  0.7991284718112864  0.0096661564040517
  0.7944125611335058  0.8038181194789878  0.2010426866769878
  0.7986686207316828  0.8029139019664467  0.6104609445013413
  0.9944113611310250  0.2001713610398754  0.1920488685195545
  0.9995023567732323  0.4022931328940705  0.1939103837764971
  0.0048025168798276  0.4153301063690859  0.8017471945596556
  0.0065247252553807  0.6037321976736544  0.8013779840948554
  0.3957770837016745  0.3957401271412040  0.5973622159115889
  0.3967963121910000  0.5991542405649731  0.0001193159818077
  0.6071843569436093  0.2199780702908778  0.0141428482476585
  0.5936366184281624  0.3962684404341827  0.3995174893418941
  0.5966307884805867  0.7978971886587842  0.1996261273953085
  0.7979083376457404  0.9997340423149745  0.2094848811371799
  0.8078015400273213  0.4198944969582116  0.0029210471758775
  0.9911419470538394  0.9864115322455047  0.9827224437253477
  0.9953548758713285  0.8031790606177140  0.3966079845430565
  0.1921621672970851  0.0030144378940678  0.6039073034854828
  0.1912963931053076  0.5976080602183318  0.3890638532991813
  0.1988949826299772  0.5966539472302481  0.6008041129911026
  0.1959575569697135  0.7973960693024593  0.1945646513507014
  0.3987369685500060  0.0019089158882981  0.3932633689816792
  0.3987344086956230  0.7956863784928573  0.0006895085822778
  0.4040232021395437  0.7930194708111957  0.6012605600992369
  0.5973096957782539  0.2022904635845476  0.3963517946999503
  0.5988985660047746  0.4062512232808809  0.8016756361878842
  0.8025308660561677  0.2028929993640554  0.4032392918938925
  0.8036863099405420  0.4064998293697986  0.6056577684742905
  0.7992278835710743  0.6008721413536330  0.5941298698040056
  0.7956389072710175  0.8019311719485945  0.4011315256684841
