Zr Ti V  Cr W 
 1.0000000000000000
    15.4529206753737594   -0.0089219929548298    0.0139355642811389
    -0.0089343212131673   15.4627799901828133    0.0191221628419376
     0.0139437596884260    0.0191164033920139   15.4587375740632638
 Zr  Ti  V   Cr  W  
   8   6 108   1   1
Direct
  0.9933544725064223  0.3915422657268455  0.3666924468670642
  0.9979367849962133  0.3836087162769592  0.8117279688939949
  0.0326432010436660  0.5968326112109169  0.0025077611035456
  0.2445482961414478  0.5991742916759333  0.0008024911616883
  0.1986196396721571  0.7976511747504093  0.6031001622228872
  0.3978377247566739  0.2018865658175855  0.4016600128155615
  0.8131274913939424  0.0173997163438824  0.0292265049280199
  0.8094251529138421  0.4004140940204853  0.5965949344071665
  0.9840244179864714  0.1969509851654616  0.9830518312924366
  0.0015686816833571  0.2132425431875902  0.1956997468878212
  0.9960952773849052  0.1796610212306589  0.7868809128482001
  0.1951098968570736  0.1968796710758820  0.0022317176232967
  0.5914787326200028  0.3988265619406327  0.6002794747429820
  0.6127885394287683  0.5997327096820150  0.0014897456410337
  0.0113894048266383  0.9990842562256949  0.9993111614189980
  0.0021656686804854  0.9999381453861251  0.1989028026079695
  0.9992269788553260  0.9979126317720656  0.3969391533814511
  0.9992184782790640  0.9988371266568664  0.5985659335761764
  0.0000266038800336  0.9903682811506498  0.8001449116113346
  0.9953178413001366  0.1913267522618614  0.3983276942501564
  0.9987868929244687  0.2000687881409894  0.5930354941348442
  0.9984285146213616  0.3938903902931031  0.0063772033679692
  0.9987746084174524  0.4115768522713169  0.1727072709395338
  0.0098398468220354  0.3976593059612649  0.6014156466898087
  0.9990423651263918  0.6030160120233373  0.2072691062955372
  0.9984485373019317  0.6004364807464315  0.4023889266388578
  0.9991774910373106  0.5960158995625825  0.5992206194476710
  0.9966577845286604  0.5979279993824291  0.7976148198702171
  0.9985828913337566  0.8028626457473688  0.0014027590415682
  0.9981138181231903  0.8008352774309927  0.2000112716230454
  0.9979562994867885  0.7996561197593137  0.3996419455072686
  0.9942364256006581  0.7992920149496532  0.5998663064115283
  0.9971633965060657  0.7959983118374457  0.8008400114741034
  0.2032677734334841  0.9988368741580783  0.0013235794009587
  0.1998644911707743  0.0009575091279472  0.2005634151223418
  0.1985178358659595  0.9997335992028413  0.4001230687802483
  0.1993648209921852  0.0034337160481225  0.6007301720588206
  0.1986222118330933  0.9995398605918833  0.8021330110090293
  0.1998656516792359  0.1992000325227405  0.2017660677354039
  0.1926783356921112  0.1997387762304648  0.4016255373685352
  0.1983459906501087  0.1998873217039072  0.6001146201047671
  0.1983654742068731  0.1981671808182653  0.7971740201895853
  0.1998537022360435  0.3976483083493588  0.0006958593460178
  0.1958179385451292  0.3995736914527189  0.2032192599767766
  0.2005228579837544  0.3990059519395204  0.4011210390059995
  0.2014756950875974  0.3974683482954058  0.6019968752353081
  0.2021015432151610  0.3968486168480852  0.8024003643942288
  0.1978745828029337  0.6006855301972238  0.2032898248112047
  0.1989240813335870  0.5982475215524823  0.4030441668567549
  0.2006450631068233  0.5933377000398007  0.6012971510492627
  0.1935581571456864  0.5966585762715964  0.8003895620215263
  0.1967772012978623  0.7991509571574944  0.0027171132260053
  0.1993699488169744  0.8000704267855259  0.2008098388214617
  0.1993738384297269  0.7994939990320260  0.3968912335186340
  0.1990164159281505  0.7984986822378762  0.8067406491602375
  0.3992310496289089  0.0002976824710168  0.0003976984556593
  0.3994286685152771  0.9998701382541821  0.1987343877728070
  0.3981229115793363  0.9964535879797073  0.4004728012081744
  0.3989491403419314  0.9995571866131194  0.6027831956456062
  0.3981277962852538  0.9987474250055813  0.8023380221236588
  0.3988677021373895  0.2046983389059806  0.9992042627470018
  0.3986254383623459  0.2010038150011947  0.1962288762538051
  0.3989560520708218  0.2006286648648070  0.6056418596770404
  0.3989361185031989  0.1990799031433780  0.8017337413819849
  0.3954762715832992  0.4014948999759833  0.1948558644791452
  0.3972718921332311  0.4052531845865815  0.3967454137880630
  0.3966975551614552  0.4004103965997415  0.6045533820209988
  0.3971113836852869  0.4001054179631436  0.8069212312948538
  0.4309184229400990  0.5946483558556666  0.0005593178098486
  0.3992588310997955  0.6006811276641660  0.2013120405327901
  0.3993061342066045  0.6004725766311779  0.4020554105004014
  0.3996234961985418  0.5982299573685843  0.6024995394882646
  0.3995938152007251  0.5997106652395996  0.8016822227866642
  0.3998692632837748  0.7964358583058547  0.0015791548746768
  0.3993956290601695  0.8000553031691771  0.1996293960509473
  0.3995028822879562  0.7978730937996368  0.4000408867502762
  0.4036427278121490  0.7986752056669638  0.6023348762426183
  0.3987584576599659  0.7985947991711119  0.8027530191954407
  0.5993000315221019  0.0019067674104039  0.0002862940230831
  0.6013679467377414  0.0017246738047620  0.2001950037540324
  0.5980472477618760  0.9997659552808932  0.3990285812185458
  0.5999235173745001  0.9995736617475023  0.5995680892873545
  0.5993257555691095  0.0002761306428728  0.8013836072393145
  0.5965417569801338  0.1997362749159099  0.9981002314133273
  0.5989817475232966  0.2013720776796650  0.2006428617983915
  0.6036983916174955  0.1993376247506599  0.3996244027977072
  0.6001561605317695  0.1977833202978388  0.5998127951841062
  0.5981237277360265  0.1988731975596100  0.7975943549361698
  0.5939187170282939  0.3964905824328499  0.0015956258663417
  0.5964335889495168  0.4015963252175359  0.1984664618743830
  0.5956805622610553  0.4003852670128965  0.3963860807746373
  0.5959918409375593  0.3999215285272427  0.8035220985816870
  0.6004714632381917  0.6014339222367826  0.2048529241853851
  0.5993607440445524  0.6009859568020082  0.4017843277728604
  0.5999550587614538  0.6019240551176133  0.5998142485316571
  0.5999253392130056  0.6004739028736689  0.7962933032997590
  0.6003214569206832  0.8043016062969185  0.0006321689843722
  0.6000086550194026  0.8016186579654622  0.2007258126041971
  0.5992898947867639  0.8012993083820735  0.4001310744632115
  0.6003191382368505  0.8011884599988031  0.6001720100847133
  0.5986834993110258  0.8001410401284766  0.8013226739326004
  0.8017682636163779  0.0034669276607189  0.3080565848751081
  0.8000896980972733  0.9997253436942080  0.6024113466091240
  0.7998058252800325  0.9998869850996637  0.8065515971484916
  0.7902603707912554  0.2122143207703254  0.9972291037032084
  0.7962751335808599  0.2056993031571473  0.1960941511539080
  0.7997999367614553  0.2022964484447668  0.3960913673705610
  0.7996244348417515  0.1961260916446639  0.5974019961049404
  0.7947119163332251  0.2014871872882034  0.7980091109972125
  0.7960369658457591  0.4060995720677514  0.9999817056600440
  0.7985991453925350  0.4042537046084028  0.1973204078141294
  0.7899365428550073  0.4015150089592480  0.3933708728179583
  0.7911651184596008  0.4021927401427201  0.8032760783966971
  0.8086930334463183  0.6025904685524711  0.9999680100525181
  0.7994820858335416  0.6034623471156153  0.2009660216798349
  0.7987529010015186  0.6004769796308965  0.4018409284323810
  0.7998927508224948  0.6046286269536798  0.6000364353925501
  0.7992076482443425  0.6001195588079391  0.7995065581524825
  0.8007471044525666  0.8029415434439078  0.9999048096064712
  0.7990840892600888  0.8016018349133862  0.1992813065047805
  0.7986767211883157  0.8013560647334976  0.6010059813297661
  0.7973758376321666  0.8008133243098011  0.8025617334926622
  0.7982783086441944  0.8024724518929828  0.3999738091638113
  0.3955446326060197  0.4021741375512856  0.0015857743546692
