Zr V  Cr W 
 1.0000000000000000
    15.4863295998759050    0.0024137293282322    0.0105674120120943
     0.0024156779473548   15.5040449564505511   -0.0174543962439357
     0.0105707746262879   -0.0174578174046017   15.4782021514271442
 Zr  V   Cr  W  
  10 107   6   1
Direct
  0.0005536298054329  0.9684835823989959  0.7577359468551765
  0.9985719708786872  0.1994755507259557  0.6083845186217908
  0.0003922371988270  0.4340458072689062  0.0405207779084690
  0.0047156555568092  0.5786541756332171  0.2218555463440277
  0.9612974311689511  0.7920717979054955  0.1935059467245933
  0.0034851113424774  0.7946277580677645  0.5997943545986711
  0.1937616874581212  0.5864013869474691  0.6000168776586698
  0.3587169414808246  0.8037780479608048  0.1994357899513938
  0.8337430404211917  0.4309464509098633  0.3974990557164961
  0.7507002493749810  0.7916410218304897  0.1980521643013831
  0.0010812904974506  0.0068860448693554  0.9986543773040967
  0.0035687842719092  0.9987175646153926  0.3936234669073629
  0.0011104622104388  0.0007341407981714  0.5705953107542997
  0.0009762515998391  0.1996645281409797  0.2022357759655818
  0.0008484611470992  0.1999875921682402  0.4004545005557962
  0.0006874158831962  0.2046009220131337  0.8094587090678220
  0.9999709859328940  0.3869082209124922  0.2320511445738354
  0.0215902468778712  0.3985195330712707  0.4103256472784989
  0.9934958658830002  0.4037379303510140  0.6000732395824326
  0.0016309383852660  0.3975754320810053  0.7997379941848837
  0.0013065243952390  0.6233309753127423  0.0134646538336713
  0.0055400217325661  0.6062431639064246  0.4213725793843039
  0.0298060239102749  0.5638286357378193  0.6079982981787502
  0.9994880074067487  0.5924832375713946  0.8118569396360799
  0.0015554841952616  0.8127032164323678  0.9926440807142949
  0.0021918432235615  0.8004913959767830  0.3951742210931876
  0.0001538094263112  0.7819535617230379  0.8048656957498777
  0.1997584767606009  0.0026631484679382  0.9971484617241363
  0.2001930334256004  0.0021655368547448  0.1985980233518933
  0.2020710340252874  0.9996414246595539  0.3971608854613817
  0.2012458252417839  0.9985099155234922  0.5974656806010394
  0.2031555066104525  0.0005837336231956  0.7989564102873435
  0.2017501236992557  0.2011715854842022  0.0007462370835469
  0.2012052204668554  0.2004371498253538  0.1990498994140984
  0.2029052629608268  0.1999273330331535  0.4000292832122151
  0.2015088930239339  0.2003477735063128  0.8007172213452299
  0.2034509409869710  0.4009404718679282  0.0004565067021243
  0.1989049626224036  0.3995296635362086  0.1993931392575122
  0.2067287299006153  0.4031447288962908  0.3981702129950397
  0.1996869054528419  0.4005926601440725  0.8036828486553814
  0.2016980400982661  0.6024439924649361  0.0020285201216713
  0.2076358802456261  0.6009669398741389  0.1988840556283221
  0.2012020425549230  0.6015006580671473  0.3935940993445243
  0.2004857878503540  0.5999961399590762  0.8062678333975029
  0.1996654820417579  0.8029398333380544  0.9998036767819265
  0.1717046582418416  0.7972378178926379  0.1970706762144167
  0.1995560138342611  0.8000807309088752  0.3972614652086807
  0.2073930679612816  0.7961267649976995  0.5984535200666714
  0.1995334584686650  0.7998034941840153  0.7989540946364750
  0.4015391398638267  0.0008756852160121  0.9983673157127533
  0.4021042480041804  0.0043986508831613  0.1981767122473760
  0.4003500431399427  0.9992739428161918  0.3987588367045058
  0.4020929931684515  0.0004646752343938  0.5982811756979624
  0.4004010079753373  0.9994827915444653  0.7969415834640136
  0.4014507124938642  0.2004586635249815  0.9987399122369460
  0.4009511413083787  0.2009912080668914  0.1998372613846664
  0.4004847118144708  0.1991196055007476  0.3998888981802264
  0.4020362406617022  0.2005882693747200  0.5990080179245663
  0.4008249537946884  0.4005473692202193  0.9997314726231016
  0.4002293694076999  0.3982006597782449  0.1994291534896199
  0.4010775912589373  0.3989925445987818  0.4012065108100550
  0.4022109839191448  0.4005607857903256  0.6004646045039278
  0.3998564186701887  0.3999664290337818  0.7983313632592262
  0.4028784045353326  0.6011990899386214  0.9998690703264385
  0.4045883909977662  0.5943509902943355  0.2006304490325417
  0.4013885690905902  0.6015605722844302  0.4006490784553777
  0.4049817028211206  0.5995589338292800  0.5993856434092947
  0.4011127118351863  0.6007953348149231  0.8005663583164982
  0.3995774693016778  0.8012646969850783  0.9948711191599098
  0.4007981178333249  0.8002752095786781  0.4025879186716336
  0.4013080192212476  0.8001180461562347  0.6002416849207314
  0.4004443707851393  0.7993334005190518  0.7988613897811991
  0.6007595897303030  0.9995715625484102  0.9984925308008611
  0.6009038061997338  0.9967069624369094  0.1985827683721679
  0.6006816545963661  0.9979618027293898  0.3976809662143257
  0.6007849695541141  0.9991787694125874  0.5969563527342402
  0.6006978584079455  0.9980546681514485  0.7976628701796999
  0.5996085135932764  0.1988519107026678  0.9997722863941405
  0.6013971314903019  0.2006460718403718  0.1987783271938926
  0.6003249215130030  0.1986929717563278  0.5992213614454435
  0.6004529543468681  0.1998112945507680  0.7998885307145736
  0.6007282281714327  0.3992734741857716  0.9988579138611012
  0.6021882047271518  0.4005604068057217  0.1995087166456477
  0.6009100500188186  0.3987111205074459  0.3980114544398043
  0.6011763991917973  0.3997135288047858  0.5979653510497518
  0.5998643458927874  0.4002077520845416  0.7995241923666686
  0.6028244704587248  0.6002880883509254  0.0037574906563711
  0.6046031774466910  0.5992332075498481  0.3954870157796523
  0.6022522472158715  0.5999015628013863  0.5969429367939518
  0.6025681625903543  0.5997311995291208  0.8017416233054536
  0.6011759379959560  0.8008186503462269  0.9979451479960710
  0.5647849533611247  0.7908589781977520  0.1986097763297248
  0.5996838601430549  0.7998930820020917  0.3982078789148007
  0.6012200057990691  0.7993739853289561  0.5984417940523118
  0.5999817793011090  0.7982221747606787  0.7984996948723115
  0.8017207755380276  0.0016000524091260  0.9968514859630707
  0.8013413360756030  0.9979223575970321  0.1979570713827334
  0.7999328416010876  0.0008626151963142  0.3978851336620179
  0.8024289041965830  0.9998993393016673  0.5987779170325510
  0.7981753117576967  0.0001092380281135  0.7985980179039842
  0.7997015959034328  0.2006140195326780  0.9994971930693729
  0.7993862721690284  0.1997021527916137  0.1987571279431026
  0.7993027689773992  0.1967803877310720  0.3984690773924670
  0.7945395059832342  0.2014906324905905  0.5994103778329394
  0.8003155227482069  0.1992584789538963  0.8013357583542515
  0.8038412639598879  0.3980213622158639  0.1943038182332404
  0.7976133182104100  0.4007811885799830  0.6008222582895212
  0.7998106883532591  0.4003100294337059  0.8003900188436208
  0.8037349864682302  0.6011549588300534  0.0001785545557438
  0.7944090167967194  0.5945640433839213  0.2077636312147447
  0.8030621119260645  0.6183525836670082  0.4033556107639011
  0.7990381373438030  0.6005692623705322  0.5998727375272339
  0.8016401833126207  0.5991725109268918  0.8018992928055956
  0.8024598845947156  0.8026743436696775  0.9969290580668305
  0.8060709629273562  0.8065109521226163  0.4009069021313455
  0.7960320673670725  0.8003246716472251  0.6005125619447357
  0.8007751465409368  0.7989522421212465  0.7984810245215185
  0.0001297965530256  0.0034473648965092  0.1971576396544170
  0.0007700223634482  0.2015906082511543  0.0036981446926910
  0.2050417732677691  0.2039780542466559  0.6002312836606606
  0.4013142507406681  0.2000447403730812  0.7991919954022262
  0.5997642609617778  0.1987166024952070  0.3982786297075789
  0.7981455842798754  0.3999109895311997  0.9980958879591789
  0.6018733641597761  0.5980916616451163  0.1988465688448777
