Zr Ti V  Cr W 
 1.0000000000000000
    15.4183382732746566   -0.0042241751332824    0.0074453837453094
    -0.0042178102236809   15.4603498173954410    0.0002173660853659
     0.0074739898451631    0.0002197516182385   15.4879399768426929
 Zr  Ti  V   Cr  W  
   4   3 107   3   7
Direct
  0.9975162595601483  0.9956515048728767  0.6011344814816484
  0.9924642044221729  0.3905753127513162  0.3993266592385181
  0.1983390260023307  0.6348071560948659  0.6296729479604252
  0.4028170209026720  0.9956886297206120  0.2029032633955295
  0.4007096671878865  0.4041129411556123  0.9892116306790374
  0.6060846603123132  0.0018215016105052  0.8007324833614499
  0.8117668900831981  0.2159886040948637  0.4039019391480695
  0.9983556234231911  0.9986528342335991  0.9996784365442735
  0.9981156297014906  0.9979591419107781  0.1992081878892332
  0.0016682323285662  0.9951794632164183  0.3945508988383911
  0.0039693757236421  0.9984980804645829  0.8034401158835612
  0.0026012419428831  0.1986565098903728  0.0001422133527862
  0.9981646802506553  0.1979595650027088  0.1991216123382425
  0.0079225793599872  0.1897859896963742  0.3983151456705281
  0.0009322847979560  0.2022701404007565  0.5990923431275667
  0.9990238436867647  0.1990225710987559  0.7998691644427037
  0.9987876702079281  0.3994281969383107  0.9965569296139006
  0.0006628231327400  0.3992948461326165  0.7985550225490291
  0.9986778255080274  0.6001181815368227  0.9990239268973203
  0.9984354474398476  0.5971201763759411  0.1971775235172367
  0.9988735926965019  0.5986081881138463  0.3982579917719682
  0.9959613776258603  0.5957739900665584  0.5983795710925444
  0.0064677546453691  0.5977761881179120  0.7984380514477701
  0.9993998348366908  0.7991745571932299  0.0000836815826308
  0.9990712401420297  0.7974846363136675  0.1990239258916287
  0.9992835612867400  0.7959127274972494  0.3973703964720873
  0.0045726918227289  0.7914834218827430  0.5985906821285143
  0.9972198335255461  0.8003165888598154  0.7996668009659835
  0.2008908284109177  0.0040754063650946  0.0004796330423702
  0.1975665049313418  0.0000466456804280  0.1988320282596517
  0.2020907368883315  0.0023890220446554  0.3962200666322997
  0.2057309909469248  0.0049918845842198  0.6011428399175036
  0.2023448161777068  0.0000149038041432  0.8005375797452420
  0.2016315136254111  0.1996873770274977  0.1950941787185177
  0.2022504506678769  0.1989820214790544  0.3954390359213840
  0.2002076923712793  0.1995359206641465  0.6018046656459736
  0.2000234105569076  0.1992464254581421  0.8053517392503208
  0.1983232399852546  0.3944786547405664  0.0001291985693106
  0.2000163218792724  0.3981942217701008  0.1980291520315695
  0.2009428418517058  0.3993656991122924  0.4000812164949231
  0.2023571087035217  0.3956399502324809  0.5980414294779565
  0.2047652758087860  0.4032774651055732  0.8014858512535211
  0.1991047954631761  0.5996942377275631  0.0056579140752409
  0.1993953759070299  0.5981056106536000  0.1997253850687729
  0.1976649531818740  0.5972536194534395  0.3947475745963773
  0.1994525744551297  0.8028814887173047  0.0032062211169818
  0.1986907596011062  0.7992907982634883  0.1997547835125018
  0.1998235885268335  0.8015806971499607  0.3992695177077635
  0.2005990037757763  0.7999248954436340  0.8073558718059792
  0.4008004086142798  0.9993487057780038  0.9948218517931984
  0.4012394290180301  0.0000474850487890  0.4063425735668642
  0.4040736238469703  0.0023267978578529  0.6020885865985779
  0.4034380931073890  0.0000929504141836  0.7976951681809353
  0.3959073095412548  0.1988888363840025  0.9990832284893856
  0.4034169154287122  0.2047922529161910  0.1988743946399721
  0.3993828944077984  0.2004998142671351  0.4012953519831796
  0.4007668539491792  0.2029186479007565  0.5997007217192807
  0.4006277542189776  0.2045458290090618  0.8001087679297318
  0.3997010721832748  0.4018908871767908  0.2027059875773297
  0.3975524929446925  0.4012252580706345  0.4046629198689688
  0.4000867989273079  0.6022329766001180  0.9993482509324377
  0.4001713398630061  0.5973984331870649  0.1991062167945325
  0.3987265999147854  0.5997082472761063  0.4006489133882185
  0.4016163585432738  0.5957833087433746  0.5984738758777630
  0.3940679511992960  0.5953072154544259  0.7984306300427427
  0.3993798990624400  0.7990694119083357  0.9985877200683548
  0.3993865767429715  0.7931458047614374  0.2000868808134466
  0.3996869960105651  0.7983933924765914  0.4006024148731757
  0.3930483070185410  0.7972475160120651  0.6006380227742195
  0.4007678922468433  0.7987365129014985  0.7995734328408893
  0.6016191485673682  0.9998996714462320  0.0011685029574937
  0.6068498155892682  0.0046812458854381  0.2010975609917678
  0.6028168514971682  0.0017197279875981  0.3992942074237783
  0.6006528820924767  0.0002626675966397  0.5965651634470722
  0.5977464600413310  0.2006870084356824  0.0063830015495805
  0.5988910334055234  0.2013073291048364  0.3939318150878147
  0.5993962719174485  0.1998649395548452  0.5972387293753507
  0.6013782312217127  0.2011142322923916  0.8030972205842909
  0.6011413659212658  0.4003380840094518  0.9989425612468161
  0.5993382437451660  0.3962685644907691  0.1998434134837306
  0.5957559115925745  0.4012759125269609  0.3998826790498821
  0.5971455487997540  0.3988051169287987  0.5984739931218965
  0.5953607622344448  0.4005419831501694  0.7996901398696868
  0.5993103092081830  0.6001248411351476  0.0003066183487321
  0.5994632445904503  0.5978923495890959  0.1989780563421388
  0.5987244773489493  0.6010953045909795  0.3976279718265649
  0.5999838591791921  0.6013425133550017  0.5992860159163249
  0.5985674095247996  0.5996629679204313  0.8005693859679657
  0.5988304190968053  0.8004533756461993  0.0013997399360550
  0.5999808570940400  0.8007930597773725  0.1998793555113383
  0.5984585925274791  0.8002774895305227  0.3989499621269150
  0.5959088982425802  0.8003676235921585  0.5986699206810753
  0.5985613948938919  0.7968018107354542  0.7989372686851161
  0.8004404325718427  0.9992083245981115  0.9982693866991079
  0.8024376800104955  0.9981028229080392  0.4028104888306525
  0.8014447339574595  0.1980997819035175  0.9978595060243193
  0.7976902343090522  0.1994058036435733  0.1981894821330688
  0.7987881093416421  0.1965481275748678  0.6039552202382508
  0.7994610516367889  0.2052537864376217  0.7998445634667730
  0.7993261214397636  0.4000427984140710  0.9974656717588382
  0.7984196544118860  0.3995319023997040  0.1981799621754321
  0.7895182029476088  0.4077077721846210  0.3999022975488960
  0.7967129471245490  0.3992328346892592  0.5992119408749316
  0.7989712334370437  0.4009968823456616  0.7982542993610952
  0.8002202002355363  0.5993442047073061  0.9989381698358984
  0.7989362403770480  0.5989545946243997  0.1981624531362836
  0.7987834279047372  0.6015708195262564  0.3991282056602924
  0.7990315381857835  0.6004960817400952  0.5995660850313619
  0.8000246589199175  0.5982956925581120  0.7986366699990173
  0.7985167957338536  0.8010634473137072  0.9964021420486279
  0.7991232365635804  0.7987590805894742  0.1998123048525433
  0.7993994831509876  0.7990258252250513  0.3996670042818490
  0.7989938951067829  0.8017534990953479  0.6008719104181218
  0.7999899298654584  0.7937340890957286  0.7976863984553426
  0.9989181875723595  0.3985095037688987  0.1941786900712673
  0.0009469260886441  0.3996617843750833  0.6037779160494953
  0.8016033774995237  0.9987721696939487  0.2000042027920740
  0.1981380412888404  0.1995144022606284  0.0006393269286143
  0.2000049827605959  0.5979792774084119  0.8202396533775289
  0.1972744325954876  0.8274268168393525  0.5903941585021152
  0.3992577890808879  0.4005926632212046  0.5999470600821241
  0.4001481428072811  0.4001536002880600  0.7910701052300670
  0.5997250271144373  0.2004449033170527  0.2005325888928053
  0.7963811134065514  0.9996326509993279  0.5942304082158497
