Zr Ti V  Cr W 
 1.0000000000000000
    15.5156790444203825   -0.0894881118897371    0.0217838379805832
    -0.0896445880511617   15.5356651551125911   -0.0233108486568690
     0.0218567542863321   -0.0234613794087359   15.5047409555449658
 Zr  Ti  V   Cr  W  
  13   4 102   4   1
Direct
  0.9899366797794156  0.0184238095475009  0.4278557575469403
  0.0023800792316585  0.4004222263833562  0.7952256424019460
  0.9697408477182271  0.8087760425587864  0.7905418481626743
  0.1665007361365557  0.4175784709186405  0.6274023817686344
  0.1875945750143167  0.5761588427667100  0.4554573472057036
  0.1895597640593295  0.7626986736968161  0.8334499783664954
  0.4352024279843722  0.0225141767614330  0.1835778915938702
  0.3920618673544755  0.9960663635836741  0.4016381813707247
  0.3852324250428102  0.8004191293799152  0.2075889487259953
  0.6296617791833283  0.1961943270941755  0.9549739095747116
  0.5997005901507224  0.1993621088117755  0.1892388088253398
  0.8101371678017310  0.0003221374874161  0.5942926249411431
  0.8000244108056770  0.1976655699474257  0.7952929458568041
  0.2055772436559171  0.0051733329123718  0.2016309191435729
  0.2092881797722889  0.6301236571854203  0.2276563642046559
  0.3937827325941767  0.1984859797032730  0.5942688569510605
  0.5935408620118439  0.6030572456472065  0.3985068666770561
  0.0023350701950166  0.0002772784544813  0.0059663715207753
  0.9906440594820654  0.0018808838425139  0.2053942202022010
  0.0112097581631806  0.9778153749587339  0.6273395132994523
  0.0003460438258649  0.0078399124175532  0.8079960776613524
  0.0083896550652918  0.2016418935619619  0.9972251371492052
  0.0022232071872785  0.2140672798416358  0.4025112343901016
  0.0025568140143071  0.2209243733647973  0.6035952067213798
  0.0041362689460460  0.1967256021970799  0.7999214021599348
  0.0024285243354619  0.4007826979196480  0.0022149623208100
  0.0021673947867159  0.4064554000086883  0.1974487621058646
  0.0012500640268301  0.4060861758234525  0.3946814764170672
  0.9795331291105845  0.4085676103850739  0.5886351247711471
  0.0015615850702264  0.6003066455438131  0.0001368322071199
  0.9982173020097823  0.6021002914984758  0.1970815845298468
  0.9978525165295091  0.6046997546601183  0.3918510767269524
  0.9967515089179281  0.6016502163566398  0.6031030099769141
  0.9989569345063712  0.6049846458824351  0.8005981667870053
  0.0094903961082922  0.8015923555921192  0.0006927302203334
  0.9921645116682817  0.8051412207303712  0.2000543251132000
  0.9971052854601058  0.7982110070351746  0.3961693433628408
  0.0002163096212076  0.7925765742938399  0.5900183661633631
  0.2018962929971092  0.9944200419427274  0.9988544891029643
  0.2013318718023090  0.9977163668903484  0.6066318016295487
  0.2027254444901476  0.9987547089834863  0.8041797628875677
  0.1992932070418658  0.1951255591477734  0.0044844525433843
  0.1968426015020325  0.2017067162046818  0.2024247103930963
  0.1983150460537135  0.1971919650666084  0.4040099942678264
  0.1985676670338548  0.2005450069437213  0.6024411159178169
  0.2030010854604327  0.1935737100384521  0.8000927437303159
  0.2028766044830484  0.3995160962902457  0.0083248792772200
  0.2017687644442722  0.3969740625260879  0.2012156438272272
  0.2050323082950811  0.3899974361399463  0.3935105975340180
  0.2123064887279536  0.3837207059188164  0.8195620438735879
  0.2003602330372475  0.5968333440414924  0.9923219698960606
  0.1987327149421969  0.6162298353325816  0.6391181858528533
  0.1995070944411982  0.5684151395845194  0.8004440805263855
  0.2061312240625553  0.7981823290810910  0.0335802981494269
  0.1859284201722079  0.8106223617645842  0.2081006976327710
  0.2009281611167057  0.8160437652551006  0.3998189976793771
  0.1983801829044779  0.7993475861359589  0.5944788519888090
  0.4002637482448828  0.9962158593891172  0.9905179915902452
  0.3993641355912300  0.9923364870864502  0.6076480375715337
  0.4000128011833287  0.9970790695535822  0.7979249021232450
  0.3924515084973864  0.1970005681942731  0.0009917117199041
  0.3992723850444752  0.2057043756194460  0.3959845253582050
  0.4015823469005270  0.1974632935081113  0.8018500827676359
  0.4038041469684871  0.3976708784317510  0.0008017438871182
  0.4013903596825580  0.4009267770724047  0.1981658920553109
  0.4054975719289895  0.3990248929870676  0.5965373058537231
  0.4046161496892261  0.3947328096943129  0.7986157347336005
  0.4007678875849098  0.5965931086499485  0.9997121503851658
  0.4078557485341049  0.5929300065319714  0.1989067737973213
  0.3928637950014829  0.5976546835140334  0.3994921545078651
  0.3932330058737906  0.5963732834985656  0.6007074623549591
  0.3996678528564574  0.5935959672835427  0.7996108082125253
  0.3997816902408484  0.7960018364193754  0.9963479199581334
  0.3987371374189607  0.7907947097621773  0.4103717933321084
  0.3974721889890198  0.7942832961141983  0.7988761480484138
  0.6010032700076118  0.9927302326575216  0.9876162020472609
  0.6493483705197988  0.9914282952091126  0.2000192657187645
  0.5998259884772369  0.9999738273337142  0.3996513593120032
  0.5988416490623139  0.9966489964183275  0.5955542094095824
  0.5996525910073972  0.9991334227393306  0.7926376720320553
  0.5986086557912937  0.1991013416585158  0.3982041102136091
  0.6028694187011558  0.1972569314095000  0.5919184020505089
  0.5921595151511417  0.1966732307527756  0.7678944906719123
  0.6014838933931804  0.4002674549615437  0.9992424190916437
  0.6021373375503470  0.4064254289051467  0.1976287296926998
  0.5999499609681479  0.3974288999502610  0.3943899904138643
  0.5980603962169766  0.4005096585581056  0.5956305525957435
  0.6009225592829889  0.3956558532129588  0.7980643868455380
  0.6025966056947314  0.5999873860612213  0.9944971951747943
  0.6017712581474517  0.6022240544475083  0.1955163761552912
  0.5969429833058233  0.5997236432235551  0.5999784070606954
  0.5973458958248539  0.5968909181884261  0.7965513697760795
  0.5989538100944103  0.7978665275066631  0.9979622660950471
  0.6008773749368108  0.7981895012192274  0.1966643300359898
  0.5933711436175947  0.8025139837207256  0.3960565503351885
  0.5978422662208913  0.7982996687358974  0.5961407478372015
  0.5928010558253158  0.7973406466356927  0.7962476138539940
  0.8007552876858262  0.9994174564495180  0.9988483497670301
  0.9030987182218634  0.1004594533983028  0.2012466667769533
  0.7936198214886009  0.9975046260663597  0.3845144519030400
  0.7989436315828954  0.9914036904998925  0.8026733857501426
  0.8206055644206736  0.2009383304446043  0.0093327645768913
  0.8083687694380710  0.2059441419008283  0.2003861139658308
  0.8015834913933122  0.2039962293672676  0.3930179424546341
  0.8014604145453793  0.2050942387994591  0.5910565667631549
  0.8029535481278930  0.4012837255323395  0.9964598272882415
  0.7977631426106100  0.4024131936828946  0.3961683007016567
  0.7926814315982952  0.4031915986326025  0.5957904412691206
  0.7964734679639789  0.4051495494993873  0.7975305224131767
  0.8024927627659498  0.6007907008272889  0.9959041739448696
  0.7996804085790598  0.6012101479802013  0.1959180514006257
  0.8001953347508463  0.5989937833171274  0.3989273889348436
  0.7971894382412812  0.6001841934506013  0.5978036266903934
  0.8004503086828496  0.6009349380343606  0.7973023753637508
  0.8047114803233545  0.7988438955437234  0.9959248247881635
  0.7976662629972964  0.7975339936844240  0.1963651313726493
  0.7968209305360150  0.7977307522689987  0.3957356538217108
  0.7952738634525645  0.7941643793406753  0.5944999035571065
  0.7793025031771996  0.7961374357997605  0.7962283666038669
  0.3947982977387500  0.2080937344620112  0.1991625834287344
  0.4008330169766706  0.4007120588190001  0.3979156625201605
  0.3975574921678729  0.7963883363923714  0.6017125732767055
  0.8013865845705652  0.4030552486578797  0.1974757007086735
  0.1927376547271174  0.0065658462701731  0.4139522226873118
