Zr Ti V  Cr W 
 1.0000000000000000
    15.3960504026614231   -0.0029059402776773    0.0109527228615838
    -0.0029019596058232   15.4211892961187402   -0.0178703021294289
     0.0109643357546517   -0.0178836246684765   15.3929296075496413
 Zr  Ti  V   Cr  W  
   3  13 106   1   1
Direct
  0.3852200429006030  0.4144523013172981  0.8020995908120261
  0.7900488401457227  0.9659811270588841  0.2090839265881982
  0.8086467497196934  0.2090995440416827  0.7844588061515310
  0.9829687970777562  0.3898323915031437  0.7974075239971079
  0.0058113974010090  0.6051823448086179  0.9897946527564925
  0.0017154358516804  0.6372862055379300  0.1994853191146335
  0.0131766044349895  0.7981679330980580  0.3892477588470715
  0.2028123794771395  0.9994665384010577  0.0155884867726150
  0.2006020054454415  0.5848938626928720  0.8079540123157899
  0.1873997410176941  0.7972881717108223  0.2099000247543348
  0.3973101752269039  0.0031590195368148  0.8083351074881621
  0.5963273208637528  0.6043826577697078  0.0004610408831018
  0.8354220250243516  0.0042437521710167  0.4145381191700778
  0.7967433517079020  0.1928917785252119  0.1893622946132456
  0.7977277394196723  0.1924099872811415  0.5783683409688229
  0.7954985232819093  0.7696351475303723  0.1945828424731002
  0.9982863851692483  0.0036754234063210  0.0011184413089489
  0.9951157964086920  0.0067153735319880  0.1972405157027785
  0.0023609535916873  0.9975084413750146  0.6045770814824286
  0.9999946342307512  0.9987866081027068  0.8027560689915656
  0.0012890310456490  0.2024626412484793  0.9964771679367407
  0.0020096998343959  0.2002216045235065  0.1990463535123420
  0.0015613680391016  0.2042494213445545  0.3989863524270429
  0.0046386473258704  0.1978572067760425  0.5983071635525082
  0.0084451621748198  0.1933841129065200  0.7998179130893538
  0.9981006980193250  0.4012069478831530  0.0031897171183292
  0.9980375930193823  0.3972957095006803  0.1999711706010231
  0.9993996441726581  0.4012085489213577  0.3993143813034172
  0.9990766284842547  0.3991824010635951  0.5979315024787258
  0.0008065999297542  0.5994710000354880  0.4031550575848586
  0.0008228497829033  0.6009824600660589  0.6006020123889678
  0.9966805990496151  0.6010482252982857  0.7971996990419936
  0.0008509146544862  0.8067211193426440  0.9959098749603551
  0.9912095303006637  0.8165064284311730  0.1939301539438014
  0.0020166820513274  0.8006374138913115  0.5995805218782502
  0.0004647639020765  0.7993961731611395  0.7990458728577099
  0.1314431531040728  0.0015681786242818  0.2702472736997871
  0.1937634830301812  0.9952290745349761  0.4000731733931109
  0.2001280202017201  0.9980210433595456  0.5986789056051542
  0.1976765716780675  0.9977199430004290  0.7986988683865134
  0.1999648248207979  0.2035860187034600  0.0000546859381729
  0.1998085469816187  0.2018368071572003  0.1992812221416089
  0.1991902535685020  0.1971304724121130  0.3994349041544268
  0.2016928526446883  0.1980131483947807  0.5991824158740001
  0.2025955598751336  0.1969463330043342  0.7996053433111516
  0.1979738772561482  0.4011847127826903  0.0007434751512250
  0.1968231705343249  0.4016597088775769  0.2010191664558675
  0.1994916961717934  0.3983029934985589  0.4001182553105258
  0.1981441900720544  0.3985115045683633  0.6013442617445025
  0.1867001575564588  0.3916627123421700  0.8010835815711443
  0.2011325673076454  0.6004818233948751  0.0067217683120614
  0.2001483014250436  0.5977710984231862  0.2021702055155068
  0.2026751680654026  0.5948526743967626  0.4036752782516809
  0.1998419583949670  0.5985943743342319  0.6016618693041311
  0.1990449595424338  0.7983826092251525  0.0001776451733730
  0.2078893187949015  0.7971986686425546  0.4072195529825182
  0.2018737141232264  0.7966674296609436  0.6041295776977252
  0.1999844382557965  0.7994305923591921  0.8026922198744274
  0.3953331775307491  0.9989878629572138  0.1985036641970051
  0.3999544622610716  0.9995092384468129  0.5985862314237349
  0.3987594964256572  0.1979417968262268  0.9989948514821436
  0.3974062021624498  0.2010680040666573  0.2002876916197935
  0.3992409325774514  0.1990756394500828  0.3982777737120837
  0.3996111875070379  0.2001354274645431  0.5990884336810576
  0.3997714941756974  0.2036890615405799  0.7997134390358674
  0.3992082045703625  0.4011712478958528  0.0054642718406399
  0.3986339260070908  0.4021564739749535  0.2001882407824597
  0.3999167119162582  0.4001155314268803  0.3991234390985794
  0.3995415214243903  0.4012428156067719  0.5966861518528045
  0.3971156681966645  0.6043657789237341  0.0015409139306764
  0.3992041720002025  0.6034163097958520  0.2004492815842159
  0.4016467294801778  0.6009986359717117  0.3994125190897871
  0.4003109223864653  0.6017463203753541  0.6006568878114877
  0.4035177951534658  0.6120516289598886  0.8026347428247044
  0.3983089727812802  0.8056228469765484  0.0018423993927304
  0.3987910554922666  0.8006640490697642  0.2009824573251202
  0.4020671282104693  0.8001875640794486  0.3993935364190429
  0.4020549468149158  0.8015204927625565  0.6017938690104336
  0.3997083924378514  0.8025353736756801  0.8013483449289085
  0.5999785183786877  0.0033664167772682  0.0004636080644269
  0.5917593876936026  0.0029811961276534  0.2006148358488983
  0.6022772799863230  0.0007649172061221  0.3960104239939947
  0.6018031703639022  0.0009818879599541  0.5983430989558398
  0.6036791491890755  0.0030570404267029  0.7998532383825208
  0.6006525978548389  0.2026353403424850  0.9982770059455190
  0.5956076524657967  0.2009054357254161  0.1986650467897457
  0.6014067205177378  0.1992066756759639  0.3986478843415920
  0.5974239307485147  0.1998902805872136  0.5983079825025901
  0.5975897236813305  0.2027682231495497  0.7979674393835012
  0.5983940644548424  0.3995019228958463  0.9999084417906149
  0.5992140341407625  0.4008085085540574  0.2000576870574959
  0.6013014102920576  0.3995359648518647  0.4000810296354401
  0.5989811058151242  0.4000657232824115  0.6001262807847564
  0.5973304247148439  0.4022577089835000  0.8003440640776940
  0.5999402471709593  0.6015869953561508  0.2021076889698075
  0.6005693229639865  0.6003360149263945  0.3998009909074594
  0.6014228719156290  0.6008696823238130  0.5991692633639645
  0.5996283410705213  0.6021855722392330  0.7978725626394703
  0.5999227785494748  0.8047046724217093  0.9991809119229015
  0.5986842679562870  0.8010017483934381  0.1990122434314207
  0.6017599697397238  0.8021849397802885  0.4005360404331612
  0.6009296597607623  0.8021969499270106  0.5993122731774808
  0.6016112760423838  0.8023200732403355  0.7993280911604193
  0.7992716807123721  0.0038342461128333  0.0000402671788979
  0.8028175731400701  0.9968805718519803  0.6074274026276434
  0.8006396988468865  0.9981302150002950  0.8026504995232563
  0.7995634353215891  0.2024340727297949  0.9959722022966804
  0.8025640185335365  0.2016426068794447  0.3896957922484458
  0.7994447103317531  0.4037181296316548  0.9993705405065624
  0.8002900134798613  0.4022562313545225  0.1983976785780490
  0.7999441550356968  0.4003310850387324  0.3989754306013387
  0.8010467140036139  0.4015717587301810  0.6008446493400302
  0.7917459285346782  0.4110465508998475  0.8017013905993141
  0.8028365295822819  0.6019239871620592  0.9996394247521775
  0.8001908842970223  0.5900716974882522  0.1983284147399092
  0.8019860799118763  0.5988007338872550  0.4003191384433780
  0.8007636976220958  0.5995953931308811  0.5997458088403871
  0.7986618766558164  0.6045934012633691  0.7995581131206205
  0.7992869664742496  0.8023617731820752  0.9977293348201488
  0.8002726793384550  0.7960737766503279  0.4001986630868441
  0.8017383692001037  0.7985046317543346  0.5987606026691449
  0.8010836486851138  0.7999309950787961  0.8003701122417399
  0.4000554589172458  0.9997186576877849  0.3992224702388820
  0.4071367745780937  0.0015000399420271  0.0041241499988843
