Zr Ti V  Cr W 
 1.0000000000000000
    15.3960504026614231   -0.0029059402776773    0.0109527228615838
    -0.0029019596058232   15.4211892961187402   -0.0178703021294289
     0.0109643357546517   -0.0178836246684765   15.3929296075496413
 Zr  Ti  V   Cr  W  
   3  12 107   1   1
Direct
  0.3806011692528835  0.4188590794151559  0.7994074281752896
  0.7981550357191796  0.9718511805141464  0.2219166452158170
  0.8117865216761821  0.2077490963461208  0.7750151444840144
  0.9854371220770956  0.3899767877548675  0.7948819617683965
  0.9990046529642558  0.6347476747221716  0.1986148011868679
  0.0104531834485426  0.7932723630655394  0.3896283880058333
  0.2096776636501822  0.0032385002871454  0.9999601477519252
  0.2037665058305018  0.5870185817832910  0.8342318092597312
  0.1863883704229258  0.7935099097034095  0.2020425319727089
  0.3969200663844651  0.0035971107693752  0.8086270465533577
  0.5926052518752106  0.6029548704425219  0.0003630408884556
  0.8037540258289085  0.9971087807232734  0.4222505276423016
  0.7992375524371195  0.1913259172448812  0.1886751064491176
  0.7976268909543787  0.2011225629459399  0.5750146223985111
  0.7955923232108173  0.7740412258994677  0.1945649773108205
  0.0011945127692160  0.0006419770311574  0.0001759753905077
  0.0034555646739557  0.0082073984517697  0.1982238578894486
  0.0013421291189797  0.0024924559885192  0.3983964302054095
  0.0004405654434254  0.9988057178169175  0.5984210654963542
  0.9992782193975167  0.9983922529624522  0.8008855757195410
  0.9997208125382550  0.2004852959073051  0.9962973822949255
  0.0026617336239549  0.2014034044633845  0.1974012073707678
  0.0000653878721131  0.1990089072971482  0.3992711771887251
  0.0028229437266467  0.1994385236601243  0.5990644741818165
  0.0091086114152468  0.1925480668468828  0.8001454392319564
  0.9991381477093746  0.4022725589364730  0.0032327604494352
  0.9978766803536646  0.3964110546728518  0.1999137178619394
  0.9990417952487320  0.3989808529321556  0.3983693433399886
  0.9993141701386847  0.3995728258765668  0.5965707245462694
  0.9990881628695760  0.5967419753964928  0.4024112725816485
  0.0015432639528439  0.6000528373194277  0.6022996467785110
  0.9979930218958782  0.6011979202514983  0.8010162850386431
  0.0035040937109060  0.8032129041995907  0.9954470103204383
  0.9898576294986459  0.8192042852505110  0.1917941628188024
  0.0008658754782243  0.8010387163575970  0.5986483582705350
  0.0018064761825278  0.8003161700507976  0.7966782449839831
  0.2007742912643387  0.0010261324048785  0.2036518756506255
  0.2009121099974990  0.9994109219348618  0.4009419101565980
  0.2002687540792862  0.9995452908949953  0.5990161803523796
  0.1968043491965104  0.9981085273005926  0.7976382361088591
  0.1996978766136424  0.2031425521918635  0.9990663751984912
  0.2007784437331681  0.1998297435973289  0.2000794071596340
  0.2005812963534163  0.2002067233794942  0.4008406971940209
  0.2011158111002895  0.1990665700047659  0.5996486829876736
  0.2032513089997514  0.1974824566849651  0.7979267431536284
  0.1983485393607936  0.3961924193768332  0.0010469760272314
  0.1974339424108984  0.4031407458689550  0.1989198207005243
  0.1991185902754477  0.3972763326214716  0.3984662008479135
  0.1982602239369194  0.4008253868553305  0.6008136192083183
  0.1854086612059125  0.3922335901782868  0.8005604074213989
  0.0002833299309100  0.6016760652255264  0.9972939703793777
  0.1973434490775111  0.5987568535603276  0.2018357026173550
  0.2017710233194354  0.5952281178626415  0.4007150726097212
  0.1992885868646596  0.6008406582437229  0.5948259160461317
  0.2009150344241210  0.7853343264079081  0.9977669378405991
  0.2050969769076038  0.8005582037376840  0.4026019813641301
  0.2010444427592606  0.7981811754057332  0.6014724449800716
  0.2010425630749808  0.7994814644114826  0.7999665784289601
  0.3981023558460031  0.9988125816781616  0.2000272440238623
  0.4002976513785460  0.0009797322928913  0.5995673533713751
  0.4000594598800199  0.1973037708128425  0.9994759257388345
  0.3990879020624946  0.2018333378982024  0.2006512868545051
  0.4005075322492793  0.1997380977916370  0.3989377197093912
  0.4001104702726153  0.2013239526251201  0.5995286276724169
  0.4007323509024355  0.2049550418057075  0.8003123730542406
  0.3982865209742462  0.4015051098630811  0.0054904664045223
  0.3987796057257163  0.4023872777849887  0.1995922991928819
  0.3998687025826081  0.4008684535738366  0.3983859027637878
  0.3992855183197256  0.4019491706561122  0.5953804258276085
  0.3975468348889290  0.6046108930831281  0.0010891100989622
  0.3972366363171499  0.6037459535439382  0.1987567111159393
  0.4014702969992664  0.6012756616115950  0.3983775476022755
  0.3988394574738196  0.6028735044970411  0.6007409309066840
  0.4055295753355282  0.6142572931014181  0.8022681802097813
  0.3991187695670325  0.8063289484426079  0.0026633009631204
  0.4006665848646918  0.8014059656485840  0.2006455346019901
  0.4016224769966826  0.8005450274218933  0.3991164081508443
  0.4014335866109141  0.8027471800198520  0.6002867531329011
  0.4004761406383493  0.8039542562998246  0.7997944387421712
  0.5990868038638836  0.0027918463872869  0.0021268504230760
  0.5959639791750525  0.0032183354038366  0.2019011691629481
  0.6008073595987929  0.0006056830277110  0.3995705448214650
  0.6003557070319758  0.0016630661388048  0.6010343325375603
  0.6040017547146153  0.0032687743328559  0.8014837409153677
  0.6010043654626419  0.2020157514835819  0.9983099455156192
  0.5974290091599755  0.2006512528807084  0.1990446343336582
  0.6001609401453820  0.1999930271984999  0.3992757204729400
  0.5988400752163731  0.2006782046310881  0.5993225583129881
  0.5989910379202662  0.2025511563264149  0.7984381033138169
  0.5980417044744792  0.3987990483151028  0.9997326109639068
  0.5997697394518384  0.4007261352963001  0.1999992071798836
  0.6007729957144383  0.3995562481880708  0.3998507026546179
  0.5980733007280102  0.4012803722651174  0.6001135237888600
  0.5973822378520461  0.4013376065217253  0.8004785485063749
  0.5998877084628734  0.6023098239752956  0.2022935663644785
  0.5998468048201825  0.6005363861164840  0.4001119672758536
  0.6013901291882808  0.6013939477899043  0.5996798605179128
  0.6008822971836622  0.6022064507995391  0.7983413642437431
  0.6016951317810763  0.8047496289157002  0.9992877344921069
  0.6013041781943911  0.8034987881802038  0.2004356126226557
  0.6008087957679674  0.8011675938731158  0.4009778732982629
  0.6009289912385533  0.8028033664062943  0.5995468647082390
  0.6021781207474420  0.8033435442286733  0.7994765107077489
  0.8008069571669330  0.0019178746671327  0.0047440984161082
  0.8009457469300576  0.0014646319426392  0.6117752443624379
  0.8008881562506367  0.9983821737777229  0.8054323832985638
  0.7997690279559961  0.2009539748627648  0.9922154615422323
  0.8010332285676475  0.1963053410038820  0.3868450630522101
  0.7990583865424344  0.4019340345389358  0.9992470446714085
  0.7999394832205035  0.4007586395644843  0.1987069404571305
  0.7992526848775334  0.3966200969975688  0.3991106470743551
  0.8000658723403092  0.4018233921028399  0.5999345345020737
  0.7926257837286270  0.4092218489144711  0.8013931620103668
  0.8042541684372907  0.6002984302331303  0.0009056307164486
  0.7986427451944798  0.5913106524612026  0.2008109502004655
  0.8011007964600320  0.5965241060362331  0.4017003584094612
  0.8005812244350420  0.6000063859547878  0.6000152187823683
  0.7998601239811882  0.6037711207269079  0.7998018164951589
  0.8008417570996377  0.8002036166636013  0.9969251666923007
  0.7985515070993733  0.7953177985184177  0.4034753384131566
  0.8023336466857471  0.7998759912442921  0.5998382782998380
  0.8011577308383464  0.8000981649930167  0.8000048902787532
  0.4009832726522397  0.0007575425803164  0.4004754174951455
  0.4050463713592246  0.0015034396844643  0.0057681247149893
