Zr Ti V  Cr W 
 1.0000000000000000
    14.6602524187900922    0.0215172646834932   -0.0716507703750515
     0.0215146668373380   14.6497123791080810    0.0354822022612672
    -0.0718080800254052    0.0355544640000473   14.6377508731826413
 Zr  Ti  V   Cr  W  
   2   3 100  12   7
Selective dynamics
Cartesian
  2.4726206076438659 -0.6609493375800390  6.2824329364057059   T   T   T
  8.7491716837452085 -0.3293955166458135  2.7409895379170104   T   T   T
  2.4553331625530421  5.5170711682470328  5.9995314592989679   T   T   T
  7.2298248024325362  0.1718471822328646 11.2895172109100130   T   T   T
 12.3511672024726860 11.7323057507226096 -0.8850045615524111   T   T   T
  0.8645874208718622 -0.7826975545214201 -0.2236690174865158   T   T   T
 -0.2736609203091780  0.4728583389748700  3.2832696853681029   T   T   T
 -1.4452163820307189 -0.0697949406281114  5.8028040341578082   T   T   T
 -0.2461215809437047 -0.3953138599937525  8.4670170443038337   T   T   T
  1.1155982899254755  0.6373557946130548 11.8202369206349207   T   T   T
  0.9617346515083036  3.6452207574456321  0.3081914951592682   T   T   T
 -1.0344386347525676  3.0870375454135104  2.5972872444555519   T   T   T
 -0.1886926955948459  2.6277697921240404  6.1092522688819759   T   T   T
 -0.8628875018031080  3.0394440060362662  9.9853780653107300   T   T   T
 -0.6304632336828966  2.8223297982110314 12.7209976976424599   T   T   T
  0.6997917953092432  6.5845464485704275  0.2407944026145130   T   T   T
 -0.2062690967825895  5.3055882685912543  3.3543767672031133   T   T   T
 -0.9859526332750388  6.6973633675966608  5.6843764099198042   T   T   T
 -0.3368017576435789  5.9636237623313653  8.3751172345190206   T   T   T
  0.1207702043664290  5.2210510618852304 12.8498545317154669   T   T   T
  0.2201094988839893  9.1698539027730632 -1.4121924326448820   T   T   T
  0.6185513977881945  8.5655875335360356  2.2423917058663672   T   T   T
  1.0363385358717823  8.5780856373571073  4.9152409932541685   T   T   T
 -0.0785044117619191  9.6254332921507846  8.0650711265351855   T   T   T
  0.0810433154398250  8.0324047013038911 11.0564382472689111   T   T   T
  0.4054489879846460 12.1591600322458202  1.6912408290578309   T   T   T
 -0.2116882607110601 12.2422275049143465  5.4120856806917788   T   T   T
  0.2195896412904415 11.6434736408939710 11.3114333941690006   T   T   T
  2.1131041017060999 -0.2496255422361740  2.1151542270338797   T   T   T
  2.4667552449146739 -0.2109870550399457  9.6861352497079629   T   T   T
  4.0240043378574208  1.1007734411304064 11.8514694225942279   T   T   T
  2.3353060599720865  2.7329727772718178  3.2854663778369200   T   T   T
  2.4867173694935039  2.7362471773401809  5.8328950254353966   T   T   T
  2.3729830348815062  2.4170818397379916  8.7064546605404427   T   T   T
  2.4516810448521644  3.5675027014311835 11.9792509015149129   T   T   T
  2.9888339783562912  6.0746904767293213  2.4199935233711614   T   T   T
  2.1318620620363689  6.7944100583609472 12.1585591415637246   T   T   T
  3.2302541744136479  9.0790870562408603  0.2157243078486308   T   T   T
  3.6954645260734162  8.0380874311655273  3.8907333245373010   T   T   T
  3.0644375954801588  9.0471735161582707  6.7485023816516172   T   T   T
  2.4034145363419470  7.5447538935285463  8.9178391140761715   T   T   T
  3.4304954923661550  9.5836098431761982 11.2677053858160914   T   T   T
  2.6120652057915539 11.6730700146629971  3.1545165610015777   T   T   T
  2.1314315002958848 11.0803596382395995  5.6592102950266332   T   T   T
  3.9542001640107181 13.1588172893996287 12.0556735576114189   T   T   T
  6.1160245689644430 -0.1161319031355443  0.3495596680733880   T   T   T
  4.8407183302739121  0.1553871737807415  3.0830119095517494   T   T   T
  6.1084901284738367 -0.7106040834730729  5.4644712188179563   T   T   T
  5.0530639717985792 -0.3159509326476885  8.3387791323479394   T   T   T
  5.1698263852505182  3.5300296142337801  0.9206728648827929   T   T   T
  6.2353663362609613  2.3439445146934204  3.1445411530772844   T   T   T
  4.8769562318754049  2.4571045935881886  6.1188316715782651   T   T   T
  5.9932209590473704  3.3150409279928077  9.3851489032585249   T   T   T
  5.2816136069968103  3.0788758702352887 12.9601436933298473   T   T   T
  5.8708057840492742  6.2182945141967298  0.0461900148250499   T   T   T
  5.0764283284462959  5.4116748939107620  3.5802991926894894   T   T   T
  6.1733135177544094  5.9807391607529334  5.9359234527211608   T   T   T
  4.8107168438543919  6.1086111602652178 11.0034445145758699   T   T   T
  6.8155627099613403  8.7244394835366297  0.1592923317636297   T   T   T
  6.0916530346943176  7.7957042383273079  2.4382950316597385   T   T   T
  6.3244417421804293  8.3917812409839332  4.7984010408000310   T   T   T
  5.6681868863193392  8.7268108627726075  8.7271194378293373   T   T   T
  6.1658805796562692  9.3606160964859288 12.3380340013248926   T   T   T
  5.5075669538830478 11.5344363973610466 -0.8378579410650981   T   T   T
  6.2578997352653216 11.7558065926354356  2.7551025758673413   T   T   T
  4.9626359431933285 11.6130547407482290  6.1784040259002007   T   T   T
  6.5129977141892441 11.2369145635611201 10.0929195983250821   T   T   T
  8.0631405212163507  0.5995156243940422  6.3183503390461775   T   T   T
  8.8198153409007585  0.5944113242448973  9.0435705710262262   T   T   T
  8.4758112602284541  2.6031734879171964  0.6189947402681252   T   T   T
  8.4182748789397426  3.0187745059651765  6.1134806362553977   T   T   T
 10.0119711596426093  2.8480536792613531  9.5942305929077705   T   T   T
  8.0500398298264493  2.2456485893735048 12.8205929402038752   T   T   T
  9.5686755044899741  5.7556943663621549 -0.4488670901775345   T   T   T
  8.9714258981524875  5.2802908466171026  3.2722861070565608   T   T   T
  8.5521150186343835  7.4514568171097624  6.0842710213939810   T   T   T
  8.3864723386218802  6.1283593319345036  8.5978497907538571   T   T   T
  8.2271105012663330  4.8829384629038506 12.0051440635344946   T   T   T
  9.1043591865508056  8.3026823960561877 -1.5149563854987662   T   T   T
  8.8861170506889611  8.9254909461386163  2.0455735553793515   T   T   T
  8.2325488119312737  9.9971393928983101  5.6679043654382362   T   T   T
  9.0263957650404016 12.0195301313856451  0.0604041539675634   T   T   T
  9.6000204490750871 10.9005683550353680  3.3983964315988917   T   T   T
  7.8028384466208092 11.6725072305034061  8.1124372490443566   T   T   T
  9.6066040314750847 13.0303572739895799 11.3266408289317422   T   T   T
 11.2426383024474585  0.1573322192373124  0.1951531172641737   T   T   T
 12.2904800654760535 -1.0942699685806188  2.1600739161621614   T   T   T
 10.4074630036236009 -0.2427314316809136  6.1658313346797984   T   T   T
 10.8401608271515464 -0.5998396743667043  9.1789707550418669   T   T   T
 12.8211754939892142  0.0030325746764464 11.8897560247079834   T   T   T
 12.7784409021127274  2.1217627680699294  0.0628955330656410   T   T   T
 11.0288462595181898  2.5544972754607915  3.3902621016871248   T   T   T
 11.8960609374290573  1.8490304625736278  7.3047410784989149   T   T   T
 11.8548130902840576  4.3541755096478267  8.5005234128669525   T   T   T
 11.3180123274958895  3.3474284507509613 12.5944466809180398   T   T   T
 11.6303453356806656  4.8235221076899677  0.8090653910370315   T   T   T
 12.0017899316805199  6.6330753222046699  2.5227662930917556   T   T   T
 11.4945250211461403  5.5061457671034431  5.7377995080501556   T   T   T
 12.0253192965732101  7.1373397459744714  9.0827832780748725   T   T   T
 11.5545551171590581  5.8441071223757000 11.0994597558612877   T   T   T
 12.7511971860273583  7.9903464881274395 -0.5562289755036349   T   T   T
 11.4143325994685565  9.2933708504743286  1.6067844657026806   T   T   T
 10.7285662922985185  8.7780329254738891  7.0160421001735775   T   T   T
 12.3324587765795624  9.2703064797973429 11.1433329362027234   T   T   T
 11.5947811738898903 11.8904681659788345  7.5630856004296874   T   T   T
  1.3286282048500528 11.4426828665774494 -0.8900885849790130   T   T   T
 -0.4030377449726643 11.8896873561984346  8.9083178871920214   T   T   T
  3.4548906487666668 -0.0574484273272113 -0.4979163298646527   T   T   T
  3.1366580716460843  2.2458423386797861 -0.2163618824733469   T   T   T
  1.6517584966151875  5.1603303583808300  9.4565580603362491   T   T   T
  5.2618771974184249  5.1978035302065475  8.1909897091230413   T   T   T
  7.3723322982514849 12.2953127454728488 12.2304117470140934   T   T   T
  8.6455123587020299  2.7911501427964298  3.1577018908782541   T   T   T
  9.8322237270950019 10.3711035017830415 11.3352492534561140   T   T   T
 10.8445604307641617  9.5664153137809294  9.3003267649736241   T   T   T
 12.4548306649158675 11.2361661732973150  2.4837094545254539   T   T   T
 11.0857856189670976 10.9292440618233613  5.4520395744339600   T   T   T
  3.2708325746739066  5.1559798001282910 -0.4904535002788476   T   T   T
  3.3734062882912674 12.4040318368882510  0.7741400770509633   T   T   T
  8.6412018523970104 -0.1903176718016113 -0.8399677176713819   T   T   T
 10.2111824924012815  1.0404367000661092 11.6242670230658138   T   T   T
  8.3795260377511145  9.2035116460985957  8.6475149810965828   T   T   T
  8.6375190137886282 12.5510491715889589  5.4834768369019269   T   T   T
 12.0342435358866489 11.8875950743306067 10.2854902717684169   T   T   T
