Zr Ti V  Cr W 
 1.0000000000000000
    15.4774007178547244   -0.0057270445464663    0.0060485456842571
    -0.0057275938548885   15.4869400142696509   -0.0016006725836938
     0.0060484205712483   -0.0016004018593464   15.4828342852602923
 Zr  Ti  V   Cr  W  
   2   1 107  10   4
Direct
  0.0023555584048045  0.4015771293615520  0.0009496588260440
  0.4012861541064282  0.5969105140354516  0.8025237711965844
  0.7986611882797019  0.1930641767682316  0.5995191200902834
  0.9996149934999048  0.9995806283395665  0.1703015641656173
  0.9997815833596674  0.0001722085423351  0.4003156551532687
  0.9969177294551302  0.9992186100693037  0.5991006133618876
  0.0006812007546591  0.0001229633341012  0.7962987650741502
  0.0010197439893822  0.1949034975470740  0.0016413285834012
  0.0001337803444286  0.1989829012661007  0.1995438567612997
  0.0000944841775810  0.2003592091063255  0.3996244597205395
  0.0036379952144685  0.2001558968487720  0.5987863534341092
  0.0018245826953006  0.1979073692244009  0.8010789822131756
  0.9995645509421965  0.3997532815833127  0.2051314429509936
  0.9998284963426712  0.3999531076970841  0.4018946023898031
  0.0013740783320353  0.4004665705520119  0.5984852102217304
  0.9950997564030118  0.4004033339767082  0.7945926772411469
  0.9999843812572600  0.6078917966944760  0.0004520547099254
  0.0001036050344339  0.5998478370545731  0.2012963487540443
  0.9992759833373973  0.6002277847291350  0.3999439256841366
  0.0005030873357992  0.6012133955143588  0.5989358347129168
  0.0006100588441953  0.6007482210705272  0.7978985526991148
  0.0002281230146084  0.8008963946807296  0.1971305174441422
  0.0002154301660787  0.8003014520160385  0.3990688879405858
  0.0015189298790217  0.7984554856841368  0.6003814489703088
  0.9995958336046221  0.8013638897480153  0.8022366116293387
  0.2036004768569643  0.9996038534605139  0.9991387738494901
  0.1998690581111588  0.0000950584315449  0.1990121267215023
  0.1999534562513572  0.0002221800647590  0.4010625359221872
  0.1990835918495729  0.0004619445515075  0.7994301179675967
  0.2009271655593987  0.1986059045150591  0.0002506177354655
  0.2007012460897589  0.2005017489011302  0.1999662921036726
  0.2001516561080496  0.1996347596235135  0.3995337179893741
  0.2001326370667818  0.1987552675768261  0.6002092232787923
  0.1997271077576039  0.1999163883151040  0.8006523821715800
  0.2059207091954124  0.4006737009223936  0.9993075684708884
  0.2020703940037647  0.4001886728949759  0.2017262916540944
  0.2000058781931607  0.4003727637740249  0.4010638443208311
  0.2048787386328106  0.4004425359705234  0.6005742579181489
  0.1980028493052039  0.3990157560169558  0.7991751795610713
  0.2011475361852541  0.6012185659145557  0.0000557586703163
  0.2003223887286694  0.5990883639028057  0.2002667944142750
  0.1990932951044227  0.6004672175739971  0.3993381334477698
  0.1963825977996102  0.5995459545906821  0.7997137898193618
  0.1982947000331183  0.8013230355638626  0.9988883233655331
  0.2007160137935699  0.7999812569999258  0.1997904327230559
  0.2001706739453583  0.8004181654599190  0.4003898807051538
  0.2001499109278065  0.8001535375519128  0.5999164258814932
  0.4013302371898276  0.0007028311738058  0.0000631227684242
  0.4008666446451510  0.0003788721805196  0.2010281985734811
  0.4006007654570772  0.0006635864090329  0.4013725714757660
  0.4007618609376465  0.0006734745900638  0.5996538524845179
  0.4005352432317626  0.0006423476356134  0.7979102273809755
  0.4008943585041430  0.2005454135176049  0.0004410420387581
  0.4007987427289789  0.2005790799326081  0.2002308783206855
  0.4000316262046764  0.1999931325774939  0.3993360589408066
  0.4001614243629977  0.2026943444235684  0.5994577337944305
  0.4001451553046535  0.1986130028015036  0.8007630776433137
  0.4020681320705658  0.3985949672115219  0.0000404678096440
  0.4008323449780470  0.3998784126921293  0.4041481972893002
  0.4022968553339589  0.3938695143793522  0.7951808798006643
  0.4002225850148872  0.6008627325211617  0.0055168093433522
  0.4002410897206908  0.5994663652067596  0.2020535601592018
  0.3997529324911933  0.6007224974721519  0.3997031773498404
  0.3999293788862206  0.5967017748153434  0.5964252690677225
  0.3998039877655697  0.8014390233333673  0.0009165485965662
  0.4000367434161300  0.8004887842375072  0.2002352719899830
  0.3996997254713884  0.8002677255112725  0.4000574803244715
  0.6004161088565644  0.9995424828291054  0.9992722129687543
  0.6009247930849193  0.0008082067440610  0.2004407140218372
  0.6003141359569169  0.0002883192939476  0.3995437701606092
  0.6029792875655112  0.9992035854606984  0.5996401980244389
  0.5997805458870815  0.0008320038709693  0.7996686029173975
  0.6005045649486191  0.2002815089321549  0.1993573984470702
  0.6009213517827635  0.2003907468054391  0.3982068890320158
  0.5984231423530176  0.1989247161257755  0.5987765123700014
  0.5997374052940141  0.1988949427799774  0.8009302415468859
  0.5982655020093652  0.4009907491838582  0.9999343089362763
  0.6005346452322891  0.3995403782412809  0.2002432897957609
  0.6011528891359910  0.3998489539062574  0.3998736065672098
  0.5962564503628728  0.4007111578184788  0.5996900276316234
  0.6060738349439309  0.3989750364240974  0.8001814563273901
  0.6003626075667468  0.6014072775106487  0.0014842996440589
  0.6004534137415896  0.5995672800445618  0.2003542299672165
  0.6010108230342971  0.6002617977468659  0.3993044416020001
  0.6004228878490004  0.6023065533810900  0.5990059876898045
  0.6050150562846215  0.6013929391534798  0.8000704288964444
  0.6000329755451445  0.7998337328078678  0.9996614256763960
  0.6000296766824010  0.8003504758314545  0.1993774570359543
  0.5995165148982804  0.8005753538711688  0.3997791620971863
  0.5986350751892285  0.7988433127849652  0.6005393405583156
  0.6011258639085951  0.8010722732748986  0.8003195124795546
  0.7963633144238286  0.0008597052068529  0.9986027873348363
  0.7999985219193716  0.0006752524158672  0.4032979778571945
  0.8011940036147772  0.0020050814340354  0.7968915801629005
  0.8010182943548279  0.1967478276159053  0.0009864140188136
  0.8003650333046964  0.2006190372791385  0.1987841742206984
  0.8005443489440115  0.2033030066608060  0.8025104367361092
  0.7951692612157365  0.4005353262291503  0.9947905043318056
  0.7995901109354865  0.3998513420807336  0.1989542453672356
  0.7997041615947421  0.3990855804224949  0.4020570548069947
  0.7986877771994420  0.4011662549864976  0.6036707869679621
  0.7992876375007845  0.6004155697374065  0.0004720424997622
  0.7999982561876682  0.5987479836799269  0.2004025877249185
  0.8002819517487537  0.5997742483309642  0.4002376447641365
  0.7999142172932227  0.6006876683337061  0.5986474473513644
  0.8018495714597292  0.8022931078438876  0.9991048919792342
  0.7997827107181353  0.8002039146926603  0.2005625827052070
  0.7999785996197134  0.7996448769067596  0.3989307845423331
  0.8003174190811140  0.8014663645736506  0.6005616015290646
  0.8001712778626714  0.8003078823844271  0.8000601501701424
  0.2004276392847576  0.9993354206276174  0.6000798823816282
  0.1997990647807408  0.6007695696001547  0.5995394933430001
  0.2000833789329778  0.8005728976413978  0.7989946398200231
  0.4012935647217112  0.3999235406361420  0.2018405360091843
  0.3994081938138144  0.7997881671280170  0.6000256100031176
  0.3998053093382448  0.8030389882523679  0.7998065374056521
  0.5997386216797431  0.2000372834896483  0.0005727207407966
  0.8005354937017952  0.0001518889464983  0.1999797202616819
  0.8003867204356316  0.2001126366452977  0.3970118554620948
  0.8013925407403603  0.6005672601812061  0.7991671419973488
  0.9985761234576309  0.7979694172282760  0.0001813346649740
  0.4009594424758113  0.3993360163803988  0.6004738661883909
  0.7995585645350405  0.9958605323154226  0.6005205842223872
  0.8003319566459811  0.3964412876219983  0.7994730921466576
