Ti V  Cr W 
 1.0000000000000000
    14.4215617146127411   -0.0340580253175946   -0.0146492675897958
    -0.0341452639138493   14.4780982435186267    0.0121350085407948
    -0.0144011403528378    0.0121814235116969   14.3381583337057812
 Ti  V   Cr  W  
   3 114   3   4
Selective dynamics
Cartesian
  5.5888294456098651  1.6768344097362631 -0.6111784285529184   T   T   T
  6.5422422758416259  9.1093852449263295  6.2748596040894018   T   T   T
 12.3801287082713998  3.4402496152665218 -0.6441625965782303   T   T   T
  0.0492452724143648  0.7756506641167312 11.8835510599195118   T   T   T
 -0.2541397103832242  1.2392557276798946  2.2056417092319052   T   T   T
 -0.9047147561515774 -1.3002281630703822  5.8460304490778396   T   T   T
 -0.3789629860320662 -9.9736531172354184 -5.2902743760619257   T   T   T
 -0.0627220287393808  1.4509627746657645  9.5596289081950161   T   T   T
  1.3750986970978225  4.6631450332505358 -1.5738849723907844   T   T   T
 -2.1849792615271970 -8.4500263290345288  1.3400589370451310   T   T   T
 -0.4390165038745049  3.2004794660757105  7.8257694913522604   T   T   T
  0.4785656870922504  2.2255058142378288 11.1232958749810500   T   T   T
 -0.5341324821575743  2.9604571920449825 12.0148018773034373   T   T   T
  1.1896644940486873  6.4390646190941050 -3.4924448230962732   T   T   T
  1.1053299493127657  5.8217997019945624  2.5215458641963115   T   T   T
  1.2583785634693694  5.3894990991109930  5.5780054539633062   T   T   T
 -1.1828214811238889  4.6000559531444996 10.0024694807219614   T   T   T
  0.1552888833487279  5.2436746435009622 12.1457030317985399   T   T   T
  0.4747365925433702  8.6780926049320648 -0.4041729318466024   T   T   T
 -0.7414229413608842  8.6120858059620105  3.6286614358421110   T   T   T
 -0.0705664189756118  7.1443279925735901  5.6108174430435058   T   T   T
 -0.0798379032178987  8.1944001617055058  8.6635850462644033   T   T   T
 -1.0326934853259149  8.3715484223066792 11.8307363609778307   T   T   T
  0.9800864573368095 12.4962603030624990  0.6997385521470578   T   T   T
  0.3512057129678521 11.5328171911403281  1.4774776427171434   T   T   T
 -0.5496798473327335 11.1214921038060908  6.4022762299827827   T   T   T
  0.4097321251496360 11.7974735386567424  9.0081135709972244   T   T   T
  1.5040422553736006 21.7045706580853022  8.7920961495699892   T   T   T
  2.7260572655515829  2.2396916068878387 -0.4138010855048435   T   T   T
 -0.3230113208766241  0.9268301479230026  2.3708857688852172   T   T   T
  2.5668996665868220 -1.8472476229668369  6.8744670760364972   T   T   T
  3.6018359447677089 -0.5593804095761280 10.0563317244377686   T   T   T
  2.1656068451886910 -1.7090703119149628 11.3785748651242251   T   T   T
  2.7302701046353661  4.6511079341838366 -1.6690601890672165   T   T   T
 -0.5930978247270375  2.7001910456196407  2.1522455553060351   T   T   T
  1.8320617772517580  2.3535382894023273  7.5619715218458134   T   T   T
 -0.3037521158499441  4.5134504055566707  5.5152284509149494   T   T   T
  2.5494421800403790  6.3145249757827111  0.5021815067824186   T   T   T
  3.8052058924988872  4.9288041417740693  3.6562713470833104   T   T   T
  4.7786346653427145  4.4513251177619129  4.9775012596541179   T   T   T
  4.0276565824284836  7.5034014274734773  7.6091385967922944   T   T   T
  3.5920132034171646  2.5802588959683028 12.1759208431468657   T   T   T
  3.0632142152705946 10.0700428300333300  2.5113578317538052   T   T   T
  1.8241531903556987  9.6523965428667893  5.7346999588592720   T   T   T
  2.0070777169521818  8.2255890508017906  9.2818865274565798   T   T   T
  3.2658134500206164 11.6417170600365996 -1.0528978769965984   T   T   T
  2.2250987834196962 13.4097559266206865  4.6104879663121316   T   T   T
  3.2239625878095639  8.6820469616390721  4.9414335016584277   T   T   T
 -0.5001958089842526 11.2742074470305589 12.9256107179791400   T   T   T
  7.2331523527974833  2.5286711833218982  5.5074921038293478   T   T   T
  6.6641378365724302  0.3028999138901515  7.6917031064916088   T   T   T
  6.5582149101201868  1.3795728155020901  9.7678297500854558   T   T   T
  5.9722895721722962  1.6095579021722497 -1.3068409281252191   T   T   T
  5.9727892631845974  2.4711197795105582  1.9374509349978735   T   T   T
  3.5408648392686550  3.0833452269876567  7.6867638215794862   T   T   T
  5.4135374134317065  2.9545880785621716  9.2326055181622557   T   T   T
  4.5549274720658790  5.5311032863170180 12.3007431777291867   T   T   T
  6.4125281467332274  3.8598119660592145  1.8590809384321871   T   T   T
  6.3327067608614769  6.6715698423526941  3.5345108241871541   T   T   T
  6.4156954112386915  6.9425491664476606  5.9129825767614994   T   T   T
  5.7720906416052049  5.3169925643435452  9.0133343022639156   T   T   T
  5.6891797624616496  5.8927620224704267 12.3535357758088615   T   T   T
  6.0272745964354604  8.7970054722217874  1.2639592767326118   T   T   T
  6.1177175211916062  7.9393189448190808  3.5066126746808681   T   T   T
  6.7421998261306690 10.0486267509247078  6.6501644272008216   T   T   T
  8.9324415220471902  9.4829604086959467  6.0880433225643964   T   T   T
  5.8959292762718629  8.2245481833083023 12.4310913514223991   T   T   T
  7.2158287956263756 11.0441847735566032 -2.4375220047425867   T   T   T
  4.8528238049039354 12.5166497101405803  1.0511724763856529   T   T   T
  5.1308677458506233 11.4896780261429612  5.5697690234987220   T   T   T
  3.7631848021289165 11.4317413527051812 11.4711086157849298   T   T   T
 10.4862535312460476  0.6244362480114343  0.3517130354528882   T   T   T
  8.5459604643312019  1.3606574250441956  1.8315223591530372   T   T   T
  9.5624711607173438  1.5468412326321399  8.6588379684754351   T   T   T
  5.3239039184389991  1.0740893463437955 13.1157755480898448   T   T   T
  7.2648613460658904  2.5332780389808010  0.5246812469197498   T   T   T
  8.3761480011921456  2.8119758660791776  1.9921697666245912   T   T   T
 10.8437074601479644  3.4765271233340611  5.4571548502928202   T   T   T
  6.9210130049379757  3.0962085296812409 10.0927032015147802   T   T   T
 10.1718104377816125  2.5033233768853389 13.2984095225187513   T   T   T
  8.7188253292115903  4.3986290179790792 -0.0608647659019695   T   T   T
  8.8350890426008810  6.1597068004061457  2.7166837876201475   T   T   T
  9.5229046619143709  5.5279826609382390  5.4783864929065436   T   T   T
  6.6996718915228017  6.6093046927154102  9.0322477337462903   T   T   T
  8.3090872240362899  6.4022093419866666 11.5928501208485386   T   T   T
  8.1362316321502846  7.9113276610505396 -0.3327627167379076   T   T   T
  9.6774050579843607  7.2282111517025047  4.4431201184871458   T   T   T
  8.7938834100973224  9.7205119261363322  4.9311225284454636   T   T   T
  8.8760712135746704  8.7248545477227992  7.1937310822745077   T   T   T
 10.3027928935016142  7.8288088859516636 14.1305274176799927   T   T   T
  8.0960174884882612 11.8918985097061380 -1.2192251562074334   T   T   T
  8.9278402231981318 10.3665105710079093  1.3752849745112408   T   T   T
  8.4210862261437036 12.0860428572464933  6.5256191154738517   T   T   T
 10.5123112121592754 12.8546045077071085  8.5071195721208248   T   T   T
  9.6348500428089316 10.4665968760214572 10.6420572482700742   T   T   T
  8.6678261847886269 -0.2379275773010883  1.1343636138250015   T   T   T
 13.2301047257177551 -0.5021832498549151  0.3729663162644983   T   T   T
 11.7505293962876198  1.7919686480164452  6.3516004466988383   T   T   T
 11.0729514624795620  0.8113817847937069  8.9380857138811756   T   T   T
 12.1578506608275614 -0.5117032793229817 11.7507975448832376   T   T   T
 13.1864185929264686  2.4152582082149996  4.8289730045933030   T   T   T
 11.9600121962983295  4.5346882985139008  7.0191303956543285   T   T   T
 12.0998257547638328  4.0537118900034885 10.7800929289467096   T   T   T
 11.1700331958563215  1.4679928657530850  9.9366150832711675   T   T   T
 12.0719703800790104  6.5809831052342211  4.5493856890502613   T   T   T
 13.4471935999408885  7.4465435847355383  6.7524356015521496   T   T   T
 11.0353416978264818  4.6301261664642146  7.2674881198862318   T   T   T
 10.5169139247645589  3.0077738166143302 12.1078316856877652   T   T   T
 11.0438718632655473 10.8624984359009602 -0.1161732509718226   T   T   T
 10.9957386221009941  9.2032229871128575  2.0614602905713468   T   T   T
 11.2534353409846499  5.9874502363061257  6.3948343956931470   T   T   T
 13.2540754289344456  7.6606624012676043  8.6349502666915861   T   T   T
 10.9611648575923279  8.9893299410626852 11.3297900445715989   T   T   T
 11.9304245877623991 11.5634767431463281  0.0104724811344519   T   T   T
 11.4475692175206287 11.2763250814598806  4.5483987812134128   T   T   T
  9.1733795125988227 11.9525782324276690  7.7919393378209234   T   T   T
 10.0695458927377786 12.2847992577214811 12.1674962957693644   T   T   T
  1.7896616450796849  7.9134079808567321  1.5728229709967669   T   T   T
  8.0477591154674784 -2.6469999354658236  4.6590542406558244   T   T   T
 11.0411733528978804 11.8203938094489267  2.8757075795898639   T   T   T
  2.8540810960602858  2.8742456286682727 12.5432107615436639   T   T   T
  3.5427552775083662  8.4752715754735490 12.6543870391590687   T   T   T
  9.2594054819494307 -0.0089647924799182  5.6159642372067236   T   T   T
 11.1115342505273365  3.1165389303738684 -0.9917528888918816   T   T   T
