Zr Ti V  Cr W 
 1.0000000000000000
    15.4546529229448950   -0.0040749683285616   -0.0054037382233372
    -0.0040912970430347   15.4638570505567383   -0.0473148360752500
    -0.0053791826064366   -0.0472533129127416   15.4680791581891697
 Zr  Ti  V   Cr  W  
   7   3 108   1   5
Direct
  0.0050805243675740  0.0001602775772904  0.0334098864471206
  0.0082488275745238  0.1891703432038176  0.3949862490724663
  0.2022678930032434  0.9930152064465736  0.6009792554248454
  0.2038323348986768  0.8389794559333384  0.4150554001618175
  0.6051685049996344  0.0085231280803001  0.2128998287021390
  0.5987425922534689  0.1893651809990954  0.3927729060448508
  0.7663830006214668  0.0256945688693340  0.3899248479412523
  0.1934908776754800  0.0347739884539924  0.3850211690961177
  0.6112399391925208  0.3998465415123906  0.5992692785649825
  0.7911943950900165  0.5867906490359081  0.5946139189720256
  0.9984686869663428  0.0015053869336064  0.2214448694373866
  0.0039895795738785  0.9854651999195538  0.4074947463754707
  0.9928979096319210  0.9956332554817661  0.6027985633459507
  0.0014772467995948  0.2028991253022356  0.9950059097513188
  0.0005823268094771  0.2004834877775496  0.1898000439175472
  0.0008764444227731  0.1942654313380139  0.5999165429457916
  0.0006548330026135  0.2018114967480253  0.7958211854937099
  0.0008864901202068  0.4010048161591876  0.9941195146546674
  0.0000775923643352  0.4009090933744338  0.1980608094457781
  0.9979258175787797  0.4015118753452542  0.3991518296799593
  0.0013168212656178  0.3967122156841068  0.6027014818395339
  0.0009304986041243  0.5997597329624771  0.0012991825463555
  0.0012180984310877  0.6015370989260841  0.2006293788025219
  0.0007266424654815  0.5996327580650934  0.4008382873873869
  0.0019165085143723  0.5968189002711166  0.5987100238676659
  0.0000535236513415  0.5948927338497308  0.7986690251106011
  0.9995914499766592  0.7961020180047004  0.9999592600705641
  0.0000130709489297  0.8017021556549583  0.2030989075094672
  0.9956496673141431  0.7962558425932235  0.4041948842266544
  0.9968083368754346  0.7930002076797265  0.6045630550669454
  0.9970696863196394  0.7959799160072299  0.8014873691200922
  0.2052233179170730  0.0011425513880496  0.9973746778617659
  0.1956651759372641  0.0035416759866822  0.1923644192613491
  0.2025913448717991  0.2004013499647576  0.9979199553015209
  0.2010188900077853  0.2047790567894395  0.1973627281855418
  0.2009904414851472  0.1993266355239918  0.5931466105023196
  0.2016401318040607  0.1932955125762608  0.7960893585228588
  0.2016558169563292  0.3994936420682644  0.9991298075889946
  0.1999779405134512  0.4015913756191320  0.1971501365463842
  0.1964151616686569  0.4017301404996835  0.3984579529662582
  0.2009338190130115  0.3969083638997493  0.6004549590544176
  0.1964998594844473  0.3961122660575873  0.7994109471547819
  0.2016612596732519  0.6002766565589169  0.0013566277811534
  0.1999524839598671  0.6029808023050758  0.2023084770896418
  0.2027182622389581  0.5958385360951860  0.6003797946326306
  0.2004532429355584  0.5994479057053294  0.8026481880048195
  0.2003916132381465  0.8004221738454192  0.0029452673313622
  0.2007119466773034  0.8024025118500295  0.2041179285225977
  0.1982045017573117  0.7886842923215247  0.6122709534980010
  0.1988453886660248  0.8024735555582446  0.8068114718143109
  0.4030740288145791  0.0015011670575092  0.0043993189384239
  0.3956673192185974  0.0016253168144626  0.2018132651102462
  0.3870513463001328  0.0047058320987281  0.4000176006302463
  0.4047811247500101  0.9971232535078831  0.6026420157916081
  0.3974752961004700  0.9998796475195989  0.8013184860999550
  0.4016342965777689  0.2010117528474712  0.9983484888556792
  0.4021272811453456  0.2017175574655496  0.1987576712180346
  0.3946577639006568  0.2007305438242018  0.3999956753357078
  0.4031736402898761  0.1997836671324234  0.5982040381168298
  0.4018430158928454  0.2000357853865794  0.7972822266047026
  0.4012201655938484  0.4002697481735261  0.9988904858924177
  0.4002608312787916  0.4019218321768049  0.1998401270053270
  0.4034353091185303  0.3976039927531206  0.3999112819562399
  0.3993535052620246  0.4014688846278733  0.5996633061181352
  0.4009376535892428  0.3978109781130446  0.7986148400594489
  0.3997097419831653  0.5989758852877063  0.0003784379173282
  0.3997347907569032  0.6026341187486783  0.2047840349032086
  0.3981351976336310  0.5961765657561842  0.4044731929115247
  0.3985541383434799  0.5978381508909594  0.7972536513212968
  0.4008457641127725  0.7994844740611954  0.0025612297786483
  0.4020180632962466  0.8037395369301759  0.2005225760482787
  0.1998074069373738  0.5988425851618671  0.4002906708017785
  0.3988831062493443  0.7931135831435202  0.6032260316987688
  0.4051025658183418  0.7990355785718631  0.8023759164768297
  0.6003899945874531  0.0005576298475842  0.0024088142855963
  0.5729651825737182  0.9804709209639599  0.4153067753457750
  0.6002592212540402  0.9967477498597809  0.6056071122531813
  0.5985730513056436  0.9946043154635050  0.8032337186685207
  0.6012931514344718  0.1996505734682933  0.9964512867750990
  0.6008209091103756  0.2104310996621531  0.1891267350755457
  0.6014534921953169  0.1961678396223383  0.6012790086347667
  0.6017140956836441  0.1979978000244347  0.7976492504544849
  0.6014638883234275  0.4011942476294204  0.9966066670704904
  0.6021553252471019  0.4033996053768019  0.1977716092650678
  0.6013774476800184  0.3990519487970542  0.3961183804113992
  0.6029590173108762  0.4002526463137797  0.8008991990148111
  0.5991166467594337  0.5996027824066743  0.0005173630496956
  0.5995861215906734  0.6016973441356195  0.1994404555682329
  0.5964046358347789  0.5989957217103326  0.3991271791602299
  0.5926975688723054  0.6006417237798068  0.6000693988815839
  0.6001880158268170  0.6031658473011517  0.8010579538225614
  0.6013496624562846  0.8008239542112365  0.9988060682701142
  0.6012365039830606  0.7991454379229032  0.2009603564264045
  0.6020101422210585  0.7945930149642869  0.4026605828034429
  0.5999048948020214  0.7967995581869149  0.6064850233874129
  0.7993016642024001  0.0008848036466663  0.9975701067101068
  0.8106926041699832  0.9995145497964357  0.1908406335818280
  0.7991700239835855  0.9970963462844090  0.5988456553454564
  0.8007610314973135  0.0005810257096049  0.7986954574021127
  0.8006264663701197  0.1989831321154423  0.9964676577413705
  0.8023570784971460  0.2018094387007296  0.1990586709486760
  0.8065114065258122  0.2151468897435611  0.3961187154860323
  0.8017641785328176  0.1952651056419919  0.5924094244291156
  0.8006968356547376  0.1977623677447978  0.7972656431211069
  0.8006235814138295  0.3988872026603854  0.9990250775210657
  0.8022080040644038  0.4003947835858432  0.1966163412367893
  0.8003224395392579  0.4038408071844353  0.3976295010432380
  0.8044766387151123  0.3921826781234826  0.5979544947743135
  0.8054718927015818  0.3970171692136288  0.7979904628562909
  0.7997142088308846  0.5992541981229397  0.0000388526722916
  0.8008661056141799  0.5994732995351421  0.1987702777238250
  0.7985460193085008  0.5997397012857713  0.3964846814683953
  0.8001663464875222  0.5978197744526726  0.7999796798562610
  0.8008854575858483  0.8000431038605669  0.9996168991210739
  0.8012496632031746  0.8010573047460416  0.1997422419669611
  0.7992067405270836  0.7975157236723618  0.4002548556609859
  0.7991472813568757  0.7992580718474964  0.5995139199969605
  0.7975828242584707  0.7983497751336129  0.8005724976645324
  0.0009263984208111  0.9978286656386922  0.7987407389683382
  0.0017066488196973  0.3986151232607533  0.7986153338712002
  0.2021177730577590  0.9986082265293451  0.8048394740967567
  0.2057694101773224  0.2148590555501309  0.3966351171897168
  0.3984877771709529  0.5969970771477668  0.5995253137992456
  0.6011039885700338  0.8000082861914486  0.8027450550374853
