Zr Ti V  Cr W 
 1.0000000000000000
    12.2882735461728885    0.0000000000000000   -4.3445607757035454
    -6.1441367710433559   10.6419570608175889   -4.3445607757035454
     0.0000000000000000    0.0000000000000000   13.0336823299999995
 Zr  Ti  V   Cr  W  
  30   9  49   9  27
Direct
  0.0537229654474307  0.0609226417053899  0.0523395784976874
  0.0183805386055652  0.0178318108672318  0.2128128482154840
  0.0043685778962629  0.6145503923677019  0.3940212636908328
  0.9957325919126488  0.5985752197103582  0.5989111725315609
  0.1907737896936610  0.9931878871409512  0.9871593534112141
  0.2018086874808118  0.0026079089473534  0.2126443379413274
  0.1970887543492388  0.9950509927899632  0.5950371803841916
  0.3179469908827396  0.3280782124897677  0.3343808323200856
  0.2060272494949898  0.3991487538989726  0.6044971587163067
  0.2089764406066730  0.4122871687487989  0.8253248083854656
  0.1938953627815152  0.5975382115940411  0.0193479920531840
  0.2008282048686019  0.6048919937820184  0.5888050463992275
  0.1818492682360800  0.6004064367874584  0.8002504617256559
  0.1911228788137065  0.8093525079073669  0.7873292873057225
  0.3796455272065705  0.5795154619633861  0.3750362071752887
  0.3830634141750154  0.7929600501292493  0.9974637788863679
  0.6032423035434757  0.9920908822707624  0.1940482530377932
  0.6088733355404765  0.0041863326478972  0.7996686961559186
  0.6084144228677287  0.2057973465028028  0.1950958911479888
  0.6095278852440488  0.2078144506168963  0.7974719533760628
  0.5943091157639432  0.6005305735380353  0.1999856977834158
  0.6028953283840965  0.7929406374979647  0.9971719635680794
  0.5971808809424390  0.7885495346255386  0.5930224930759548
  0.8115638148235870  0.0105007366465276  0.0191309500175539
  0.7970313286880852  0.9850131849946021  0.3870500446557722
  0.8132203940973306  0.9967822428941218  0.6031780979907374
  0.7888698808999297  0.2032025262971321  0.5958681538174532
  0.7927336340564862  0.3866810541293060  0.7916128316533577
  0.7877333215234115  0.5915771587573283  0.5881952640434781
  0.8251387437859574  0.7960761793994252  0.9880762575221878
  0.9863701347791285  0.2283588553161420  0.8150034984838491
  0.9824382094386767  0.7947883840502816  0.8062318291107650
  0.3951084453344874  0.9980657407518336  0.4011143076524666
  0.4015400533307590  0.9940467111459252  0.6020770076963015
  0.4023446633452198  0.2119492654981050  0.6084098424118066
  0.4030058685926314  0.3970461263652779  0.8025519293136769
  0.5647675266249951  0.1838834590022740  0.5680639294588797
  0.5954866801519247  0.5860152596124629  0.7901340670861023
  0.8396879545247784  0.2047672869613158  0.8175294172292477
  0.0003447301401471  0.9965404241884772  0.5935863238412767
  0.9960511395738739  0.2094210225506548  0.0081392160715233
  0.9990461101828334  0.4088727823535354  0.0125631761667601
  0.9964474298946256  0.5986997306989292  0.0031413343920208
  0.9956546430284956  0.5919906709061481  0.1901521260150453
  0.0117346861577126  0.7856834325627039  0.0059709623456791
  0.0089147016932874  0.7881482268904816  0.2034226787646068
  0.9969203513616838  0.7933690881908002  0.3892161783866613
  0.2054742049932051  0.9999408971358471  0.4107842187812520
  0.2070494516849132  0.0156868862819787  0.8010110244095981
  0.2050213322630026  0.2218153819173594  0.0159550871861195
  0.2229985678825600  0.2087767046466884  0.4265070250373834
  0.2006198342361320  0.1978770700179892  0.6081304932937553
  0.1894425670051413  0.3958066413218400  0.0120431812468468
  0.1721341636855057  0.3785819214717437  0.1839994698989950
  0.1835997140813447  0.3891432535347540  0.3877085225851745
  0.1912904968623055  0.5952055187145788  0.2108914869463809
  0.1958254591104821  0.5954937388585511  0.3844159810008523
  0.1805215362410000  0.7888601180235393  0.9989083867177372
  0.1998605565733500  0.7912400651133511  0.2035981499933578
  0.1991527273888910  0.7951683693384051  0.3919015651589258
  0.2139412782704800  0.8164226738384407  0.5972239027179154
  0.4068883005700059  0.0150436235152690  0.8074935365665497
  0.4020269906814430  0.2098503183880520  0.0038302158683963
  0.4091963935524053  0.2040937764211735  0.4043267577580176
  0.3940790293770386  0.3976263937594338  0.0019957018161144
  0.3936731151105963  0.4014004337096085  0.1958731740991877
  0.3811577457440320  0.5882045097050671  0.1813404763503794
  0.4041193170291653  0.6015446230139947  0.8084398712384512
  0.3918241372934244  0.7950851895344085  0.2104585414376620
  0.3883022534788864  0.7945665788873577  0.3946189718531454
  0.3914987429156328  0.7916512905544275  0.5841912529753965
  0.5930417952755146  0.2017219240153781  0.3929864445754707
  0.6075001439120314  0.4000245623659951  0.0034494175655949
  0.5826859449436111  0.3909037105872381  0.3851116588878239
  0.5843252081374523  0.3904921464004570  0.5894315411407701
  0.5991394629313810  0.4035877288661947  0.7948100502757460
  0.5918782039962354  0.5888907743214482  0.3918322952955378
  0.8128265798873676  0.0012793298230705  0.2064231199725362
  0.8064254864017837  0.2196747737560853  0.0090962821170743
  0.8097880953368809  0.2073978286096164  0.1949284864703981
  0.8010827140887735  0.4019493029190974  0.1888305608136249
  0.7827358307479715  0.3948923468139224  0.5858410122295761
  0.8039640739494034  0.5983446489910127  0.2009548544019142
  0.7915860825940169  0.6004846459610421  0.3886798364933857
  0.8016379775143900  0.5924390449561672  0.7957403768711905
  0.8040711694249750  0.7914858057885282  0.4002345572113452
  0.8004347477813204  0.7919082193963158  0.5949631992230060
  0.7975507733788231  0.7886168583627674  0.7893263985029014
  0.0003665755615808  0.2140698242795572  0.2000665821916772
  0.9931997825595180  0.3969121253830963  0.1942669131100125
  0.9910743489453852  0.4029612845689499  0.8048167970391665
  0.9777807130735444  0.5783200578807220  0.7964892780184667
  0.4007484404083715  0.3915628531202066  0.5984385156963361
  0.4125263289009041  0.6093289254699839  0.0153217899864846
  0.6080807765239755  0.2123389513431329  0.0001945448679292
  0.5852457851699182  0.7842657067556653  0.1893043556760489
  0.8067186554666800  0.4030714277283158  0.0047298173254329
  0.0109430153171695  0.9963987192418750  0.4027710197576514
  0.0114564081623893  0.0167073279428398  0.8033497123857083
  0.0051705388651352  0.1974724428979262  0.3971076054036738
  0.0048228674518488  0.1979045206974655  0.6055093716373574
  0.9964224998245004  0.3930532646699348  0.3824154007066687
  0.9867056996032205  0.3864565500481318  0.5988698314745851
  0.9991775572663361  0.8132854096856268  0.6023482039041814
  0.1962833074068548  0.2001978754086530  0.8091308795352882
  0.4013653564157114  0.0074715583323160  0.9961253852876506
  0.3987189695911199  0.0004290847085503  0.1972061050063798
  0.3885714602095264  0.2006753276121786  0.1950053478189381
  0.4058113283943716  0.2071974441048023  0.8126433506796740
  0.5814360076905228  0.5731093836296177  0.5803354008800584
  0.3940948485666468  0.5840277138786079  0.5916294145676003
  0.4041580084340631  0.8017348314916117  0.7922158172338014
  0.6001138538809208  0.0087018100263135  0.9945784588216098
  0.5879380689030578  0.9881593195693426  0.3918592138752515
  0.6024608800711708  0.0034366669741822  0.5946880281084378
  0.5967486243527402  0.4017528534641049  0.1942324025958288
  0.5978203900831330  0.5852105869841678  0.9940954148648101
  0.5886978002109904  0.7835465107797251  0.3851779304129135
  0.5994148023340761  0.7873455945504999  0.7919632529436847
  0.8178790287657789  0.9959455310271002  0.8119250954007090
  0.8003227915697804  0.2039482252138176  0.3937878500338547
  0.7982940832655102  0.4052045142357603  0.3940331323694806
  0.8036680156447757  0.5861786212426725  0.9978357018859146
  0.8035612140080551  0.7881425667206169  0.1949993115991333
