Zr Ti V  W 
 1.0000000000000000
    15.3704372863088707    0.0041087699184726    0.0045828320708022
     0.0041071823098185   15.3593176205705255    0.0049868964281650
     0.0045832368054306    0.0049883200619353   15.3853693029952101
 Zr  Ti  V   W  
   1   2 107  14
Direct
  0.7917537044716513  0.4017435908461843  0.8100408062686127
  0.4087178483525410  0.7979523443700561  0.8047033505485799
  0.6132036313474151  0.4008723485426630  0.9887846187492755
  0.9987327283226604  0.9979519383063283  0.0022789044246989
  0.9939318793534472  0.0021816760201705  0.2006213161948385
  0.0006737588884882  0.9967382971747334  0.3991939266444585
  0.9942461435168013  0.0001518558337739  0.6020576536142813
  0.0024300091146419  0.9986727548404698  0.8019220609349259
  0.0005514823261375  0.1987559969340621  0.0005401724227287
  0.0012722699132523  0.2022945853021637  0.2020812702685202
  0.0006465936243061  0.1999387894452787  0.4005880660627076
  0.0026473448596955  0.2007318080528921  0.5992393927844597
  0.9994128955502225  0.2010452634423087  0.8015104458957563
  0.0038756970788716  0.3994941736381458  0.0059491086332717
  0.9986510136228921  0.4011313456884152  0.3969235491685884
  0.9974869874573637  0.4000949899283273  0.5999878256153355
  0.9994333131031481  0.4010527241037649  0.8028367638256709
  0.9983136260981615  0.6051978483338989  0.0002727183568044
  0.0026018837038597  0.5963402815577403  0.2007136402099268
  0.9996437688407039  0.6029256017743964  0.4022465414939386
  0.9993876599698513  0.5995970378444426  0.6013930192144360
  0.0025768520849554  0.6007733172816244  0.8001305298794105
  0.0033379595675142  0.7995095783178233  0.2015379045516505
  0.9991577361302765  0.7997683007527153  0.5951881546590866
  0.9996112628744049  0.7992936635085536  0.8060848916151748
  0.1993288065524048  0.9994380951063933  0.0625865614474048
  0.1982235009497845  0.9991165051963520  0.4055011382171725
  0.1982022404794941  0.0029355987143880  0.6062168767514863
  0.2002394674866964  0.2036555987740452  0.9999000868935498
  0.2002941254530862  0.1998529008081560  0.2002237227489277
  0.2024682355671633  0.1986321105742211  0.4033205881732493
  0.2009116795791721  0.1968485057203313  0.7958756442000656
  0.1962330595157498  0.4050777025455715  0.1956375502218577
  0.1994678080523020  0.4014800658715978  0.3997340042368204
  0.1977835724808681  0.3967140972227915  0.6009688363270119
  0.1978472969276349  0.4047059876375230  0.8045066325541655
  0.2005703624330112  0.5965256315549405  0.9959051982740298
  0.2009781835165470  0.5995315012099903  0.4000774198731311
  0.1996177192939418  0.5989245291809041  0.6047259780723302
  0.1961250511840535  0.7982883026966313  0.0025062038968506
  0.1963533552511413  0.8006684198974813  0.3994212685318831
  0.1994979934115206  0.8001448372925459  0.6002051256496508
  0.1985964729797193  0.7987798809354748  0.8006774657752697
  0.4001111666179846  0.0008424696433210  0.0005870264279755
  0.4027862091495012  0.9962927303964211  0.1989384754228759
  0.3997527232681260  0.0023882202433796  0.3991772897596087
  0.4009148106767754  0.9986536559481480  0.6001103974592690
  0.3973741913309007  0.0006479003450330  0.8005826212130802
  0.4003698933853751  0.1999856568264540  0.0018370894491948
  0.3979465817755569  0.1971462852864065  0.2036282741030676
  0.3962444726078583  0.2002119212714525  0.5950267461911696
  0.3997930053058452  0.2003019351138141  0.7989673568556931
  0.3960887743551720  0.3983481699132254  0.0002297521352579
  0.4023310444881005  0.4008341876679986  0.1981225891377941
  0.4000909192637111  0.3967950800403335  0.3976738764066807
  0.3992826066734257  0.3997932534962477  0.5982275450445512
  0.3966496721309253  0.3992443951156133  0.7996126122162257
  0.4017652511037137  0.5993161682093601  0.9989973676131163
  0.3985761371124719  0.6027465895078232  0.2005190592774651
  0.4004088105065017  0.5987640874635546  0.4009660912642841
  0.3985504730761460  0.5998100838720568  0.5988122026491248
  0.3958686200240170  0.5991817512087211  0.7996447072616502
  0.4009585045506150  0.8015286846800488  0.0071555103581649
  0.4014085413835580  0.8013960137444861  0.3965014391299257
  0.4002194963606370  0.8008180072241797  0.5942275204188815
  0.6008301920362564  0.0004453080316691  0.9974886228660529
  0.6028801193296895  0.0000051737958622  0.1984267664186857
  0.5993225191246621  0.0003160115456591  0.4014555380920209
  0.6019507642710356  0.0007672135906933  0.6023842019756459
  0.5979564122190468  0.9992364594488321  0.8006574879103606
  0.5992556636322863  0.1995012220512160  0.9988413560322880
  0.5982490099006291  0.2024444292691542  0.1987588838599805
  0.5947056148878873  0.2013722666929830  0.4010386460776885
  0.5979577742644445  0.2009644376581789  0.6008797215147746
  0.5966405625741265  0.2013246746461625  0.7997141006069077
  0.6024759754170079  0.4012624515651583  0.1991705211072917
  0.6012013659453971  0.4011899541115489  0.3985193136726356
  0.5998222443358001  0.4005417662000693  0.5991182627829692
  0.5898814049866138  0.4011422954233813  0.7943793174224132
  0.6004474834650855  0.6014608633763919  0.9982215184284630
  0.5983461194475301  0.5986156380184559  0.1978915130624749
  0.5994213703489653  0.5991910428569568  0.4018774989192217
  0.5984731973076826  0.5999458949021772  0.6020261570239279
  0.5956384587336129  0.6008531754860553  0.7998976996000765
  0.6017771881015765  0.7993977878672912  0.9995247924045936
  0.5961022234783006  0.7990817549881668  0.1997509076797471
  0.6034109918598857  0.7983655936282613  0.3994508009755539
  0.5996851163407292  0.7994304236690303  0.6000628756229716
  0.6028337675853566  0.7994633483566704  0.8006447685977389
  0.7990378815588076  0.0004049518733662  0.0044686543862167
  0.7982497565513799  0.9972026876095100  0.4016745670641163
  0.7993286134581825  0.9995493565363238  0.7972277123293173
  0.7997045922636438  0.1999910899129393  0.0010280031306067
  0.7980684561065734  0.1969887986768236  0.2027138848651326
  0.7982352701780507  0.1988813224687537  0.4017191024912020
  0.7991838211393311  0.1965413313587248  0.6002443581832435
  0.7996470854317648  0.1956735690443093  0.8006566352646414
  0.8081837143696705  0.4001858726879702  0.0107654806633435
  0.8041693186772927  0.4001436167545502  0.2046809356792286
  0.7998397561142063  0.4003282437740243  0.4018197327731818
  0.7993317856097475  0.3987292921440034  0.5992975824810065
  0.7998411922597335  0.6015779959981862  0.0012404933823346
  0.7977977589067736  0.6009200987226362  0.2011797418987652
  0.7983670479073089  0.6049076779137972  0.4017780373455777
  0.7986432503117704  0.6000695584259840  0.6028674649669618
  0.7992811882124780  0.6065414525319317  0.7994405790207993
  0.8038057885882647  0.8013550453924829  0.0032438254415677
  0.7979971201943422  0.8037797006456937  0.2053023872512071
  0.7998811886311069  0.8048934325904925  0.5963353399615254
  0.8007862376237944  0.8016234608269164  0.8001182521548728
  0.0006771875263569  0.4011778402064142  0.2017161779388504
  0.9991728471763238  0.8008406857271633  0.0042327071157289
  0.9981857006572156  0.7990014864371219  0.3985535084990932
  0.2000305429863227  0.9981332825816795  0.7989090964857227
  0.1993251576835351  0.2006818237637172  0.6007949909766107
  0.1998472875454343  0.4007760471310682  0.9996664601757042
  0.2022342777721272  0.6022673796327734  0.1986357203953590
  0.2006184283040440  0.6007594156397046  0.7994075798404611
  0.2028454644527828  0.7898150264806546  0.1999327994869526
  0.3986526480827541  0.1993816978387798  0.3985452290639022
  0.3977417558090041  0.8003857294552246  0.2018314397551059
  0.7980065633226094  0.0016954953083515  0.2020636835022374
  0.7983877300332037  0.0008792526921434  0.6008333875656026
  0.8033792214879254  0.8009486216078436  0.3999639940260534
