Zr Ti V  Cr W 
 1.0000000000000000
    15.4218125631900325   -0.0059686382723848    0.0062585989012477
    -0.0059677460242910   15.4281327699692579    0.0068346148581175
     0.0062604253005019    0.0068382331099848   15.4329886035241781
 Zr  Ti  V   Cr  W  
   1   3 110   3   7
Direct
  0.3990017140782681  0.8025130856974489  0.5978895334341106
  0.2016928197503866  0.6063459501608995  0.1905499636458046
  0.1985865535656206  0.7905471495043528  0.0073663916889355
  0.6001835480572524  0.5978150073805677  0.5810531546921001
  0.0023894653186827  0.9977704038416824  0.0001006630663065
  0.0005599707260082  0.0031939811228445  0.1995798751141917
  0.0007657431070147  0.9946124585145681  0.4000179265256820
  0.9991548885400912  0.0015104560977361  0.6014154760020967
  0.0000585455826834  0.9982010413022986  0.8013483136331681
  0.9996048090140294  0.2001971251275183  0.0035238998263578
  0.0001808601826804  0.1996985737021765  0.3969357316443234
  0.0021582470556563  0.1996435787515259  0.5987810272883525
  0.9987289885918218  0.1988613296385095  0.8011200316217260
  0.0063366158346629  0.4007537139043885  0.9998890292336322
  0.0008031085288522  0.3973745496983664  0.2001917352951717
  0.0013911782129786  0.4034709280973018  0.3993042360243460
  0.0007754418218050  0.3994171891534524  0.5986487339520919
  0.9982539803935920  0.4004530594244083  0.8015594248834902
  0.9997431641734809  0.5992966689402417  0.9996097850407403
  0.9976268954040116  0.5990157788077952  0.1989027577991703
  0.0012482799610852  0.6038909730924885  0.3985652738378178
  0.0008644146229380  0.5987030864741487  0.6005977509555490
  0.9990291263529012  0.6011383146803804  0.7996289151589114
  0.9984721510849540  0.7985613844495566  0.0015328266559387
  0.9995937796618061  0.8003219772934188  0.5969538649973241
  0.0000324675850625  0.7990881948165394  0.8001384787119972
  0.2008129699117063  0.0013079805446715  0.9994412923787976
  0.2002106904546033  0.0012909295190295  0.1998764844413610
  0.2008210487565536  0.9992378132190527  0.4008571738743246
  0.1999602312429416  0.0052960469201061  0.6009465929797337
  0.2006336033659840  0.9981884272670805  0.8011487877451627
  0.2003437981855252  0.2016017930853104  0.9986726746203008
  0.1950583515004544  0.1995618934601905  0.2017712929990155
  0.1998872477747294  0.1996974590638104  0.4032796259544918
  0.1999348195334296  0.1988519686476090  0.7959074184073367
  0.2005681556659945  0.3973344782599542  0.1959139712698187
  0.2005556078052030  0.4022050835448274  0.3985132476202809
  0.1998827055710424  0.3947845078869599  0.6003649024849876
  0.2009689595813351  0.3995155166082322  0.8019902348874250
  0.2011123394263847  0.5912590229794094  0.9934682777587173
  0.2000062965084384  0.5964980700557035  0.5998779349949520
  0.2010125764811694  0.5991711305654966  0.7971081049429496
  0.1990619934723578  0.8033644770783034  0.2039341591725626
  0.1946073653352892  0.7986327339515348  0.4004934524045883
  0.1956631570290784  0.8006810963699516  0.6009731760081547
  0.1997162555696486  0.7978441332029670  0.7990013668476688
  0.3988371035183304  0.9989552977649897  0.0005876661433931
  0.3997279019327422  0.0004704515220086  0.1992147652504146
  0.3989421175869103  0.9977366797932432  0.3984720190864084
  0.3995621317349992  0.0045243597674012  0.6005136437775235
  0.4006607452906939  0.9974692589882634  0.8020811012783972
  0.4003717999893626  0.1987776212019920  0.0007791579039585
  0.4008882843761202  0.1985115208873429  0.2008281300854985
  0.3992556013541753  0.2005976372274362  0.3978562088243871
  0.3996096958103096  0.2006767847426434  0.5990280650723168
  0.4012287969549653  0.1989067683305187  0.8009373077850371
  0.3960347957360937  0.3989231922708320  0.0006283400870644
  0.3998811569020083  0.3995244333010578  0.2009528718180475
  0.3992355351927572  0.4016534962457151  0.3980414776907191
  0.3989590577502536  0.3990586101532772  0.6002306718140124
  0.4008489636468868  0.4000822377904850  0.7999032564340680
  0.3993882501255291  0.5995549222612078  0.0010069347877222
  0.4018324050850413  0.6006362755961967  0.1998943906006003
  0.3983870685109492  0.5998378424270870  0.3990642497967321
  0.3977260091351088  0.5957016469323958  0.5999159513581017
  0.4055075766796277  0.6000735297558939  0.7991237665240494
  0.4009628077920998  0.7987728374207099  0.0021976147745109
  0.4003468016943268  0.8009678663243813  0.2005111356081790
  0.3981090180869515  0.7979857827390270  0.3948927486005872
  0.3997021330295008  0.7990777778484970  0.8042645669266661
  0.5985509443637553  0.9988748799871926  0.9985448192601278
  0.5993204686931289  0.0004505324557240  0.2004261749227034
  0.5986745929086048  0.9981948955739185  0.4008831699706891
  0.6000782090399563  0.0048601440783113  0.6009519286826264
  0.6001327310718461  0.9978261118049486  0.8004642660053867
  0.6005962550844595  0.2008341376273264  0.9987222020153231
  0.6041366599538518  0.1998976043353671  0.2018932999909483
  0.5996702447022139  0.1998063334207746  0.4032045125027992
  0.6005570048495945  0.1994088829027610  0.7964585146574477
  0.5961026348682580  0.3985413606837055  0.0005562908985970
  0.6006597437879059  0.3987387727064972  0.1992729894685805
  0.5987921417602965  0.4020842246679872  0.4012422990166278
  0.5996058734964154  0.3932269395867179  0.6002384975616019
  0.6014327870973631  0.4028516464608783  0.8006221434790627
  0.5993859557761556  0.5978796051989789  0.0012333548830381
  0.6012291052595862  0.5996304699926698  0.1989662939239316
  0.5997243482319897  0.6006124456647088  0.3950981203704770
  0.6005691306087462  0.7992077551528406  0.0024400220739431
  0.6016397626471650  0.8009248632443329  0.2011196777709875
  0.6007620111617620  0.7992501076109773  0.4007218755484768
  0.6044837256741230  0.8035291876673222  0.5998315978081673
  0.6013403514230089  0.7951442561292269  0.7996263127689968
  0.7997421735561245  0.9990745597155800  0.9997079069604362
  0.7994163639554938  0.0038771746577864  0.1998613255630280
  0.7989084536894382  0.9987067653812898  0.4005077717392811
  0.8005859165350163  0.0018910946535313  0.6006314010436525
  0.8000209268556053  0.9986214869404494  0.8012618075994763
  0.7997444602285242  0.1976287364400459  0.0027887750294142
  0.8003698446405119  0.2000965575071424  0.3972283953477228
  0.7976181521102471  0.1997388694289869  0.5986540580977112
  0.7993937375525806  0.3967769565816747  0.2013842807345458
  0.8008442746825016  0.4017459887916441  0.4005599007493819
  0.8018034242376656  0.3976835102971729  0.6007381828504784
  0.8012266963581184  0.3998044136117468  0.7995343779389007
  0.8013327097493907  0.5334352654514184  0.0006362551311632
  0.8008367267973934  0.5968954856408087  0.1988312531940470
  0.7993563045359007  0.6000480364728078  0.3999459923366794
  0.8018054048153204  0.5984238241107582  0.5997294688328835
  0.7965873622772143  0.5988084980129793  0.7990709173118759
  0.8012094196676379  0.8004718364714847  0.0015618883061119
  0.7996465955417897  0.8011311414744819  0.2002896469859217
  0.8033784497941685  0.7991983739505408  0.3994741378745790
  0.8008442220021668  0.8010606833812745  0.6017353947900291
  0.8009369057580105  0.7988894690299239  0.8003309344066671
  0.9988053116352512  0.8012438836584160  0.2013365503699179
  0.1998432070744255  0.5995391606964363  0.4011253908997794
  0.8001706582624705  0.1997312917997574  0.8013658357398801
  0.9968530503070694  0.1991939371534399  0.2012824441850433
  0.9979750817020753  0.8003248234241205  0.4020936585154984
  0.2002842567420396  0.2005329552493546  0.5996089164132644
  0.2010915498510548  0.3967709828752888  0.9978750567576340
  0.5987107642507752  0.1997434601538722  0.5989097662125443
  0.6014704860149517  0.5988336962102657  0.8083859401982703
  0.8024607301829323  0.2004374337188423  0.2002497072703399
