Zr Ti V  W 
 1.0000000000000000
    15.3704372863088707    0.0041087699184726    0.0045828320708022
     0.0041071823098185   15.3593176205705255    0.0049868964281650
     0.0045832368054306    0.0049883200619353   15.3853693029952101
 Zr  Ti  V   W  
   1   2 107  14
Direct
  0.7917571187563232  0.4017353201478475  0.8100151308945308
  0.4088153378303283  0.7976838370061977  0.8048980694215669
  0.6132427365589215  0.4011244473190815  0.9887585124195801
  0.9997298213095965  0.9979631273226949  0.0024950291249259
  0.9932377541458631  0.0024784689574622  0.2007016575051538
  0.0011762737797514  0.9968026441790309  0.3986520661600655
  0.9942462041392182  0.0001200901984180  0.6021679464498187
  0.0024197228968814  0.9985772912182881  0.8016468744995667
  0.0002047499648364  0.1990870529425165  0.0006632093291059
  0.0013726610647889  0.2022087656737242  0.2020697613035491
  0.0006057161449007  0.2000840543423443  0.4006007129205095
  0.0026045945784905  0.2007455640529483  0.5991669537833874
  0.9993464046739822  0.2010188224683366  0.8016375413106244
  0.0039083821503481  0.3994609435465558  0.0059432677000378
  0.9987009159001731  0.4012176656391070  0.3969038800206476
  0.9974905128531745  0.4001348916108070  0.6000626270196271
  0.9994334239904563  0.4011037979210987  0.8028255927214861
  0.9983864788737986  0.6052850713245518  0.0002683846705999
  0.0024532569579263  0.5964627936892887  0.2005897372943448
  0.9997367215580184  0.6030490414493974  0.4021052965825314
  0.9993652179063296  0.5996466129329141  0.6014122102929409
  0.0025790375497214  0.6007834592267817  0.8001913257579040
  0.0031314314157620  0.7996579673262814  0.2012881045267013
  0.9990595429582397  0.7997623764110118  0.5949762302959383
  0.9994731021013947  0.7992702953368553  0.8062217062331684
  0.1997309819879951  0.0005223858904708  0.0278040083308650
  0.1983962770951232  0.9991723462212861  0.4065620894459377
  0.1981954853840130  0.0029209877506990  0.6061752151469593
  0.2000901494831905  0.2029511744119557  0.0002750394221541
  0.2002197201399801  0.2008643207725371  0.2005806136085922
  0.2024527887713902  0.1983808316857879  0.4031973642238119
  0.2009099084921281  0.1966186459201377  0.7957109680652117
  0.1961899871804967  0.4048740510031053  0.1955644610063443
  0.1995014302123012  0.4015782677267891  0.3999813888537450
  0.1977790797710058  0.3966290693842514  0.6010661438184713
  0.1978180353388093  0.4044326685913257  0.8046056378311692
  0.2005484314921467  0.5965331686819459  0.9957393363603093
  0.2010068630971047  0.5994553081888567  0.4003541995384448
  0.1996144864938942  0.5988905157822638  0.6048054627551015
  0.1961288805680139  0.7993217736657074  0.0021459451068364
  0.1964186438981207  0.8007220720579643  0.3996279507421766
  0.1994422035805359  0.8001051952291048  0.6004735894375773
  0.1984498833061041  0.7987792007082242  0.8002385224063192
  0.3993291867257837  0.0007768898456973  0.0009631817218556
  0.4038263352120691  0.9962854943107093  0.1991982232082717
  0.3994385657522169  0.0023387125655160  0.3989408193684271
  0.4010263328591243  0.9986543804149310  0.6002736274630731
  0.3973430370398073  0.0005776720452425  0.8004988854870277
  0.4005726436566407  0.2001869191263345  0.0020059884093916
  0.3977680279537456  0.1968266548719502  0.2036566416568815
  0.3963206772470021  0.2002473386200793  0.5950360501003429
  0.3998402713086597  0.2003071818938378  0.7991989771346805
  0.3959415542318385  0.3983242622494998  0.0002794008830147
  0.4024565420944053  0.4009808818471435  0.1981717878753914
  0.4001059728195024  0.3968097988993449  0.3977152527125815
  0.3992999341627599  0.3997872581084356  0.5983320992435514
  0.3966183651425984  0.3992360060676638  0.7996794716558042
  0.4015779764625429  0.5994226039126346  0.9988717499807125
  0.3985901233163530  0.6026905790130297  0.2005533278948614
  0.4003908915082373  0.5987920450586329  0.4010573771195128
  0.3985612434873088  0.5998072478123643  0.5988906091036382
  0.3958244578919018  0.5990806694249234  0.7996142997742940
  0.4013281444000310  0.8012493594391320  0.0072884500417913
  0.4014011491462213  0.8013102971079673  0.3965029668373927
  0.4002769526527502  0.8008006093974399  0.5941805282544714
  0.6008917057042087  0.0005136693144085  0.9973683823760675
  0.6029535691070417  0.0001167268398123  0.1982976920666198
  0.5993609302521281  0.0004102883815968  0.4015842032499460
  0.6019350425019341  0.0008125660175248  0.6024608083819267
  0.5978093249841191  0.9992397644534038  0.8006976552272296
  0.5992057489943410  0.1994820620729315  0.9988786296618427
  0.5982851405009899  0.2026324464398142  0.1988063913998203
  0.5946590850935762  0.2014390148483103  0.4010903079644454
  0.5979839427984545  0.2010149050110443  0.6009245280606806
  0.5966990153450418  0.2013380009484098  0.7997488392492282
  0.6024365688868262  0.4013545202425373  0.1991375616498878
  0.6012448271459349  0.4012692284414518  0.3985452874717405
  0.5998298438296654  0.4005785504926035  0.5991485961138694
  0.5898481819230718  0.4011498962823694  0.7944090336884000
  0.6003490503508737  0.6015059380057852  0.9981914982572017
  0.5983511132360182  0.5986634281613454  0.1978264158231224
  0.5994398932733584  0.5992807157866266  0.4018745707270485
  0.5984982575435491  0.5999615215747527  0.6020219996806223
  0.5955698580204678  0.6008908395020162  0.7998743496005056
  0.6017253544551501  0.7995586644169985  0.9993513975461609
  0.5962932189615585  0.7991061149838093  0.1996983878808284
  0.6034297788708406  0.7985054463716093  0.3994716686864953
  0.5997151624160257  0.7994612651351592  0.6000415900692631
  0.6029136734175339  0.7994739962156664  0.8005117883097502
  0.7990779964826226  0.0003975466987221  0.0042706207351812
  0.7982273718411227  0.9972570142443170  0.4018601273049700
  0.7995277473294427  0.9995844302647572  0.7974365236926337
  0.7997729408818602  0.1999337351429586  0.0010798672564689
  0.7978042858245453  0.1971952595890892  0.2028103324205882
  0.7983738796324168  0.1989011644531425  0.4018212070069704
  0.7991787529996695  0.1965555753582549  0.6003264141810120
  0.7995859957069801  0.1956804588802795  0.8006794982989341
  0.8081859541915176  0.4002100533489867  0.0107543782259703
  0.8041413590094575  0.4001591048563838  0.2046759936698515
  0.7998615565526559  0.4004342908070926  0.4018569894986972
  0.7993472786830336  0.3987617899460220  0.5993129855070778
  0.7997635435876969  0.6015262777917474  0.0011850000360347
  0.7977473905152483  0.6009625556367302  0.2011523410889621
  0.7983961962783478  0.6049678046657146  0.4017840053180226
  0.7986602231601353  0.6000973607131933  0.6028678728049753
  0.7992909288592696  0.6065205388352866  0.7994336101360724
  0.8036859305282608  0.8013952514746572  0.0031782381516870
  0.7977126924158094  0.8037876604655242  0.2052403004016906
  0.7998803837625966  0.8049345640043645  0.5963422203038286
  0.8007452539439383  0.8016170209915251  0.8000970765079257
  0.0005434416242083  0.4014391088995318  0.2017089460080879
  0.9988083081180770  0.8006950870125153  0.0042450385011513
  0.9981981809382868  0.7990791160182790  0.3984218236344204
  0.2000167713479473  0.9981683594441869  0.7995337176821214
  0.1993542459699524  0.2006377403404544  0.6009629164164755
  0.1998020047939842  0.4007765842644859  0.9995383830699860
  0.2021888614312192  0.6022303590932524  0.1983797060545261
  0.2005915594385609  0.6007314630971613  0.7993686531950384
  0.2030353912847076  0.7890215759574206  0.1999759630957361
  0.3986298656840175  0.1994002064742477  0.3985841417930146
  0.3980112651397243  0.8004058540355732  0.2018490578372570
  0.7981362962301348  0.0018121903939801  0.2019596458350529
  0.7984308872887543  0.0009085333964008  0.6010251347494274
  0.8034232476217910  0.8010461310190495  0.3999320719180970
