Zr Ti V  Cr W 
 1.0000000000000000
    15.3161674756862691   -0.0038639056753981   -0.0081742366427040
    -0.0038625530149281   15.3180417040563182   -0.0084288121243241
    -0.0081714294601317   -0.0084252347079361   15.3251398317997438
 Zr  Ti  V   Cr  W  
   1   2 101   1  19
Direct
  0.0005089889045506  0.4060171967744607  0.6036652237075185
  0.4072281040564967  0.9895870528644032  0.3983169007404942
  0.3968248962990019  0.7974312694898364  0.6163038254650993
  0.8995819026170158  0.9992938124747869  0.0000414834546116
  0.9989478675449591  0.0006614216328977  0.2014861290041343
  0.9972898689510200  0.0058545580939874  0.3991761525795696
  0.0025402752223209  0.9979726499098197  0.5992940154914219
  0.9985684597629449  0.0013046910914740  0.7995737992493237
  0.9984006154294606  0.2048691993791097  0.9993915260127048
  0.0036370602133409  0.2019458541843499  0.2031393400213541
  0.9979121117402913  0.1980661447441653  0.5951103906691896
  0.9981252025444999  0.2014042928652812  0.7986657110121902
  0.9976541542313332  0.4027865680440080  0.1952306884715526
  0.9980283209980104  0.3975291689950071  0.3957614985128015
  0.9991037221559792  0.4052105575674953  0.8080314348800642
  0.0012857640901998  0.5985758100780417  0.9957553339806862
  0.0052774930100841  0.6003032127757355  0.2017371122212991
  0.0008655949639762  0.5992874609499214  0.4017471347713162
  0.0055032917906442  0.6099404881665629  0.6015534176402126
  0.9971690302480231  0.7997800341907035  0.9984753404145584
  0.0002019731117677  0.8006334788677213  0.1988130312457594
  0.9973194675075862  0.8009615940953521  0.4043055436968856
  0.9955788835169701  0.7959903609990284  0.7982262344482781
  0.1992163094353410  0.0008542323252986  0.9997469087415817
  0.2001379810842108  0.0050200762611239  0.2017911270220810
  0.2006124688438290  0.9999153913424054  0.4030684352125700
  0.1982041620281682  0.0021500583358804  0.7974559633473338
  0.1992169359687547  0.1991762741354212  0.0035289463826276
  0.1979505305987679  0.2003125716430771  0.3962979039995030
  0.2023766063484192  0.1965752840546961  0.5994938644095335
  0.2012069125669353  0.2007708004979722  0.7996269546330417
  0.1968336373252289  0.4000897805507241  0.0011263090979829
  0.2022531252580036  0.4005422530859825  0.1991965375193320
  0.1986714346593079  0.3999730135591010  0.3995509964548014
  0.2060001724753681  0.3975662045315417  0.5997993755867067
  0.2006385731519768  0.3995537008155571  0.8014246800249699
  0.2015022303091358  0.6009432679187154  0.0061345098425449
  0.2042847309412141  0.5998963913518577  0.3974181999596071
  0.2073586687354873  0.6038436420092219  0.5972102970982169
  0.1970618353996493  0.6005013077430091  0.7990374935466376
  0.1998409412778680  0.8031186813475523  0.0007338302118700
  0.1996628799424451  0.7975808261470037  0.1991720906235001
  0.1987025465019233  0.8024400455665051  0.3990019552638412
  0.1940293644490365  0.8060330192878440  0.6008712418708654
  0.2027631986566850  0.8008104852536023  0.8016997046362281
  0.3990846829281004  0.9962688606112332  0.9996619050023635
  0.3996706592568390  0.9987391717217704  0.1974615659678357
  0.3944123466305324  0.9999646268561240  0.6025264965445565
  0.4001731736903139  0.9950918617815120  0.7994215852881220
  0.3991754711654024  0.1986963702861914  0.9987397790785892
  0.3968936277874883  0.2016283756240054  0.1998548863177564
  0.3984270429957010  0.2038418161016924  0.4011485221388960
  0.4019140340917570  0.2010258169875511  0.5997542968000859
  0.4032419021719607  0.2001631512707712  0.8012210695813112
  0.3988984328898824  0.4027786935171747  0.9982776535333376
  0.4040817898254661  0.4019096640210228  0.1985043768690408
  0.3997743894765737  0.4035397699005819  0.4009051939165253
  0.4006336522445953  0.4024248330796437  0.6020868427445364
  0.3994487802645479  0.4022134436090689  0.8027541227896153
  0.3998621400738073  0.6038783512464211  0.9989106668861373
  0.4004912791917633  0.6007131286016723  0.2059622958415732
  0.3998926707536166  0.6024694374749300  0.7977985996913380
  0.3998984024357644  0.7995627682816689  0.1937311564079223
  0.3991836493680362  0.7944755535486285  0.3987534702024798
  0.5972523900113770  0.0013832523607477  0.0025588913437625
  0.5982729389746468  0.0031703285514273  0.2051118830965616
  0.5955890171854223  0.0051088994948643  0.5935707629392485
  0.5993087444990356  0.0034700188200688  0.7984863062876644
  0.5998905853374180  0.1989620769302975  0.9975271579650217
  0.5984538230495030  0.2040982474510352  0.2018006342789049
  0.5982465093299852  0.1973448620250745  0.4039256498695096
  0.6009765014682786  0.3994676868578673  0.0033025593654492
  0.6024602587109381  0.3960351623885094  0.3961395039272201
  0.5990079192841953  0.3982007800823023  0.5983547018339211
  0.6009529596190979  0.3966072281694174  0.8033473887722807
  0.5988900775459008  0.5986015692187215  0.0054589360163850
  0.5953065432454538  0.5986910952175842  0.4005378906295064
  0.6010848342815794  0.5954870291479863  0.7940729146980946
  0.5999418915033894  0.8007595702956207  0.0003495488945242
  0.5995422251927717  0.7944847747206281  0.1992378160985292
  0.6002481761365760  0.8026023843216746  0.4006962484568840
  0.6024519565328268  0.7951724024374401  0.6010465916307246
  0.6007669886982232  0.8009789531178447  0.7990667956350209
  0.8000195003922693  0.0002003597697017  0.1990557185614153
  0.7972549874525403  0.9981064016370130  0.3987119426095090
  0.7990353704836664  0.9993578241675756  0.5989142637235076
  0.7993184048208151  0.9968772591298367  0.7976095419585929
  0.8008722866508377  0.1979995847217102  0.9991457890303684
  0.7988044733883574  0.1993750537600417  0.1973133327361528
  0.7959441286088778  0.1998875814281858  0.6003198371140029
  0.7963436916144048  0.1983230751219217  0.8001140697366330
  0.8030585042685658  0.4013213277480750  0.0001656238885047
  0.7971862195933334  0.4014176204601664  0.1982925069470855
  0.8015409198404839  0.4015303798148541  0.3983487522219046
  0.7950268259519915  0.4021029027986903  0.5997055337356534
  0.7998591065403099  0.4016259539410706  0.8017950034087500
  0.7987256637310971  0.6053502493736549  0.0006011196549905
  0.7949701410168080  0.6020374370316685  0.2020320494830732
  0.7998692861947581  0.6019620038012734  0.4007879217109777
  0.7920080980113624  0.6017634338386455  0.5983318999299457
  0.8020593249420780  0.6041963157432323  0.7985662786846085
  0.7992115166732583  0.8002901672448345  0.1954122665315639
  0.8011255227377554  0.8004409062425960  0.3988363211023183
  0.8013487789061479  0.8017378463207722  0.6050708773328202
  0.8004220170692431  0.1999280641891040  0.3991319454629185
  0.0017024472114353  0.2025853754288183  0.4000557577796439
  0.9984673340156569  0.4017184707353935  0.0004430993045459
  0.0006447459218344  0.5993570611912269  0.7963551644404103
  0.9982867537948661  0.8031107639017026  0.6015944690971209
  0.1990775891980596  0.0017143479250257  0.5987533776155859
  0.2010277378441584  0.2022220309596592  0.2001739289771023
  0.2029621922516427  0.5992567441685135  0.2030772718979873
  0.3991782436334210  0.6006376980558278  0.4044468206995527
  0.4047154208778510  0.5975513442876634  0.5989141278574041
  0.4007058956814716  0.8001392390011658  0.9955203853450387
  0.4014451309389048  0.7982509232701059  0.8085963287704442
  0.6028398727719213  0.9999179935857290  0.4003908375716231
  0.5981090798193517  0.2021581516712234  0.6029297392342324
  0.5998873345481364  0.1998444620785456  0.7972448561370388
  0.6009075433901192  0.4007474397707087  0.2003806577166773
  0.5973038065930640  0.5956956771097165  0.2046145976367943
  0.5952743765574978  0.5968732575318999  0.5962726413025871
  0.7990229608726095  0.7997436352018702  0.9967329960574568
  0.7984845800525430  0.8015153307771268  0.8039714253113206
