Zr V  Cr
 1.0000000000000000
    15.5277836321495606   -0.0011014415353407   -0.0036444284316418
    -0.0011015311309700   15.5268057001839015    0.0012045176117796
    -0.0036459540422085    0.0012051907892001   15.5242636607114743
 Zr  V   Cr 
   5 117   2
Direct
  0.9978169770732134  0.1996804882518800  0.4009886188454055
  0.9917061851871308  0.3997832257267228  0.9949281385027984
  0.5994906765838521  0.9997942675456905  0.0012778528117214
  0.6017469870038110  0.9993604136246474  0.7774302061923233
  0.8057259450056222  0.3986965550064034  0.8089582229132528
  0.0012554040383641  0.9982402923984824  0.9996596624222598
  0.9999401305577205  0.9984196510767932  0.1999219299013761
  0.9996542473924632  0.9949097130956096  0.3999465426291719
  0.9999018138506341  0.9992477378479352  0.5996827971494834
  0.0016061320119229  0.9985919159673667  0.7985742163922489
  0.9994604564811366  0.1950321253305464  0.9987378196356144
  0.9992498449011005  0.1995505373130976  0.1957996023813879
  0.0012753207905716  0.1984144943960069  0.6035414702253696
  0.0018774021518432  0.1980812085354300  0.7986991711225604
  0.9996176205476351  0.3998663805595292  0.2020707204981300
  0.9998719455411305  0.4040608630570930  0.4000250744226486
  0.0002205078226887  0.3996377257754602  0.5983752106767057
  0.9987796262714128  0.6038925803916055  0.9996150981158911
  0.9994508625091562  0.5998457077384064  0.1999842181974361
  0.9993744104144127  0.6007376253538583  0.4003734355802191
  0.0001185470756313  0.6004497528039563  0.5993457428619381
  0.0021504496748813  0.6007113319905034  0.7980911034031666
  0.9995242250059589  0.7996090388395225  0.9995164811637360
  0.9994528100622500  0.7993002698546328  0.1999399447663213
  0.9996758779787043  0.7985194567426133  0.4000142357833141
  0.9992989936680023  0.7996883304543507  0.6004376508999522
  0.0009049294044948  0.7994820494512010  0.7998054420135785
  0.1983095615093545  0.9989823430534149  0.0005638173281328
  0.1987133021922800  0.9997302587423266  0.2003961566192237
  0.2002644935643282  0.9986575799926681  0.3999434570726288
  0.1996616730689252  0.9991387193752600  0.5989719322735103
  0.1991669156044539  0.9992085555567793  0.7993547990596125
  0.1992572785527784  0.1999580197365051  0.9995894152641626
  0.2000298777019136  0.1994723204473603  0.1991186803607751
  0.2037207616079019  0.1995866327637928  0.3995273820417985
  0.2016230751371754  0.1995539120414760  0.6009894649801106
  0.2014234005052479  0.1990580589172246  0.8009555055862633
  0.2011759122126673  0.3995982139915070  0.0009705992337144
  0.1988483821631113  0.3992223643204976  0.2004439011322400
  0.2006813050746218  0.4003109555202398  0.4001023566147736
  0.2009845321094677  0.3994270281815079  0.5989585977945321
  0.2024324326304614  0.3995990180279269  0.7990919856530986
  0.1989791583006543  0.5991361979126313  0.0001920078097917
  0.1990181688443902  0.5993100855804598  0.2002659949002757
  0.2000924837186977  0.5999192008681244  0.3998472590168647
  0.1998148391756610  0.5990019918262471  0.6001661487185771
  0.2010798007103291  0.5999739888480229  0.8005118048225889
  0.1996749018382199  0.7991665082847227  0.0004199750792170
  0.1994235318600517  0.7993394372742676  0.1999716618087409
  0.1999800978367068  0.7986524350177889  0.4000509220826702
  0.2004986346753538  0.7996508791089324  0.6001661767204584
  0.2002685728663446  0.7991063044280429  0.8004894476992338
  0.3942151356764122  0.9992112629416310  0.0006488070762569
  0.3982087996300825  0.9994822801281803  0.2002654753084579
  0.3986082764757140  0.9990252665792773  0.3991240671503438
  0.3995397603062929  0.9993875285848803  0.5991712857201932
  0.3959199338918759  0.9995422064262312  0.7996466526067884
  0.3995418506251772  0.1993305745154794  0.9998968312850389
  0.3994606581539669  0.1993776099010550  0.1991354134826203
  0.4005224992639443  0.1992768086539091  0.3999218728355601
  0.4006037979217311  0.1994801884034832  0.6007387271531407
  0.3999198790156261  0.1995566883875366  0.8014654866213647
  0.3982600340831169  0.3998681677293457  0.0007485062062129
  0.3990222226316018  0.3995866334891703  0.2011801187123803
  0.3999302219130397  0.4003214802723738  0.4003223024922736
  0.4003060446622707  0.3995493986765300  0.5998734179455102
  0.3997454082990355  0.3998292344909576  0.8001181031086868
  0.3993729034553326  0.5998743260646119  0.0005087072912286
  0.3990506774246402  0.5996675730004838  0.2003265313085168
  0.3996248564386515  0.5998241469950664  0.4002383142543170
  0.4005674952942533  0.5999033218649319  0.6003806076793771
  0.3995441178628646  0.5997372724779547  0.8006825646825392
  0.3990851194425556  0.7994012801034825  0.0001603349070719
  0.3997080898345169  0.7994968942344947  0.1999190705737737
  0.4001946545677910  0.7992859421052393  0.4001444018261365
  0.4001615660224771  0.7993370570208282  0.6002676915634009
  0.3999731649777327  0.7996997290542367  0.8008651578501813
  0.5992356315554270  0.9994805259796233  0.2045826579222325
  0.5991323599375018  0.9990221908098431  0.3975355982753433
  0.6002772152043313  0.9999780030461353  0.5863026553455588
  0.5985548300771066  0.2047102194573061  0.0006626022162096
  0.5986512606963510  0.2006212024844581  0.2002597779738645
  0.5984195311148607  0.2007154605694129  0.4007277210968406
  0.5991073671456211  0.1991620134264374  0.6004634527933034
  0.6005793724316139  0.2046159330994642  0.7997716234065861
  0.5951299885596254  0.4014202578114963  0.0016956814958746
  0.5981245872098380  0.4001493134513705  0.2023031511217677
  0.5987927577416282  0.3999707176463099  0.4009942502418583
  0.6008710780915998  0.3992046680255804  0.6001098307297141
  0.5978252691720908  0.4009155790791428  0.7995694820253844
  0.5986995684130193  0.5984256715379020  0.0005212120313244
  0.5991405229288262  0.5990618476827028  0.2010903164983568
  0.5995386298391007  0.5991562362884755  0.6000865156127572
  0.5998017014379793  0.5983255673982171  0.7997074576441476
  0.5993347602014069  0.7943083746209031  0.0007343698143099
  0.5992215402269188  0.7982867801670863  0.2006865686604960
  0.5992895624325667  0.7981584653639242  0.3996142145532617
  0.6000610940482553  0.7988911538211180  0.5996726442084676
  0.5999046747649727  0.7945916540190399  0.8002909842912369
  0.8046856113736705  0.9983899182107808  0.0022135986746323
  0.8005778006537712  0.9992426859832857  0.2010050288502300
  0.7996470653578588  0.9991913979181072  0.4003281021543786
  0.8060091515574694  0.9984351158110115  0.8014142834390005
  0.7981840967473378  0.1982519648371276  0.0015070512376516
  0.7987732061398132  0.1989970305206391  0.1993590575416803
  0.7941609255692591  0.1983572572477701  0.3980812087158797
  0.7995585660429508  0.0658105790536665  0.6008413886187393
  0.8001033242445740  0.1939426037336816  0.8034762908309707
  0.7887017130118580  0.3995994918417777  0.0121055878598046
  0.7984925127356320  0.3996813003659028  0.2048030894520900
  0.7985037443157686  0.3999932027326945  0.4016247690618350
  0.7996062564804371  0.4016860209349679  0.5986626796105995
  0.7981704735639121  0.6009873070389528  0.0018895193823901
  0.7996328765130633  0.5999137818818152  0.2013594941827247
  0.7991257001452789  0.6002257439993784  0.3999643716401713
  0.7997121645121090  0.6000546179756412  0.6011128010994767
  0.8004629917228779  0.6038067043800692  0.8016952353810509
  0.7991852774803067  0.7998276880553218  0.0012236092534725
  0.7992522175687686  0.7994271638130405  0.2005457105961695
  0.7985961726366964  0.7994825197325350  0.4008273309587804
  0.7995406809005497  0.7985807480836273  0.6003433651215818
  0.8007105678822434  0.7999869012153130  0.8016116298588687
  0.0078076877168316  0.3996136441233686  0.7928680323159227
  0.5993913965194603  0.5993587531531053  0.4009090171072066
