Zr Ti V  W 
 1.0000000000000000
    14.8442650535828129    0.1796372321040563   -0.0053979991796916
     0.1797300827788585   15.0905030190702085   -0.1512625511561838
    -0.0044107620916271   -0.1494813300358096   15.0955055501184390
 Zr  Ti  V   W  
   8   6 108   2
Selective dynamics
Cartesian
 -0.0215131779587522  6.7719691503234598 -0.3710544802570174   T   T   T
  0.9628730684266670  5.8875151853828527  2.9306575110417130   T   T   T
  3.5321980303124478  6.7239265862349535  0.6613708681142646   T   T   T
  2.6779124703590358  5.9053337027329746 12.2676030567226331   T   T   T
  7.1237294489887208  2.6010228262195922  3.7577523693341219   T   T   T
  9.1535458681491733  8.9716388189043936 11.9773846540691498   T   T   T
  9.0350423910616922 12.1390489679152704  6.0484835713320670   T   T   T
 11.9782404292542619  6.5117158624963594 12.2642915343724308   T   T   T
 -0.3600421911345003 -0.6608432698426627  6.5242478848133532   T   T   T
 -0.2676969650182448  2.3207177073912186  8.9440508603230668   T   T   T
 -0.1689152628881188 12.4817997744861309 11.7003185372027279   T   T   T
  6.7469032004165239 12.2935384321882104  3.9197034732347662   T   T   T
  8.4978020592234280  5.6040146256653003 11.5464194791446886   T   T   T
 12.7103318717315616  2.4776558917680047  5.6148150053569692   T   T   T
 -0.2490029657370414 -0.1005276327276510 -0.7299248386325269   T   T   T
 -0.1453738077921108 -1.0084640915610110  2.6344015974245494   T   T   T
  0.6850908812067082  0.0647198750356206 10.3350036485968584   T   T   T
 -1.2441941181066114  0.2107308490473682 11.6855619469904397   T   T   T
  0.2900081523795482  3.1472283455721231  0.4943671569186280   T   T   T
 -0.6923309347456998  2.0689598042981938  2.6373326958742664   T   T   T
  1.1669728749000141  2.7521865016457991  4.5531218502464084   T   T   T
 -0.2462322700517738  3.4416329452005963 12.8791885521680847   T   T   T
  0.3642807840509416  5.4169840766145709  6.4733700406449595   T   T   T
 -0.3742922067650377  6.2563568027453060  9.1120650209063463   T   T   T
 -0.3686169859484489  5.1101972062848979 11.1883586459560895   T   T   T
  0.5705230785568748 10.3738601013871659 -0.7715813349977783   T   T   T
 -0.8566192771633836  9.0369556407650400  2.4184372113220469   T   T   T
  0.4475178768715038  8.1375624268564302  5.9500342688761165   T   T   T
 -0.0700042495718334  9.9020637720819291  9.0591425675655390   T   T   T
  0.0781014244012045  8.3961463004867074 11.6552822190590923   T   T   T
  1.1622557748610027 12.9576671224400819 -0.6141588401508845   T   T   T
 -0.5308126220937450 11.5275659522196214  2.2457897729079388   T   T   T
  0.8312955140243710 11.2842024184185465  4.9777874030527656   T   T   T
 -1.3629787210679734 12.0243052057614861  8.2161660408746275   T   T   T
  2.8943580220681095  0.4223034140908104  0.7103303126482385   T   T   T
  3.5279738305522570  1.3546066250536779  4.0856542879206783   T   T   T
  2.4786945113808363 -0.4566011197750922  5.9328591923782952   T   T   T
  2.6059186798558187  0.8084212434652958  8.7623686429031906   T   T   T
  2.9239985549889114 -0.1725302515592566 11.3724311194205736   T   T   T
  3.2067216391870828  2.9853007786142096 -0.6226542207573016   T   T   T
  3.6439172480656508  3.6081568593904780  2.6768631116932688   T   T   T
  2.4796278434393559  2.4124074371809576  6.6434738599446170   T   T   T
  2.4634499679825765  3.4799252217771253  9.3736008110030955   T   T   T
  3.6392276630891103  2.4402165221078396 11.7423676506052050   T   T   T
  4.0100068901615291  7.4697688634700690  4.2820631162338429   T   T   T
  3.0793742674063274  5.2431953438098891  5.9543586380707874   T   T   T
  2.9599588271391113  5.8873549671416043  8.4522014574331799   T   T   T
  4.0108749589147337 10.4064324739159026  0.3560546301354278   T   T   T
  2.4398548694071880  9.1144361368209506  3.2204440343166016   T   T   T
  2.7375793787426930  9.1270128073448369  6.7212029353859677   T   T   T
  3.1060641771030006  8.3361425273872740  9.0951189543917224   T   T   T
  2.8325245149983269  9.5150006982619537 11.2055151164371498   T   T   T
  4.3291839182912426 13.5459145742592817 -1.1234993867122895   T   T   T
  3.2024653102200569 12.2144269600962527  2.6859954430978599   T   T   T
  3.3398229151742176 11.2402561977224611  5.1801680110804220   T   T   T
  2.4543721303408224 11.4794425473505903  8.8536033844959920   T   T   T
  3.4455274137535907 12.2269466080933888 11.8355879292492077   T   T   T
  6.1111140518864726 -0.3855259746072299  0.9007006195485223   T   T   T
  5.3339622712909147 -0.1514391268583949  3.9339078646493029   T   T   T
  6.2886257798283163 -0.0988084122041430  5.8702225666000709   T   T   T
  4.8262413389669332 -0.6630444393048531  7.8619253521110970   T   T   T
  5.2430728086814762 -0.0910812145434288 10.9083726048830059   T   T   T
  5.3786409206609722  3.4684017274228687  0.9031307952908949   T   T   T
  5.7831120910246332  3.1918517623526883  7.1372010733858433   T   T   T
  5.7079609068389097  1.4860161543625625  9.1430704679549439   T   T   T
  5.5029490362575473  3.5993617618796261 11.1542727960789243   T   T   T
  6.8278935406977181  6.9133575361887640  1.1087450679719959   T   T   T
  6.4169524625698040  6.3037028993701396  3.8607865231343230   T   T   T
  6.7562791478425082  5.5696316288684535  6.6737121905138563   T   T   T
  5.4180837687362491  5.8040561012715308  9.8078483973177608   T   T   T
  6.0537454483376365  4.8204037169266662 13.8489943588905007   T   T   T
  6.4564804555467603  9.2497784905208391 -0.0132391156691074   T   T   T
  6.4219514859058187  8.8983078019159123  2.6285064879947599   T   T   T
  6.7524370409416887  9.4384593044709337  5.5614856483148589   T   T   T
  6.1002273339769797  8.4868953941165959  9.8849695424092570   T   T   T
  6.1283598664200953  7.3957375365260223 13.1534675537325949   T   T   T
  6.5884952584805889 11.5410513951435458  1.2884860636233451   T   T   T
  5.2687939885637203 12.2630552398553174  6.1851193922294332   T   T   T
  6.2293096656616811 12.2617441166505685  8.4877455239427579   T   T   T
  6.5064022353799746 11.0584946406713165 11.6873825271424359   T   T   T
  9.4303210101770585  0.8485773879000051 -0.3984373005209791   T   T   T
  9.3823665306717619 -0.4131892275480187  3.4579530532397609   T   T   T
  9.6636400278795644  0.6281511663868288  5.7726661396179608   T   T   T
  8.5693535356929313 -0.9313612198542593  9.2522308901233785   T   T   T
  7.4325472567723487 -0.2082069711039538 13.1282318522747481   T   T   T
  8.3144697513512096  3.2643946769810923  0.4009820079240138   T   T   T
 10.1549420769699079  4.5458694992610180  3.1929602450874697   T   T   T
  9.2102655690528650  3.3408956786901696  6.6848781321095423   T   T   T
  8.8353063559866918  2.0723323612485789  8.9910495570695730   T   T   T
  8.9251772656649457  2.5478567276363222 12.9309689256560993   T   T   T
  8.9465202475549983  6.5632473606128823 -0.4493276591845297   T   T   T
  8.5256866468652071  5.3894051979854583  5.0972690667044240   T   T   T
  9.3256114417665792  6.4676179792826520  9.4996157179154501   T   T   T
  8.6860123654453112  9.5511659387270615  1.1050460313585360   T   T   T
  9.7109509510327392  7.6268523416375817  5.7315881225037435   T   T   T
  9.5665459684688869  9.0827003658474617  7.9846172017542418   T   T   T
  8.9394989239478893 11.7575022903054993 -0.5303050498512952   T   T   T
  9.0445290466193313 12.1913118335497241  2.2524668982867930   T   T   T
  8.5050535076024687 11.3514342598393370  9.0474586545966069   T   T   T
  8.8975895554581399 12.7640032821499787 12.3800450266496789   T   T   T
 11.5072817496150748  0.8111202738734731  1.3035740536646312   T   T   T
 11.7443860753592269 -0.7066261441402586  5.0763600089287344   T   T   T
 12.1308150456715751  0.2392064776471951  8.7347709216263834   T   T   T
 11.4371885272348344 -0.6452714833588152 11.4950890231272389   T   T   T
 12.2676130569781439  4.1793647809354875 -0.3425681602161057   T   T   T
 12.7115559703450209  4.2045784393159886  3.7226672817097342   T   T   T
 11.4462392108703757  4.1912958948085688  9.0180350230937147   T   T   T
 10.9791464338156128  3.1083367627245932 11.2569967094473462   T   T   T
 11.2923910394371827  6.4062245416543018  0.4846606023576896   T   T   T
 12.4642444540806316  6.5031943500290472  2.6515988683837186   T   T   T
 12.8512706520807463  6.5846480182951570  5.1403289020635974   T   T   T
 11.2907756359121070  5.7158515682038642  7.0050457266033757   T   T   T
 11.9691294105817363  9.1288158526823153 -0.5462866797819184   T   T   T
 11.1949283291519528  8.5171195250056044  3.0406913840830532   T   T   T
 11.7844889594566489  9.7960141377028389  5.6410948930432241   T   T   T
 11.3365539543515847  8.3135257848153206  9.2728963447250052   T   T   T
 12.5070858007407146  9.8280032225877783 10.9667978814807903   T   T   T
 12.2444407113641880 13.0721608945597332 -0.4454784944326136   T   T   T
 11.5034485333008298 11.3112882764638876  2.9014371106109476   T   T   T
 13.0715252106914814 11.9995443269611570  5.1904163845567144   T   T   T
 11.0897637487945460 11.9703712202169150  8.5561651688347968   T   T   T
 11.1635104759284296 11.8199531188857172 11.5733713530621785   T   T   T
  9.0302988450488026  7.0589628685853789  2.6929568953723395   T   T   T
  9.0826663681170849  9.8649354423656739  3.7459710455588846   T   T   T
