Zr Ti V  Cr W 
 1.0000000000000000
    12.5062221911064633   -0.0118592771758309   -4.5188867799002281
    -6.2437795351313943   10.8693910899341972   -4.4629948533269008
    -0.0196216462483696    0.0342470852872195   13.5010443303164465
 Zr  Ti  V   Cr  W  
  11  18  74  14   7
Direct
  0.9895588403167078  0.9887374985253669  0.1793794039979010
  0.9910833854245646  0.1851230807036777  0.3921390456032607
  0.9881096283960528  0.6018507592180014  0.3906802673755497
  0.9985432760296875  0.6106166087910262  0.6034194578429339
  0.1724533567997858  0.1700797865182942  0.1675078678417229
  0.2088458504570105  0.5976199255732803  0.3969208216945815
  0.3826864581887912  0.7894995787446220  0.7894905533587545
  0.5962227959852275  0.0079661972051627  0.8061431307709277
  0.6023762062760493  0.7988235886480004  0.3932128711015245
  0.6051192443045186  0.7934031194741796  0.6074316391820841
  0.7933941055059885  0.4042846081259622  0.6011244926231163
  0.9938321778510828  0.1946373595269007  0.6083454120552955
  0.9991679229363465  0.3988531537975964  0.0032110949127287
  0.0013443407548766  0.4000291856670561  0.7986459265792831
  0.9955572649580060  0.5994159809542460  0.0000968278777420
  0.0170154599503116  0.6282918624818254  0.8227133060428596
  0.1868320772582338  0.9724861578332359  0.1760732703248420
  0.2022234699206591  0.0061601345599687  0.3959006534640863
  0.2040422965165408  0.2013852451752581  0.7977974410321081
  0.2121244933776798  0.3953670110554156  0.6071089957238793
  0.2019363117022211  0.8105611888995646  0.4047170303160526
  0.4105189254668063  0.2030841603209916  0.6060348505282728
  0.4047659070504430  0.3904542217906160  0.3980313381166359
  0.4020987463078735  0.5991149646354069  0.9989017614660712
  0.4036261192239247  0.5820658302512047  0.3741690621579979
  0.5973604107884737  0.9996247189962201  0.1985989197354183
  0.7965849391497829  0.2003747224844308  0.1994800844281674
  0.7956579733724606  0.6002701421070799  0.1976125960244810
  0.8374810672275246  0.8303052860807786  0.8359045537252884
  0.9907122233740138  0.9846216346169318  0.4012431333244339
  0.9967583796696049  0.9934370990861280  0.6007713303490307
  0.0142721034809313  0.0088099117773033  0.8147773138767855
  0.9948610698541585  0.1957059248733842  0.9992244063522486
  0.9990871491816001  0.1990425664969506  0.8119595691007208
  0.9867010882414969  0.3852757193177077  0.1934163305598188
  0.9936733374206739  0.5850622126814587  0.1831058143279733
  0.0087470590108329  0.8383033941586949  0.9987149496034643
  0.9977117107782059  0.7859105647895003  0.1936663671625369
  0.0011553672996854  0.8192386199188120  0.4046808400041781
  0.0066296013941402  0.8205174609729911  0.6105290918353518
  0.2054867446187123  0.9987647428980191  0.9988889925398240
  0.2070684103316306  0.0122987301094539  0.6080210334137304
  0.2134088809595980  0.0103200165469293  0.8097955998648299
  0.2181428327862762  0.2065255887909204  0.9988244414256108
  0.2192850671694640  0.2107428697053320  0.4123888949733910
  0.2009563006897178  0.1885377404806377  0.5923433164705838
  0.2057618058334584  0.4002441048392474  0.9964024850302821
  0.1948045699641526  0.3922765968496962  0.1843489264755462
  0.2066396232430240  0.4063717396773278  0.8089883786487957
  0.2057541884033781  0.6055139304857925  0.0004776318666655
  0.2098901199617946  0.6062920232474609  0.1928879869454920
  0.1866206510642516  0.5739110968052383  0.5822099838857482
  0.2018068227517428  0.5923388520659163  0.8010054380482258
  0.2082208464010641  0.8248678577610581  0.6155103654091885
  0.1951406128654788  0.8179000225911418  0.8173761044619938
  0.4032517636790341  0.0083222648857448  0.0025065133263735
  0.3999585745989168  0.0023825110871430  0.1967341801644719
  0.4038957092280623  0.0093175762134923  0.6058610274917837
  0.4011446489090028  0.1961073391961383  0.1918513748703177
  0.4167128968887571  0.1942615155910008  0.4036946716588981
  0.4002502976287663  0.3956409154826199  0.0001852855407196
  0.4035369588894283  0.3930728804575060  0.1932960643460147
  0.4124852779200955  0.4026820319064807  0.6073557979157898
  0.4013967278552192  0.3930818495857041  0.8016597102299845
  0.3909297525943649  0.5856019880489509  0.1813333670925250
  0.4089741631494506  0.5873721725786106  0.6010122069783277
  0.4099862779261754  0.5900170151533950  0.8027745202383688
  0.3883018013211316  0.8008457560519400  0.0031384505459255
  0.4020406705432764  0.8021731811558453  0.1963573692563279
  0.4026085333461829  0.8192826709856076  0.4013413715352770
  0.3892309864083183  0.8177912590455384  0.5893407190587724
  0.5927384341294839  0.0002262283621927  0.0043124668987976
  0.5957164309973657  0.0112370358176397  0.4014958849463602
  0.5902449822654381  0.1975517231731292  0.9976365525790130
  0.5946049687274676  0.2044655344468350  0.1986639810161445
  0.5989368376797349  0.3901790858890681  0.3917222770850411
  0.5971913328301505  0.4014787464126838  0.6051511520071859
  0.6039097802780444  0.3997215668703321  0.8050495530490901
  0.6030438076206851  0.5953473548676305  0.0011864093207484
  0.5939133703597927  0.5906619714903683  0.1940223875210103
  0.6065011387616412  0.5858679895874048  0.3974726016714621
  0.6039777449797548  0.5954923527842912  0.8030460451190640
  0.5958437529551319  0.7953139542206644  0.9997530567673963
  0.6049167520327526  0.7972528504866365  0.1935233706813896
  0.7792518214721321  0.9749555553045939  0.1825366752382818
  0.7905556638865420  0.9933265970195687  0.3952073871977090
  0.8091560279332761  0.0109115528614381  0.6115329067232509
  0.8149771539018056  0.0200267245612015  0.8108666736884599
  0.8025252276926927  0.2148050425029909  0.0033377386453820
  0.7866314579143106  0.2017570410797211  0.4069408896970798
  0.7870326867895726  0.1961171154628724  0.5988934998199219
  0.7957756278100226  0.2031633870945418  0.8012815672184325
  0.7797465560058160  0.3886677252687910  0.1846404492011631
  0.7896630359257231  0.3863506095262460  0.3814110086185407
  0.7867359523205502  0.3910542406814856  0.8047406969978066
  0.7948660949536700  0.5899106010802765  0.9963627533198225
  0.7785438320075904  0.5918416206072655  0.3975505651557239
  0.7911049884321709  0.6202095372267727  0.6172986680295000
  0.8027240571228962  0.6032114593617375  0.8121599483445814
  0.7886874602728697  0.7806372995409828  0.9993483417593264
  0.7963471786191724  0.7969526425630197  0.1971065117789376
  0.8064286718482206  0.7965335279077379  0.3965795707296098
  0.8226267101886826  0.8112593044581478  0.6099926823699725
  0.9884733832587262  0.2051781224872431  0.1907902986815936
  0.0006158049522933  0.3979692867297552  0.4034168605178087
  0.0137920638921509  0.8145569308338825  0.8111278335284394
  0.2113311436518695  0.8110435410549268  0.0101873004960414
  0.4079446082523755  0.0068785547505611  0.4026364294945249
  0.3915533644767896  0.0134251984110845  0.8022212554913262
  0.4030373267989909  0.2027018778136333  0.0011720849373819
  0.4058587010793052  0.2000014927227829  0.8042203771834290
  0.5955419266434636  0.1946410814951314  0.3928638284879943
  0.6033639777907460  0.2022155074990143  0.6013160155055957
  0.5972047404615930  0.2115655052844533  0.8037453306724276
  0.5924545667405865  0.3918930396950049  0.1915110448996177
  0.6038667737533913  0.5889642744691531  0.6097328473360270
  0.7918559950783848  0.3965181552655030  0.9979230625805111
  0.0017200641940370  0.3964015806944288  0.5937415128571669
  0.1962468178678115  0.3858133417920543  0.3914433484721166
  0.2063985975392157  0.8022929329000318  0.1999102630509879
  0.6012876094202471  0.0110279398747228  0.6001452004489723
  0.5944875453509295  0.3942271772704110  0.9972605732385010
  0.6052321043140032  0.7932972321304490  0.8115151944416475
  0.7986678959397875  0.0043840170523457  0.0028610720040929
