Zr Ti V  W 
 1.0000000000000000
    15.3704372863088707    0.0041087699184726    0.0045828320708022
     0.0041071823098185   15.3593176205705255    0.0049868964281650
     0.0045832368054306    0.0049883200619353   15.3853693029952101
 Zr  Ti  V   W  
   2   2 106  14
Direct
  0.1984951011923896  0.9937914706078625  0.1925529897371966
  0.7918855705070686  0.4015290410004828  0.8104253533147833
  0.4050434102773480  0.7989054424506840  0.8058109390039548
  0.6134119975795882  0.4010423997351338  0.9888886537516769
  0.9922047160247318  0.0021610614827396  0.2017334388512125
  0.9990178107318031  0.9953011754873279  0.4003813085541720
  0.9939417024947093  0.0002726142451774  0.6013067907321890
  0.0024262066662681  0.9989400700556079  0.8000195296328506
  0.0005378739845319  0.1996116206481338  0.0006607466013377
  0.0009089782904586  0.2029753527940182  0.2017277987865427
  0.0010933286846293  0.1993160202748404  0.4003370720390853
  0.0028620382605826  0.2007343034478524  0.5982518724370547
  0.9992621742972265  0.2009174056155218  0.8011804215395999
  0.0045862401978072  0.3981122042682552  0.0065247576619783
  0.9989058088566876  0.4003852290117333  0.3962256314662523
  0.9977095621975338  0.4000697743822731  0.5995345885250321
  0.9993729153835452  0.4009512039810046  0.8027950689780914
  0.9989217514801361  0.6031690827694395  0.0008349437797723
  0.0040905759776686  0.5965054243897315  0.2013412336084780
  0.0000969132484943  0.6015687463381730  0.4024321517218196
  0.9982915586112449  0.5991898463579821  0.6024990926606278
  0.0021166448814929  0.6005557081392922  0.8007200371822701
  0.0034293209162844  0.7998196107489077  0.2031407347681595
  0.9986526014201080  0.7993367058762666  0.5948264749181579
  0.9993937295891800  0.7997642726322256  0.8043769339350546
  0.2007052607867328  0.0051504129992365  0.9897394964421330
  0.1980208845293464  0.9993192901397249  0.4051693865414360
  0.1981403829931559  0.0037777036260167  0.6048124564108862
  0.2009730077085739  0.2039802606405471  0.9974267066199328
  0.2015490937074976  0.2028944484920001  0.2004108158106373
  0.2032678379761371  0.2003753408217537  0.4038361133305918
  0.2013428198370326  0.1969350628910082  0.7946870279741184
  0.1971271323472550  0.4057994050905451  0.1960887997608590
  0.1995291296284060  0.4023738871509016  0.3991175667775537
  0.1978914712687372  0.3964379241041138  0.6020421324803970
  0.1979186627360218  0.4037831264849939  0.8036645367795018
  0.2010126772217363  0.5941926536494671  0.9931255634570552
  0.2008172675466979  0.5990884000600665  0.4128060954924182
  0.1992900925267756  0.5988970062900966  0.6080225270210282
  0.0324523160736411  0.9649031819616929  0.0006585707182789
  0.1946924098467042  0.7992293859707482  0.3987719419738839
  0.1988456936981647  0.8016523220153936  0.5992019841772515
  0.1983738686813931  0.8004900962003658  0.7957749797787294
  0.4002578714298030  0.9999028582262917  0.9991363628045767
  0.4059895723051349  0.9964895520270920  0.1992588404540576
  0.4005736642375446  0.0030677463454240  0.3993607397291793
  0.4011042912194180  0.9990493803607203  0.5989003814249505
  0.3973829014059103  0.0010656803455047  0.7991938209518179
  0.4021418699415505  0.2004261153000936  0.0017994115106818
  0.4000257396918438  0.1985036577640926  0.2037181349259618
  0.3966290394093254  0.2004263239917586  0.5944634990215544
  0.4005099821521814  0.2004133955745620  0.7985401049959562
  0.3964750829107518  0.3977679290041559  0.0006809902856445
  0.4026633589597828  0.4012514480432665  0.1985078748439938
  0.3998969941747821  0.3969859384441795  0.3965057056350970
  0.3990092619790257  0.4000723829812887  0.5977121169284583
  0.3969552407643785  0.3994671848517871  0.7996470147162927
  0.4022585772494903  0.5999708596835063  0.9995300648269523
  0.3977099583253405  0.6027052528838842  0.2007411882447347
  0.3995196988176339  0.5988515981404288  0.4005287340594148
  0.3992491578846817  0.5999786240236384  0.5993864186935046
  0.3964759354195480  0.5993135678861354  0.8000212558577352
  0.4055016796906113  0.8003357902395635  0.0070526067365367
  0.4006936798069965  0.8012952308450049  0.3944544360255330
  0.3991265864622018  0.8010294580779034  0.5923291544801138
  0.6014143775699307  0.0006579700117704  0.9969320208418995
  0.6039433993665531  0.9998903116570445  0.1980916936619059
  0.5996813529259046  0.0002528337643850  0.4009656897834274
  0.6020193148411398  0.0007599226470594  0.6024465153824986
  0.5978647572072223  0.9994550271154288  0.8004992472757263
  0.5998981880794304  0.1989851295181476  0.9989151762424806
  0.5992875319067358  0.2022642374772990  0.1987645059003759
  0.5953763221482831  0.2009498924177649  0.4004763681010394
  0.5981863461752154  0.2007591934860059  0.6005737711047946
  0.5972591328029476  0.2013142135548424  0.7995474816882602
  0.6030026299325423  0.4011450834749820  0.1991435637801840
  0.6012520697014248  0.4008169769907963  0.3987021881863649
  0.5996992477736202  0.4003165051623410  0.5990289389483696
  0.5900123817402012  0.4008553880235557  0.7943986707245728
  0.6011377821699678  0.6007267737207492  0.9987325264769394
  0.5983372350011711  0.5984051069124237  0.1985788667961323
  0.5991363187807620  0.5987282738436720  0.4023314576298484
  0.5984445797321690  0.6000054477906855  0.6025209584378839
  0.5961110898650188  0.6005146134478914  0.8004790339371063
  0.6018263018557323  0.7992561827386476  0.0005534001685424
  0.5952789361511095  0.7987855972744786  0.2002359877925410
  0.6021930538320950  0.7982134129248926  0.3991576655848467
  0.5984999619743633  0.7995262176840898  0.6000024450789684
  0.6019173985555415  0.7995299976557436  0.8008400728934332
  0.7990071475274789  0.0002854670935561  0.0030024612712805
  0.7979906240607938  0.9967550029646048  0.4038564819926327
  0.8001880560983504  0.9992862906208944  0.7975106721987717
  0.8004265586212004  0.1995398079493618  0.0009348696114784
  0.7988775158710838  0.1963914058354327  0.2027597618444812
  0.7985619779280803  0.1981035137407229  0.4014129727791039
  0.7992498932644680  0.1966281105810771  0.6002781066571762
  0.7997756976904260  0.1956030206541197  0.8004452075943412
  0.8084801583249911  0.3992877730760759  0.0110410079647307
  0.8045592534986511  0.3998773938401595  0.2047879691448047
  0.8000352441044174  0.3997467889761802  0.4019611518568573
  0.7992988987822193  0.3984640125204217  0.5994147685300210
  0.7998173024228196  0.6000105669793260  0.0016560276385692
  0.7985520120523277  0.6009197698323340  0.2017336701540612
  0.7981578979899296  0.6042049600783791  0.4018842905683497
  0.7983771428931697  0.5998201919782329  0.6033257458540394
  0.7995350542190164  0.6063254047317290  0.8001603988727796
  0.8028321332529285  0.8007822134015734  0.0034303186829565
  0.7974931517949955  0.8036838056009851  0.2057673005562676
  0.7988074581053960  0.8047991416393943  0.5970512760760459
  0.7999331390691253  0.8015985589265400  0.7998985518998468
  0.0009787616507220  0.4011849396470262  0.2021133920078169
  0.9924057602931435  0.7976052209105039  0.0031297160803571
  0.9958277122810307  0.7969502160320817  0.3999870797783734
  0.1994020258361691  0.9978265159323886  0.7973363061490335
  0.1996438972509752  0.2010525570975308  0.6001118766398938
  0.2004154079259278  0.4002857360601765  0.9985603843738332
  0.2021779309853644  0.6013008103443196  0.1861059467277375
  0.2003048156568156  0.6031465603054690  0.7997229918260437
  0.2017629303695323  0.7902540901923746  0.2056461742151698
  0.3996503434910810  0.2001331132573709  0.3990077696968422
  0.3955024214129766  0.8008566672107242  0.2010301256137225
  0.7976770303459638  0.0010643587217715  0.1988859789405376
  0.7983136442794110  0.0008213843314111  0.6017508376593500
  0.8017483154034387  0.8006546141656208  0.4004963165571000
