Zr2 Ta1 Ti3 V111 Cr3 W5
1.0
  -7.5249999999999995    7.5249999999999995    7.5249999999999995
   7.5249999999999995   -7.5249999999999995    7.5249999999999995
   7.5249999999999995    7.5249999999999995   -7.5249999999999995
Zr Ta Ti V Cr W
2 1 3 111 3 5
direct
   0.6019706238097070    0.4013689294520347    0.3964789967909500 Zr
   0.6001542300782934    0.5967564083096883    0.4008862399361665 Zr
   0.9978812490238245    0.4033136430131449    0.8006321416361608 Ta
   0.7969010775285399    0.9985891802131190    0.5972705213750278 Ti
   0.4010251893692046    0.6007782019958212    0.0010574320101401 Ti
   0.1984190338472608    0.1973780434217963    0.8045414649166758 Ti
   0.5947866906417569    0.9922981866265099    0.9978381971879871 V
   0.7997299336385553    0.1964607530872396    0.9997590415149360 V
   0.8003185369897019    0.0031812612477298    0.2003521143033072 V
   0.4013659913765648    0.0023252075355792    0.0018832600293365 V
   0.5984868808042647    0.2022017746852574    0.0062880114253567 V
   0.7984148586198987    0.3968967279604022    0.9956376135514605 V
   0.6055912473274814    0.0071009680671129    0.2055139444549871 V
   0.8004904435215958    0.2013849834194867    0.1994427825543728 V
   0.7988173096646983    0.0001668788034884    0.3993449586679074 V
   0.1956065342238809    0.0002582532863436    0.0001319726736442 V
   0.3955980371691572    0.1968426574409953    0.9938676970151115 V
   0.5996707557358815    0.4007831167456887    0.9990075457265669 V
   0.7959940235460816    0.5916040071178208    0.9969759988566811 V
   0.4044038696635454    0.0054745807441845    0.2002031144996769 V
   0.6000615998658725    0.2014809288334690    0.2002055116875492 V
   0.7996892400615976    0.3922125118261907    0.1955944896296054 V
   0.6061878821907600    0.9984428775144625    0.3988589111681977 V
   0.7951526409960790    0.1988502827904849    0.3966088052951131 V
   0.0038783814281425    0.0019482025857812    0.0070061859813440 V
   0.2005629107128501    0.2008804434221836    0.0014617833935732 V
   0.4051208666278334    0.3990018930023830    0.0068191347633051 V
   0.5927291252778907    0.5981139236902744    0.9956698414121744 V
   0.8007605298380551    0.7955158327317411    0.0025754843581901 V
   0.2031566377101522    0.0031040630610861    0.2039217441446212 V
   0.3972770904129806    0.1979058879254782    0.1936255445880157 V
   0.6028732606084621    0.4018641862912954    0.2038734314917897 V
   0.4004958461694038    0.0051377451969241    0.4066522304353878 V
   0.5990661385332195    0.1958050553196795    0.3978776201365872 V
   0.8056391305338698    0.4068943575567172    0.4011102572213350 V
   0.5989950723018381    0.9991573916664257    0.5988750483061256 V
   0.8007319174987865    0.1991513121792818    0.5999921329909962 V
   0.7990073276334079    0.9975040757029355    0.7998740164093211 V
   0.9979956757858708    0.1988276542579588    0.0009474824978028 V
   0.1969244933990045    0.3922189070677796    0.9928093321839919 V
   0.6008964406782521    0.7988784411427866    0.9970075544320989 V
   0.0051876027651282    0.0036850515019681    0.1994099653990735 V
   0.1974792752745875    0.1962593212547576    0.1975816373085776 V
   0.4058949762177868    0.4050345108966399    0.2044085792364710 V
   0.6041033840906520    0.5998048328806838    0.2018902085743249 V
   0.2002866421919585    0.9977800327174680    0.4005786539481647 V
   0.4012733884560780    0.2052205244363007    0.4002233788177708 V
   0.3984143432898838    0.9973848766262619    0.5960690809977313 V
   0.6017558829112399    0.1993059178524574    0.5989571888074173 V
   0.6013463242226916    0.9995140618626233    0.7997693078660805 V
   0.7997208327531898    0.2040122918335094    0.8027554367820168 V
   0.0085179887294003    0.4038881748127637    0.0066259617694949 V
   0.2056268415731698    0.6020883776197838    0.9975403469522068 V
   0.3972576572157159    0.8034486104545068    0.9960535360110783 V
   0.9951112407965829    0.1961281766788069    0.1957473455931171 V
   0.2015947211618591    0.3997468172222520    0.2017736041805067 V
   0.3999316461669933    0.6035132570291196    0.1970263356305066 V
   0.0030763163593854    0.9943218150818705    0.3995909336836270 V
   0.1933117167156621    0.1951294028253774    0.3972043348290999 V
   0.7993478949570763    0.8016112242894446    0.3979200887272666 V
   0.1983047119412516    0.9993856092970623    0.5977680078627364 V
   0.3965888548470685    0.1995931292251879    0.5972789634625674 V
   0.6047155309119827    0.3986576529982597    0.6053522359222752 V
   0.7973983514099141    0.5998542551541640    0.5994746578410797 V
   0.3979788999212542    0.0009049138376890    0.8008380337001908 V
   0.6028826128659501    0.1991548285470857    0.8039047639922348 V
   0.8020040036118907    0.3983376392840394    0.8008095379997568 V
   0.0039616223109777    0.5976578573291647    0.0012691767160325 V
   0.2013994851920493    0.7970095592527328    0.9981513366787095 V
   0.0059946129812138    0.4055382128211342    0.2020485635517128 V
   0.2000244699300401    0.5987329998633000    0.1922438792729307 V
   0.3965725372374418    0.8017074130759132    0.1954111889966531 V
   0.9966589430886430    0.1981285910768082    0.3959625994732237 V
   0.1956770649698041    0.3935422648690873    0.3972442265563668 V
   0.4018085773683617    0.5978428400721849    0.3999356581968477 V
   0.5983952371214236    0.8015736608174253    0.4049910960916456 V
   0.0005173936785783    0.0027957689416022    0.6008309654311598 V
   0.1989720424500541    0.1980613464311651    0.5949273860752262 V
   0.3933345376094939    0.3981566509792617    0.5992288675953504 V
   0.6037166975025485    0.6009294435655761    0.6031110871361957 V
   0.7986259401969131    0.7974891482073885    0.5972107362871104 V
   0.2031751917637450    0.9983898765194188    0.8023415870826098 V
   0.4053014400720661    0.1977782827271814    0.8000241200823066 V
   0.5992242958482222    0.4007405544100331    0.7997306791387830 V
   0.8024684330554036    0.6051433789038151    0.8080170455080598 V
   0.0042411481636773    0.8022563145448989    0.0022524234654019 V
   0.0023838886339421    0.6020155039808159    0.2031804107207011 V
   0.2000767233115599    0.7990317398659876    0.1990680172259312 V
   0.9964875828943281    0.3978303554588930    0.3982744211310077 V
   0.2052107002576248    0.6037233341622057    0.3990948383005580 V
   0.4012969257771171    0.8020604680486778    0.4022977171220496 V
   0.9997171966063950    0.2012385423200753    0.6004105824806645 V
   0.1996667163150289    0.3940697425396043    0.5997523145711350 V
   0.3980043209597687    0.5991179919005415    0.5978838452543742 V
   0.6066758382367808    0.8051782898599162    0.6038176280819915 V
   0.9976766324231860    0.9971236280472519    0.7929568219298597 V
   0.3984167672094429    0.3963660592041213    0.7917070836288822 V
   0.6009116109040561    0.5985342068111119    0.8011930862712413 V
   0.8031225607856620    0.8019847864681811    0.7999480962409491 V
   0.9996788093482478    0.8004398760724694    0.2015977326874263 V
   0.9983284057189388    0.5930625060277831    0.3950834456760253 V
   0.2030807083913328    0.7998112684149339    0.4010129686823068 V
   0.9980810160405580    0.4038679042503283    0.6037506315039219 V
   0.2065441885890377    0.6028013502387523    0.5998223197661030 V
   0.3992241391742131    0.7980018677542777    0.5971775187499414 V
   0.0018679906123688    0.1982750798182812    0.7998295127437518 V
   0.1975465600084014    0.3951375885177850    0.7976403699180304 V
   0.3963412261578606    0.5965942199416508    0.7965307081188662 V
   0.5976623377253163    0.7986103176009567    0.7991249690992828 V
   0.0057226653333042    0.8014671074602022    0.3995887415901260 V
   0.9936328371873581    0.6004561036619827    0.5954865746279611 V
   0.1943302649945225    0.7986047040013455    0.5969168401531084 V
   0.1985114479471709    0.5987740234431183    0.7984111166603505 V
   0.0004017721886312    0.8014769587326113    0.6017743495561219 V
   0.9966908428672751    0.5995399284453746    0.7982787813767868 V
   0.1999767421515358    0.8023953780404991    0.8015074808895938 V
   0.0018881805751945    0.7989799337186299    0.8016821780563149 V
   0.7987613241686976    0.0013821860127870    0.9955108452410311 Cr
   0.8014795831234814    0.4011091990763596    0.6011744794882462 Cr
   0.6060892379163121    0.8023229764028300    0.2028141054435556 Cr
   0.8000421102620647    0.5979624889681459    0.1971951844758211 W
   0.7939835214099726    0.7954546836831390    0.1969327003694756 W
   0.7956469030788862    0.5946024165874439    0.3975520993541311 W
   0.3979624845500730    0.3939895119060333    0.4009676588059343 W
   0.4010807304090956    0.8023813755312620    0.8015030193121251 W
