Zr Ti V  Cr W 
 1.0000000000000000
    15.4411249493602298   -0.0057725826640909    0.0015034816595225
    -0.0057736157285930   15.4404920489432147    0.0129561230258158
     0.0015050534304008    0.0129519398306557   15.4493068869615229
 Zr  Ti  V   Cr  W  
   2   1 100  10  11
Direct
  0.2670310797581544  0.0635889253788970  0.0005629796082922
  0.7966295032551943  0.3983201941503257  0.2017136426210357
  0.7919287918075929  0.3966498098585942  0.6041143621257613
  0.9936924879537578  0.0000042795089839  0.9992558644640882
  0.9974032583191632  0.9997795787711123  0.2012780433298877
  0.0007781209464295  0.9988073221636439  0.4014374989037282
  0.9991912133961148  0.9981993508398215  0.6006049260133571
  0.0001023686641059  0.0007996784951203  0.7999163151681832
  0.9997080974383610  0.2007604103339781  0.9992090031617132
  0.0013347829424371  0.2016655274565215  0.2006835807895143
  0.9946682612524932  0.2012122297251371  0.4014230450262608
  0.9995990421260582  0.2012608444116387  0.6007062108925143
  0.0001556747482812  0.2017193854136121  0.7985257240889587
  0.0035874427645490  0.4018687808791884  0.2007191966805792
  0.0010057688804359  0.4017678694730312  0.4012696555467820
  0.0032227097788600  0.4043206293892297  0.6002270422482714
  0.0013526689380352  0.3993032167229256  0.8000641065302562
  0.9994525378810272  0.6009462594062368  0.2005117407975246
  0.9991896674912506  0.5996918723240688  0.4040552396221397
  0.9965509168035026  0.5995581533935280  0.7961427863360440
  0.0009639920699662  0.8003331225078224  0.0009397451516722
  0.0011673106823107  0.7995258795031632  0.2010327999879223
  0.0001207587281656  0.8000892333949388  0.3996251734011779
  0.0004977931790231  0.7962066985029586  0.5987903350897382
  0.0010116866478977  0.8003949600141246  0.8007131967334368
  0.1996137908359936  0.0018540754110781  0.4013731049739484
  0.1992624775410162  0.9999764482770949  0.6007054931423866
  0.1996365475098509  0.9989934422357485  0.7961984666551716
  0.1952887381472430  0.2029883613292514  0.0017459260788753
  0.1997362041708946  0.1997672740457692  0.2005291689549300
  0.1973642900724490  0.1990921366866311  0.4012498408224207
  0.1987568057895326  0.1997828829235661  0.5993384954702768
  0.2014630984225761  0.4003655331177219  0.9999508278019560
  0.2004215923455127  0.4008901096551134  0.1985857077572221
  0.2037906110592718  0.3982743564874903  0.3988266640302996
  0.2000692824537719  0.3983733260401224  0.6013088800043342
  0.2004182432208569  0.3998046954298477  0.8021251927854829
  0.2002472971602898  0.6001025942423620  0.9989952549088880
  0.1982969886879077  0.6002855787945148  0.1985457098171668
  0.1983777043796666  0.6000643291879217  0.3981899422381472
  0.1979739720944358  0.5999437034640601  0.6014733610803233
  0.1991408555280238  0.5992745127651760  0.8014409660077957
  0.2020840776274792  0.7958287005125736  0.0011399794324971
  0.2004992705254347  0.7996927331388272  0.2000930566992413
  0.2041823575186492  0.8011598099333500  0.3988934455609746
  0.1997479251526220  0.8005561839430235  0.6000858972705726
  0.2007903717105838  0.8002331091821485  0.8009285321306151
  0.4011549349688129  0.0019606397800943  0.2001287135660168
  0.4009064099494855  0.9982191857943287  0.4004979151791707
  0.4004723560886678  0.9980664331631732  0.5981308446500579
  0.3987663975963728  0.1999707482248404  0.2057759981073686
  0.4004400470221490  0.2027816347666114  0.4033039953433242
  0.3979108860697688  0.4008273080099951  0.2037132682296690
  0.3984530578796100  0.4047867181736871  0.5963965252179081
  0.4010159762167214  0.6004748737114087  0.9981104023935368
  0.3998026406362263  0.6000381159762473  0.4029314695296858
  0.3995707928183102  0.5996407181950469  0.7949389313011054
  0.4039449560402205  0.8023687581241710  0.0000237408240669
  0.3993970997166426  0.7998075653134363  0.2045463858824773
  0.3994621251781203  0.7957081688504654  0.5962134391711034
  0.4000588184271276  0.7987376802266845  0.7977366742637042
  0.6023645246535951  0.9954965778711028  0.9986287553112040
  0.6052953447958964  0.9994548371930119  0.2006506934895290
  0.5989386148050947  0.0000834309030673  0.3999777860689743
  0.6010470186210776  0.9983313302691876  0.6008572723540406
  0.6028430633558778  0.9991009363992734  0.7989544669033661
  0.6053215215608927  0.2007414033173302  0.9999351647487863
  0.5963130872132176  0.1987989195810171  0.1981262665364771
  0.6045621118081707  0.1992947859592314  0.4013915344745706
  0.6011478658252042  0.1984821131522325  0.6003477813184183
  0.5973110970804948  0.2005396778422381  0.8001900288037406
  0.5980360268205651  0.4004159685388289  0.0005507116451048
  0.5928268466844452  0.4008221058300021  0.1984564212680933
  0.5941097867456729  0.4003969615685997  0.3991411011173950
  0.5974660932409636  0.3995662690169740  0.6012671922065321
  0.5995789813224650  0.3995014469659137  0.8017954976000389
  0.6002397344830025  0.6034542138139710  0.9997858414397293
  0.6014597040244425  0.6005652843911562  0.1986832590412700
  0.6018458810899244  0.5996561587998858  0.3993363666988418
  0.5963374323069851  0.6002187110356911  0.6008123040129524
  0.6039112695066772  0.5977185455740849  0.8002113988104457
  0.5991570268489205  0.7986778285789257  0.1969674213482351
  0.5964553649095313  0.7991421230909275  0.3982162901003160
  0.5997494192550580  0.8005606452591705  0.6003667243138932
  0.5991932130775788  0.7989001656399880  0.8026793034257498
  0.8008627231839710  0.9975746178455143  0.6028237482204120
  0.8007899846589642  0.0006326470955595  0.8038231396623128
  0.8005988705188221  0.1969525134499993  0.9983121712614069
  0.8013059403497095  0.1917928148570478  0.2058819190474198
  0.8002514877629113  0.1955626084756031  0.5962205519862833
  0.8002485917569234  0.2007664475605563  0.7971332500049818
  0.7998587530647971  0.3994467123069453  0.9985256563681499
  0.7973895005820406  0.3960405222454065  0.4057769125031067
  0.7995726954790804  0.4020936464419951  0.8032753437424951
  0.8010127131871766  0.6015582964644265  0.9959264908280846
  0.8022440415629426  0.6044469131150131  0.2001141969147781
  0.7990230946881391  0.5993402365795283  0.4020946301624842
  0.8037787971226253  0.6024636977420721  0.6042419328339206
  0.7956346197826706  0.8029834226108925  0.0000697073871813
  0.8007215845038328  0.8037541706427582  0.2019048362031397
  0.7973996595101315  0.7997499380297757  0.4002736489729794
  0.7985796177050146  0.8015847777376817  0.5988111064744799
  0.7999282083942185  0.7965578332315794  0.8005054728688097
  0.0002038426179334  0.4016116911652751  0.9996524515818163
  0.9998469264397347  0.6005973591094838  0.9991483067638935
  0.1987855481197200  0.0001404112739619  0.2038983310337833
  0.2017593126629215  0.1998412137234295  0.7997216673945680
  0.4011733174830536  0.9988616624187724  0.7980141112543233
  0.3997232486232333  0.1996825845619101  0.6008848605261807
  0.3999411062396076  0.4028841883892664  0.0007356132269849
  0.3999585957299098  0.4005676175432705  0.7995180793243221
  0.3993877627978223  0.6008752736294921  0.1993730891075795
  0.7997306674679572  0.9995828289399273  0.3998715831264872
  0.0005440020087497  0.6001611789648826  0.5996481851398169
  0.4049417797430998  0.9955380998943049  0.0025861185229348
  0.4046396118879848  0.2002654845119904  0.7952273536624057
  0.3993565039157799  0.4009391076293120  0.4008999414058382
  0.3982085835335761  0.6011574607865847  0.5992589222672662
  0.4000910811600598  0.8010755986952283  0.3997139555136940
  0.5987125937053184  0.7984087426612655  0.0004674270835328
  0.7992081324978714  0.9994247520409456  0.0022028973311583
  0.8004073900416939  0.9990577441885684  0.1944516839513019
  0.7994286205419634  0.2016008113305953  0.3993843304034229
  0.8005301078577154  0.5996557826531638  0.7991435071675348
