Zr Ti V  Cr W 
 1.0000000000000000
    15.4411249493602298   -0.0057725826640909    0.0015034816595225
    -0.0057736157285930   15.4404920489432147    0.0129561230258158
     0.0015050534304008    0.0129519398306557   15.4493068869615229
 Zr  Ti  V   Cr  W  
   2   1 100  10  11
Direct
  0.4012434264870413  0.1952107382578740  0.9999242580259734
  0.7963549744817596  0.3981812451962452  0.2006936729759752
  0.7919761684037838  0.3958673807768123  0.6039411665077469
  0.9945423241151072  0.0001837625094014  0.9995342539209660
  0.9974460462193253  0.9994389391348983  0.1998759565464581
  0.0005829377018245  0.9989238522849112  0.4006914367318790
  0.9985426396602448  0.9980777244537355  0.6000514655519673
  0.0002466517541791  0.0002455340401226  0.8010866016715444
  0.0004678980224302  0.1998774002073569  0.9995158770348965
  0.0012686378899893  0.2015202183785198  0.2007031286761939
  0.9945290610522957  0.2010630604923711  0.4015938755822088
  0.9997878491561952  0.2011769265360378  0.6010985765439287
  0.9998220363850078  0.2015559335490467  0.7987211161620261
  0.0032691383851862  0.4016537714956812  0.2005063505712025
  0.0009768776023833  0.4015258533345373  0.4011879072501877
  0.0032230804334843  0.4042015314159245  0.6001789043279681
  0.0009769041675770  0.3992048840055227  0.8001324247304852
  0.9996681525329952  0.6009440520897485  0.2005364863137754
  0.9992274171464715  0.5994994345384395  0.4040206754998992
  0.9963485476417075  0.5993477189720643  0.7961318222299705
  0.0024441671115860  0.8013439929831336  0.0011564602010778
  0.0004067791048783  0.7993337624598085  0.2008618697101778
  0.0004517695759756  0.8001047038358520  0.3991072604451128
  0.0001822959694329  0.7962070074725714  0.5987659360223967
  0.0002121195738936  0.7999515921648278  0.8009025256442251
  0.1992984272119923  0.0020083513033879  0.3988383809065424
  0.1987839343476642  0.9999741023086707  0.5999697771624006
  0.1983787465643912  0.9981721730435253  0.7958580271457752
  0.1954606267034523  0.2023662885743465  0.0021269385295131
  0.1987325168819320  0.1985615480149828  0.2006827733359142
  0.1978173069986930  0.1989071661072912  0.4010592897182634
  0.1986925051044644  0.1994377680087955  0.5993191242818633
  0.2005893971532717  0.4009524326864049  0.9996408374531034
  0.2000089858397458  0.4005556813927892  0.1989243632825790
  0.2040075061580231  0.3979229371117248  0.3987728337446768
  0.2002480753064152  0.3983625683683434  0.6010724969719120
  0.1995594200052726  0.3998131466116985  0.8015350296765279
  0.2006109865401243  0.6009203354582271  0.9990462041248777
  0.1985022234604095  0.5996391537403726  0.1982420481241550
  0.1986320873413097  0.6003079000636615  0.3975349956847925
  0.1979227555095821  0.6001337454273629  0.6012377041919578
  0.1992521185827019  0.5989869333325762  0.8013495640158175
  0.2021956899659982  0.7985048640339759  0.0002659577935988
  0.2005708756623143  0.8336999807796586  0.1649639298864531
  0.2040807683154092  0.8012211754895094  0.3983301127723875
  0.1994436834052726  0.8003980172198483  0.5994514168203271
  0.2001910407890314  0.8010871357008112  0.8021216853392673
  0.4002584922638512  0.9998742875043806  0.2001924724852896
  0.4004351068077065  0.9985637006262237  0.4001981630348992
  0.3998896810443539  0.9979146688884740  0.5981239469005384
  0.3995262815567193  0.1990414308970135  0.2066568889639725
  0.4005961123135174  0.2022719755417700  0.4042739673078727
  0.3978650643470310  0.4008903602458508  0.2045342833425590
  0.3981756039471537  0.4042801051973591  0.5967910052268417
  0.4008708460106725  0.6003426128186672  0.9981311304750574
  0.3998923048184432  0.5999026238780027  0.4029809255607066
  0.3996463866697282  0.5983004811504523  0.7947674625680013
  0.4028905236912058  0.8003257834698692  0.0000384451388806
  0.3999092549056875  0.7998243510114762  0.2039103136844617
  0.3992557477904874  0.7959289963565251  0.5965390501931452
  0.3998758199521996  0.7980412252098312  0.7977983603465231
  0.6020012369783045  0.9939836250818124  0.9988083659245084
  0.6052616586544546  0.0000817263487158  0.2014140425966228
  0.5985575393096592  0.0006041055098054  0.4001365404627544
  0.6007303115712970  0.9985994421970479  0.6004419923212555
  0.6028746318818412  0.9986077954676226  0.7983959156698125
  0.6068110341236921  0.2018711746851876  0.0011379252730184
  0.5990492935551542  0.1998935432451235  0.2008497077237341
  0.6044110235780079  0.1997802209884187  0.4025060123851730
  0.5999441320999130  0.1984579756004822  0.6013609823122565
  0.5971396203087556  0.2003918856039248  0.7994416871574732
  0.5990144554542168  0.4020230658673415  0.0009607215530563
  0.5933357520679913  0.4009148172536713  0.1992323453480700
  0.5939465370948624  0.4007268804073338  0.3997324090440456
  0.5966662957808037  0.3994904745646798  0.6016089540393315
  0.5997266893565092  0.3996537811309233  0.8014387106698539
  0.6000472674177372  0.6030395951669795  0.9997458033236148
  0.6016993860808932  0.6005318271562751  0.1988764420403571
  0.6018024091744846  0.5997177158380151  0.3993865094260863
  0.5965197550491919  0.6003832621166256  0.6005873406341933
  0.6037254463955710  0.5974676036358120  0.8000926096104777
  0.5991755584575515  0.7986807256193649  0.1969995895293227
  0.5960679681531472  0.7992817758439423  0.3981850823328303
  0.5995220670733724  0.8007057265906897  0.6002270061277221
  0.5989281193834962  0.7986062270966056  0.8024937393453799
  0.8005443431664447  0.9978592378300167  0.6025729203502683
  0.8003199908658226  0.0009662271436837  0.8037856018985386
  0.8013461781219656  0.1972199255094922  0.9981732049458104
  0.8011828586827331  0.1918996842582880  0.2064309662729381
  0.7998532478969377  0.1957210964877074  0.5964793285781357
  0.7995032493444907  0.2007819306570502  0.7973615731041233
  0.7998317508199937  0.3993022842207421  0.9979976759524045
  0.7973405461385004  0.3961377449087907  0.4054923563983924
  0.7993070765342674  0.4018846895588903  0.8031523257035659
  0.8013046496030560  0.6018618461261638  0.9957918487960336
  0.8022885383227641  0.6042132678488510  0.1999193163553266
  0.7990953461152919  0.5992938494676744  0.4019566425098585
  0.8034893592315393  0.6023107142529605  0.6041563988250507
  0.7948918991487800  0.8028337385476630  0.9999047259506835
  0.8003768751281262  0.8037506639585656  0.2017566426927488
  0.7971401568741084  0.7998266532675320  0.4002502719778784
  0.7983980347103334  0.8017452966325714  0.5987056846295339
  0.7995197283690767  0.7963075573999184  0.8004101967000914
  0.0001363726781485  0.4014460146831815  0.9995962510313885
  0.9999927243498453  0.6008557131777239  0.9991454578580738
  0.1986420584927887  0.9995646054816116  0.1994778077269801
  0.2008308213374223  0.1990135247731744  0.7998337682337876
  0.4002368758042231  0.9977464293204098  0.7980960630772401
  0.3990942730554896  0.1994669210961505  0.6026936037819867
  0.3997737113670276  0.4039059106958828  0.0017422302879071
  0.3993841355470700  0.3990673044876631  0.7998441257853832
  0.3995440899972458  0.6006901198613921  0.1994567790252915
  0.7996026739000632  0.9997136856145004  0.3995764728574725
  0.0003502798491354  0.5999176099031077  0.5995470790082863
  0.4069620125211402  0.9965062391973338  0.0028152407575293
  0.4029237905440003  0.1985378191636904  0.7998555485580949
  0.3994486904009029  0.4002686715017751  0.4008052536268558
  0.3983169173310194  0.6009583988769313  0.5989337816680130
  0.3996574776281678  0.8013789719988772  0.3990867945758978
  0.5981685898627980  0.7981234672059129  0.0003138840187589
  0.7993543517359157  0.9995478090694681  0.0021924020039124
  0.7996954830778292  0.9993709096843179  0.1941215551789649
  0.7993624307429743  0.2018853520194102  0.3999582715847687
  0.8003424852799818  0.5993420419266215  0.7990908479216156
