Zr Ti V  Cr W 
 1.0000000000000000
    15.3205282173675101    0.0002014824685806   -0.0032720455521328
     0.0002023707323046   15.3277042438828079    0.0007193262014022
    -0.0032728540049734    0.0007198926617368   15.3420216939870571
 Zr  Ti  V   Cr  W  
   1   2 101   1  19
Direct
  0.3943946422258586  0.4178187720663295  0.8182211302673175
  0.6101004732962478  0.6089143863631001  0.0055641008332136
  0.7903860836089737  0.7849537963798937  0.0101557160002107
  0.9973695324015101  0.9984847064230220  0.9951205012630947
  0.9986630330254798  0.9993972550432906  0.1984197692577255
  0.9998208738742143  0.9979317117618915  0.3991653072324247
  0.9991247139757142  0.9950319297813797  0.6060307969209318
  0.0015753896148333  0.2008779927690948  0.9990439246529120
  0.9985104891025365  0.1988604508707334  0.2002476807667930
  0.9978703249583096  0.1986087889746010  0.4017655067894617
  0.0006448106995398  0.1989430872449824  0.6018129134775038
  0.9961886957336898  0.2161275824878933  0.7992748414025979
  0.0045756016690682  0.4001577459429584  0.9987277312069995
  0.9978239068058020  0.3985911329995550  0.1969357439515985
  0.0009288384817459  0.4007619549296163  0.3990798780481605
  0.0017971250701050  0.4035070866018873  0.6045316581512592
  0.0019774998431739  0.5993976337329167  0.9950392800586899
  0.9992848301763171  0.5983386629076471  0.1984050611317853
  0.9954849873703184  0.5979808426054406  0.4053926820245858
  0.0035657919552101  0.7979881171122286  0.9998936225724867
  0.9960377369932411  0.7979677531785297  0.1988208607033889
  0.0025506080861961  0.7990998217147619  0.4047303494982986
  0.0011546437119017  0.7923257320605115  0.7979090524049334
  0.2003303274249533  0.0015412554807634  0.0007602092461140
  0.1987420209206207  0.9994458195683421  0.1985895757379287
  0.2036288875776119  0.9955550277365033  0.3986168674133200
  0.1999252628007343  0.0051211697458086  0.6000473586426792
  0.1944778416054029  0.9994454899401775  0.8005423903059350
  0.2007379129318945  0.1977860659159896  0.9994509874693294
  0.1984999993131678  0.2001804174395940  0.2018687010219183
  0.1994235660611066  0.1995278948119643  0.4052963951394014
  0.1989953848603568  0.2000103905757567  0.7957628933072599
  0.2058352366338607  0.3979699449090094  0.9997355588140165
  0.2006538496528905  0.3992697644971607  0.2008584385398293
  0.2006993555329220  0.4001565268337191  0.3981826449643428
  0.2008980106601243  0.3944842620869691  0.6000235799829388
  0.1918590892448083  0.3998176336329577  0.8003178289446300
  0.1983961350120750  0.6006727716624617  0.0003142993494077
  0.1991742126064472  0.5986593109807716  0.2001671951754543
  0.2013695866623356  0.6027693364324325  0.4006957136863299
  0.1969063560870376  0.5971089532134762  0.5988860968530871
  0.2143635763031644  0.5970630372793067  0.7988778921692653
  0.1996890181559460  0.7998519914876031  0.0018617439051192
  0.1997488938672395  0.7983944608929934  0.2036704097837112
  0.1968069843437070  0.8002789037076483  0.5950762310264972
  0.2028214472272600  0.7983643560462590  0.7991392597079647
  0.4001028303041829  0.0011656710142725  0.0012103857003756
  0.4016288322818911  0.9992855610569794  0.2009894593954842
  0.3997316359355277  0.9991725318948539  0.5965906583764040
  0.3997032061798139  0.9960722045516643  0.8018299822325542
  0.3999355819076207  0.2032447902581746  0.9975050968320264
  0.4010374373527091  0.1994631947256428  0.2017471947614019
  0.3992746515765538  0.1958160702561537  0.4019252559723191
  0.4010085226064546  0.2003139147131313  0.6022772332256262
  0.4006273019808090  0.1978744619487574  0.7991527568127953
  0.4043707774635318  0.4007194893310780  0.2026081625923479
  0.3990178828649736  0.4019180962274926  0.4006739159925360
  0.3996068607324236  0.3994058172298406  0.6018970843409189
  0.3997352889758593  0.5981757012300929  0.9964337444672502
  0.4025390351147969  0.6006321309408678  0.1995193446382207
  0.4007564049092369  0.6005925519314047  0.4031219444783343
  0.4007674934607168  0.5985543367535724  0.6046823025361369
  0.3976163218212642  0.8010616449627301  0.9978659448867848
  0.4018292030274306  0.7976924727588823  0.1967234431308543
  0.3990171347346539  0.8006124017479425  0.6026553527538553
  0.6018322000657670  0.0040197711787353  0.9999929641762163
  0.6016436602083676  0.0019473535738534  0.1998654566738870
  0.5957247014675542  0.9986737607566840  0.3984893778605424
  0.6006066419818205  0.0034095318498355  0.6002612685714175
  0.6004037112500219  0.9989692697943540  0.8006044632628783
  0.6001054485303072  0.2011588261682445  0.9994429106138875
  0.6019300430383192  0.2023451224547176  0.2017844963122216
  0.6008678277032132  0.2003152621009685  0.4046924644952016
  0.6026612442071482  0.2006179616244971  0.7957337237351966
  0.5947499974347084  0.3980715710277541  0.0041052571211234
  0.5977566902717297  0.3994395538172913  0.3957465843860003
  0.5973448213640556  0.3951902795798397  0.5999347144646168
  0.6016493195777481  0.4015307371979452  0.8031992063715391
  0.6007157247699264  0.5956503207172664  0.2050290392940943
  0.6028297390089886  0.5997550259394373  0.4041278169018189
  0.6018674792158507  0.5982996171150239  0.5987904514082419
  0.6022919207003106  0.6005932431500782  0.7958884909745572
  0.5935230781993237  0.8053382040945268  0.0000113960372687
  0.6020208918150763  0.7980358437514065  0.1994556455317556
  0.5994196810468249  0.7996321013543299  0.4008999760618240
  0.6006845910187082  0.8020326489745818  0.5982867605818115
  0.5981176122366844  0.8025476105443734  0.7977371350813824
  0.8002497304013344  0.9928709127569236  0.1960716624219292
  0.7993001208608099  0.9997520192199050  0.3976019858304371
  0.8006643372400104  0.0018527303816138  0.5994567525148153
  0.8035685475609089  0.0000764391426985  0.8058856921400240
  0.8000726564482772  0.2006795635901559  0.0274751737161145
  0.8004255418422573  0.1991862052282993  0.4075625219864698
  0.7994373557220542  0.3978106396878742  0.0035667182636980
  0.7968499723669482  0.4023125651769323  0.1992174566530062
  0.8002265903380036  0.4019061936853922  0.3988239833263441
  0.7996421680961654  0.3956483148994813  0.5992920312698642
  0.7993371697601649  0.4004088760169608  0.8030293860676060
  0.8024598745124063  0.5931988868842246  0.9945113283312784
  0.8013397448071288  0.6023110524299972  0.2055712801983169
  0.8010806220749157  0.5967765113285001  0.5982661548093947
  0.7989137743066484  0.7963035822534815  0.3986311452693754
  0.8029469498797722  0.8029410155012331  0.5986110548623711
  0.7954673825925779  0.7948553200252183  0.7984185383179314
  0.3996349899495913  0.7989877542845336  0.3998431675660600
  0.9989054949643971  0.9803026529898784  0.8010845988461822
  0.9973719955831402  0.4098137013941265  0.8037247429235178
  0.0002828513647479  0.6023859778031821  0.6037602759037932
  0.9844701438500383  0.5970333005616686  0.7953516486235888
  0.0010948656636345  0.7954784530610775  0.6002620327066749
  0.1994812261241762  0.1989926310285196  0.5998972577845498
  0.1972977111866697  0.7995961186429379  0.3991006727210913
  0.3999763862239415  0.9996436465839359  0.3981408544743844
  0.4008627186732973  0.4008644609894276  0.0127404452152216
  0.4075752176777218  0.6152850669953726  0.8005566463724766
  0.3994830393353980  0.8015238911879663  0.7999986008538115
  0.6019617516125298  0.2004297197568475  0.6011109827654125
  0.6016012264162356  0.3978264412397920  0.2002503878811945
  0.8002925162579123  0.0088578195651123  0.0010354143875985
  0.7980267347389643  0.1987918064278234  0.6031472922476100
  0.8013208087981730  0.2013643360699305  0.7944033053646654
  0.7999745477053759  0.6002488014707578  0.4032311279293493
  0.7960863330589636  0.5977171958169994  0.7956865888564790
  0.7996670015314372  0.7994278594271619  0.2055423806134947
