Zr Ti V  Cr
 1.0000000000000000
    15.5054759955686290   -0.0026938295988576    0.0222345561511436
    -0.0026911951043345   15.4937529874400166   -0.0133710719798359
     0.0222461462953622   -0.0133733789628594   15.4975574155639322
 Zr  Ti  V   Cr 
   5   5 111   3
Direct
  0.0111992029603928  0.6124917404834136  0.1985748856863431
  0.3988919442122834  0.4006012230074399  0.6003246907080797
  0.6013471482764936  0.2001113097080979  0.2013112747663038
  0.6102450894287011  0.7997322478237499  0.9913060136293586
  0.7931756244247975  0.7981866849305232  0.8099953447970371
  0.9961271028441415  0.7869339971555092  0.3831398877961811
  0.1864897139927931  0.6005454955591054  0.0163059653370877
  0.2030980197015565  0.7978452982081043  0.3972098203369241
  0.5978264630331253  0.2020314402847859  0.7982987198130556
  0.8196229229777147  0.8040030214773336  0.0181331077753209
  0.9993245935719212  0.0007752532952607  0.9970921063911137
  0.0016833595687937  0.0026190885953492  0.1985657886484236
  0.9984064084498286  0.0005188163914987  0.3981856594689562
  0.9980851029159158  0.9980678235916579  0.5976248354712365
  0.9985441073466959  0.9986961315064590  0.7984676099987115
  0.0010125502558506  0.1998708167288866  0.9985494983445514
  0.0018437028822937  0.2008243290330705  0.1987702654617225
  0.0005061812101425  0.1991570052793814  0.4001743657843070
  0.9993419544510765  0.1982777286048545  0.5988533541769573
  0.9995637052138815  0.1998057132085683  0.7985851410345191
  0.9993086507039161  0.4002381420661900  0.9986460462618253
  0.0011500566418672  0.4011152363363912  0.1996067078939652
  0.9990044560941562  0.3975274997201922  0.3990961320231742
  0.9975380017538480  0.3984594617870886  0.6010717489802690
  0.9994490246605984  0.4006907090984254  0.8004282802598305
  0.9929114516810509  0.6009783891226388  0.9931372010225455
  0.0005635437999550  0.5933586278818008  0.4054773241536676
  0.9985726243321472  0.6001929683009279  0.6007979516022698
  0.9978846706595418  0.6003035789648107  0.7984770150458768
  0.0092894881582844  0.8007801638414298  0.9959186541706636
  0.0040843549140389  0.8107109935747180  0.1927942606073752
  0.9992992488056188  0.7991186443599964  0.5996223573706451
  0.0019534258642881  0.7997062600319745  0.7981427589723342
  0.1997996397305478  0.0006134686035210  0.9991876609558528
  0.2004939821029874  0.9994951369487195  0.1989366539114765
  0.1993836899882923  0.0001514217230996  0.3990469494225092
  0.1983323295017997  0.9988260721987572  0.5994336254252002
  0.1988393072935453  0.9999842683851813  0.7993473472569922
  0.1991615479443941  0.2003768645092076  0.9998774850795636
  0.2000154754350976  0.1997526998726773  0.1998662369188529
  0.2000426128859758  0.1999316747477291  0.3996301148391449
  0.1982535127601761  0.1985543304202900  0.6001794339729939
  0.1984396940292653  0.2001446847379305  0.7996469856638999
  0.1992182665729146  0.3988009491838403  0.0013079321408756
  0.2007754663845552  0.4013652799596369  0.2002111631152179
  0.1996552858601160  0.3985929038232171  0.3997447150276472
  0.1944926046351309  0.3994394772096644  0.6000500996857591
  0.1980812719566815  0.4013039034599250  0.8019221468842944
  0.2113730721711055  0.5995731851368056  0.2084426144600239
  0.2013373379950402  0.5964191475532051  0.4033281024677786
  0.1983462317033321  0.6004705858517650  0.6012701476170930
  0.1980081071462754  0.5999097439682943  0.8002844662556446
  0.2028052861250800  0.8022735543620683  0.9991255460634356
  0.2033272929977473  0.7997835171932046  0.1969453507750013
  0.1982558907268481  0.8001544090054319  0.5991131947868362
  0.1998953991378253  0.7988707647182776  0.7997020508108584
  0.4007599273144070  0.0006750374979156  0.9990416784484095
  0.4002195562665917  0.9982173340643592  0.1983925108743987
  0.4006627873666533  0.9990490684459700  0.3983030508999294
  0.3987375198984699  0.9980843306641927  0.5983838792429320
  0.3986453207742059  0.9997109212048162  0.7994185761864331
  0.3985718578561054  0.1999995580700110  0.9991621744842658
  0.3959185778874332  0.1994299238164503  0.1986039421992338
  0.3987665670009153  0.1988015340083691  0.3989579273161709
  0.3979958549615913  0.1949878031574496  0.6000504944765739
  0.3957697157258651  0.1998245564958026  0.8000658363395213
  0.3995545328007056  0.4006195852290251  0.0007310900755151
  0.3999849207995114  0.4011053475565112  0.1980963943157590
  0.4002735865567186  0.3995057928727126  0.3954477034782133
  0.3979318955316416  0.4007747566953687  0.8050434840071726
  0.4017843922305699  0.6006493044502370  0.0018367965833364
  0.4042288431642624  0.6012799502563225  0.2001005191751535
  0.4015808413175092  0.5998269359879203  0.3997017638417331
  0.3991789999478629  0.6047454798254888  0.6001359208604432
  0.3961225984547529  0.6008100668594131  0.8034550767858998
  0.3992843066520541  0.7998928612078675  0.9987044620526084
  0.4020369336358590  0.7995794809746246  0.1978189624596922
  0.4021349216450092  0.7995992572064653  0.3982912895833358
  0.3986295116531300  0.8009135961521217  0.5986795857395665
  0.3956886443765669  0.8001857066210627  0.7987043578323932
  0.6003202593686615  0.0043373976012768  0.9971198108578568
  0.6007414820827066  0.9947257200898175  0.1975751151545714
  0.6006563760657437  0.9991746217345596  0.3987177826850085
  0.5975969402653957  0.9989869087854628  0.7963437320037946
  0.5994899411586078  0.2013898466082784  0.9957866308310790
  0.5983562002434937  0.1990833773468806  0.4046963742079830
  0.5980440709961842  0.1980643282461546  0.5984093214795094
  0.6011058087474059  0.4005082227726638  0.9997524486427249
  0.6002046784699331  0.4047026154722296  0.1995448341555733
  0.6012784768912660  0.3994616467630135  0.3989595583447210
  0.6045118110783031  0.3991250377109264  0.5995368429492837
  0.5985460033683005  0.4029946220331803  0.7995103941146774
  0.5998275180277940  0.5962209350318124  0.9986159892391795
  0.5998724574676967  0.5989037411366336  0.4006394500064339
  0.5993540229496405  0.6005653827249426  0.5995280354491171
  0.5968804835814858  0.5997159114882806  0.7978982406041670
  0.6006116912864913  0.7994376627893799  0.1999248008860365
  0.5985794111669230  0.7997260926722949  0.5954951795255145
  0.5894969458272389  0.7996224206849568  0.7888694838903578
  0.8006563907976926  0.0039160686357511  0.9999552041374667
  0.8001906752784245  0.9991645578625159  0.1996082997221071
  0.7992564901950022  0.9991229114136156  0.3999186531340628
  0.7988589324418348  0.9978419375003857  0.5983238000982324
  0.7977182940736581  0.0051542939946740  0.7977413946912332
  0.8016770956357142  0.2016767757229815  0.9996961366279306
  0.8051338649920090  0.1995617417294846  0.1980021302418072
  0.7995076727714802  0.1992131156448541  0.4994126480152017
  0.8009627510116134  0.2011935700137250  0.8009588992374306
  0.8000991381023569  0.3997497710137840  0.0009481263535041
  0.8022568967958171  0.4015924711267854  0.2000752444513077
  0.7997609475349128  0.3998944047239526  0.3996494697811074
  0.8003130410965289  0.3996552592619955  0.5994093420406492
  0.7991399618032691  0.3989430800382214  0.8002627599189194
  0.7989363354344819  0.5979741425951494  0.0024360696789172
  0.7997746563456964  0.6008676411843185  0.2000439163404088
  0.7992312068927158  0.5983651717822615  0.4005980706049952
  0.7990468596671755  0.6008468616249092  0.6003501412871680
  0.7971911654529290  0.5951796368284488  0.7999631577997478
  0.8029323716807297  0.7998663125263155  0.2073998608128367
  0.7979689056424142  0.7983533752426415  0.4001428363008273
  0.7993957542014729  0.8003126881730500  0.5983366984068983
  0.5991568598418288  0.9985408910875628  0.5971470569135183
  0.6018440853951168  0.6014955871759030  0.1999018014802505
  0.5999579059671827  0.7989872536510755  0.3983070180144596
