Ti V  Cr W 
 1.0000000000000000
    15.4171836946855763   -0.0006458025225840    0.0021743795697675
    -0.0006464432342440   15.4108214600062574    0.0048957167363750
     0.0021730867805691    0.0048939939426410   15.4267125679285311
 Ti  V   Cr  W  
  13 101   9   1
Direct
  0.0011814191896564  0.4041340044887151  0.3992773838855826
  0.2079127024039673  0.1988345707898077  0.7936761207118402
  0.2000206521616752  0.6062811019319356  0.0061674214157206
  0.1987967915033919  0.5967843044181008  0.7927451684930659
  0.4022590405584177  0.9954881605987125  0.5993639065749408
  0.3956025180167601  0.2057639172661652  0.6067961318607032
  0.4023958438228319  0.6019332464239255  0.4003590388537732
  0.5978111171828751  0.9995457689897007  0.9959809768235002
  0.5946440573866340  0.3991493532732245  0.4032076252729773
  0.5915382000144497  0.7980991739177765  0.4017235517973815
  0.8024071246755853  0.4055368686839277  0.9906094742246078
  0.7978694729130478  0.5930797901183507  0.8053011008974824
  0.8062419475611222  0.8036961035676249  0.4034714122884827
  0.0000152882551798  0.0000594576773649  0.9997802728461942
  0.9997732933904053  0.9995791845524390  0.2002591690004485
  0.0009247685603438  0.0007392246417546  0.8012224823089088
  0.0017846973829621  0.2000338646271268  0.9988789293986099
  0.9991586914966094  0.2004764037454293  0.1992225717280162
  0.0001308679245837  0.1973296634148944  0.3996852450281022
  0.9991524363868540  0.2021368788156627  0.5996575348414177
  0.9998308334377641  0.1991479190670349  0.7989383534559620
  0.0038404728115075  0.4005404113128153  0.9986195318360537
  0.0002041489311657  0.4000665479224961  0.1960522040160209
  0.0013014843319272  0.3991889142232005  0.8005639995724372
  0.9969496368331007  0.5996471592027081  0.0007381058411861
  0.9978217774318522  0.5985184280560107  0.2012268555299342
  0.9994769960251247  0.6008672949520487  0.3994615071906675
  0.9977924717343565  0.5987297017986860  0.5999879912388407
  0.9993661040622968  0.5987093251594658  0.8005435148855395
  0.0026180979439114  0.7985988187581425  0.9997384109173755
  0.9982806433364325  0.7990453423005389  0.2009043558164362
  0.0028808593028060  0.7992192658696476  0.4014643364843604
  0.0003023736329333  0.7959926973764381  0.6016329299664899
  0.9996102025091214  0.7995205615782049  0.7991147660420259
  0.2004578292937362  0.9973164240083193  0.0007591062250164
  0.2004366366935497  0.9996863227673960  0.2017243233496724
  0.1997383469784402  0.9996001502942542  0.4004907690826570
  0.1968835209028277  0.9993210099817317  0.5996098523049200
  0.2007005584371986  0.9979443744314876  0.7981624264596168
  0.2010698907667171  0.1985439869185571  0.0010972221233867
  0.2005417249027086  0.1998022424686255  0.1998287799063869
  0.1987985259947651  0.1985866219023665  0.3992277644340660
  0.1959083264102601  0.1991919139328625  0.5959797260043022
  0.2006214786403230  0.3991376931012089  0.9999558340199453
  0.2009334899719150  0.3996372661591095  0.2004626543210666
  0.2019194206700181  0.3993746661807794  0.4001384822141242
  0.1984982067996169  0.4007762051514660  0.5995530997707924
  0.2013861812557887  0.4001895514243673  0.7997135648874539
  0.2001783340194423  0.5991522365704592  0.2042650140852230
  0.1984700832985586  0.5999616855084327  0.4006044049454623
  0.1999665955738369  0.5998302417616612  0.5963416161304301
  0.2005874621704026  0.7992679570108987  0.1972171599828967
  0.1993981562704699  0.8009294587880549  0.3996121534975169
  0.1981892293830821  0.8001992167600733  0.6015959758764320
  0.2020021941619718  0.7999931279302470  0.8046630841545006
  0.3991482335256197  0.9997317883373548  0.0010076112143591
  0.4015108720367581  0.9994990877555447  0.2001620241607144
  0.3994825934373942  0.0005345503981697  0.3991853359278051
  0.4023522742915127  0.9984713741824683  0.8023959464138448
  0.4002621097145674  0.2001152706295256  0.0017507828022325
  0.4014931511847784  0.2002962267789379  0.1998476695206929
  0.3997252890856545  0.1995405981430456  0.3983922521046906
  0.4046506097559082  0.1994275007691588  0.8037351040558522
  0.3985155900343180  0.4002404715322307  0.9986005299694620
  0.4011154169544547  0.4007111263124579  0.1992289158962916
  0.3976489427376820  0.3981817511401267  0.4006016779040042
  0.3990178957541288  0.4034798686757959  0.6015366298576345
  0.4000142889500886  0.3999984934832265  0.8013931310519803
  0.4017507863913749  0.5992203696457589  0.0003459338284431
  0.4016950536319386  0.5994080150302401  0.1989011839661717
  0.4003260696128017  0.5999166166680231  0.6019876254569080
  0.4027763861031922  0.6000094877103954  0.8006741385160994
  0.4011737804110005  0.7990533049467669  0.2011698552473325
  0.3955441818840210  0.8014730328797436  0.4006275769224830
  0.3988093914956358  0.7966059852600810  0.6022111733632404
  0.5991026995580568  0.0012656693902301  0.3997575738958571
  0.6020641168707533  0.9994641197697900  0.5990489068679249
  0.6008648245232121  0.0003868216744969  0.7967061419924238
  0.6006399651407799  0.2022649879396648  0.9996702182814354
  0.6011342139368466  0.2001772882770860  0.1991954968162091
  0.5987893753343544  0.1987021597431141  0.4003015622800404
  0.6021544724766393  0.2010839547802330  0.6000081419966102
  0.6016009032258348  0.1998421520189335  0.7996757332929584
  0.5978246807854043  0.4008754592813858  0.9992439402243807
  0.5992752370162880  0.4002976142604701  0.6021154297784983
  0.5991425142924438  0.3995711014110021  0.7988656377287385
  0.6004023499663064  0.6003074558041778  0.0004948596069013
  0.6009365655918126  0.5988531051420598  0.2014867970097377
  0.6012933035906823  0.5999850568171898  0.5986113789141140
  0.5986967163495163  0.5990100485890687  0.8000893994142148
  0.5994160241920052  0.7980353268086151  0.0002857659400450
  0.5999657767237269  0.8004172951461381  0.1984057136439657
  0.5989879644424206  0.7986496694185194  0.6027549843492160
  0.5993121190888974  0.7993666299465180  0.8006816141166104
  0.8018297545708897  0.9996195754288618  0.0009314603093358
  0.7986904069893956  0.0004859459645838  0.3993420547475955
  0.7990705679931854  0.9985850253719938  0.5976740418609455
  0.8017128202877499  0.9988499739990374  0.7974254162548222
  0.7998825047633553  0.1982127332300376  0.9997400344631375
  0.7998094803846345  0.2005847339329198  0.1984797013184606
  0.8006197455026156  0.1991263491317394  0.3985248383325871
  0.8014325785715513  0.1980956930974882  0.5985952709300640
  0.8006143121432591  0.1986633884562601  0.7991974017997133
  0.7983828749325584  0.4006667880078110  0.1994558762880475
  0.7992351692614589  0.3986684365469472  0.3982947389159610
  0.8005292619034394  0.4003394254802193  0.5984913198359253
  0.7993361258027991  0.3954469234350514  0.7959589748180457
  0.7991159048898698  0.6029677201282315  0.0050668296312536
  0.7987646232843695  0.5981448381445869  0.3989061909873695
  0.7992205729911166  0.5990409062000469  0.5974828362029332
  0.8007416593783339  0.8007742060665707  0.9999435776058094
  0.7990051279535014  0.7990860563831845  0.1995372372143710
  0.8007804556181983  0.7984778902784858  0.6033491903612931
  0.7996934547007182  0.8010233785765855  0.8016815417305752
  0.9995180653907048  0.9995645412681907  0.4342953763185193
  0.9999561270134677  0.4003826788266133  0.6025339849863435
  0.3994305811027108  0.7993761706239487  0.0001543617401984
  0.3999582104310411  0.7985966984794801  0.8017587545633753
  0.6008576789658130  0.0000160003931175  0.2021013285231258
  0.5997235728358602  0.3994233079727210  0.1970276419895567
  0.6018376228332388  0.5989878335522367  0.3997998088226609
  0.7995676550552618  0.9999960343437666  0.2003971413540099
  0.7992480952359181  0.6000119069130936  0.2007281834442117
  0.1971955578434508  0.8020406047442165  0.0010528401253194
