Zr Ti V  Cr W 
 1.0000000000000000
    15.4218125631900325   -0.0059686382723848    0.0062585989012477
    -0.0059677460242910   15.4281327699692579    0.0068346148581175
     0.0062604253005019    0.0068382331099848   15.4329886035241781
 Zr  Ti  V   Cr  W  
   1   3 110   3   7
Direct
  0.3992881182491538  0.8028602697485350  0.5973777859749223
  0.2016508366812149  0.6060125405417754  0.1902230820225435
  0.1984169893279923  0.7906663431742076  0.0075801695760018
  0.5995219913076619  0.5976817552796377  0.5808228893530933
  0.0019180440941382  0.9983630247061229  0.0003007429984094
  0.0002416330604570  0.0031327288483918  0.1995455715625137
  0.0007242891943292  0.9944705947635102  0.3999834126192391
  0.9991505002297030  0.0018823540979339  0.6010251121758168
  0.9997463558725943  0.9976660952305346  0.8012100149725342
  0.0004243331114804  0.1988567874013520  0.0042648074799283
  0.9998781019433016  0.1999712001652174  0.3970443710587562
  0.0022323288212885  0.1994890167923334  0.5981406120140332
  0.9985767870487210  0.1987345724398838  0.8011461769329256
  0.0047267883384455  0.4020707747238259  0.9982494297554445
  0.0014651396323045  0.3967820188307216  0.2012613740214659
  0.0010078633037887  0.4033585816151597  0.3991472258973149
  0.0004492137585301  0.4003255280218931  0.6001407315826854
  0.9991958659040221  0.3982683880861629  0.8000501282827794
  0.0003879860322699  0.6006344234200759  0.0022469056908806
  0.9980955840974273  0.5989272783316441  0.1997779508377140
  0.0012477388507038  0.6040759374234854  0.3989112593287578
  0.0009365775198207  0.5985846719731183  0.5985839796489975
  0.8348016672252467  0.7654787691266262  0.7999615385402236
  0.9984157100076303  0.7981110550385451  0.0003435057690875
  0.9993406501965941  0.7988494873581078  0.5983851550218330
  0.0004759328973041  0.8002297513200219  0.8005182916432225
  0.2009036186893259  0.0013697633384656  0.9995907501781061
  0.2002260945516586  0.0013915791410501  0.1997872025103133
  0.2009269013969718  0.9994182235595886  0.4005914202761157
  0.1998816405556602  0.0050948550794303  0.6009862561571513
  0.2008281720231198  0.9983964147634281  0.8013935233371896
  0.2001860305429705  0.2022720888513459  0.9986859510687972
  0.1951564989740303  0.1996438690558442  0.2017821043974609
  0.1998951898575434  0.1997179984234279  0.4030490494797545
  0.2003981237587891  0.1987240351778367  0.7959738316368429
  0.2003865205440366  0.3973157273576848  0.1953518217664913
  0.2006553062705670  0.4020768565942087  0.3985119986331767
  0.2001973690797985  0.3945522954982003  0.5997740465960484
  0.1996801571165366  0.4005469935096356  0.8021757969826722
  0.1995362872585867  0.5910921031758044  0.9921314928294385
  0.1988887298358662  0.5963513480342800  0.6010745025176065
  0.2040951912662734  0.5991679072097865  0.7975737721948964
  0.1991009273302076  0.8033651638214040  0.2038971283562692
  0.1945679197253057  0.7986622744822265  0.4003991255916104
  0.1957898277947981  0.8008840702602920  0.6008575238207204
  0.1984418761657026  0.7964708583081668  0.7994461119041403
  0.3989205822588289  0.9990190597844191  0.0006788056162138
  0.3999288616933782  0.0005873709833071  0.1991140255511894
  0.3989930663937956  0.9978448686917752  0.3983053020211750
  0.3997430628182097  0.0047930990705015  0.6004816780246773
  0.4006817187577574  0.9976389819680630  0.8021897361717414
  0.4006141095819773  0.1990476602708986  0.0009484028985609
  0.4007365829261883  0.1986080296346383  0.2007185761269793
  0.3995000309297805  0.2006498799338690  0.3976037169614415
  0.3997468292316609  0.2007056006756442  0.5990448287425737
  0.4013218190185857  0.1990452478523465  0.8010773303672845
  0.3963723250317772  0.3988641859054926  0.0005114976142870
  0.4000376842632377  0.3994446987575108  0.2006912583857257
  0.3993609594913105  0.4015823048361589  0.3978542426624159
  0.3989915707233635  0.3989611076882711  0.6001639210166954
  0.4011302707824602  0.3995575230544445  0.8003091255771535
  0.3994385390434417  0.5992343889606712  0.0015670657530791
  0.4017629254689592  0.6005316471960946  0.1997701051944115
  0.3983521598928068  0.5997228497296464  0.3988681196333739
  0.3977457169088034  0.5957054109793672  0.5994635361306283
  0.4050414675004001  0.5998057544041222  0.7991118604056762
  0.4010100181828772  0.7986953138321831  0.0022090024356927
  0.4004593516161897  0.8008937049717945  0.2004800180108249
  0.3982683732268329  0.7979401004845874  0.3945708745655903
  0.3998251943378670  0.7993210455792911  0.8041180130495118
  0.5989379383219106  0.9993830709415713  0.9985722938302587
  0.5994538115665589  0.0004336503370721  0.2003648659321018
  0.5987059412235579  0.9982583548718350  0.4007114849485230
  0.5999129133121128  0.0050363637189830  0.6008242353810019
  0.6004524931718452  0.9975076244534761  0.8004402948803350
  0.5998891533774913  0.1997868407673210  0.9989286159461735
  0.6043735940555416  0.1999204044523319  0.2016405589584581
  0.5997645848815933  0.1998655173095292  0.4031748732244819
  0.6007753737347492  0.1994899756627631  0.7965941321726923
  0.5984902342321783  0.3983229151992476  0.0006256468760308
  0.5997783332401370  0.3985799728578659  0.2001767610331166
  0.5990333917427998  0.4019981230168960  0.4009563756025616
  0.6001562948522599  0.3931213052299924  0.6001877210536433
  0.6001679855067408  0.4024732667848993  0.7996305929066941
  0.5992351133739785  0.5986933536521605  0.0014371008450754
  0.6008235242449813  0.5994564456217274  0.1992165855532937
  0.5998725085660956  0.6004827527858533  0.3952325420137144
  0.6008349027623917  0.7996734676285566  0.0021481411478848
  0.6014596866984903  0.8011497731968751  0.2011102694393103
  0.6008080194440060  0.7991075599206947  0.4005829864283980
  0.6050418672550284  0.8035343759714459  0.6000058130974794
  0.6006038124541243  0.7954294531411716  0.7995455263622715
  0.7996238474216585  0.9989158105100079  0.9995142697843996
  0.7992516197238021  0.0039371431041173  0.1996149119121698
  0.7988752158643337  0.9989418655606542  0.4002819165610784
  0.8004694366766195  0.0016842255616907  0.6009395120896266
  0.7997758733354324  0.9991789482243253  0.8016185095958972
  0.8000189131007601  0.2000424548901481  0.0028557395677398
  0.8001412395414819  0.2000752938706357  0.3973052298511173
  0.7975161170353859  0.1999327817253666  0.5987726772095208
  0.8010977229324917  0.3994667655712210  0.9995245298920318
  0.7994401227808153  0.3961993374456237  0.1994711285867317
  0.8007205131708771  0.4016202133797175  0.4003710780441868
  0.8014788325053739  0.3978162022912368  0.6009292940634972
  0.8020414344291305  0.3998598380806623  0.8008875315497090
  0.8024431063524199  0.5990803035558278  0.0004460051254818
  0.8003412314753939  0.5980401527674842  0.1996951737034656
  0.7990954769725838  0.5996999199761879  0.3995442707512306
  0.8032938326741986  0.5982211585485165  0.6014076897098182
  0.7945953543986898  0.5991448475511161  0.7993840782757391
  0.8010343500125678  0.7996843658718841  0.0022994583077371
  0.7995023603469126  0.8013027319176539  0.2004782588980316
  0.8034220593352321  0.7992764039557942  0.3996466746659650
  0.8006449723661335  0.8009276639110823  0.6014728218879563
  0.9988773239830910  0.8016359242638315  0.2013914955744245
  0.1999165004573165  0.5994253440123259  0.4008870190473443
  0.8000675410604606  0.1995396836595957  0.8011788509283376
  0.9966795526969884  0.1987683267899853  0.2016158490916178
  0.9979808823241022  0.8004903878665619  0.4018447580448872
  0.2003222509895129  0.2006792580879179  0.5997043256831762
  0.2010626460804611  0.3969828754190086  0.9978532793636854
  0.5985573794970750  0.1997610221953788  0.5987933812948886
  0.6007899485186055  0.5991205434687009  0.8078668539185276
  0.8024773819807779  0.2000166504021576  0.2008915096560626
