Zr Ti V  Cr W 
 1.0000000000000000
    15.5037299355992140    0.0053875915022060   -0.0049673339968089
     0.0053888447929185   15.4932120490820822    0.0008447035454455
    -0.0049676779853922    0.0008426987699688   15.5021949562625245
 Zr  Ti  V   Cr  W  
   5   2 106  10   1
Direct
  0.9854761845847564  0.6037448438355307  0.9877940554126453
  0.0018540714667009  0.7992653939730450  0.3975716063820772
  0.6066992810290630  0.3986642397495800  0.1809848537557103
  0.6341889980139294  0.5984701757698433  0.6390457371646060
  0.8024394781422830  0.5989534708204036  0.8051392592887285
  0.5997373237687820  0.9982212212721645  0.8027479053399648
  0.7809019574508754  0.3990299046978824  0.0024814000939024
  0.9980118954805699  0.0010075207470817  0.9985606194230033
  0.0004705823936209  0.0034358982329864  0.4000368024238977
  0.0009989326664008  0.0005518510627250  0.6005084542138998
  0.0004102453150465  0.0014450661165701  0.7996936967894884
  0.9980762753096815  0.1992380955924605  0.9993756233346952
  0.9997861894401840  0.2001851278811148  0.1984728444799564
  0.9996842375573297  0.2005813345061771  0.3988628922074016
  0.0002870172702948  0.2000853873313117  0.6006270713395984
  0.9996821511188670  0.1999048111720300  0.7998420849141116
  0.0033327115093640  0.3984030719479504  0.1983114453578864
  0.0026246597006534  0.3974150627511005  0.4011319580996656
  0.0014005842234580  0.3975796560662135  0.6011582488303732
  0.9988441649070242  0.3975252982644282  0.7992600153338630
  0.0014303317405413  0.5996954404687268  0.1974022329238893
  0.9967264840282694  0.5937042978055100  0.3977459921669290
  0.0076564251849268  0.5989516860796870  0.5981219595742576
  0.0070207880838724  0.5990549423395387  0.7906054846024371
  0.9988572981310712  0.8061030771437537  0.9977686123087894
  0.9971898832363145  0.8004907382016184  0.1926381505441799
  0.0015885295271053  0.8012407800176903  0.6041476190659634
  0.9994105099675212  0.8007338276346257  0.7990835312348503
  0.1991253411536712  0.9992220380573507  0.0012762482736299
  0.1997534622027822  0.0018797911705897  0.2001741331932720
  0.2010284238921865  0.0001530822063134  0.3991246256418248
  0.2003689674446085  0.9997098896099684  0.5997518113306689
  0.1994776441066419  0.9999985352822460  0.7993598633165871
  0.1998970937279970  0.1997209223266205  0.9986214927208931
  0.1995209417059258  0.1998115425928709  0.1992233402062913
  0.2014177939928539  0.2004513596784970  0.4004078233425424
  0.1993815819980982  0.2001826721863915  0.7998041290720727
  0.1968405246341461  0.3994067796783601  0.9990104699309725
  0.2007629215410858  0.3992703750058010  0.1996628610321492
  0.2013904068746152  0.3998925721802311  0.4003659524613142
  0.1977889192337612  0.6012621076625948  0.0013974589011622
  0.1987246445723242  0.5975322553773545  0.2001867467597000
  0.2007549163004800  0.6002456622466542  0.3988968858514659
  0.2029853700654775  0.5998894877616964  0.5987016472468449
  0.2007322817005158  0.5987922742695925  0.8002616536451594
  0.1985545554622789  0.8001519340488830  0.9973489295656784
  0.2060236776888297  0.7992486870575817  0.4000798516280412
  0.2007819563880949  0.7996345281840572  0.8000352407153415
  0.3992263202192733  0.0003724661319596  0.0010955213488727
  0.3981151209520817  0.9985096720447041  0.2003768154680029
  0.4011217488135229  0.0002108291020908  0.3999206454369092
  0.3999108668827446  0.0007197559734957  0.5998474207324356
  0.3979899154650432  0.0000080788409877  0.7999231010653994
  0.3987045747927014  0.1995868004583064  0.9993183366853771
  0.4015397369461064  0.2005263598762056  0.4003249946355835
  0.4005548539534545  0.1995130232753853  0.6004344640206679
  0.4005796560287855  0.2011865183282870  0.7995891051168201
  0.3952604044452480  0.3998438522287623  0.9992527764392209
  0.3975560273055704  0.3995279857018263  0.1997320054343070
  0.4010360236644793  0.3999830290245099  0.3992502679682863
  0.4007621193344539  0.3996632794723389  0.6000809472952885
  0.3984201660888350  0.3999869362099772  0.7988017075099560
  0.3959537924363378  0.5998706740818071  0.0026123893257977
  0.4042176247722818  0.5994175331607641  0.4024673832275454
  0.4006935567007551  0.5994591889426969  0.5998785568924871
  0.3990762658740893  0.5990711381383758  0.8010323512470909
  0.3984129061917080  0.7997500388678033  0.0006164691834611
  0.3677093905907078  0.7999126061296963  0.2004090285906007
  0.4020040495280703  0.7990345095804001  0.4009278764793732
  0.4021441854072225  0.7995212146263851  0.6013195124981482
  0.4000684942248341  0.7995308556397724  0.7997897313636385
  0.5987769949724044  0.9990854455098062  0.0010807418844251
  0.6000554557178730  0.9997836349170738  0.2000732264006525
  0.6007256832201854  0.9998882591189384  0.3998186614315341
  0.6015699692162059  0.9996859135641794  0.5992308666955665
  0.5983261111167335  0.1989530752258917  0.9991558157751821
  0.5998356677248367  0.1946347192273703  0.1999859662176009
  0.6012440748376883  0.2002804617541897  0.3987924276909901
  0.6013683908964155  0.1988617307967260  0.6012868804649988
  0.6006279269902188  0.2007069732489019  0.8003157388968624
  0.5890734709138014  0.3978580200687155  0.9866729522287258
  0.5999877574597671  0.3997412211484743  0.3992518498823605
  0.6001088371114863  0.3953030593980635  0.5983107595118684
  0.5982654891200115  0.4017787347103902  0.7953907069404635
  0.5952609520855559  0.5993905562758548  0.0089932241929016
  0.5976814574549897  0.6048726921807780  0.2031110074082491
  0.6054696584010140  0.5985679840280819  0.3968351163315282
  0.5923365505339694  0.5999007789099013  0.8221831586404903
  0.5978340757075321  0.8008245214696735  0.9988148084240517
  0.5999484692481030  0.8013721976795504  0.1980326816243359
  0.5986149213677309  0.7997889840138455  0.4021547948512245
  0.5999336278842468  0.8031889350634073  0.6016433354783252
  0.5994737797861035  0.7956382255677723  0.8008150159282585
  0.7984611203048138  0.0009728733001870  0.0010829851944147
  0.8000107289515730  0.9995953949789732  0.2009220149277650
  0.8001794571299007  0.9988141176235403  0.3994225437496770
  0.8016295643953457  0.9994985494471677  0.5988881733300909
  0.8014701542144755  0.0004422430685274  0.7993853224507391
  0.7975820791741816  0.1976775637250514  0.0002647236244012
  0.8021349373249890  0.1996923397356624  0.2013595827028183
  0.7994995494317392  0.2007546578429453  0.4011414198242311
  0.8004806124528218  0.1987005965476994  0.5994136131177467
  0.8011373857047065  0.4035855007570407  0.4024934148458464
  0.8016410671867302  0.3998975113439921  0.6010169143114165
  0.7987135296037002  0.3942702654921256  0.7989294065633845
  0.7885132899708220  0.6024961674021085  0.0116144020468945
  0.8032035865156634  0.5987939478951088  0.2081078377294075
  0.8182847339438519  0.6004188882787944  0.5921253768397019
  0.7950747517036757  0.8010400832588439  0.9993130061993719
  0.7991083532799566  0.8012113030371277  0.1995067642688822
  0.7945481397204412  0.7951039102319166  0.4005629828490243
  0.7997981168214851  0.7995688117812816  0.6025637509304707
  0.7997944896453693  0.8047492925403487  0.8007512558633872
  0.9997343910410222  0.0015007186854863  0.1986471740766466
  0.9995594320061133  0.3951684983504899  0.9994399739904811
  0.2007406722928459  0.1997464637454235  0.5999883142319721
  0.2005172702266283  0.3988430064858412  0.6003830113764396
  0.1995342602194491  0.3995101517858029  0.7993337215546313
  0.2018933129503679  0.8003514120157688  0.6013453468497529
  0.4002242187425432  0.1994871761078282  0.1997155581115188
  0.3991173301041909  0.5997851242426198  0.2017958563327140
  0.8000229114854610  0.1992438884324193  0.7995975827554387
  0.8094297164730283  0.3985774706002003  0.2064254682937883
  0.7997715886043502  0.6005402039229439  0.4033685961856565
