Zr Ti V  Cr W 
 1.0000000000000000
    15.5037299355992140    0.0053875915022060   -0.0049673339968089
     0.0053888447929185   15.4932120490820822    0.0008447035454455
    -0.0049676779853922    0.0008426987699688   15.5021949562625245
 Zr  Ti  V   Cr  W  
   5   2 106  10   1
Direct
  0.9926369213964054  0.6044505536995209  0.0041334332653763
  0.0006355589381270  0.7975038810097221  0.3968467761309328
  0.6075343666997371  0.3986202962830304  0.1809727953922624
  0.6305261390688667  0.5987813102173412  0.6394080750356571
  0.7991130283856217  0.5997402100710257  0.8023388015768157
  0.5991546244810252  0.9976630950261886  0.8028539546246152
  0.7813339207072231  0.3992370275059567  0.0027112947057373
  0.9985384844630127  0.0019489196179907  0.9980003537020836
  0.0006934167592614  0.0029609159662321  0.3998986298964915
  0.0011423790675456  0.0002374625661329  0.6005579733271844
  0.0003639892190667  0.0011418783508947  0.7994018313825644
  0.9984956365874045  0.1994692842008595  0.9988170709028849
  0.0001462478345538  0.1993948289677990  0.1982263505645597
  0.9997953040470283  0.2001866979932194  0.3993140129138926
  0.0004402907503933  0.1996493378246103  0.6009091739644091
  0.9998898489360546  0.1999958216986618  0.7997594686757615
  0.0024484894828403  0.4640974966898069  0.1989398856735826
  0.0025164085363376  0.3968995398246954  0.4020337462676282
  0.0012893538937730  0.3976589088254643  0.6019678892976624
  0.9986790037287991  0.3984904599667679  0.8002622250323990
  0.9975521962333135  0.5925982783193000  0.3982852835615360
  0.0065018243232410  0.5989731201388443  0.6007794396434279
  0.0039020508137833  0.5993847955071606  0.7988922992348182
  0.9985305754251809  0.8072254309153196  0.9963710073119357
  0.9998765437812327  0.8034390016214572  0.1925847662635813
  0.0012800102714098  0.8007220744842137  0.6038354814563146
  0.9994881707304937  0.8003215680243220  0.7993705860822790
  0.1994858877943488  0.0005074818412261  0.9999060793302874
  0.2003393094631223  0.9998616910936871  0.1999777769473514
  0.2012470280198447  0.0005442748606779  0.4000433016309162
  0.2004142898116467  0.9993024566843928  0.5992927711623074
  0.1995250160000485  0.9998546007681226  0.7991985503705870
  0.2000011593602634  0.1998711591587313  0.9993947884087946
  0.1997861345186330  0.1998575710219018  0.1992775258791833
  0.2014436993229226  0.2001050051000763  0.3997920128928494
  0.1996140424190860  0.2001472954198472  0.7997104240396844
  0.1974980510809821  0.3994578875720954  0.9995715346924966
  0.1996473375418867  0.4010112792944049  0.1997776160808770
  0.2011704958376261  0.4000092835364847  0.3998475433784160
  0.2011224024645799  0.5999727675293419  0.0001420513051619
  0.1997051964053758  0.5999757305381169  0.1995875660204784
  0.1992520201177579  0.5990652589589509  0.3986656391731767
  0.2020270914065928  0.6000900736948449  0.5987728698773449
  0.1999502868008509  0.5994364145815664  0.8001750920072933
  0.2003665940009511  0.8012128859972211  0.9980804072578346
  0.1998317817355873  0.8000710633271767  0.1980036023377187
  0.2048817828503007  0.7989043487605595  0.3997582106354366
  0.2008940002003200  0.7999078312382194  0.7994126166568082
  0.3996095716788988  0.0006707749145265  0.0007305507385557
  0.3993376255411589  0.9996661615477136  0.2002565414431809
  0.4010544999614195  0.9999516400107455  0.3996212447768856
  0.3998048661419625  0.0003513433447844  0.5996302953680466
  0.3979201851347896  0.9997373287582120  0.7997737778590525
  0.3990469762475362  0.1995891896412712  0.9994068860121414
  0.4015441890305314  0.2003113803422239  0.4004159599584116
  0.4004108137770461  0.1991932192156038  0.6004462228894359
  0.4004243477410010  0.2010636307378885  0.7997014312572825
  0.3957747857831236  0.3995332384530221  0.9993671132960432
  0.3974071205384543  0.3995263760905376  0.1997766051693808
  0.4008386509052404  0.3998005605851585  0.3993533365677380
  0.4003499170603144  0.3995476067147798  0.6001102111325080
  0.3979946421935612  0.4001371212542729  0.7988716530510271
  0.3978009133157814  0.5998574865195935  0.0021220617440254
  0.4044378918556051  0.5990675614296649  0.4024539984368047
  0.3997031413459810  0.5997919562829240  0.5997970949575205
  0.3982942413597511  0.5994016201810659  0.8007923885135336
  0.4003436993218933  0.7997629122634563  0.9995811847976337
  0.3996140837681158  0.8001236164769819  0.1998193856648122
  0.4016295169268531  0.7987003443895003  0.4002895290097619
  0.4017007422977162  0.7996380530602889  0.6002785525055759
  0.3995206850096933  0.7996858929424584  0.7995847986935660
  0.5989860464072893  0.9992777433764515  0.0010054229170583
  0.5997930886180927  0.9991096721020961  0.1999095597429225
  0.6007192159431630  0.9994886744029450  0.3995743703857731
  0.6011737851151130  0.9996338242521621  0.5989715808816273
  0.5982993657245591  0.1989376883138884  0.9994255939785099
  0.5993199150583219  0.1941189309800248  0.2001565962120838
  0.6010509603146857  0.1998215497693381  0.3987015996508343
  0.6010687803060041  0.1985553547183098  0.6013651170582921
  0.6005521300110422  0.2007707275497805  0.8005145695979771
  0.5897497809333698  0.3981309894529569  0.9873410723762609
  0.6000418827895615  0.3992245737090767  0.3987661624615078
  0.5995576695728857  0.3952082607125396  0.5982198350715207
  0.5977514321282144  0.4018283754493645  0.7957346158946238
  0.5964296872238243  0.5998890386042274  0.0088552827563053
  0.5978668205559307  0.6048725218597938  0.2025871993864379
  0.6053585921733502  0.5986911619590589  0.3963922850661596
  0.5905061426448144  0.6001889014940244  0.8229376542363607
  0.5986081697191539  0.8010308061759572  0.9990233342393324
  0.5987891995885897  0.8018625603639877  0.1975844260455932
  0.5982286206634359  0.7995932999799116  0.4010983375062273
  0.5995294409707888  0.8033448672913260  0.6005426597978512
  0.5990065273755877  0.7959859760117923  0.8004803700678433
  0.7984966090753953  0.0009942991111391  0.0008422224676985
  0.8001961596155202  0.9991029834186493  0.2005395073073212
  0.8001317564278755  0.9984007062812454  0.3990665352546646
  0.8015357333893817  0.9994510069644588  0.5984824663597464
  0.8012537512954560  0.0007376903191116  0.7990933730978802
  0.7977018538590683  0.1980190924409149  0.0007444474102978
  0.8019913943850585  0.1986888836778531  0.2016079502540341
  0.7993574967327486  0.2005564910185922  0.4007458638531375
  0.8003382729947386  0.1981859019233116  0.5995062877664389
  0.8010222091686888  0.4031265886482149  0.4034293095993554
  0.8010269610868774  0.3990252561358514  0.6014191218023905
  0.7986803107219188  0.3942665719443354  0.7991184381015815
  0.7913950424997782  0.6023427861601507  0.0088769721866040
  0.8009559633218073  0.5997046707069982  0.2057936480163665
  0.8160921707816567  0.6004282513565294  0.5903227758063597
  0.7963552140437472  0.8013473263374047  0.9985207829414454
  0.7997966668970745  0.8010181310031042  0.1990393533159120
  0.7946173195639727  0.7950367547091470  0.3998049948061266
  0.7995907681121699  0.8001795232860585  0.6011707226592576
  0.7995855459551715  0.8054437374726421  0.7998007868094921
  0.0002661392127761  0.0018779452414817  0.1982015393917480
  0.9994244542377109  0.3960321589303756  0.9994148163338864
  0.2008145013326924  0.1995850677943645  0.5998164586773397
  0.2003070895460993  0.3989065495570001  0.6003253220307144
  0.1992512409177969  0.3995434449548365  0.7994961074649208
  0.2015844931949635  0.8001557295515085  0.6006290828816099
  0.4000472053377523  0.1994120379522341  0.1997605000014021
  0.3992887390815256  0.6000321075402294  0.2015006884526221
  0.7999815962305451  0.1992620035382546  0.7997803935640337
  0.8119623892353787  0.3988870576964650  0.2068386670834789
  0.8004437089820768  0.5994612952932777  0.4003726148168516
