Zr Ti V  Cr W 
 1.0000000000000000
    14.8912125845854497    0.1612410182211143   -0.1060637259544204
     0.1615562868674391   15.0893841897376362    0.1126909985407221
    -0.1057734349037872    0.1120697172515660   14.9347292871240001
 Zr  Ti  V   Cr  W  
   3   4 108   7   2
Selective dynamics
Cartesian
  0.2788782185031863  3.3075087382882655 15.0375340310501695   F   F   F
  9.0261080431748670  6.0165634678740796  5.8601580321678313   F   F   F
  9.1746672047302535  9.4976329680509650 11.9592587467423179   F   F   F
  0.2463730570497533  3.8604710838683780  3.8193816222521675   F   F   F
  2.9633986416975513 15.2072279880889276  8.1064415838137798   F   F   F
 12.3933065122265198  2.5398442560956127  9.1900409118501027   F   F   F
 11.7622717895468973 11.9995739390212943  6.3532422205399044   F   F   F
 15.4150074149048280 14.6199414008126052  1.0486262714317443   F   F   F
 15.8263381410436370  0.6513299301058939  3.5492683734500909   F   F   F
 -0.4169385313505924 14.2356421015525907  6.9589807106980297   F   F   F
  0.1632919250325510 -0.2310534668995474  9.0275900991385427   F   F   F
 15.0353661717331164 15.8913247401456044 12.5985273550924237   F   F   F
 15.2403429426518393  2.9731303591657801  6.8646138736978211   F   F   F
  0.2002211680940558  2.4671359770402521  9.3041891633009559   F   F   F
  0.2375202936665316  4.0561329737879692 11.2394674259003562   F   F   F
 15.3481851302702719  7.1814738030323015 14.1568633721884947   F   F   F
  0.7162250076732615  6.1919925350296916  2.3641785306116767   F   F   F
 -0.2083462970348503  6.3486323866672478  6.1992895956539931   F   F   F
  0.6163695819069442  6.1288962148172494  8.5120467729643590   F   F   F
 15.8029475486947906  9.7722526924612065 15.1723220923607478   F   F   F
  0.3114939389725073  8.5309300934246242  3.0496071019376210   F   F   F
 -0.1774899396371988  9.4132400569104249  6.8446982278555559   F   F   F
 13.7473138394258143  8.2795164116223603  9.0738064888125276   F   F   F
 14.2559244196419623  9.9465357042829101 11.7351302901542667   F   F   F
  0.9087847454775889 12.2554103463794544 -0.5549012530685773   F   F   F
 -0.1485917894598049 11.9741334585259303  4.1943579017648727   F   F   F
 14.5149058500183195 11.9709538587390245  8.8250569064055906   F   F   F
 15.5412935206093810 12.3771519782765029 11.5643875980565767   F   F   F
  2.5814008724015896  0.2740265088771611  0.3488677337150852   F   F   F
  2.1849736157514004 15.0576209534401375  5.5467523894155031   F   F   F
  3.9066778865279455 16.0896973510043395 11.7629410683358717   F   F   F
  4.0973983585512297  3.4669514713778931 -0.5034878958585549   F   F   F
  3.2999066702455342  3.0820674460212825  2.5089157763321728   F   F   F
  3.4678977708685470  2.7850034877021321  5.4017572939566190   F   F   F
  3.4953085923660594  3.5510425034523085  8.9325667379780604   F   F   F
  2.7952106691878460  3.0067262355520397 12.4558727271721477   F   F   F
  3.1850765288909160  5.7349041218463004 -0.2258729825754377   F   F   F
  3.5551111731455904  6.8611724290027754  2.5758850941432438   F   F   F
  2.9375653269228987  5.1134848421591164  5.7049533457265102   F   F   F
  4.2321065118448606  7.0346780219099241  8.4300291603485356   F   F   F
  3.1026759440847878  6.0042101236171153 11.5723697408909452   F   F   F
  2.9892974939882109  9.6590273784772425 15.6095525815264899   F   F   F
  3.3418925658545500 10.2833895966093607  4.3494494207810277   F   F   F
  2.4274454023297056  8.1036989530093582  6.0950267661334987   F   F   F
  2.2652053502227569  9.1555708960688786  9.5390290350542610   F   F   F
  3.1006240198828574  8.7486396538264106 11.9826223790003539   F   F   F
  3.5452663868625107 12.1704023324212152 -0.8882265369129868   F   F   F
  3.3082569086665656 12.5142593042719010  2.9739589565702436   F   F   F
  2.6192565552163076 11.7359644918165795  6.8873431189136705   F   F   F
  3.6267050454624328 11.5773314823825846  9.2856258524533644   F   F   F
  2.9653678208696923 13.3810113071386514 11.3376274437506783   F   F   F
  6.6205500965579391 14.2819975672312545  3.1225649741559485   F   F   F
  5.8785258758786378  0.9729437480936473  6.0783448602153651   F   F   F
  5.9523322220721067 -0.6576926662640026  9.3817696137641544   F   F   F
  5.3145899557147258  0.4362264284923782 12.9158881294968353   F   F   F
  6.3275957601840034  3.5926826951004158 14.5524216785620411   F   F   F
  5.3443371829485651  2.7582132596461379  2.9530717853551560   F   F   F
  5.4917645114667026  2.3200998288692873  9.6619250645835741   F   F   F
  7.0668890757462828  2.4301548898321568 11.2202832144023414   F   F   F
  5.6083655600273206  7.3268220556840413 14.5956569605115778   F   F   F
  5.2940472294871466  5.7366049701880399  2.2655471852071472   F   F   F
  5.2908999974330513  5.4360274237332122  5.6244837421660714   F   F   F
  6.3320703366886546  5.9405378223847158  8.4601590404574338   F   F   F
  5.1223599437365319  5.4847222154695210 11.6497988354893902   F   F   F
  6.0174736853835409  9.8221628642944747 14.1376538170753658   F   F   F
  6.3987040150834860  9.4156014288334013  2.6962583585993980   F   F   F
  5.9423284664246321  7.7079548046974979  5.2622236389855308   F   F   F
  6.4605214145070642  8.9163189344588414  9.1675957846336793   F   F   F
  5.8158435009859133  8.5351794417124225 11.3368288578671041   F   F   F
  5.3490950980975258 12.4321600630812377  0.5927977979120749   F   F   F
  5.9198724594882908 11.6146151341489965  4.1556916399796595   F   F   F
  5.6148460672162868 13.7380930656066234  5.7936406687871491   F   F   F
  5.9238045090810019 12.6767901794530982  8.3136020289148647   F   F   F
  6.2517820860334057 11.9151743790018614 12.0280221439439714   F   F   F
  7.9078073106360334 15.3589327265383329  0.9679375755754329   F   F   F
  9.4081501974888653 -0.0492250005104808  5.5425709895994641   F   F   F
  9.0771686693328295  0.7711211244470610  8.2428422943846211   F   F   F
  9.6143584055459836 15.9302178675831474 10.9428176590676038   F   F   F
  8.7791227286682307  3.0922975764269025 -0.2321746979248399   F   F   F
  9.1232373261897877  2.5625847681669702  2.1548452799252953   F   F   F
  8.0399777484210375  2.7175953163932070  4.6924804166805378   F   F   F
  9.0562205379308924  3.2793936952369207  8.1831307725448195   F   F   F
  7.3175887414862606  5.7021211780888752  2.4866343034558094   F   F   F
  8.3991129292092719  6.6887019993595755  9.6278292468023299   F   F   F
  9.0615091473533091  5.6444615694417655 11.9878862946780593   F   F   F
  8.9395589523323835  8.3738669610661329  0.6291481972618533   F   F   F
  8.8543137085148071  9.0009417853036062  3.3571164858714595   F   F   F
  8.7072604097576232  9.8076390080626865  6.0816762505471189   F   F   F
  9.0160107138240058  8.7621179690960833  8.2190512550412382   F   F   F
  8.9228000729342458 11.9633192944321749 14.7193268484026802   F   F   F
  9.6770137429451086 11.9217863686651686  3.3562786945256824   F   F   F
  8.1425348171550915 12.8797700622297278  6.8054395205866323   F   F   F
  8.7440861341851672 11.8680026444988229  9.0830623669012702   F   F   F
  7.8747511010940121 13.0656655864309883 12.6388830438591349   F   F   F
 12.9285456287158862 15.6438846058095820 15.6287110111319443   F   F   F
 12.3964596974718493 -0.7726818787442852  3.3222170398828919   F   F   F
 12.1675051694026042  0.7880881828306897  5.7403385829961762   F   F   F
 11.4305265155290812 14.3018498416767272  9.2329625191390310   F   F   F
 12.2857389260979151 14.7655847042276172 11.8023063314247150   F   F   F
 11.5740412866985753  2.8987551158621101  0.1370357369195696   F   F   F
 12.7718578870788306  2.7378440206066474  2.7364997970729483   F   F   F
 11.8778296889353463  3.5767718769536230  5.5425383128930985   F   F   F
 12.9890173730037795  5.4548338178941425 -0.4205680231923297   F   F   F
 11.0445743220433119  5.9435231681209588  2.8353429419579608   F   F   F
 12.7094602711552884  6.2931693047738468  4.7950459678156880   F   F   F
 11.8080900361325138  5.8381361663159490  8.4256095066871239   F   F   F
 11.8853105547237181  6.7946887102803082 12.0078510910072431   F   F   F
 11.9024063977810304 10.0549468872555661 14.6325979106735815   F   F   F
 12.8463844901088695  9.8165227122325689  3.4066520215129765   F   F   F
 11.6996451862413018  8.3838022398700840  5.5488177157696477   F   F   F
 11.6798798084061168  9.5645513024446860  9.2110996964782039   F   F   F
 11.9183886996862149  9.4827350076973040 12.2940885795553623   F   F   F
 11.0752388079755999 13.3796238536227907  0.2513312654118849   F   F   F
 12.1870629982629222 12.0947620801578424  2.4961650431339875   F   F   F
 11.4938035829683063 12.3255131493521475 11.5831411351430518   F   F   F
 -0.5741326494604718  5.9930552586069821 12.2377306691640229   F   F   F
 -0.2895967269771677 11.6392995471182026  6.5649525265389981   F   F   F
  6.1365329610521915  3.4003828496455659  5.8806077985066851   F   F   F
  8.6679024472648418 15.7156467585403679  3.4253436880340113   F   F   F
  9.1054144493824776  3.1259179320567339 12.0174347251860727   F   F   F
  7.9337108037359467  6.6847420054803584 -1.0335139610834474   F   F   F
 11.6115311418570144 11.9862540876630543  8.9730783442329649   F   F   F
  3.9274157251048405  0.2798746760986225  3.6150545392464859   F   F   F
  4.9183132575113069  0.7858310350858592  1.1158785836671239   F   F   F
