Zr Ti V  Cr W 
 1.0000000000000000
    12.2882735461728885    0.0000000000000000   -4.3445607757035454
    -6.1441367710433559   10.6419570608175889   -4.3445607757035454
     0.0000000000000000    0.0000000000000000   13.0336823299999995
 Zr  Ti  V   Cr  W  
  10   9  92   4   9
Direct
  0.9882104552927888  0.1979368639374131  0.5970615628070984
  0.9962418507865380  0.4167915200524430  0.8054039195386599
  0.0066674863515714  0.6084762424822170  0.0148364184622660
  0.1987151437007456  0.0064426714758748  0.3940030163889113
  0.1961885825564153  0.1936704473345479  0.7892614011869783
  0.1976595500238480  0.7918984162948917  0.3994482940665032
  0.3987441416054281  0.1967241104503544  0.3906611312177818
  0.7976373344232957  0.1982136210310460  0.2020818449049058
  0.8016446062735894  0.5992251327895919  0.2020261734607492
  0.8267116029326865  0.7999277301826270  0.7999463339907733
  0.9986958371463528  0.2018171112674570  0.1944912915331025
  0.3805777977783386  0.1733994004036923  0.1610038197477488
  0.4016091828867899  0.1999068696774558  0.6174640884155833
  0.3972982656014306  0.4016830185599014  0.5969622457463291
  0.5969119351527258  0.3968646902753919  0.3894917005686561
  0.6118605776800335  0.4109965471902488  0.6104023740362360
  0.5955654051349787  0.6004092665492338  0.2064140236663801
  0.6056187241668821  0.8001393579499196  0.6019284238578484
  0.7903579884977247  0.6010555545174852  0.9905688010206388
  0.0003205316200867  0.0076079688537863  0.0027830102091997
  0.9939390371211331  0.9990842665667928  0.1968818499211624
  0.9915093607368145  0.0005594227912751  0.3980824520786063
  0.9840769472380537  0.9833166736928450  0.5936127791664940
  0.9960857117460434  0.0009083696234020  0.7963581142902703
  0.9948153421345434  0.2005014189915210  0.9932654903533989
  0.9968402461435527  0.2066862315721928  0.3992642061780952
  0.9902434190972605  0.1966833046180867  0.8076265485706419
  0.9981981051697134  0.3934314690250946  0.0073814843676895
  0.9987086927239311  0.4031229969399623  0.2028954988903221
  0.9956850117300059  0.4088406477199173  0.5918512632585132
  0.9980407928683701  0.5811989569366249  0.2029728636274192
  0.9971355285613246  0.5935939607416171  0.4055921974145127
  0.9993645214196580  0.6016939361503473  0.6027440006462719
  0.0164043574156567  0.6420352052790562  0.8064025860046911
  0.0058571584578814  0.8102435617608316  0.0095624823270374
  0.9968283068310413  0.8035450672576022  0.1997926630042531
  0.0030005997985772  0.8009435412856978  0.6187633932191182
  0.1051113686750206  0.9002472901109727  0.9032017496281335
  0.1889813937071566  0.9890028573073840  0.1696899079439015
  0.2001929412205858  0.9952581970753814  0.6059278461239717
  0.2079665494012952  0.9987203544824435  0.8108795602034924
  0.1830362550359070  0.2090898752374827  0.3942599521536978
  0.1956143329684189  0.2036629037776160  0.5881179485156265
  0.2015497241185865  0.4037821642708273  0.0022693809194511
  0.1994603198451957  0.4014434667208452  0.1967411826297396
  0.2008840948834741  0.4066767786041134  0.4036429019767925
  0.1974559062485132  0.4033441486721465  0.6009681483453009
  0.2181764843049872  0.6150891517615554  0.0111716122889846
  0.2018523764005605  0.5941465888916911  0.1979338660155164
  0.2011458715220461  0.5887531106831991  0.3975609326080812
  0.2037858679326686  0.6077315211446667  0.8045219429723371
  0.2139450112308758  0.8089966296613977  0.1995898782744703
  0.2002018589008271  0.8029659724548084  0.6109728609018620
  0.2047670629413566  0.8045347064647078  0.8061434343338474
  0.4048929607389390  0.0024074089858600  0.9970521890207047
  0.4005663305135282  0.9880013146270950  0.1896596362773503
  0.4074440463411194  0.9913371117553940  0.3966800246512979
  0.4105527717160631  0.0004157248478927  0.6157573894102804
  0.4022421566356639  0.9989683869921515  0.8018104926760801
  0.4103660565451491  0.1984502435605869  0.8117931553738419
  0.4039358796127483  0.4020938492232570  0.0020214044557871
  0.4007747354477917  0.4021016504084945  0.1957740855105644
  0.3963094803631603  0.4073647076426145  0.3935875308296631
  0.4051717070320575  0.4008507074297213  0.8041084824503834
  0.4055634445881482  0.6042957341264628  0.0047809639288216
  0.3964865175094976  0.5957200836740916  0.1973283371976894
  0.3988001672763882  0.5946338874820353  0.3965231281850237
  0.4084123120580844  0.6067004233342621  0.6004583098431817
  0.4038590815253662  0.8029500815049998  0.0022882446434008
  0.4047488882449819  0.7980241868391168  0.1984088602065912
  0.4036481841859360  0.8006497206930109  0.6035589400616450
  0.5989412006582960  0.9948728958859852  0.9968738135365756
  0.5973375502648276  0.9952805583817241  0.1959531896358321
  0.5988168713408707  0.9966114776338507  0.3955106262822752
  0.6027110257753425  0.9993964327830117  0.6037672134994810
  0.6035085936599445  0.0015229679435291  0.8026374487912644
  0.5989664148138131  0.1960824852558695  0.9969191529995626
  0.5939122467269115  0.1974261728487806  0.1968380978055271
  0.6033364342191427  0.1923128491662186  0.3906554891442957
  0.5948745439420836  0.3956105088409553  0.9973225870894123
  0.5940301042968665  0.3898218855345584  0.1900251639226004
  0.5983748732259108  0.3987079185160105  0.8067099277747256
  0.5961688290105064  0.6014195805561213  0.9998046997433812
  0.5986650678181763  0.6013275394860866  0.4039774335782891
  0.5963042804774569  0.5927663571271774  0.5910359889388405
  0.6080187644504055  0.6029034738237451  0.8035514920951035
  0.6042204407012802  0.8025775244783121  0.0028307239479601
  0.6005850090741384  0.8015631313139194  0.1989305290633535
  0.6021086208803883  0.7976847678116626  0.3974144310417602
  0.6054643027421419  0.8032534832787092  0.8039417568875921
  0.7932954913668369  0.9936062498842649  0.9925414251494474
  0.7966518402942964  0.9926650072698554  0.2003520929758772
  0.7870232063745458  0.9907995558348507  0.3927072686498334
  0.7944420803540074  0.9976778458214820  0.6009076710523653
  0.8023384639949264  0.0062638732562690  0.8031027267917796
  0.7981897354260220  0.1960204594141077  0.9939524020670309
  0.7911017917843970  0.1986841269033388  0.4028571268916483
  0.7842843639178808  0.1954393363479127  0.5953734779687261
  0.7959458751167285  0.1993085439533936  0.8019063512518941
  0.7914916835796529  0.3869347071758398  0.9979333395539867
  0.7948508175197697  0.3951698493742877  0.1985465156487942
  0.8006717286387456  0.4017569908394533  0.3982742101771852
  0.7995524250124578  0.4008465250710030  0.5941598804792774
  0.7846644545330040  0.3931764596021762  0.7989289636163748
  0.7974912124480964  0.5973212093242480  0.4088054173451052
  0.8031256853404999  0.5979009118214346  0.5975926945537327
  0.8126589595317801  0.5955695075816406  0.7990978760362337
  0.8013581054623511  0.8078350715443072  0.0069826260616331
  0.7998122631064143  0.8088270089634252  0.2016908420184510
  0.8007692908713324  0.8025748944931570  0.4062639509982833
  0.8003256562542382  0.7986500225027390  0.5909878763210914
  0.0018402559609054  0.4050969471102201  0.4061944233769076
  0.2143523708477265  0.8090323058438369  0.0064411784052405
  0.4046549990040708  0.1993905766103325  0.9927622040918130
  0.5993628276248516  0.1956768074705311  0.8048148909400994
  0.9995124931074817  0.8044569546914319  0.4126434496819394
  0.1972812161823744  0.1960312977207692  0.9957070640084388
  0.1983827217415139  0.2023147017870661  0.1980017603196232
  0.2076348879615791  0.4133382130215304  0.8071841657273671
  0.2000202833522884  0.6014675779353303  0.5993684239341219
  0.4076837616017998  0.6021487501363674  0.8016281434873083
  0.4075146760262719  0.7963450235496174  0.4007985953099413
  0.4060484831413670  0.8047110879211812  0.8035118669051460
  0.5974484399633819  0.1938330758796340  0.5988053037231111
