Zr Ti V  W 
 1.0000000000000000
    15.3687751858679373   -0.0034047973547748   -0.0004629384474201
    -0.0034058626285429   15.3762737440467472   -0.0028872120149207
    -0.0004620936853672   -0.0028876454386987   15.3933118945991367
 Zr  Ti  V   W  
   2   2 106  14
Direct
  0.7998095976960107  0.9936973701619130  0.7562626599383792
  0.8166640431536596  0.3883701087393195  0.0156132805113616
  0.1961565295582504  0.4050475028999605  0.3931706625305907
  0.1991671394480916  0.7939118148201666  0.4063536601308967
  0.9994701756692430  0.0027502627340559  0.0007508212857197
  0.0003332508593414  0.9998939162041621  0.2014877568772258
  0.0017038487835965  0.0018129248356600  0.6003343165350346
  0.0023245964128370  0.0008324059657319  0.8003332985969249
  0.9965489925002680  0.2024387791073421  0.0008536114474504
  0.0008003582438054  0.1995352425180497  0.2010864149007505
  0.9986998032832629  0.1992287665477089  0.3999285448346127
  0.9997425530095830  0.2000337425628042  0.5988411538717227
  0.9985696604802348  0.1995631200569578  0.8011689610732456
  0.0127396227754726  0.3999729391568425  0.9981509301909393
  0.9960104396948453  0.4006685159931436  0.1989428844338979
  0.9967686463154278  0.3986296189917165  0.4008972233037582
  0.0038898381231621  0.3994894645045710  0.6009681405142484
  0.9967916299297984  0.4012823802382253  0.8016402497774827
  0.9995432748935743  0.5991620059247340  0.0009391852836822
  0.0044758925979507  0.6019371290132290  0.2009043770834310
  0.0017178964185299  0.6011297588029588  0.3999010917801697
  0.9992771307397192  0.5986346596930407  0.5984015055123616
  0.9992318256773829  0.6008113784427133  0.7981833500845487
  0.9997646615080865  0.8015998649425473  0.0018095781153040
  0.9983773931828115  0.8006018922535408  0.1993606057843738
  0.9963062981792322  0.8016896504303805  0.4004187755117692
  0.9994335149498820  0.8001744699216098  0.5992907298916899
  0.9997113645133174  0.8004751931823275  0.8027986744148268
  0.1993523709169214  0.0032619663079654  0.0003287254932426
  0.1994785006420847  0.9971501972471594  0.2009067844655705
  0.1990601115077808  0.0004148722167441  0.4008411642018773
  0.1991980852844366  0.0010297358254652  0.5994534613776111
  0.1997410968753180  0.9957287310511276  0.8001473095310322
  0.2006792891718011  0.2035475849769202  0.0001531957108176
  0.2000603650489890  0.2015326811075464  0.2001531989074180
  0.1989099080581373  0.1995286430215573  0.3989046697116881
  0.2023259035485705  0.2061055790431749  0.6007285821164133
  0.1984639343085552  0.1990173278328627  0.8016818037685658
  0.1997353427164790  0.4054329306656749  0.1923264782796540
  0.2000581495007638  0.4038964085252910  0.8023821530651828
  0.1998256155992545  0.5958419788856789  0.0032134547303617
  0.2007816506425181  0.5954769697298338  0.5947347390457366
  0.1993987370295442  0.6047263514132815  0.7995585651914950
  0.1991574690448856  0.7995767334094627  0.9962396692322318
  0.2040920517261379  0.7946068559707391  0.1946726974203299
  0.1997461887793466  0.7983236670221175  0.6067365028949927
  0.3991326234861560  0.0020738410351526  0.0005726837498237
  0.3979492775763165  0.9956962978164137  0.2013029962784796
  0.4037804191065404  0.0000332840396586  0.4001706849046635
  0.3990309969934944  0.0034912147424674  0.5986291616112674
  0.3995592957119690  0.9985377001215378  0.7990527759745051
  0.4030238422999509  0.1978245487124740  0.0011286068687820
  0.3981939174764837  0.1998195654758287  0.2021631274917078
  0.3992107797891608  0.1998274310979322  0.4026879021856162
  0.3982980791366248  0.1976058797365191  0.7955847105913632
  0.3983229652320792  0.3983238424611139  0.9998209172878963
  0.4021778737826912  0.4009924232924950  0.2009290383326521
  0.4023093343129543  0.3992718844924020  0.3987634344389266
  0.3947356033606074  0.3957994927658669  0.5997845008266278
  0.4029242584015879  0.4017342405667936  0.8004490082297590
  0.4005774736293542  0.5995783269362911  0.9991495714688163
  0.3962961271330901  0.6035923672831989  0.2006349019011276
  0.3957934983510493  0.6009569543039220  0.3997321798751765
  0.4017419514255793  0.6004448291932358  0.5966760379437851
  0.3992225994991767  0.6024345281646359  0.7990960147472137
  0.4010062941637220  0.8018046707026517  0.0021506640841304
  0.4007832335747701  0.8015882694098240  0.3957615265460013
  0.3985688023720265  0.8014376396934687  0.5994715962291720
  0.3966533690067395  0.8008505832912470  0.8015243615986852
  0.6004706688666254  0.0046293473505108  0.9990931392387401
  0.6007490245367899  0.9967971285473154  0.2051247511509024
  0.5986871835049055  0.9998924778334166  0.5983304879144604
  0.5966313410933249  0.9979133554804134  0.7989284358308421
  0.5975197409294671  0.1993070184847903  0.1961585941344252
  0.5996577901818116  0.1969226795253086  0.3987971884579138
  0.5946493972714962  0.2017941041528324  0.5999513265579992
  0.5979273243664780  0.2061262462447674  0.8058567868683087
  0.5988129701544863  0.3960778329141614  0.9958306727847954
  0.6025966183435563  0.4034375568059955  0.1987917140450425
  0.5995216193675257  0.3989710322198095  0.3997444563642861
  0.5985165973202963  0.4028224883931463  0.6042340634255801
  0.5996585529102821  0.5971438909509091  0.9999260650746059
  0.5977927590468060  0.6033675262359255  0.2013501179842747
  0.5995369346564853  0.5995905150253898  0.4034649200688518
  0.5988332466027413  0.5975648458068804  0.7952532675760803
  0.5996962012630811  0.8005998939795210  0.0038202396359093
  0.6003659531081667  0.8032238270890326  0.3967247705056741
  0.5976185687650876  0.7952075853518881  0.5994058083169428
  0.6019947482366234  0.7990607107424994  0.8038011631928080
  0.8011420775728421  0.9980130064149724  0.9938530922841045
  0.8015911518938315  0.9982754449650735  0.1980796625859373
  0.7977970645132408  0.0003625857406739  0.3969737531176440
  0.9970901630074144  0.9999871904230738  0.4025014406289391
  0.7946426122326206  0.1894269010376979  0.9986078787367985
  0.7992786670676933  0.2043727786261878  0.1988508485451472
  0.7986671353349200  0.1974553575479583  0.4030377318694939
  0.7984580004987166  0.1990308768855697  0.6022432802347252
  0.7986665699938962  0.2007691321001628  0.8002424489727650
  0.7995878368380307  0.3987751674884420  0.4023131019335257
  0.8008211677242427  0.3984303728203629  0.6004822487262321
  0.7970795410820480  0.4018202145673383  0.8011429128581929
  0.8009444204623842  0.5992464810951045  0.9995074429109266
  0.8005619524443671  0.5978670439798830  0.2001750650549860
  0.8014585875098909  0.6005423173146801  0.3995727874060992
  0.7964779061319494  0.5987644404568228  0.5970897052314473
  0.8003478394765750  0.6016043080518736  0.7995461515604456
  0.7995037624684896  0.8000418130385730  0.9953430610846731
  0.7955536365414372  0.7970831029675882  0.1980504538943771
  0.8001881968597840  0.8010908667557700  0.4026236932327950
  0.7990787247950549  0.7969040272497768  0.6037445255874924
  0.2044494664646722  0.3997356724859902  0.9978382166506780
  0.2001580588721480  0.4013954233822385  0.6080662000307165
  0.2004828076258762  0.6001712244372490  0.2020036075689678
  0.1988137695776109  0.5995255311180302  0.3964927879941080
  0.1986532907206651  0.7987758853058251  0.8012995419202972
  0.3978019800345395  0.1994819484846490  0.5997375586646624
  0.4021819612742100  0.7997082620469133  0.1982772317734296
  0.6033957294605508  0.0002018006997035  0.4026292948998421
  0.5998010793571288  0.2012216179370923  0.0007146227475752
  0.6003347159349309  0.4022204664412508  0.8011518784278399
  0.5968840540137454  0.5978655214285833  0.5980323436346938
  0.5975314391419395  0.7988021530387210  0.1992861927877940
  0.7988451454815354  0.4023305700378247  0.2117744688652949
  0.8006392996257357  0.7949548557788645  0.8018930374126105
