Zr Ti V  W 
 1.0000000000000000
    15.4529206753737594   -0.0089219929548298    0.0139355642811389
    -0.0089343212131673   15.4627799901828133    0.0191221628419376
     0.0139437596884260    0.0191164033920139   15.4587375740632638
 Zr  Ti  V   W  
   8   6 108   2
Direct
  0.9915502971016261  0.3878988666572777  0.3664934596042184
  0.9981425180000212  0.3876664164525164  0.8099585808762055
  0.0322417111437595  0.5967542013098937  0.0032210182905341
  0.2440219982124284  0.5990233293644835  0.0014736268992748
  0.1991387986125797  0.7972431798019229  0.6030480709302665
  0.3996309135515308  0.2019232882110973  0.4016730907837674
  0.8158388594256067  0.0199344534674939  0.0140928774700880
  0.8067269895148548  0.3986767465234290  0.5960781551064636
  0.9845976685396507  0.1986442804792749  0.9772892274669434
  0.0062119304168097  0.2127944124823887  0.1920887560454497
  0.9971347171487406  0.1811647541623819  0.7855197875449770
  0.1918585678702525  0.1976700428766432  0.0069424374263429
  0.5900503346407894  0.4009521839579659  0.6004995426520728
  0.6125115903374461  0.5995717043072398  0.0029424840201453
  0.0132707551303654  0.9979676429682409  0.9971931406143404
  0.9974148396449121  0.9995923573975146  0.1960115860006052
  0.0001563061716950  0.9979853196118553  0.3985979719220769
  0.0043718739803069  0.9981133202800607  0.5979945538941749
  0.9992102704194226  0.9901526699933340  0.7974490002617790
  0.9977792603642341  0.1910070393196177  0.3975904816550305
  0.9992971512412749  0.1974032783973131  0.5923022705017692
  0.9978830765889988  0.3942660350010547  0.0063807671067238
  0.9978425527917897  0.4117220358387790  0.1729372823159505
  0.0095021844630162  0.3973683652666897  0.6000295877460134
  0.9980305954658951  0.6036200758849148  0.2076220409448808
  0.9980885113726133  0.5994945552267903  0.4024095652846836
  0.9993777183553980  0.5958297735922142  0.5992219633246245
  0.9961819219681800  0.5996409337144422  0.7975304155451569
  0.9983996898593668  0.8023748006134924  0.0010547258403140
  0.9986589703305101  0.7999259678182163  0.1982120886420781
  0.9981966069438952  0.7989348148846097  0.3990589445361083
  0.9933757682353037  0.8011052065176939  0.6002153240497052
  0.9970772430489289  0.7960769675689019  0.8014222963320599
  0.2028594199166147  0.9989053527129280  0.0024986786516052
  0.1991488491846243  0.0004900586343231  0.2008775215673412
  0.1990383415695541  0.0001337915893298  0.3985651434430993
  0.2002877872273261  0.0030953862158278  0.5998942580707245
  0.1986332349549885  0.9996993584925233  0.8030993101508384
  0.2011564057564149  0.1983462872805110  0.2030387117955598
  0.1943375307574469  0.2000310376691149  0.4017891566217967
  0.1993712919810788  0.2001187517291291  0.6006807656739949
  0.1983090517107652  0.1978422847820427  0.7981541917619026
  0.1996155998793579  0.3979386607088821  0.0018079077210198
  0.1948538210196525  0.3991408043973141  0.2043128688874701
  0.2001445785416780  0.3988231703112556  0.4015903407522287
  0.2013092545610468  0.3973718293104207  0.6025004966232460
  0.2024333216934509  0.3967139654021888  0.8033881132912332
  0.1968228067834261  0.6008603005383960  0.2035760012753621
  0.1987786469399479  0.5975585348463762  0.4029189982157593
  0.2002616274820289  0.5932841837154151  0.6016893980832273
  0.1931405353532939  0.5965882144389454  0.8011472697181951
  0.1968621242245485  0.7986981769254570  0.0030007109784940
  0.1988106446313070  0.8006619773118249  0.2013093610076476
  0.1987879103759071  0.7994148395262278  0.3971243375037402
  0.1987337484721968  0.7982980726349066  0.8068792846725412
  0.3991636801049596  0.0006243627348692  0.0010459878242564
  0.4004011348396970  0.9997702189610174  0.1993710098940147
  0.3987679676222911  0.9965743621708669  0.3997818505977617
  0.3989884501661733  0.9994682951019646  0.6029614845131219
  0.3977610679609453  0.9985677540557236  0.8035449840824969
  0.3979826894800615  0.2048519635925800  0.0001088861941141
  0.3992999766589143  0.2005643608265749  0.1963488198951579
  0.3990758500986089  0.2010386493898699  0.6060698351482107
  0.3988303117240009  0.1986967035299859  0.8028050338017186
  0.3953908445124780  0.4013962131929091  0.1955068969252326
  0.3969854479183657  0.4054364231227555  0.3967519731332816
  0.3964263259211973  0.4004191865755130  0.6050619665077179
  0.3971962188174941  0.4000060508672534  0.8076848801297414
  0.4303818524178486  0.5946051678511767  0.0013409423763667
  0.3991111296092144  0.6008562904036027  0.2017266921452117
  0.3989559899816090  0.6005418934723142  0.4020989600671345
  0.3994380040142232  0.5982293549080818  0.6026967211087227
  0.3992557143377318  0.5996785827939052  0.8023635995287314
  0.3990971794927365  0.7962420611192879  0.0020721126090472
  0.3993566621622735  0.8003932328835606  0.2000051136698650
  0.3999190087778770  0.7982832727764883  0.4003531994881732
  0.4034954688400386  0.7980824901328273  0.6027601817397996
  0.3987771257999521  0.7987277808000324  0.8032021899444415
  0.5987061161855277  0.0018685785904422  0.0009555992339568
  0.6032364297509846  0.0017482012996783  0.2001646302041816
  0.6004409562810002  0.0002355139566889  0.4025582978399163
  0.5962012254987819  0.9994780132845145  0.6014058182087541
  0.6013740154855806  0.9998767170861677  0.8009192283041274
  0.5962406033826739  0.2000876254199049  0.9987183368631174
  0.5986487060534293  0.2015123688297462  0.2010472502921848
  0.6041777237711985  0.2006330461605939  0.4002915478108527
  0.6016568373039461  0.1966555884334919  0.6010548967884185
  0.5982421549444999  0.1986521139360360  0.7990561813650436
  0.5935402310444065  0.3968814054210955  0.0023138485850485
  0.5971393911076840  0.4011183794830824  0.1992782763693411
  0.5951405291118131  0.4003827987004199  0.3969428775995204
  0.5957217373957947  0.3999332770931666  0.8039838461210694
  0.6008381699748730  0.6019872062456848  0.2054271320131806
  0.5990721524707338  0.6010426670097989  0.4022462028361806
  0.5993818774702024  0.6019352444988475  0.6005768492168351
  0.5999852014232048  0.6008666704365510  0.7972732817828758
  0.5997009696643787  0.8041909524206269  0.0010001409993796
  0.5984646233750158  0.8013335058208603  0.2004779652029083
  0.5991440698723606  0.8006000052012210  0.4009889616419924
  0.6005718279846926  0.8023679639367517  0.6011908163389005
  0.5983812902404717  0.7999103198874866  0.8025015082752373
  0.8012274672833091  0.0029962472510473  0.3987671595762727
  0.7980760698699676  0.8017365520286941  0.4015041123346841
  0.8006978856489709  0.0010148783277235  0.8032698413655741
  0.7899400032433990  0.2145833091358064  0.9967054003836180
  0.7968536865691074  0.1989545610920835  0.1940699638401920
  0.8022317021115983  0.2038342970914095  0.3973471679478521
  0.8006469216073624  0.1981270794309482  0.5976173763162038
  0.7943930774901852  0.1995707880241334  0.7971680100167943
  0.7957041647314986  0.4062706230141969  0.0009923619750850
  0.7985793201006885  0.4025779325193514  0.1972334818231150
  0.7892483103597302  0.4017533134593240  0.3916875908816553
  0.7912562566156636  0.4018326519313492  0.8038162556800983
  0.8083669011342544  0.6028678723230003  0.0008836061521804
  0.7992254053745457  0.6045740851114385  0.2010682753770253
  0.7985842320756441  0.5999469897093492  0.4012913233410738
  0.7998687909402430  0.6035665702336466  0.6003422394057047
  0.7989118825949763  0.5999150643719843  0.8004420169582335
  0.8000303337800779  0.8021734011730836  0.0000763553879826
  0.7984140561846195  0.8059384556462224  0.1991974681269607
  0.7984152004486736  0.7993333699939068  0.6015953843051248
  0.7971461463852778  0.8030680575991783  0.8017150546125861
  0.3951337965125142  0.4018886992445854  0.0023918679623593
  0.8005495425927298  0.0028893137161403  0.2120055552845003
