Zr Ti V  Cr W 
 1.0000000000000000
    12.5179340813293241    0.0125890007873158   -4.4244394758852508
    -6.2457743738360572   10.7720259210307834   -4.4181022700226027
    -0.0103369653194006   -0.0101469049431575   13.2440474577854825
 Zr  Ti  V   Cr  W  
   3  13  94   2  12
Direct
  0.9925710209344897  0.1864191956654457  0.9889872949895385
  0.9971723062824170  0.6068324240417412  0.1992420188108814
  0.1978718131724885  0.3891342741453790  0.9906840139968630
  0.9917365025512308  0.9965113087926888  0.5894694819174420
  0.0574903299376568  0.9968762629257110  0.8000515392088126
  0.9931117518452173  0.3933854961239086  0.1969490036162571
  0.0028518787020890  0.4027496712226486  0.6094394521057789
  0.0047308141928091  0.6097416852344878  0.6090771593221425
  0.2036596114149231  0.1973928907175428  0.4066821691352505
  0.2166936679908113  0.4037666894798638  0.2175190103331288
  0.3722885164040554  0.1708251619027373  0.9686525271009613
  0.3956878889757978  0.7973987777768201  0.9933177357578975
  0.5948077632228242  0.0075739197404664  0.1992486399012451
  0.5962226401929325  0.3977689653987955  0.5997757262450584
  0.5997121152466179  0.7982018536649371  0.1985023861415005
  0.7932867084212334  0.6045907311121714  0.2065778875125918
  0.0030509529809535  0.9853490230344587  0.9999300417867577
  0.9979438866683336  0.9952583872769670  0.1989864503594538
  0.0012293864938529  0.0001682853999947  0.3969422932956393
  0.9960356874478328  0.2006413190637098  0.4016515444696429
  0.0020682710277440  0.1995110632155018  0.5980410523927230
  0.9857117872829546  0.1941123008700567  0.7741187969658431
  0.9881292260471914  0.4045796555095441  0.9823728923829915
  0.9991044803659483  0.4069406261933760  0.4032693668916923
  0.9947845247454020  0.6039766181563541  0.9895740551074816
  0.9954246688494148  0.5999262971603631  0.4047910551652186
  0.9946502738860037  0.5961712291606212  0.8005747744250242
  0.9999275152470376  0.7997908061731183  0.0009253951591721
  0.9999799071981105  0.8132852335790739  0.2048489914774941
  0.0044008609788361  0.8079494569783097  0.4105634276995822
  0.9996379990672724  0.7995846728980329  0.5995229557946409
  0.9932984528092039  0.7921869742194692  0.7987930231248643
  0.2026445941319610  0.9946913371941606  0.0035965003890849
  0.2026392578576846  0.9988310065896846  0.2041853754863562
  0.2019211753358653  0.9950697237087054  0.4050969204351678
  0.2038022396222975  0.0007533505963025  0.6307516963626478
  0.2132667308043723  0.1938699187273283  0.0229286265713298
  0.2055533212914080  0.1905196796902646  0.2022422169219398
  0.2002844841700446  0.1961279592806377  0.6051550299564854
  0.2037563880087905  0.2017785750385115  0.7934845369866705
  0.2057786784798590  0.4043479358829940  0.6025598467218205
  0.1996089298033290  0.4017373078649734  0.7894353384344750
  0.2053487117261200  0.6069251878685659  0.4069071550640767
  0.2057753765926828  0.6070344634650524  0.6036369244096734
  0.2024091023415962  0.6056787434479894  0.7976236474131033
  0.1957533782768957  0.8024713313018820  0.9993068076209383
  0.2043097958269801  0.8076300684478955  0.2050987916281984
  0.2082913420847615  0.8112022852771376  0.4125050375752660
  0.1984706561685645  0.7963522820980938  0.5968755007666692
  0.2043633776394351  0.8363858799725413  0.8051851012858551
  0.4102095995991101  0.0064722408541157  0.0089898743751196
  0.3945080148251274  0.9994324456566257  0.2031331393706886
  0.3999589525316681  0.0012400045206217  0.4035785716603834
  0.3973331444730906  0.0004298696290930  0.6002680010652084
  0.3963872084143689  0.9973109837753182  0.7975646756833227
  0.4034306010238292  0.1939325773683895  0.2006527882336639
  0.4005746685107312  0.1916384059308742  0.3998667092517134
  0.3977593760805235  0.1979870787158977  0.5991280061807320
  0.4024615175235928  0.2014849985977791  0.7925968919576533
  0.4076664145966268  0.4015379137230110  0.9946458933065992
  0.4093380818543842  0.3981900851898849  0.2031802177350200
  0.4031009284620380  0.3998232807718797  0.4057448755491460
  0.4018523418253471  0.4046264682182260  0.6079781180283477
  0.3972603478833268  0.3998195751478138  0.7966538996028241
  0.3980135737317594  0.5946355175456576  0.9919812465152804
  0.4121930329781933  0.6098333033312711  0.4140439127458463
  0.4033289649441285  0.6061285504969878  0.6049803505893873
  0.4001590737379498  0.6045830192318656  0.8004873366490831
  0.4005078571448244  0.8090678594347965  0.2066941578042727
  0.4020144205309211  0.8061046578418671  0.4049416350665436
  0.3999591761224691  0.8015174976054639  0.6012921991034120
  0.3950653225661022  0.8002341234263004  0.7943933390487437
  0.5940931666565243  0.9951164106525984  0.9922039926861485
  0.5955598100923475  0.0001269077608534  0.4024109597518131
  0.5966138575738795  0.9988548763300050  0.5955317509078758
  0.5977596154972128  0.1955426518189206  0.0000441470787462
  0.5975122075635769  0.1992123081210932  0.3993194016244513
  0.5943914798940165  0.1951770669998134  0.5951621921921393
  0.5953223206935270  0.1969361195526775  0.7940451051493957
  0.6000667185288779  0.3938276795052750  0.1992935742287626
  0.5978780083582955  0.3989704456813526  0.8004768802779718
  0.5995761241420914  0.6023047133489575  0.9997296748617516
  0.5943456739588773  0.5955499226596445  0.1998099874125553
  0.6025950188072406  0.6002504264535883  0.4033391548358080
  0.6018876787031739  0.6056568936231695  0.6018223091719681
  0.6020912002147498  0.8019315403351188  0.9951342035338923
  0.6027854501357158  0.8028532920135485  0.4050339595423750
  0.6012974342607474  0.7999084465873499  0.5995679143154419
  0.6004365600443144  0.8002173944646778  0.7996328535963239
  0.7957904706527948  0.9926346283888270  0.9948082451176941
  0.7998749390723509  0.0028226717945175  0.4012197117311912
  0.7909330978616772  0.9975719975327278  0.5911125596483389
  0.7885396863914710  0.9847701673100685  0.7836536093952278
  0.7852309702202677  0.1921592075926463  0.9922683725187056
  0.7935458638120060  0.1996508813199480  0.1980267856761290
  0.7956277841244227  0.2024002556585665  0.5966217069536716
  0.7866513708190518  0.3916884404622300  0.9885295163019036
  0.7945304390450952  0.3956314165924078  0.2040667510905144
  0.7956753679137454  0.3971926051892605  0.3976499839007142
  0.7974038050852490  0.4028037968850177  0.6016991093648789
  0.7941361035032800  0.4003466571325069  0.7939878962861837
  0.7971595863694204  0.6026418106391930  0.9951053564289030
  0.8016945221852089  0.6014374114539184  0.4076476670226740
  0.7959977143848233  0.6011662057363134  0.6009588051622790
  0.8001379096669163  0.6024222925537868  0.7991398385036086
  0.7987042328098199  0.7984033122030779  0.9975427515576103
  0.8032999405201000  0.8044843680524040  0.2005139388297365
  0.7948782230835540  0.7937778217128240  0.3946034572373467
  0.8004812194454648  0.7973044685355326  0.5975973374210061
  0.8015549306041628  0.8000369262918208  0.7984646098846171
  0.9953141819363280  0.4023320076215275  0.7994539794768843
  0.5956493860053463  0.2010192014080595  0.1948687087808576
  0.0003121636764318  0.1951722934934280  0.2057610603753650
  0.2028825619753283  0.4055246632112828  0.4092854355838838
  0.1993430910188898  0.6062849359642838  0.9958027028232397
  0.2059228362469342  0.6056167217775690  0.2027920490236020
  0.4083478488233456  0.6064700478934474  0.2064730126135364
  0.5958448296559398  0.9966020041297896  0.7963644957675887
  0.5960054793643296  0.3955374928240936  0.9964411657130741
  0.5994035527554467  0.3994314723333369  0.3990218017138427
  0.5996409446669430  0.6004742751802283  0.7998584416824348
  0.7962880621681501  0.9963660848573540  0.1969433477079627
  0.7986355630090378  0.2029223300338143  0.4021617515750230
  0.7935076600407912  0.1976300449266082  0.7917916672068889
