Zr Ti V  Cr W 
 1.0000000000000000
    15.4219977637485020   -0.0153525296692176    0.0018800521315798
    -0.0153399539639544   15.4042384266248558    0.0149563524432868
     0.0018828811446291    0.0149768248118706   15.4308175709018371
 Zr  Ti  V   Cr  W  
   2   1 100  10  11
Direct
  0.6111250203073112  0.9820082032888037  0.7815671542396059
  0.8059681496807056  0.4048764309992789  0.2030916226607760
  0.5974011656891476  0.4023992073106127  0.1972372211239774
  0.9995120941870752  0.0020427453245442  0.0004908764743227
  0.0001975524094083  0.0005533485060337  0.6010655850188842
  0.0016142782252375  0.0004374447640034  0.8000237845025062
  0.0047626598370862  0.1994659407811221  0.0011067273641358
  0.0009401303204282  0.2029334538547361  0.2008521252677046
  0.9969941265621778  0.1995745972021696  0.4000935043792662
  0.0015452208517270  0.1998961618100654  0.6008832691830542
  0.0018527924396314  0.3994437405406767  0.0028644019272874
  0.0010423837092135  0.3995782278696207  0.3982162194746806
  0.0012339426599163  0.4001153096848578  0.5998434360298486
  0.0000782939054858  0.4002092638427783  0.7995585181113805
  0.0039987358555313  0.6004422974284344  0.0009699812507799
  0.0017783364976732  0.5985596260645009  0.1999531849086604
  0.9995033889302968  0.5995357164629047  0.3995159463823743
  0.9989425554007332  0.5989193614547134  0.5984045650038098
  0.9998130212623031  0.5998814674375452  0.8006914432518989
  0.9980521489584032  0.8030613174896261  0.9998097039822380
  0.0000045304552035  0.7992359852200233  0.2012226113266816
  0.9986808233612789  0.7997478690731212  0.3993773948298884
  0.0017547784592355  0.8008057290449659  0.6004816422092352
  0.9946960951992196  0.8010055464069141  0.7999845804032839
  0.2002953324871810  0.0033742621707838  0.9998321819148398
  0.2011423807468171  0.9988990228280868  0.2020035957858261
  0.2006046682947629  0.0010430243319324  0.4003920188761440
  0.2009270004042558  0.9973895602454572  0.6009144167996844
  0.1997150710678911  0.9991156958291968  0.7987913816085644
  0.1999587758477653  0.1995793573698003  0.4015093490206691
  0.2006041106478073  0.1989495852063555  0.5999730984348263
  0.2009344641995587  0.3836663797598069  0.0003538975693602
  0.1994091722527759  0.4005816159548701  0.2013342849790197
  0.2000058260117610  0.3991266655719899  0.4019657277317022
  0.2003647787560644  0.4054652477652333  0.8001354924760818
  0.2039101354930734  0.6018228764381228  0.1958799190418715
  0.1994048841608484  0.5986917514382302  0.4011246472570499
  0.2007645730098090  0.6026657779709399  0.6051511501572213
  0.1970403443578167  0.8076129186644172  0.9998063962236911
  0.1991213063298639  0.8017689526932584  0.2017095282990992
  0.1983621622067245  0.7998035063797629  0.4049159371337324
  0.2037163169615624  0.7982009584903226  0.7965994288050262
  0.3995261068744184  0.9961479450535298  0.1998099811852553
  0.4007662886914668  0.0019666832735246  0.3976072613254477
  0.4043827466419204  0.0019581587715867  0.5988209134351206
  0.3981923344948327  0.0000032857143628  0.8015771340286008
  0.4010450452137040  0.1994422745036196  0.0012694067002215
  0.4021217028622771  0.2025424611974405  0.2023567431520320
  0.4025622297301826  0.2009700540795369  0.3993135835976841
  0.3996665636925374  0.2006719836615609  0.5997374334327534
  0.4016387101277493  0.2013169943012911  0.7988042352081332
  0.3985377122452755  0.3986656089652636  0.9987214853521248
  0.3965000853572463  0.4062387139739720  0.2027032844029359
  0.4002733378498362  0.3991418116709093  0.4009152564755976
  0.4000723983829286  0.3990745475808927  0.5987053173428164
  0.3996208145390073  0.3997212005458911  0.7972421244641718
  0.3956737032146528  0.5946415547915086  0.0015354460794808
  0.3997239061192319  0.0015279036825938  0.0006480789087362
  0.3989867766771357  0.7962341203297226  0.2048216700022427
  0.4012484216715844  0.7998693352361748  0.4004421348734590
  0.3950831557891090  0.7995451021115042  0.5974751467906698
  0.4044746005475100  0.8034933697030887  0.7951724367959353
  0.5993650362389289  0.0046054844016247  0.9978217661690414
  0.5994180893903063  0.9985348960512780  0.1981629811988884
  0.6008111215459692  0.9996465552815793  0.3973250708924906
  0.6004036551316949  0.1984850903276647  0.1950185097335513
  0.6054665318397960  0.2011074592048489  0.3978413260259001
  0.6000626362582061  0.1949983996080279  0.6044242426785815
  0.6016069136875779  0.2004749106398695  0.8041232426314454
  0.6008302093575035  0.3955779800535947  0.9968258816713843
  0.6003672295857345  0.4001923250094075  0.4034261917617286
  0.5994070160132129  0.3996122603293706  0.6006235326869012
  0.6000762004616547  0.4046207970467639  0.7982299881219366
  0.5970807436520468  0.5988340886794933  0.9962725608436211
  0.5946484895950283  0.6046607523782559  0.1972860469635068
  0.6009341446282181  0.6001672208868434  0.3995048690115369
  0.5995441201335441  0.5991876248890795  0.6019952891726017
  0.6021273723478056  0.8038301049338907  0.9935450305994352
  0.5985580029042774  0.8015147200359658  0.1958994485834971
  0.6013210208973016  0.7995205425239613  0.4008434967644103
  0.5981267118505895  0.8024577014799178  0.6013256053075733
  0.8020128281671791  0.0021171685936019  0.0005222780669605
  0.8012588846495822  0.9988969171080869  0.2006744092210844
  0.8010754169852539  0.0037092179791831  0.3996024681022149
  0.7965195957051985  0.0001049384451821  0.6010744820428157
  0.8092142255916605  0.0017546774356579  0.8007025565569417
  0.7959155511847678  0.2001874944821733  0.0007234420812576
  0.8014813328559515  0.1963859064897458  0.2046218610324508
  0.8012119575577932  0.2007093274124075  0.5971224058328657
  0.8010165934863553  0.2007019010813440  0.7994823064434924
  0.8027350109678369  0.3997588514628374  0.9971723262708958
  0.8000746393510405  0.3957753940323817  0.4071159197170687
  0.8006659429965579  0.3992305055557763  0.6023120709668282
  0.8016276270361592  0.6007139323835314  0.9997501385758240
  0.7978364289347483  0.6071415303206352  0.1990963389049488
  0.7989452033084946  0.5989435277700410  0.4000068001015134
  0.8006193495635548  0.6004389839529362  0.5992639503398673
  0.8007077038591922  0.5999409780646854  0.8004467539394193
  0.7995978846182160  0.8014746673836460  0.0010204573884041
  0.8002314669520895  0.8024137965805054  0.2006293533134583
  0.7997229374995902  0.8009566434407895  0.4009911048853720
  0.8022527327156763  0.7996516485009197  0.5985189125909101
  0.7959667825954413  0.8024749112335948  0.7992749719081834
  0.0015949893236954  0.0003382992057727  0.2008412514954671
  0.0001608245336644  0.0002235893148431  0.4003855484237110
  0.0009865106181122  0.2015574143240942  0.8006754537766522
  0.2013381576913569  0.1989696597267714  0.2023643001613842
  0.2005377239925578  0.2007526477382052  0.7995346378101673
  0.2006243015270102  0.4004580343011446  0.6007572969095478
  0.4002090787534544  0.5992962436657830  0.3999488118744671
  0.4003452726533905  0.5996352891662730  0.5998007161743860
  0.3995161786891507  0.6004499272000038  0.8003460921481844
  0.8021988025535790  0.3999088278630210  0.7994095779179605
  0.0070076829554490  0.4032665646380458  0.2012395126734236
  0.2031453226175971  0.1944498260167097  0.0017733842839680
  0.2011372207305357  0.6176071440963758  0.9970368480222582
  0.1929437254682826  0.6017481695528003  0.8055850860794024
  0.1994746397714107  0.8007355729857597  0.6000975189208007
  0.3985762842819374  0.6017727121403621  0.1939822147432288
  0.5987115357068582  0.9996356245237292  0.5870760982088549
  0.5995178328495744  0.1999466753423654  0.9979207794253809
  0.6053974625441273  0.6000839788015586  0.7995525335525490
  0.5979329377579913  0.7851310498331475  0.7990935003195393
  0.8001345087736732  0.1996077502446930  0.4008543474522705
