Zr Ti V  Cr W 
 1.0000000000000000
    12.5065148684630820   -0.0065634031688560   -4.4547233598272173
    -6.2473234339293633   10.8606349773051623   -4.4218031304266061
    -0.0019865385625000    0.0361756605852565   13.3575576767233937
 Zr  Ti  V   Cr  W  
  11  14  87  10   2
Direct
  0.0018621865491542  0.4036539778519451  0.2005552018632081
  0.9956767904480688  0.8000316425528452  0.4015917642675059
  0.2003065042159890  0.1974889701895549  0.9953848614327931
  0.2099678763726687  0.2094351022520000  0.2140033816160175
  0.1918050327209693  0.3964366899662619  0.8024574475698053
  0.1944395951946195  0.5896510360297260  0.5919376197392113
  0.4018951136583410  0.5889941793478162  0.8008546157156742
  0.4081558891140997  0.8091109019000957  0.1957570602761459
  0.4105963008066709  0.8143233866934951  0.4107676872818756
  0.4067723895069845  0.8149342508773234  0.8090853317246091
  0.6202444038704651  0.2195432810120643  0.6244385458829074
  0.9851323927419866  0.1830670097210343  0.1799396744955169
  0.9944370651540091  0.2058577275701481  0.4021791555320650
  0.9917254996807515  0.3973202130662212  0.5966889965024574
  0.9610703344272931  0.3998171634558943  0.8010274404597082
  0.1942139100410871  0.9874386733365724  0.1945290155370890
  0.1993365916034112  0.1885748853261175  0.5983502659552058
  0.1717409809007583  0.7777253476346975  0.1799367291637911
  0.4073946457500523  0.1990007216742480  0.4041637402950961
  0.6076136196864628  0.5959945234734737  0.9972753749231321
  0.6069657474997560  0.5968262025664921  0.2033843855592245
  0.6008330507909269  0.8133304835632770  0.0055759179441128
  0.7932445925981595  0.9966561207958672  0.3994155750578827
  0.8006152933205605  0.4032782206038061  0.3985353854232453
  0.7984754063615279  0.7923269946337318  0.9915223999503756
  0.9890639270734017  0.9919335896668862  0.9945988733949523
  0.9952306373930540  0.9954016663718129  0.1989599301933860
  0.9981476452257495  0.9991215083644545  0.3884045216240575
  0.9994778825949159  0.9976900636878472  0.6047208689816737
  0.9901597115035078  0.9868632091065911  0.7955667886915896
  0.9839864331718902  0.1933905679083405  0.9811853614844289
  0.9899954256754502  0.1808109947673229  0.6092504925208301
  0.9907012041924567  0.1875109678522134  0.7977411036816150
  0.9913102656480307  0.4123787445641639  0.9980060518594860
  0.9923715178121806  0.6029948432201028  0.1971905462139957
  0.9950583067442161  0.5927686462542699  0.3990352127071603
  0.0014639474524243  0.6137172785917662  0.8051956711882843
  0.9977128499766579  0.7938611990827299  0.9863834855473195
  0.9863287275266325  0.7982247986063867  0.1867912455001373
  0.9970122767493188  0.8037822788507600  0.6114287665411857
  0.1924458910509246  0.9868371671524144  0.9922731426206696
  0.2110003357611649  0.0023765553244255  0.4081120825998974
  0.2122417201559545  0.0022750370587292  0.6104075221179941
  0.2025466646399010  0.0006349558416411  0.8017559306741496
  0.1992781305208524  0.1974533157302312  0.4091419762970698
  0.1996019373551572  0.1843663642208584  0.7913346375945275
  0.2048170655434866  0.4120796206610927  0.0159210183208928
  0.2163987298721648  0.4156206185525239  0.2034527929986757
  0.2079831307126321  0.4030569241553539  0.4007416766451310
  0.2113881854673548  0.3845574143195956  0.5798251482087841
  0.1870360974777457  0.5998376860029386  0.9983685788397260
  0.1942480117451013  0.5938364695582539  0.1963128399280269
  0.2146961341538583  0.6138978466886224  0.4023080531530470
  0.1889553670073964  0.6180934715265126  0.8169773087200415
  0.2009456759223284  0.8000770154728307  0.4130149217018098
  0.2055688271966155  0.8140522186842120  0.6082351075650413
  0.1900446912595861  0.8081309297899445  0.8038320970100905
  0.3969220488146608  0.0122580008240764  0.9980392811351489
  0.4036976342148413  0.0152717097766617  0.1995551333915332
  0.4078921814765749  0.0048136229463869  0.6147097436272839
  0.4108895577744437  0.2040346470440622  0.1922990051922728
  0.4027105826446307  0.1957555818687015  0.6105626702707247
  0.4027659021391374  0.3934957231226670  0.9989740823985506
  0.4159574559558324  0.4097323536671187  0.2074552908303119
  0.4200617724522744  0.4177207242925217  0.4128960144108513
  0.4059672689234746  0.3943614674153518  0.5992433094077204
  0.4134401518048524  0.3818205264319521  0.8042773936619787
  0.4070014083039573  0.6009186965238769  0.0204501368239827
  0.4051434303984455  0.5960777976406176  0.2045757661165248
  0.4092970897732016  0.6004973535379260  0.4023077937978853
  0.4180041297159410  0.6003205264393514  0.5956840653037019
  0.3857543516571966  0.8089597072991254  0.9980652764544760
  0.4065398675048520  0.8029907988411408  0.6055204670912331
  0.6085378764016690  0.0237429160833184  0.0096547599091903
  0.5989748398399540  0.0079854432321542  0.1982660003208516
  0.6002962658897193  0.0198188855487583  0.4133505027583300
  0.6151038390475039  0.0079479051064923  0.6213379159596136
  0.6022011627293861  0.0076977511862630  0.8039934034767456
  0.5938277552973038  0.1988292688868210  0.9939810253535510
  0.5976286198248433  0.2011712686069401  0.1960707074579437
  0.6062274662697046  0.2076597356905364  0.3964224696725970
  0.6006292227009807  0.3916654759134020  0.9968354004439574
  0.5993813158041976  0.3941604688826574  0.1964371402942272
  0.5995959142178248  0.4010884061539620  0.3977143510161714
  0.6035390772041855  0.4134448301627425  0.5999050465782291
  0.6009558831844480  0.3960803425056769  0.8034088086133518
  0.6072731219015562  0.6020954647647367  0.4088674158273550
  0.6072985250378966  0.5908934100143560  0.7849025789050356
  0.6059211067668248  0.7900773382215659  0.1929946771143283
  0.6131174252283993  0.7993615293857659  0.4032465910045663
  0.6067463525036229  0.7994023116843518  0.6051993766908915
  0.6115480493860548  0.8003260575776989  0.7983961161503345
  0.7900596010539069  0.9950630203604500  0.9880317285195751
  0.7974500640786352  0.9960555740911047  0.6050926516323643
  0.7973933430964566  0.9964264951464405  0.7995421095106239
  0.7924887671226857  0.1986332512453934  0.9907397266017235
  0.7978229420157934  0.2080603834272427  0.2013955487389487
  0.7813845043163448  0.1962775641586081  0.3949426486111942
  0.8025108739079609  0.1933922183761558  0.5958178967115353
  0.7970035231692774  0.1974112202247332  0.8042513839964153
  0.7903424543647963  0.4014030987114577  0.1900375013040848
  0.7963005412649213  0.4044684316937731  0.6011365803655946
  0.9257231389332063  0.5329484620291297  0.9336947417926166
  0.8105042179300611  0.5857536124709611  0.9953460521096734
  0.7978097333995631  0.5870061086767822  0.1871199595227840
  0.7957903024895887  0.6007307594004011  0.3985331615054409
  0.7979069708521032  0.6020002356720050  0.6014287523046798
  0.8006181367783167  0.5833888700251794  0.7948686208823451
  0.8023162424024826  0.8039527994753110  0.2031999803261082
  0.7951619215663689  0.8012588204379263  0.4118148912123604
  0.7996076283649629  0.8000006620315320  0.6034076728960629
  0.8013295007290469  0.7948092552646328  0.7938491317911832
  0.9923089076139233  0.3967778408034131  0.3913876617595574
  0.9954504246148103  0.8036197501249183  0.8004918283984558
  0.1971242288369617  0.8102607479972918  0.9977806759356128
  0.3887186713304865  0.0087875681593694  0.3896376234317231
  0.4005081160286270  0.0111948098787922  0.8026710020796978
  0.4059528265890697  0.2014530476413565  0.9978372173281749
  0.4030775535782897  0.1939480369604009  0.8023112281316103
  0.5968249086204166  0.1973499871481730  0.8099337818947542
  0.6051658041232992  0.6005801716940533  0.6008045255582862
  0.7900523542323090  0.3908113640240776  0.9862181982314386
  0.9936561905822777  0.6080925810003371  0.6016958956510341
  0.8000688661160696  0.0037793130299120  0.1971235577857855
