Zr Ti V  Cr W 
 1.0000000000000000
    15.4679138161833851   -0.0234617701905078   -0.0073565197370444
    -0.0234807748335921   15.4835771831266733    0.0255900788900589
    -0.0073319414268126    0.0255288067535688   15.4688931063552495
 Zr  Ti  V   Cr  W  
   8   9  99   7   1
Direct
  0.1975025434283308  0.3996590709147926  0.6015623703663043
  0.4003071090172822  0.0056160561738048  0.8071704106131590
  0.3971823127574006  0.1894284355282967  0.9895103139317113
  0.4140643200528220  0.2024470786526302  0.4066433274399883
  0.4338190405171791  0.6091825970955412  0.4027895759596871
  0.8011459936777430  0.4269425836922413  0.1767583394639501
  0.7932299251974001  0.4117042314314081  0.3920786664109984
  0.7929546294851819  0.6370493599426691  0.2145851501593217
  0.9960220376384892  0.5821965163414011  0.1980277865388343
  0.4247440066122817  0.9905932720896085  0.3964395972784501
  0.4046259342461520  0.5956324934649926  0.0010742293206845
  0.6067677611867107  0.9975178767882635  0.8031192558702636
  0.6299825971345410  0.2292660864820241  0.3885685364664661
  0.8109969659630366  0.9903564772348837  0.8001167317112555
  0.7959108860455143  0.1989798927456644  0.2068248899773749
  0.8097015011229106  0.6207521104208089  0.4188711152263784
  0.7967768568848633  0.7889874315032039  0.0144410066360587
  0.9961331848226355  0.9963988069947285  0.9997673353948952
  0.9973105138683865  0.9991141889630469  0.3339264821063769
  0.9967829716775349  0.9990645891344314  0.6020609597795789
  0.0012588300332203  0.9987943823811403  0.8017389912687101
  0.9977913867132395  0.1953064486958720  0.9988218219342806
  0.0004671351311046  0.1942596069722663  0.2004350709851449
  0.0029942667387679  0.2013637654356392  0.4004664128489516
  0.0003996209139798  0.1979680577220093  0.5992789748412848
  0.9987551790719642  0.2004993782553534  0.7974043059836228
  0.9966177996139894  0.3953104638857748  0.9995909611517192
  0.9998896837759238  0.3877830317003249  0.1988434632564383
  0.0012123411150535  0.4003857246755452  0.3978588618146071
  0.9928614223787157  0.3989221377816076  0.5969196757123731
  0.9981860646322662  0.3995627131315516  0.7999871276080706
  0.9986215843388904  0.5954558333196009  0.9975025055386642
  0.0030976023408062  0.5990972058484437  0.4009092330944810
  0.9972705970670019  0.6002970975555855  0.6000474829076738
  0.9981499398730056  0.5971480527403489  0.7996937201113550
  0.9984518129786524  0.7960456428364653  0.0005581084232914
  0.9966872365934978  0.7997138284867716  0.1988036175301663
  0.9998992271353662  0.7992757151338021  0.3990562595724083
  0.9981781962145733  0.8005355951134064  0.6005469361421084
  0.9975180942878843  0.7961776379859377  0.8005430460039594
  0.1946225542299893  0.9947178576235539  0.0041865255277594
  0.2003293004825166  0.9971416831898685  0.2019568220409529
  0.1892057398015080  0.9967351091433158  0.3993827852002426
  0.1943910871997007  0.9976182721707190  0.8015205854582244
  0.1937133781903839  0.1961754647166316  0.9995379846917024
  0.1996998742777756  0.1961577122382723  0.1991914732231436
  0.2026096475098071  0.1934741594960434  0.6003521678245197
  0.1982224920258825  0.1993509582185634  0.7996251026396857
  0.1980037933670897  0.3978536082005792  0.0011118301553865
  0.1993976575807365  0.3972332358713012  0.1985735128205288
  0.1986195220835881  0.4009242831183188  0.3947660539119746
  0.1978889556442283  0.4000032788186739  0.8058053739256127
  0.1990677977148626  0.5969004251306870  0.1981869453353630
  0.1988644862256720  0.6039926490804310  0.6006218407707490
  0.1982030028968305  0.6000444319748799  0.8015092330649075
  0.1970011555665806  0.7959823844646579  0.0005493190446450
  0.1970726424192014  0.7967470929308070  0.2003448777960467
  0.1974376702946282  0.7993343966450286  0.3991835087616421
  0.1991094564530330  0.8007648998371142  0.5996352562527560
  0.1984579659560518  0.7989242435315387  0.8003123632084143
  0.3992071625160678  0.9871592228223010  0.0098110014099118
  0.4001092212967459  0.9981888772728303  0.2015745247912902
  0.3990609277630545  0.0031875285719834  0.5966854206512191
  0.3985081468413457  0.1978718616534983  0.1990681541053213
  0.4005921753120862  0.2099734998412001  0.7889264637566811
  0.4006139964723879  0.3976896826459798  0.9989884869889574
  0.3968331725664911  0.3968661608010736  0.1973362481689450
  0.3943335428170396  0.4082223447595778  0.3968683707109515
  0.4037390758001217  0.3971649664833273  0.5957018611992295
  0.3994391219395528  0.4038329935584228  0.8004960821626365
  0.3965828488347059  0.5988967835872533  0.1992330523183289
  0.3988824045181737  0.5995535104938172  0.6024813465569652
  0.3994988187227885  0.5993206485042158  0.7977126800764004
  0.3986001032917275  0.7955602812783217  0.0004073042499180
  0.3969708628992038  0.7969204366163017  0.2013880805555606
  0.3988806617883145  0.8010381994329254  0.4000296113568813
  0.3978503650184123  0.8022636371778741  0.5995374582378851
  0.3968023824185459  0.7971881693275246  0.7989880897569771
  0.6015849877010462  0.9971301857171077  0.0012366824185342
  0.5977640909045334  0.0010476198937466  0.1995643450403096
  0.6118071783472984  0.9944300889041090  0.3982372074874402
  0.5999889004381215  0.0014861311555865  0.5971923191438256
  0.6036057378958138  0.1997682269388688  0.9974537864431288
  0.5957001941460985  0.2012088799310712  0.1943550918237872
  0.5977898253171933  0.2026631774348190  0.5968728826490458
  0.6004350388120178  0.3980632442598772  0.0002949744862592
  0.5955414069044573  0.3997906391256514  0.1993615339995391
  0.5906934988402748  0.4184160658322114  0.3968145859432259
  0.6002111860913512  0.4026194781668287  0.5953643415072007
  0.6031273422944913  0.5986369048290465  0.9997488338210806
  0.5921959895978085  0.5977816654922101  0.2001072189729752
  0.6224022359738945  0.6042817891296709  0.3982439830313306
  0.5983152877461320  0.6014082230262175  0.5991386669135190
  0.5990368641844640  0.5999704173707614  0.8007529610620419
  0.5981292773047518  0.7991152543729970  0.1983253236179074
  0.6025445914854682  0.7987094814526069  0.3991485787362751
  0.5969829086890572  0.8004317286990542  0.6000404642843921
  0.5979537733738240  0.7970941570018206  0.8001444518020936
  0.7988702145685996  0.9993101076576866  0.0035896282925583
  0.7952690209217776  0.0043783529575341  0.2008126848472288
  0.8035660250999508  0.0044285879101695  0.3998597683263042
  0.7977288042120563  0.0015552604922429  0.5972860285791134
  0.7987984693695201  0.1967783776625410  0.9948248746855515
  0.8124084173125528  0.2004703208524437  0.4042092357956474
  0.7968129380676973  0.1985110413988015  0.5990858268051532
  0.7993402001896306  0.2005792849058013  0.7965497583390361
  0.7985585841308421  0.3942446965224511  0.9853607950687080
  0.7966058384776936  0.4004977298209223  0.6005582570977902
  0.7984547036989268  0.3998969201745586  0.7949416689517211
  0.7982286317480320  0.5943351851501609  0.0003689986990685
  0.7977383348967292  0.6010774272854826  0.6077883207009727
  0.7981980475847475  0.5987739320901437  0.8013955433454908
  0.7996781415197126  0.8256673345913095  0.2071232036973260
  0.8017455211484589  0.8101792274092433  0.4026641877453454
  0.7964532091099628  0.8025183671324926  0.6010109672499957
  0.7976191439462703  0.7949454933206577  0.7998917050769657
  0.1980252017399824  0.9978993550693472  0.6003429002844790
  0.1991312561437683  0.1979714227276460  0.3994524028232309
  0.1965051963742923  0.5978561369179153  0.9994336506890578
  0.1974460098314736  0.6017017390877115  0.4000916048021429
  0.6021623630561977  0.2050267446940048  0.7966384802202353
  0.5992979576236126  0.4018679643474328  0.7980368598464598
  0.5955939811093710  0.7972667697211561  0.0002505508973467
  0.4000413591030957  0.2013942251971348  0.6044913394638872
