Zr Ti V  Cr W 
 1.0000000000000000
    14.6684038102750431   -0.2131443121112685    0.0813979548174614
    -0.2115515752911697   14.8811886461669935    0.0526256197020952
     0.0817476191902642    0.0536540122576847   14.7500112414507711
 Zr  Ti  V   Cr  W  
   2   9 104   3   6
Selective dynamics
Cartesian
  5.5034697033508762  8.8884642607710145 -0.0628002523557109   F   F   F
 11.6498501130029162  5.4545759091360742  9.4906819128557220   F   F   F
 15.3634280875444968  4.5984630704550691  5.7327844565203190   F   F   F
  3.3857723548828016  2.8724578170066657  6.6897543448145314   F   F   F
  5.9163635348549866 11.6932676627634891  8.1947744047401248   F   F   F
  9.5089319502830385  0.3512203322357159  6.1499172246856704   F   F   F
  8.5077433798273834 15.5921358523025138 12.4743865955529767   F   F   F
  8.5498004156922089 11.5894373996429945  5.8555521604017997   F   F   F
 11.2427186060066955  0.1708141550891397  2.5601512633157384   F   F   F
 11.7727365019114565  5.7806526129669891  5.7751642459475958   F   F   F
 10.7942854989067900  9.2288191293916686  9.3833763230546747   F   F   F
 14.9905256616195199 13.9777489170977827 -0.0086168277303316   F   F   F
 -0.0945685396342607 -0.8846847086717262  2.7955614612168493   F   F   F
  0.1758655963282659  0.0472927117756975  9.4702402538260557   F   F   F
 -0.0591697850028736 15.5337163845681356 12.6400187138768150   F   F   F
 -0.2141779613319121  2.5916063247127572  2.4537333219232345   F   F   F
 15.0279419381251973  1.2068514147100393  6.1647066863419946   F   F   F
  1.0459073660487368  2.6242335812746433  8.0603273170386434   F   F   F
  0.2749501454829243  2.6823471564981376 12.1227134424049829   F   F   F
 14.3778172084448403  5.0401456502618656 14.6340569781542982   F   F   F
 14.1695881585998738  6.8162428411590517  2.9267862313114827   F   F   F
 15.3685871351749608  6.6780731979232035  9.8347995410557090   F   F   F
 14.2693150647125737  5.5600620847169386 12.2551332661924857   F   F   F
 15.1927876357327580  9.5329052732405977 14.6991331208624878   F   F   F
  0.8031975810239034  8.7045229451097015  5.9644183567239670   F   F   F
 14.7247200720060789  9.3019814346788223  8.9246452711821753   F   F   F
 -0.2550991876398219  8.3587982095327309 12.5364402434285704   F   F   F
 -0.7344919466224976 12.1435353120528138 -0.1314658171665463   F   F   F
  0.9327543019101198 10.9902211195070905  2.1013963623109531   F   F   F
  0.2185100759131497 11.7202244156961051  5.6988995527044208   F   F   F
 -0.1002838149890707 12.4506433428627687  9.4613922503984096   F   F   F
  0.6587080835475886 12.0133370816995928 11.6567993362200379   F   F   F
  2.1417570382082198 15.3987326251964802  0.7966185472151041   F   F   F
  3.1337336108906446  1.2717661019819493  3.5568025986145742   F   F   F
  2.6943627906656547 14.3614625926753003  5.1543654332861495   F   F   F
  3.5305305403875056 14.4587067124254460  8.5257882415318775   F   F   F
  2.8424268780743787 15.0261484795033162 11.9430308212221465   F   F   F
  2.7356532908267606  2.5169292204753182 14.8458892680009438   F   F   F
  2.5528133862344817  3.4360858116475175  3.5775188457527558   F   F   F
  2.9148748203143722  2.9953643769162390  9.4542587725519098   F   F   F
  4.0086123161168068  3.7223555542142930 11.9440028940764407   F   F   F
  3.2818718300750533  6.1525103171295896 14.3697370636401214   F   F   F
  2.3645037140810805  5.2458750618254477  2.4961104631698490   F   F   F
  3.8444610119137264  6.3535822660407062  5.7941033837988174   F   F   F
  2.6957537393038087  5.3771500309094842 12.4470215838871781   F   F   F
  2.1397873572162678  7.9930684839876838 15.2784905748306485   F   F   F
  3.3101985187892593  9.3312859008015767  2.0492561658606681   F   F   F
  3.5693913772500356 10.0623804685103284  5.8448701444083868   F   F   F
  3.4606394786084116  8.6336895509285672  8.4781170292537311   F   F   F
  2.8646977770723505  9.0370431023234463 12.0862016570518911   F   F   F
  3.2665143561999779 12.0609878520697844 -0.5694017174120135   F   F   F
  2.6440507810863907 12.2720640097282470  2.9889908665323648   F   F   F
  3.7833725827941858 12.3866960363722853  6.3678571336181458   F   F   F
  2.3863361830493055 12.3498161866334488  8.5171649378563306   F   F   F
  5.4240121319808479 15.1278547040675964 14.6394628373569891   F   F   F
  4.9613594725535730  0.4445164297575642  2.2356248051239174   F   F   F
  5.8414711376238397 15.6864741773209868  5.9767871281302867   F   F   F
  6.2606549357726511 -1.1256304541097268 10.1641128460969057   F   F   F
  4.8971860417029154 14.7943136201195848 12.1272195730275936   F   F   F
  6.4493735826957845  2.4401791213969015 15.1543978874813430   F   F   F
  5.5769346585020676  3.8421246118349015  3.7189619389538668   F   F   F
  6.6910113906730402  2.4791028759825555  7.0324066498046660   F   F   F
  5.9696303401127402  2.4545086131245673  9.2640364776295723   F   F   F
  5.6377979214913294  2.9901332071415228 12.2477479526742332   F   F   F
  5.2982352703075426  5.2855195206600776 15.1259575429137207   F   F   F
  6.7082423361700014  5.5918700215021930  3.4277429992204427   F   F   F
  5.4859880703920698  5.8517436025238734  7.0099706179832380   F   F   F
  5.2208877998120089  5.9806016979191021 10.1367613139361552   F   F   F
  5.9960472242672882  6.8933977000868376 11.8251059325736492   F   F   F
  5.1730668010685568  7.5147978193650840  3.3615321232288409   F   F   F
  6.2906321527114759  8.9815356798572434  5.2715499364323639   F   F   F
  5.3581526873946244  8.9538451013920213  8.9821483937277069   F   F   F
  4.8776117334867610  9.6051172351130081 11.7235496752264794   F   F   F
  5.6305348295953594 12.5670167735771976 14.8318183215393162   F   F   F
  4.8045776201800265 11.3353158259220823  2.5921184862733666   F   F   F
  6.0549689117298247 12.5176027674542993  4.5430389913092322   F   F   F
  6.2057666491795942 11.3566886055135665 11.9212925571710127   F   F   F
  7.6794486886390283 13.4932151724062432  0.7390416625590605   F   F   F
  7.4250738480196228  0.6685115900238402  2.3707006354330464   F   F   F
  8.1428498955608539 14.5829032271065824  8.7393191481851193   F   F   F
  8.4556539790858665  3.4773425369632411  0.0947105889728496   F   F   F
  8.3199462965381432  2.2931939057294946  3.4201489309877995   F   F   F
  8.4798771632912295  3.7210680601417967  5.9253828516739926   F   F   F
  9.5998286574366656  2.4589075474313269  9.2038076475935959   F   F   F
  7.8143898888041017  4.0106331783752722 12.0372931088142980   F   F   F
  7.6462702643700817  5.7187066921643854 15.2302264715491162   F   F   F
  9.0288293068378387  5.1557965219050894  3.2106129086360857   F   F   F
  8.5546167980670784  5.8077695750629559  7.1356677174979648   F   F   F
  8.1645066437317126  5.2432433190930894  9.3543328247674804   F   F   F
  9.0076885246586134  6.0502775839308516 11.6285580700895324   F   F   F
  8.5671013363848925  8.8649356249649944  2.1515567238295219   F   F   F
  8.5463123376662420  7.8168547057850652  5.9249609743826639   F   F   F
  7.3882928054351469  8.5616258882531859  8.7422932878799013   F   F   F
  8.5780992808397816  9.5748877969744974 12.2092725329602256   F   F   F
  9.2564341996456694 11.7398143412932878  2.0586276566172148   F   F   F
  8.7169084933826202 12.0994408517840011  9.4100561567597651   F   F   F
 12.2499514452867722 -0.0314529013495607 -1.0826809668397461   F   F   F
 12.4272952325761157 12.0602507340360923  8.4709180291824957   F   F   F
 11.7398875865760104 14.3584798875477873  8.7319543934904988   F   F   F
 10.8341293521439379 -0.3564170969628709 11.3287801837112188   F   F   F
 11.3336757806520847  3.5898845161809678  1.2322280518457704   F   F   F
 11.9501946069451233  2.9513486509002105  4.9748131862380065   F   F   F
 13.2217821743201380  2.0605474634737018  9.2708738561748945   F   F   F
 11.4212010286987038  3.3001904494679470 12.3427778124233107   F   F   F
 10.8234308739795502  6.4072358736732005 14.8235560092791250   F   F   F
 11.6378004054988544  6.4356496524038231  2.2883721311719616   F   F   F
 11.2758656093099585  5.3030276419803872 12.6641974148976217   F   F   F
 11.3237560853128407  9.2287273155546057 -0.1736427345051616   F   F   F
 12.5798673073696854  8.7488554802661067  3.3809342458796614   F   F   F
 11.7529475308847129  9.6064539065473653  5.7085893670714611   F   F   F
 12.3397452860753312  9.6923207494134616 12.2713549288916735   F   F   F
 10.0482667434013759 12.8784837468780644 -0.2153025887169068   F   F   F
 11.7641955280668373 11.1912449704565304  3.1914286003158687   F   F   F
 11.3373004031261431 12.4872633102341979  5.3454081443601957   F   F   F
 11.6087150536024826 11.7593413864725509 11.8751809898162506   F   F   F
 14.8650270195202872 13.7271856698420596  5.2335077791319629   F   F   F
  1.0481689438524444  8.9130854531593346  3.3857199844991395   F   F   F
 10.7716824641435576  1.4979679009149605  0.7815904688751417   F   F   F
 -0.8563963344459768  1.9619890270270712 14.9086218448071257   F   F   F
  2.6411860366741942  5.2891610364044892  8.1608917300279860   F   F   F
  3.9240165819961494 12.2206146515853522 10.6871810143077681   F   F   F
  8.6439258201688585  7.7602171982714472 -0.7511597340007419   F   F   F
  8.5013428613327697 10.7868559818272907 14.4917533232219089   F   F   F
  8.3309460313592609 12.8266275979305142 12.5554323053824231   F   F   F
