Ti V  Cr W 
 1.0000000000000000
    15.4073529780286407    0.0026422717652441    0.0115039126781883
     0.0026423919818586   15.4169890810637895    0.0057190451176722
     0.0115025714523025    0.0057202193077188   15.4178430470237693
 Ti  V   Cr  W  
  13 101   9   1
Direct
  0.9987325804902413  0.4082872826110113  0.5954687356350952
  0.9994710432590660  0.4067890448986014  0.8055584299440287
  0.9969198338069548  0.5987487524079680  0.0048191213138199
  0.9949800475195808  0.6010169507241639  0.4102460187604013
  0.1958139381782158  0.8088881978586077  0.8025683933606361
  0.4035970402339863  0.9977771390185260  0.4003978305974115
  0.4020372592840346  0.6042063410736409  0.9984624469612475
  0.6008971244764922  0.3985752947649747  0.3914151062303489
  0.6008135503705867  0.6077862868776499  0.3949667620043669
  0.5993715835962719  0.7922666208911047  0.0025451472343974
  0.8032139535453633  0.9984099455138397  0.9927778356285539
  0.8077974787142664  0.5985493975383199  0.1897805206861871
  0.8076778480804349  0.5950206926565815  0.5952191183358005
  0.0026083686027933  0.9985118748762347  0.0048850762167534
  0.0004846395498197  0.9998702582490002  0.2006428253378928
  0.0007522174389216  0.9987925658686854  0.4000060617235949
  0.0018382609251308  0.9992377807357458  0.5979078738092465
  0.0005351447481023  0.1980180467582839  0.9997543307846920
  0.9996756960403193  0.1990757101377656  0.2006653402398202
  0.0003083840394400  0.2000379213639518  0.3989639796754632
  0.9973792818458441  0.1976859932781252  0.6027450280618264
  0.9995134218385294  0.3982889640565508  0.0022664038065772
  0.0001616030257941  0.3996848541938387  0.2012264959794029
  0.0031376742923754  0.5999210701047271  0.2024697488784882
  0.0057647191545962  0.6032890246435629  0.6053878811525787
  0.9989775061147136  0.8022865386897986  0.0012638611174158
  0.0004294525527849  0.7992972491167100  0.2026083679571344
  0.9992579349061143  0.8005099258320173  0.4004262088338224
  0.0009087850643728  0.8025838495795699  0.6016981568146179
  0.9971870677735972  0.8002450796428544  0.8018889192218683
  0.1990035286009403  0.0011404939792133  0.9990233865631697
  0.1998161369667542  0.0002977562668998  0.3996495125701142
  0.1996895157314712  0.0008140668245648  0.6010893592136036
  0.2034181191474687  0.0024278281247624  0.8002021746234975
  0.1996707547425327  0.2005730124150816  0.9995735218035990
  0.1997742762198773  0.2014056940922721  0.2002767105345420
  0.2001817508288673  0.2003790506845411  0.4013179148173292
  0.1991874120405192  0.2018425703455442  0.6004046597887570
  0.1992351291616128  0.2014385127251932  0.7994271718430346
  0.2003652201638885  0.4008292271876319  0.0007206736594916
  0.2003239655299012  0.4010388749535222  0.1999851973399774
  0.1987133122691258  0.4009060472367847  0.3988636248322386
  0.2009810995603022  0.4009223962171116  0.6001972350915751
  0.2014321683014147  0.4020459976251126  0.8003999039713710
  0.2007070917414762  0.6008274142458582  0.0003105480896078
  0.2004945656395325  0.5998389947001866  0.2017559257488721
  0.2014022394021824  0.5992908672361513  0.4015062269312316
  0.2003051444803691  0.6006771124337454  0.8001530947377754
  0.1991475654490697  0.7996303042118299  0.0037137356251888
  0.2001174566265900  0.7996235835631993  0.2011124064786580
  0.1999355654960293  0.7994948346641795  0.3992191483721107
  0.2013519975856167  0.7989928804129292  0.5987824424142310
  0.3999779612410004  0.0003540462755929  0.0002678053823888
  0.4007074610821442  0.9996253099931953  0.1980762324217538
  0.4014812372174636  0.0000033870024083  0.6019863868321084
  0.4007391594866526  0.9999963378983642  0.8005270170223597
  0.3993636073565617  0.2007636970954850  0.9993694453000486
  0.4009293102151170  0.1997955011987028  0.2001805326638137
  0.4003776672380483  0.2026328262012872  0.4006152535243511
  0.4014013012207061  0.2012117037182371  0.6000166392440397
  0.4019070634169191  0.2006671788615192  0.7993170512094061
  0.4009941234692843  0.3991289493124053  0.9999987515111680
  0.3995942107905908  0.4010592647487137  0.1996708804154119
  0.3991770183475883  0.4009863412866791  0.4004167931287749
  0.4006365014100364  0.4018441975201006  0.7992160707813206
  0.4006716980920791  0.6003386658691938  0.2014065897847669
  0.3994653002629752  0.5987868935701278  0.4007706666350879
  0.4008530553039780  0.5999613652577710  0.6006371694103850
  0.3980049548510410  0.8019017634662730  0.0004852102556888
  0.3998367580934801  0.8005464353730856  0.2012594061612311
  0.4013154704178817  0.7965327780016778  0.4008159928756370
  0.4003030344769729  0.7993752327253175  0.5993451482995473
  0.4033837592481307  0.7990651762384593  0.8003972047454784
  0.6002835836864678  0.9999145185996656  0.1971365544609745
  0.6027103547056462  0.9992106694502374  0.3982040239697099
  0.5996218045317371  0.9995255597068635  0.5982677348805271
  0.5998989318560626  0.9987915659851549  0.8003285190174481
  0.6014481013839678  0.1996112079590474  0.9988895395367873
  0.6007333741388091  0.1994793329589160  0.1986491330259864
  0.6000396963894231  0.1984379167676700  0.3979659161177311
  0.6038941887674545  0.1997433210503518  0.5989599515157462
  0.5996060329151175  0.2012841385056448  0.7989731579509138
  0.6000409924810750  0.3994787285853385  0.9982161941089652
  0.6003127371293833  0.4005541024821607  0.1956761975876423
  0.5990971412933684  0.4027056938076594  0.5988121221737063
  0.6003985483888820  0.4011041091114879  0.7990867277533319
  0.6012929498673337  0.5959678466004555  0.9968700252899091
  0.5987687490853433  0.6007471090800145  0.1943311658371107
  0.6008746606199802  0.5995868649608946  0.7973489570592638
  0.6006845601327236  0.7998263939453027  0.2011247085272334
  0.6009437023819734  0.8025762538018396  0.3990565128210064
  0.6015130286652729  0.7987093847271518  0.5993471244009001
  0.6011456958442738  0.7988168991662186  0.7983865473709670
  0.7991595751207685  0.9991180236826550  0.2002631435139746
  0.8006171487360383  0.9998279003145493  0.3981839632705283
  0.8015125246308406  0.0022725061684346  0.6004251884649419
  0.7973359626036739  0.9978258378620108  0.7984963942871270
  0.8012038143227797  0.2016816764859307  0.9968153019244896
  0.8002571224684295  0.1996666811356841  0.1998467962012109
  0.8010430277855745  0.1994085824750411  0.4036867855573022
  0.8013445624606648  0.1981489602033895  0.7954450558286215
  0.8000022372756561  0.3983744761050514  0.9991616428043860
  0.7997656134088993  0.3981589215129485  0.1987778778807486
  0.8015459262607343  0.3995228233183800  0.3969367868997858
  0.7976038576083383  0.3933565739015144  0.5983587125720373
  0.7986497478276542  0.4004568855162938  0.7987946884467227
  0.7974354265457088  0.5981597791813742  0.9936099604450546
  0.7978837880056158  0.5990994448449622  0.3972674864045505
  0.8017932400132838  0.5988414875979604  0.7976426405500453
  0.8012692407287312  0.7958046002079814  0.9999797828291868
  0.8001218017106380  0.8014113957499843  0.1995761479823986
  0.7998214043887373  0.7996499214903319  0.4002546581872437
  0.8005394407657319  0.8002420867817205  0.5988513091397917
  0.7992768419533361  0.7995233457609627  0.7986707683994752
  0.0002041543994138  0.1929972102391537  0.8014854871740446
  0.9999588815741454  0.3975621117590691  0.3976057309790260
  0.0005141094160788  0.6056022152213122  0.7999105002603740
  0.2008823515628639  0.0001950961883488  0.1998638772412180
  0.2022678190122362  0.6005458425647096  0.6002397998663141
  0.4000952035863044  0.4005318032320304  0.5993026908575875
  0.4008391391970117  0.6006067586954215  0.7972197441363628
  0.5981295717926698  0.0014306889828217  0.9991087491552199
  0.5997125015806425  0.6002320357435565  0.6003706725270486
  0.8006570058096575  0.1990667071466337  0.5982255702177103
