Zr Ti V  Cr
 1.0000000000000000
    15.5054759955686290   -0.0026938295988576    0.0222345561511436
    -0.0026911951043345   15.4937529874400166   -0.0133710719798359
     0.0222461462953622   -0.0133733789628594   15.4975574155639322
 Zr  Ti  V   Cr 
   5   5 111   3
Direct
  0.0101687272188164  0.6112700747376056  0.1995785529361030
  0.3994662807314320  0.3998726550897533  0.5998997489756630
  0.6003021089580013  0.2005165906392098  0.2006809927979392
  0.6111160390692064  0.7995005781865246  0.9913114405894893
  0.7927668133829274  0.7979139536733354  0.8082379108543937
  0.9953981180879005  0.7866856532013002  0.3837807191952559
  0.1860884450245552  0.5988208302633414  0.0167608384450603
  0.2030035821980282  0.7970390006879520  0.3984443180767298
  0.5967724221601425  0.2023705970011407  0.7980572725751585
  0.8201112388519297  0.8030877745548821  0.0179947889334389
  0.9966566790338393  0.0015414699439862  0.9969146340013967
  0.0025942022283985  0.0025066366243662  0.1976887127050022
  0.9985685688375019  0.9997543509741040  0.3982043498382730
  0.9982102642162520  0.9975846787400311  0.5972907064173373
  0.9987423813699506  0.9987487702748704  0.7988004061263575
  0.0012051923075017  0.1991342565274770  0.9987132108674396
  0.0017336953143099  0.2005947527082590  0.1986028093707540
  0.9998073717374485  0.1993552116727550  0.3999068814388457
  0.9989753828795328  0.1985404591792352  0.5994797035078525
  0.9997001392221994  0.1998439005765044  0.7988282264513166
  0.9987411144501864  0.4002978673856801  0.9985223946036510
  0.0009035483196411  0.4004301063142542  0.1996013469351079
  0.9994817516006154  0.3981435552706196  0.3991908595680852
  0.9979798411629223  0.3992875698730124  0.6008880345377779
  0.9993179701449580  0.4005264373861395  0.8003920158134541
  0.9923298122367108  0.6012450785665320  0.9934242240443899
  0.0001342371751895  0.5933188131915419  0.4058212012579472
  0.9981773977591585  0.5999353593234376  0.6008625500106268
  0.9976485370130153  0.6005066120200848  0.7984637415531236
  0.0100517225811455  0.8028682691600828  0.9954155924471435
  0.0047758309851320  0.8107730436009321  0.1927419764887381
  0.9987509502318199  0.7990758548882109  0.5993734336830087
  0.0014474975799528  0.7998162006440056  0.7976248284532124
  0.2009777180429343  0.9997556855407148  0.2013598847845841
  0.1991771034521704  0.0005448560914472  0.3996773305311492
  0.1983534040794497  0.9991202166737869  0.5990119458745659
  0.1983220531081641  0.9998633107693722  0.7969940905397525
  0.1992797166631040  0.2024410042574837  0.0000373153733499
  0.1997855872217778  0.1989074307648866  0.1994219050683342
  0.1997097441620226  0.2003006001015314  0.4000723896703436
  0.1980461699913884  0.1989654740411823  0.5996744191367022
  0.1982721425220702  0.1991592521478901  0.8002624147217857
  0.1989227208109724  0.3990889050539050  0.0012774526921034
  0.2007615502636147  0.4013622161468717  0.2007828619086071
  0.1996264145527227  0.3983906817302741  0.3998391878223972
  0.1946957833365799  0.3991079115450377  0.5999153730825101
  0.1981377688007319  0.4013769282599624  0.8012104381052514
  0.2109190002415239  0.5995822234876036  0.2089840163678795
  0.2012371175160969  0.5963324953110790  0.4035116862418212
  0.1983570653134342  0.6002683578980137  0.6011289930121587
  0.1979648753077662  0.5997070681349648  0.7996314163525697
  0.2030345113606500  0.8011492622431907  0.9994380779611907
  0.2042939641019764  0.8012679766318751  0.1963548117819692
  0.1981227832081569  0.7998730471587622  0.5989036316605099
  0.1997742924622123  0.7996838544499776  0.8006995446025719
  0.3698823262392462  0.0001884372065701  0.9993149721380525
  0.3995334503827235  0.9981773410391573  0.1981578242680755
  0.4010600620394114  0.9994760654721981  0.3985303626917652
  0.3994967469213064  0.9984771494415823  0.5982072212982623
  0.3971827210359086  0.9999444233507724  0.8004509878694639
  0.3977772414240048  0.1992450980988263  0.9992722143579496
  0.3956915853742201  0.1993294794679396  0.1985014567441492
  0.3994442457658133  0.1988210967345888  0.3990595165626051
  0.3986886866869758  0.1949639149929447  0.5998860775956674
  0.3957254149556208  0.1995625240560575  0.8002594903540178
  0.3999496770857550  0.4007757881807401  0.0005844211199904
  0.3999760138327589  0.4009974665393069  0.1981279971774664
  0.4004179655546722  0.3992944804030242  0.3953660831355149
  0.3979886447970019  0.4006394404084582  0.8046831519546035
  0.4020387887318652  0.6004303326628483  0.0017517400472562
  0.4043128950406504  0.6013333630143595  0.2003337004800735
  0.4017609672629719  0.5995748384906994  0.3997998165844901
  0.3994464924546462  0.6044466311283760  0.5999488934763304
  0.3964381631100193  0.6007159297329888  0.8029570355942039
  0.3985309925696228  0.7998349730991420  0.9987582995795802
  0.4025333759391416  0.7997653739079122  0.1978660712217983
  0.4022720520588756  0.7995093948037258  0.3984354977073676
  0.3989218252604138  0.8010525181462262  0.5986289981172970
  0.3956956107248719  0.8004514160716204  0.7987604198057184
  0.6013707108020692  0.0046016740518476  0.9970865325883707
  0.6009945599257484  0.9949691937896666  0.1977649826587884
  0.6001404860723631  0.9987815976543042  0.3986488539687994
  0.5973654577458818  0.9993114893411101  0.7959615469290551
  0.5998335673476201  0.2018553381383776  0.9957919647935614
  0.5996386020470287  0.1994475830891193  0.4040317501049147
  0.5999868711471721  0.1983533206665933  0.5984989147960361
  0.6011118140984847  0.4004290967780958  0.9996485927753647
  0.6004826890458942  0.4048444080528707  0.1996548374470438
  0.6007027918427222  0.3999690985582736  0.3991538843099688
  0.6039581916332494  0.4002247626611908  0.5995492166745514
  0.5987663342911052  0.4027409619558881  0.7993115807193182
  0.5999515249492895  0.5960100810072930  0.9985890349848561
  0.6002043199128922  0.5987984460940319  0.4006601888605034
  0.5997048007560095  0.6007145035092440  0.5994355727534926
  0.5971452915595135  0.5996303798170556  0.7977281690929214
  0.6006370644878400  0.7994476677799736  0.2000971196046181
  0.5988704948612286  0.7997470504764320  0.5951775025018311
  0.5894959787370175  0.7996578082767201  0.7886227607102296
  0.8001728261971702  0.0048932727360126  0.0001607193262967
  0.8001687871454300  0.9987791503764142  0.1996574919489422
  0.7993372697359630  0.9995703624874330  0.3992332555348159
  0.7988373495185416  0.9990724604135656  0.5987449462713041
  0.7974406058273960  0.0042345737539042  0.7982418240930246
  0.8013842886354723  0.2021749115317570  0.9999075016192670
  0.8047461250364943  0.1996715025408943  0.2002363570667470
  0.8001835938811593  0.1999507811312093  0.4000603626442391
  0.7996037476308591  0.1986591764981444  0.5997729157112985
  0.8012111499296698  0.2011753248519260  0.7991850746047920
  0.8000544954496430  0.3993272155491686  0.0009641516979180
  0.8021090443089745  0.4017905892541545  0.1999426857613524
  0.7997870663726649  0.3990403108388104  0.3993291522315472
  0.8003264830972332  0.3990094321006482  0.5998325351045938
  0.7990978758908485  0.3991993758377201  0.8006084436395635
  0.7986751327307249  0.5977191759487325  0.0025900714713185
  0.7995923319741735  0.6005596687754667  0.2004485736253554
  0.7992188055026487  0.5979293320840432  0.4008728143166069
  0.7990394527527434  0.6004355240039110  0.6000228750357823
  0.7970576916396861  0.5948548482478442  0.7995983833953760
  0.8027854778187050  0.7999443794299071  0.2075691897190777
  0.7977678593461029  0.7985979490692088  0.4003744769216220
  0.7993781002332776  0.8006149797811424  0.5974939630328805
  0.5993633375056725  0.9985686571772141  0.5969558858807402
  0.6018615286493020  0.6015962035421268  0.1999442775016412
  0.6000404587683595  0.7987854555714392  0.3982895728540085
