Ti V  Cr W 
 1.0000000000000000
    15.4171836946855763   -0.0006458025225840    0.0021743795697675
    -0.0006464432342440   15.4108214600062574    0.0048957167363750
     0.0021730867805691    0.0048939939426410   15.4267125679285311
 Ti  V   Cr  W  
  13 101   9   1
Direct
  0.0011075969340287  0.4031269531058552  0.4009819478153359
  0.2078518014018450  0.1988500893289496  0.7938628000506688
  0.2001287996222879  0.6059657960476659  0.0054160973898181
  0.1990845234064486  0.5972676436472851  0.7919263257548443
  0.4010118445737577  0.9951672957222409  0.5997689520141897
  0.3951845752555893  0.2052092052288482  0.6069727346859726
  0.4026673669865874  0.6019890220991747  0.4010095181647348
  0.5965158306892479  0.9995863557912772  0.9955480883104088
  0.5944979706373597  0.3992366972062544  0.4038335472361971
  0.5910729090487383  0.7982468463060773  0.4012994812074514
  0.8025925857847261  0.4054744857652423  0.9902974206665726
  0.7975185165796466  0.5926835085693106  0.8048089767192529
  0.8048441864815260  0.8030665962809459  0.3999374795832409
  0.0002773184395656  0.0003802481767906  0.9966093171258584
  0.9996722309509473  0.9986859009147816  0.3676192901600877
  0.0005418107333239  0.0007501032754684  0.7987832483927759
  0.0018353053492233  0.1988260467652469  0.9993455370142256
  0.9993204453742911  0.2026909269067192  0.1991196870833050
  0.9999845061185852  0.1955241568900721  0.3979091339637463
  0.9988865202190959  0.2008177305531401  0.5999467182711773
  0.9993938695089467  0.2002142035957490  0.7996068393889445
  0.0039224778214814  0.4007053587126374  0.9982240889449551
  0.0003509059236539  0.4004993466622873  0.1962948751962231
  0.0015030882648785  0.3988967042561462  0.8001735320150898
  0.9970965947071108  0.5997700780786815  0.0001842512138947
  0.9979642518036256  0.5983425160802500  0.2011751336217089
  0.9991948322250467  0.6011925947555483  0.4004936665765244
  0.9976773867328691  0.5990036208790165  0.5999365008281863
  0.9992662176562690  0.5989485204759526  0.8000314542502331
  0.0024224997774376  0.8002626988240600  0.0008846690540008
  0.9981289633682641  0.7965195822748100  0.2014107105825856
  0.0027737832993187  0.7992849101898069  0.4002763153852802
  0.0008454642426228  0.7985011479100695  0.6024692077804260
  0.9995949956840762  0.7982835852183994  0.8001945125756580
  0.1994220801988655  0.9973579682128867  0.0010340892808291
  0.2024344691901190  0.9997985562887757  0.2016372368562090
  0.1994329585657965  0.9996177907236918  0.3994432798408303
  0.1977627647652496  0.9988584609455891  0.5999500591506439
  0.2018978948130991  0.9981890185645913  0.7986308363895266
  0.2011517474630388  0.1987896675461863  0.0012930448862054
  0.1997696373622348  0.1991750904260803  0.1997231606041446
  0.1992598480674670  0.1990054360791886  0.3995181719055684
  0.1969514896642323  0.2001988996414204  0.5959670546145034
  0.2007667790612462  0.3990172155173847  0.9996785273617849
  0.2010799212103175  0.3998022264116714  0.2006289061524028
  0.2019479311856396  0.3993234387422846  0.4002516499880922
  0.1981798315449244  0.4006719538740180  0.5997137601081846
  0.2016157850844463  0.4004344619115107  0.7994683165917827
  0.2004310233880799  0.5991606908842788  0.2042558818143267
  0.1985076487852126  0.6000131144220767  0.4003539036239888
  0.1994344476650651  0.5996965893409245  0.5961928740456739
  0.1994635293753284  0.8000998478156384  0.1972038014432141
  0.1997339409950634  0.8008189433186532  0.4006451990483162
  0.1997570988392679  0.7985788763499883  0.6018868449367809
  0.2014362591033608  0.8004791988993257  0.8040933521318503
  0.3991517162515412  0.9997249838401626  0.0006861199685519
  0.4011725065736975  0.9995907084106572  0.2004287494855172
  0.3994648596187725  0.0005286435329981  0.4000997903318574
  0.4024119129110127  0.9985625797513286  0.8022312146842847
  0.4000741084820256  0.2001426053319928  0.0017241875367658
  0.4015231435850050  0.2004793152336409  0.2000461595381038
  0.3999539428063815  0.1996943396845343  0.3985993863820509
  0.4048039438783638  0.1997417324443660  0.8037313653057488
  0.3987332297427000  0.4003788683272037  0.9984899475003897
  0.4010070620269033  0.4007025776093260  0.1992693132165898
  0.3977404943272216  0.3983906063376652  0.4009693412668366
  0.3989571962515347  0.4035813219790810  0.6015858276635062
  0.4000122898812325  0.4001072115036761  0.8012437631763324
  0.4016774589974489  0.5993488098764479  0.0001709704487399
  0.4015989384044002  0.5994546613320041  0.1990524909126294
  0.4003607192831058  0.5999393189428520  0.6021633089310479
  0.4025860402231279  0.6001718445364774  0.8005012925452086
  0.4008786882959866  0.7988908955367219  0.2012891554948014
  0.3957227678188074  0.8015147388250354  0.4008266474514162
  0.3991646819133200  0.7966447858161931  0.6024150187604160
  0.5994557693678311  0.0011152825840935  0.4006199008561772
  0.6021846645838729  0.9993844506930438  0.5991155523604160
  0.6006807852571109  0.0002692351763252  0.7961494456863224
  0.6008046693281440  0.2020874951374913  0.9994672578151981
  0.6010176726389753  0.2001963292265056  0.1993766139708256
  0.5988001912997579  0.1985236164246910  0.4003014051254272
  0.6019302331034211  0.2005926386814071  0.6000460347591723
  0.6012754038530836  0.2000415000124788  0.7996013607777082
  0.5977481375978364  0.4009871401477513  0.9991638936337015
  0.5992150375332946  0.4003204625949338  0.6021248036412040
  0.5991780476780524  0.3995396094469074  0.7986765498995014
  0.6003003307078845  0.6003692167724967  0.0002125400759162
  0.6008135502579734  0.5988348541491898  0.2013627266024501
  0.6015394379982197  0.6000681521534684  0.5986780420681765
  0.5985868370145003  0.5991167337667571  0.7997444922499121
  0.5993349394774478  0.7982015060251975  0.0001210821313993
  0.5995405696691535  0.8003146131816691  0.1983757967626468
  0.5994444189649107  0.7990640900177647  0.6027687060111979
  0.5993061567724079  0.7991734518534546  0.8006348547114442
  0.8032267623222805  0.9994663801533414  0.0012476138703426
  0.7992010580254278  0.0002273934641186  0.3996101087320274
  0.8005147232277676  0.9991669474847210  0.5990784260827438
  0.7996461427273371  0.9988667549626785  0.7990340154590008
  0.7998423450007336  0.1979862969826527  0.0004718277653558
  0.8002044227990759  0.1999990260218119  0.1984799736364054
  0.8002768560599482  0.1991231140452089  0.3986305278770763
  0.8003236832901934  0.1995408361691029  0.5985657909423926
  0.8004054296223306  0.1984961747243826  0.7991087589801616
  0.7981505146985377  0.4008375816172673  0.1995548580179800
  0.7993208357822605  0.3988065482262691  0.3983797234272639
  0.8009289288471770  0.4000959211596820  0.5985199242688448
  0.7992314873728749  0.3955287646728806  0.7958611278454925
  0.7992308802437247  0.6029075131587721  0.0046289654031213
  0.7986111203253922  0.5979640780167408  0.3990497110438955
  0.7997440205307643  0.5994019530230237  0.5976723160643462
  0.8007441742992546  0.8008325690877888  0.0007073924873798
  0.7991237005289298  0.7993463717776198  0.1994342275030914
  0.8002880843032596  0.7980883014459048  0.6031374836672787
  0.7999082004642717  0.8009842286894550  0.8019152539879936
  0.9995331374486517  0.9987698426943824  0.6001109722901388
  0.0000814970327792  0.4001935635167095  0.6026231837520950
  0.3989270914833400  0.7995421007358819  0.0002626696230326
  0.4001417645749749  0.7986086646819018  0.8018598581009442
  0.6005772503102813  0.9999141183383451  0.2022410530668880
  0.5995241096582833  0.3995998236329527  0.1970610990147369
  0.6019761432809088  0.5992181047083216  0.4000514638862934
  0.8017865628084199  0.9997751114901370  0.2005912031280226
  0.7991722557987539  0.5997049932447902  0.2007353587643844
  0.1968683227695107  0.8022185220558592  0.0009919634695175
