Zr Ti V  Cr W 
 1.0000000000000000
    15.3205282173675101    0.0002014824685806   -0.0032720455521328
     0.0002023707323046   15.3277042438828079    0.0007193262014022
    -0.0032728540049734    0.0007198926617368   15.3420216939870571
 Zr  Ti  V   Cr  W  
   1   2 101   1  19
Direct
  0.3918967106657257  0.4188502411385908  0.8155519894062692
  0.6100976213281124  0.6091291124920616  0.0074014181051065
  0.7898662468656403  0.7847494156026336  0.0106132058737850
  0.9963725682764154  0.9940033481650152  0.9962018978510044
  0.9994060339794063  0.9991740845780824  0.1973464615832580
  0.9998139211930460  0.9971299657109919  0.3995560812980449
  0.9989842948539008  0.9950370947423690  0.6059520882005315
  0.0040874447899808  0.4010423772285522  0.9993751366848775
  0.9984046768570393  0.1988503252577514  0.2046518280689391
  0.9992889676230668  0.1986581743219203  0.4030719153583537
  0.9996903349416560  0.2004435106578729  0.6014813796922016
  0.9964256817205693  0.2001253174367087  0.7956895052099550
  0.0002244001085030  0.3983046997577008  0.1960800190288507
  0.0011301751912915  0.4013601380296400  0.3993349084036024
  0.0015586462671991  0.4019163139433131  0.6058069016391916
  0.0024636460197696  0.5986564733621280  0.9944043705334795
  0.9987111046256127  0.5980710197476110  0.1986401847316380
  0.9955772654850503  0.5984344706347875  0.4065319878962693
  0.0023696386084713  0.7976537600052107  0.9983229352586835
  0.9948507760019777  0.7977936127531329  0.1985668158067563
  0.0024372315248358  0.7987698929967106  0.4047852111933267
  0.0008128280510534  0.7983927680122926  0.7968227412325268
  0.1982877107663583  0.0032048311287272  0.0008298278134766
  0.1987767277078119  0.0001028137850609  0.1984935566246155
  0.2038065543765316  0.9958887556440569  0.3977659367905200
  0.2003846996118958  0.0050813795437475  0.5995779111442329
  0.1955974136960832  0.0001025856049155  0.8005142651169140
  0.2023239139834663  0.1994536740457994  0.9996604308755982
  0.1974978221494006  0.2001966247583992  0.2003274657844274
  0.1998536811430211  0.1994011215243541  0.4051673019838337
  0.1982891227940684  0.2002230903696623  0.7960048810937514
  0.2053961621881432  0.3976526910533520  0.0012742621080062
  0.2010917119848194  0.3996284339182438  0.2011145313577242
  0.2010389381867323  0.4001443401556909  0.3979842650265181
  0.2018097115823058  0.3943675100811597  0.5996625371033024
  0.1909200274495195  0.3981279274068762  0.8006938035344192
  0.1987739710450885  0.6015858188554469  0.0008804215609324
  0.1987880813515982  0.5989958131052950  0.2005354298530127
  0.2014149695543564  0.6028889710372619  0.4008663332245090
  0.1968322182590128  0.5973143103083323  0.5989534925054667
  0.2030132433555549  0.5976102961548828  0.7993428606254371
  0.2005111023014855  0.8005658063863512  0.0028255590536290
  0.1990021817434307  0.7991293012218866  0.2032636134268349
  0.1971144486328092  0.8008815223333211  0.5937304219205413
  0.2016920623836056  0.7994943953045053  0.7990558316330418
  0.4000409261169217  0.0014405487548199  0.0013610038316172
  0.4010268485356360  0.9994343363738805  0.2009339157851243
  0.4001270436875121  0.9991293711977967  0.5962514200813247
  0.3995541208311261  0.9955179741299429  0.8020185518820742
  0.3998283745459090  0.2030056652578246  0.9977580338747982
  0.4008400018689470  0.1998895753780990  0.2017692929978259
  0.3997508741116755  0.1957737142166043  0.4016265698064725
  0.4009397188528307  0.1998478243263058  0.6021394580433130
  0.4019436610724582  0.1989340390231071  0.7986960416959306
  0.4037204227122960  0.4011598339995936  0.2019542910637409
  0.3994302127818768  0.4022188836674260  0.4001647526360667
  0.4002468845216815  0.3993985831018839  0.6012046832905008
  0.3991549420843023  0.5986275232806459  0.9965442504096620
  0.4023220805082260  0.6010075294100513  0.1997999281246865
  0.4006189579328002  0.6005125710387604  0.4035778237889394
  0.4003393215935972  0.5984112044920518  0.6050320576892828
  0.3982758669340571  0.8015100474496651  0.9977416006227985
  0.4016564898811962  0.7974392163451923  0.1967967722209047
  0.3991498492511807  0.8002441590554557  0.6028309864306329
  0.6017452253288393  0.0037312386542081  0.0002023172482408
  0.5999445451091636  0.0009077662956651  0.1999437621251823
  0.5953772927162220  0.9982568369587570  0.3983340910453183
  0.5998861791017011  0.0034219552470322  0.5999472601030471
  0.6006223386702717  0.9978544038530837  0.8000240800359348
  0.5993596594249875  0.2012663775608620  0.9979341575879265
  0.6023053700255783  0.2024451673569065  0.2030174742710672
  0.6000644760222622  0.2001991487444670  0.4053623651667336
  0.6036092182615699  0.2008195915643137  0.7960789628721102
  0.5954105708962760  0.3988227678606160  0.0059847575794866
  0.5979970418502090  0.3992229177446960  0.3958572942814602
  0.5975014705567074  0.3951252681872022  0.5994690400447092
  0.6016458772099441  0.4024034697831621  0.8038577904943277
  0.6008457214810990  0.5956942359039945  0.2058383806729260
  0.6029877467169845  0.5996240437953081  0.4046016594047628
  0.6021344451916112  0.5979521023791059  0.5996439927957123
  0.6040850633755078  0.6009015201341080  0.7964263377074723
  0.5939140968994635  0.8056669235931784  0.0000873485608232
  0.6018339570747153  0.7984532773064184  0.1999296159493931
  0.5990763533078683  0.7989538236258283  0.4008922582583925
  0.6006305149977778  0.8021640847235515  0.5979209932547869
  0.5980865502786205  0.8010775299885727  0.7977594492585545
  0.7993740776262599  0.9947049268663202  0.1962072104453901
  0.7989695421602225  0.9982598321867509  0.3977127991511066
  0.7998614877672402  0.0017008687994879  0.5981616035261902
  0.8027119767525421  0.0003031111677577  0.8056565445314298
  0.7952041841794196  0.2021329326047539  0.9954307884938702
  0.8016806160997452  0.1995585938901519  0.2001104545050330
  0.8004030323638287  0.1979622754513638  0.4050927048635620
  0.8012564459641557  0.3973397073935353  0.0021941551899765
  0.7965475200068169  0.4000805777152232  0.1990966346082487
  0.8005478130422694  0.4028056254584486  0.3989387885783179
  0.7989773322551641  0.3953200549778068  0.5980626070642197
  0.8016422359831578  0.4000253862160099  0.8028855138828788
  0.8031821515758464  0.5932784963899256  0.9929456877604175
  0.8011960075895660  0.6017557496285605  0.2055017235847484
  0.8025501130724634  0.5970414892565371  0.5994765463890174
  0.7983450165433621  0.7959807737466538  0.3977808049998490
  0.8021528155663097  0.8023839096589682  0.5975349552232404
  0.7966279179938424  0.7939631114699460  0.7980905519877264
  0.3994767389018522  0.7987944353953921  0.3998882800147493
  0.9989435861590721  0.9975862822218590  0.8018328406593875
  0.9978956877463860  0.4024769462942538  0.8063945521008654
  0.0006043971348313  0.6020256344089957  0.6054193291563141
  0.9956131438765622  0.5964311987311056  0.7964579696927875
  0.0006238053009004  0.7963897384239292  0.6008935683990037
  0.1997847049126812  0.1994678152996648  0.5986154930294774
  0.1970708222846924  0.7997013465637625  0.3983482024435645
  0.3997318973872638  0.9992436854448015  0.3980701130710141
  0.4018175815893341  0.4017294100268720  0.0113034161704721
  0.4035927816003173  0.6149313652355384  0.8009127726203885
  0.3984886204097466  0.8002118629709860  0.7998644657314787
  0.6026278084330403  0.2001640010536239  0.6011825690426222
  0.6007477965469962  0.3983932269279535  0.2009343244341957
  0.8002550625565164  0.0103977609968657  0.0001098225116767
  0.7977916103160488  0.1993602114940804  0.6030573694225760
  0.8038777638285253  0.2012475773126836  0.7961471467849504
  0.8001076447720947  0.5997223706055701  0.4036260517033526
  0.8024650471417847  0.5971804668879792  0.7956309384347190
  0.7993366758685624  0.7993612162490646  0.2052685611597567
