Zr Ti V  Cr W 
 1.0000000000000000
    12.2882735461728885    0.0000000000000000   -4.3445607757035454
    -6.1441367710433559   10.6419570608175889   -4.3445607757035454
     0.0000000000000000    0.0000000000000000   13.0336823299999995
 Zr  Ti  V   Cr  W  
   5  10 103   3   3
Direct
  0.9948742278377360  0.9997122807649037  0.7962234322001619
  0.9933232932876527  0.1949896797926276  0.0015138819307396
  0.9987841065137351  0.4042779656940151  0.6065815792008833
  0.4052066644506576  0.3995605337645554  0.3998614692940239
  0.6049716288868684  0.4013203849473549  0.0031952109866923
  0.9909229907946653  0.4005704923849249  0.3935538510944137
  0.9992557252759505  0.6090172850982164  0.0063826604733376
  0.9993185774074650  0.6013015857949022  0.7964900901053030
  0.2230199221504075  0.2080741423243034  0.0179553094904704
  0.2017977504777616  0.1965573903883528  0.5988405027224747
  0.1949526899075654  0.4001967388071567  0.3940861069702143
  0.4008761910876290  0.8005455883318731  0.1992728267898987
  0.5989068685730463  0.3690141984904796  0.7900118260916414
  0.5999008630653990  0.7981263987838096  0.3992432647577236
  0.8001487323283231  0.6010530239895402  0.3974978848999163
  0.9942047629112709  0.9832106270215908  0.0051765513041919
  0.9965397414392833  0.9966516078058654  0.2002924948112521
  0.9957325875718516  0.9955039026852721  0.3995050225729170
  0.9900228978684525  0.1908506185109299  0.2041370669421855
  0.9996146337969309  0.1956306503325889  0.3991009827099012
  0.9957884602362445  0.1882347066012669  0.5989431360677275
  0.9965380146049945  0.2132125568492400  0.7938356943182578
  0.9956012646437751  0.4018150612894594  0.9963512636260515
  0.9996842984439048  0.4023115273542071  0.1983889928235528
  0.0013819374825403  0.6039441777532131  0.2059242652722002
  0.0060006141372235  0.6081224734317143  0.4006164972045556
  0.0004985322825949  0.6124381577967859  0.5941247805892697
  0.9978566600706520  0.8029128290601473  0.9990101830902544
  0.0009299061057673  0.8026216825218455  0.2031013778948600
  0.0027200326073356  0.8017143115628984  0.4013309154897108
  0.0024283010057954  0.8071245597015964  0.6014782048698203
  0.9982093501853180  0.7968465824548651  0.7969085330285376
  0.2022438377981561  0.9929890752364432  0.0002737687165906
  0.2001669756497111  0.9967354386881183  0.1994555680309595
  0.1984834160935786  0.9967017247606821  0.3981055534143429
  0.1984363540532182  0.9954052491546862  0.5998951755846919
  0.2080996719399047  0.9997101050111449  0.8019720007405581
  0.1932871341441974  0.1869859392104596  0.2009998800664543
  0.1984313424790136  0.1913646255921484  0.3925410619998396
  0.2001379870798785  0.1976377826352786  0.7979969516345643
  0.2021093406081640  0.4028717323124770  0.0006465161845948
  0.2066137710955973  0.4119350705509907  0.2004677900888635
  0.2036221235471468  0.3985668066773801  0.8025034742700659
  0.2004228358229260  0.6046078137911335  0.2016269905448970
  0.2021403892684042  0.6080156900374452  0.4015174666724033
  0.2084032355347537  0.6095347663171322  0.6026967355173837
  0.2167536197076096  0.6146283176145440  0.8061887640206761
  0.2043071764888631  0.8042585835059316  0.0020055589473689
  0.2023654106298479  0.8077512515282161  0.2086211284149122
  0.2052864795007176  0.8071967741839698  0.4063298814863277
  0.2031718098690796  0.8028723943208365  0.6004174897757590
  0.2007304982441304  0.8010278225840941  0.7983594155962137
  0.4028255589008918  0.0000640426708066  0.0014349276716530
  0.3980434245917477  0.0004858090369042  0.1966703534356384
  0.3990178372198924  0.9989832292281262  0.4000591354014159
  0.4444167262415928  0.0449847379183011  0.6428730158478644
  0.3974281832719526  0.9982481777261361  0.7974480372785744
  0.4053293518092135  0.1940773758152656  0.9968762360872355
  0.4039336542203351  0.1949269897099283  0.1972585318986700
  0.3997183448095358  0.1888046782786293  0.3959026351575217
  0.3936899437461056  0.1869052112016121  0.5864759069769567
  0.3908697562015858  0.1885909497290638  0.7890217675587531
  0.3965137554815716  0.3991455265958566  0.9979894923556492
  0.4156661083642587  0.4124500004182948  0.2001293858876652
  0.4048373440534583  0.3983014542364138  0.6092189657501120
  0.4019311809233325  0.3975224369266577  0.8040501755170302
  0.4037645713136057  0.6008506437320206  0.0005242311858030
  0.3983527451446776  0.5950777723645374  0.1955596290991313
  0.4013961969512102  0.6116554120368536  0.4025687779498086
  0.4080025950498326  0.6089348793483864  0.6082507396497819
  0.4051900235514014  0.6030178662908801  0.8031848274173843
  0.4030159813956284  0.8022320489759089  0.9959712794379213
  0.3951514535910116  0.8018594456270793  0.4042323029750179
  0.4023551717626928  0.8070800925506346  0.6040349940565192
  0.4028301137972622  0.8036826217674831  0.7992569044448748
  0.5978695808464785  0.9988067758042123  0.9983184339492697
  0.5981243239668977  0.9994918832354651  0.1951237433869113
  0.5946192480138374  0.9960410756200786  0.5955396383753923
  0.5970311147630853  0.0081931662451739  0.7999523874194266
  0.5979492062251076  0.1916441473035291  0.0032042947211364
  0.5973849443363328  0.1972574312438637  0.3930713586971540
  0.5985202975329684  0.1966493915444706  0.5997628234872742
  0.6001293319586949  0.3921273147379534  0.2027424845021691
  0.6103333082464835  0.4004245201510590  0.3990778282822386
  0.6013041189510171  0.3969398513365499  0.6016256141262916
  0.6026453039177238  0.6084778626835349  0.0023585653392697
  0.6041930433599197  0.6055238667385117  0.2025476286118196
  0.5990398979325778  0.5989335583143126  0.4008040173971075
  0.6073864250006137  0.6064049963557153  0.6134431973132226
  0.5997254788853175  0.5958018346395078  0.8024240086181471
  0.6007633162744741  0.8015282230839572  0.9995017007868983
  0.6053382364295311  0.8003362090860827  0.1953787213909917
  0.5969442473976765  0.8006129101537628  0.6045422511403420
  0.5982556602195733  0.8006731276295699  0.8017000448390910
  0.7921033769517585  0.9952280503645126  0.9981538969630366
  0.7969776180970505  0.9972908027628373  0.1983753111467349
  0.7984254777083422  0.9987065359729554  0.3978933031826667
  0.8006995427256481  0.0038933505458997  0.6018156239480271
  0.7740965826760744  0.9917275247042144  0.7890389591843000
  0.7924774817475950  0.2041454618710066  0.0066030292444544
  0.7898386650935589  0.1939430557843068  0.1964468463550966
  0.7963754030679933  0.1938771413828623  0.3929297647275125
  0.7963718990145264  0.1991916993980836  0.6010727608046608
  0.7808751827703532  0.1993945629523631  0.7950724131433495
  0.8129122087997431  0.4036924242213666  0.0010416404527891
  0.8037650193062953  0.4015030110699730  0.2033773825174811
  0.7918642420926083  0.3945921001388704  0.3970323960464345
  0.7834178240524527  0.3945158172826790  0.5930360954977484
  0.8090325352841320  0.4025633724729695  0.7968979829902422
  0.7984695613123466  0.6024738158452724  0.0026297114382783
  0.8112536943885199  0.6107066434581246  0.2040634599336700
  0.8007459202882234  0.6017020548105786  0.6049092906867286
  0.7959543865006163  0.5988997385085454  0.8016339574518180
  0.7962319391446371  0.7978701064849374  0.9996504578073536
  0.8005474000843524  0.8007206002725250  0.2008870242601651
  0.8080545973546689  0.8094315405120961  0.4051122360944364
  0.7891483910218435  0.7911472936269855  0.5907154282269175
  0.7935877153104707  0.7959073769700955  0.7991314966622586
  0.9983114100402442  0.9986005880446565  0.5929239388237361
  0.9945454615874739  0.3955502374852187  0.8051325528170862
  0.6005785259945469  0.1968196696712757  0.1979285732167119
  0.2082581939450812  0.4047080892154911  0.6033162157964147
  0.1987073783708415  0.5979820373093442  0.9940629562229781
  0.6026429549565296  0.0045383962965792  0.4007806009345021
