Zr Ti V  Cr W 
 1.0000000000000000
    15.3990340272275770   -0.0170018773457157   -0.0022529018582575
    -0.0170107766548915   15.3787801482628375    0.0165544931564424
    -0.0022517709109467    0.0165430754876648   15.4057927644380346
 Zr  Ti  V   Cr  W  
   3  13 106   1   1
Direct
  0.1877853452272940  0.1997652939678974  0.3726776912352135
  0.2037831460043346  0.6150542632008227  0.3864502804150154
  0.3851950730394204  0.7964882410430402  0.3899164436810588
  0.0026521211480957  0.0024507348936672  0.0047518283190084
  0.0003835931094200  0.1966506773162852  0.7999228157695765
  0.2042592973301556  0.1994439997720731  0.1747204818535102
  0.2052700589908757  0.5864420523872208  0.1842816454091905
  0.2110103689699634  0.7965172663875412  0.2131971753208693
  0.3889760890628934  0.2021021588643020  0.6031540885675273
  0.6095130184613896  0.0152785891633189  0.5934943647641112
  0.6028420437302869  0.1926142253929661  0.4133299070191389
  0.5889407818099087  0.2030968911418901  0.8126922157635371
  0.7939545432387667  0.1995739271357571  0.1959700297792028
  0.7830330027614391  0.1972783789828652  0.5944227457391066
  0.7972415721811997  0.1990064466135352  0.8029841897226193
  0.7790585344951260  0.7982889484720618  0.1976745690014560
  0.0028683507744636  0.9993800740057530  0.2057004736766120
  0.0021295477856203  0.0019091421665840  0.5962659872824213
  0.0019019482711707  0.9988667152825725  0.7974573209665424
  0.0013511095898151  0.2015149027453825  0.0043357933847045
  0.0014533383250291  0.2001518186460650  0.2008597054938900
  0.9883548243894226  0.1970308167735381  0.4011701327919576
  0.9979409205102725  0.2010361838185883  0.5970406125121667
  0.0011493663456581  0.3992794500533497  0.0018171802686817
  0.0001696109156638  0.3989173127360517  0.2027021795648757
  0.0016122139341958  0.3980883251101366  0.4011051750272930
  0.9994959725959244  0.3992191162741602  0.5999598043394248
  0.0010292187287870  0.4009631179548557  0.8002575447646411
  0.0023104431088434  0.6005913704336101  0.0015061392805365
  0.0000394500746863  0.6001445357166526  0.2005857663597387
  0.9967842346892356  0.6004660215938252  0.3992143076617876
  0.0017782313708905  0.6006560018289703  0.5980803017879766
  0.0008822237558851  0.6003553299329516  0.8007025476751696
  0.0028376680478431  0.8000793967198786  0.0038357574918948
  0.0021949682664280  0.8003858958712593  0.2020144955761500
  0.9934775891487316  0.8066686106550903  0.4005929823599692
  0.0001604757514709  0.8005400026330554  0.6011551064616879
  0.0007167270452126  0.8005562437307775  0.8003903743164976
  0.2029837364029389  0.9998696271443682  0.0003960851641400
  0.2045026963801012  0.0037681598825112  0.2012028724524660
  0.1980337072085616  0.0000352852229284  0.4014456014985932
  0.2033752982673727  0.0036041964823460  0.6000341086974249
  0.2009994222580609  0.0005610411290575  0.7985584759236126
  0.1991726486449734  0.1991218436207390  0.9866097463537441
  0.1951511302359715  0.2012360452648574  0.5956166884770969
  0.2013185046484422  0.1994447519180053  0.7949124329449656
  0.1999276982403852  0.3973067604411311  0.9991630663402400
  0.2013562372720114  0.3934025782661434  0.2012314551298583
  0.1997465853635259  0.4028984412673237  0.4017342012895387
  0.2003368041730540  0.4009132383766388  0.5989057409539555
  0.2006199356954964  0.3995408796739588  0.8000157817380509
  0.2010550264132210  0.5991889093653011  0.9942476552456980
  0.2013609792468677  0.6007444073288694  0.6002573998621313
  0.2012334827189263  0.5993794617610253  0.7981975336027769
  0.2018408038838994  0.7999827731912751  0.9991398525319921
  0.1868543752407094  0.8127184002178932  0.4097406356446709
  0.2003642483080223  0.8009628901000836  0.6034256469536737
  0.2009515778950084  0.8021442770672882  0.8014259891899799
  0.4011927029526269  0.9999293048400074  0.0020617204438197
  0.4040489316512225  0.9972307363932180  0.2018183506411887
  0.3990330221475396  0.0054191100250650  0.4013100268324364
  0.4024608538839730  0.0006929138795617  0.7982308387133298
  0.3992855145166184  0.1980744374535507  0.0018868012618175
  0.4004536684750509  0.1990796997644494  0.2017482416907080
  0.3973387079361301  0.1987584717822420  0.4002318524693498
  0.3956794941802357  0.1995100900930860  0.8052322705273105
  0.4011897643390340  0.3989247453982147  0.0018458281387770
  0.4014807433471236  0.3975611694050570  0.2023223836891142
  0.4008013604467851  0.3951842490984069  0.4016729329919932
  0.4000740300776368  0.4010672459785787  0.6012134269054417
  0.4011037503239734  0.3990491140545663  0.8003386067882780
  0.3996928485819693  0.5990405316375971  0.0002444348038875
  0.4086178626834510  0.5959189012309398  0.1976805966465215
  0.4091950834714440  0.5909257914684982  0.4004248613160061
  0.4015064772917940  0.5987365236133320  0.5995224938857906
  0.4023069606362295  0.5999565240835329  0.8020353762093043
  0.4019496103690774  0.8000099183364358  0.9985119012794920
  0.4081980585757664  0.7984692603856011  0.1917115883670956
  0.4005973544831528  0.8006879444518260  0.6021777848405517
  0.4008982402627937  0.8004756333521104  0.7997237180576681
  0.6019114479984977  0.0008081807211080  0.0009725686248824
  0.6023389231821534  0.0032862360029899  0.2024255438892866
  0.5981480689208417  0.9949933942896145  0.3977958439694223
  0.6015095134760770  0.0014815797234996  0.8012508989705088
  0.6003359319533536  0.2005026792770579  0.0073977118302665
  0.5969685670337886  0.1989988852021457  0.2026489548101165
  0.5902246607234811  0.2068588194941262  0.6096143260684602
  0.6015834303619054  0.3991343077191001  0.0018263788612624
  0.6010062584549011  0.3978756619738422  0.2029711979998951
  0.6017671315438760  0.3990668366186343  0.4029789549379356
  0.6002216138540588  0.4020288939728279  0.6025357408441198
  0.6009535113034977  0.4037145505542936  0.8032731724786811
  0.6039111556806722  0.5968648194242530  0.2018300526571190
  0.6030558712566566  0.5998848302908069  0.4001169747035019
  0.6012208729038139  0.6023399655865067  0.6012429518359859
  0.6015614959906009  0.6011867933483648  0.7999816737777300
  0.6016936649640489  0.8025762453233629  0.9997261766861647
  0.6009657678174277  0.6996887996827268  0.1007872123976977
  0.5986383396331720  0.8009273943620994  0.4033582998487228
  0.5993754595515028  0.8024625907829720  0.6003070030561741
  0.6005485258653821  0.8022740225996267  0.8013335576210417
  0.8022968038534065  0.0005823118849237  0.0010829646842008
  0.8009575025728077  0.9993856099856754  0.1996863837347512
  0.8113045224268586  0.9971874517390196  0.3960149141593577
  0.8047760338209623  0.9970965255815500  0.5989505081727705
  0.8019787164224504  0.9990218381485778  0.7986631270245290
  0.8012926539192518  0.1995888353296021  0.9981431709127165
  0.7983005078783527  0.1985581078988299  0.3969365407275597
  0.8013437575123133  0.3997018662721250  0.0006751405014649
  0.8014987720393880  0.3993770660272749  0.2008626023516699
  0.8011079292190982  0.3980911735683336  0.4004967655093791
  0.8001120540873631  0.4012221741316489  0.6002971935305211
  0.8009960778569647  0.4002337506108662  0.7994089907161808
  0.8047256839807669  0.5996189735573098  0.0001572342286774
  0.8001031568907090  0.5967297081516948  0.1990215323779598
  0.8019013717731276  0.6006857478199500  0.3999344918752502
  0.8005135774364485  0.5992251923994891  0.6002141078710340
  0.8008672390294763  0.6005261930815865  0.8014332608625183
  0.8007821134718973  0.8000078301320688  0.9973433430737721
  0.7967046660248704  0.8000413200729366  0.4024636655070895
  0.7999500008636304  0.7992633162842788  0.6024444639083405
  0.8009331382017204  0.8009248302867654  0.8003491898299694
  0.3991999233207699  0.9982183819921761  0.5987712054093024
  0.0056162838763823  0.0045245452636308  0.4008000337124261
