Zr Ti V  Cr W 
 1.0000000000000000
    15.1344159468402140    0.1928929299847773   -0.0580234881136844
     0.1924937211408279   15.0696649594176133   -0.0247186922828946
    -0.0579360425274121   -0.0247014943739166   14.9927174202121609
 Zr  Ti  V   Cr  W  
   5  10 103   3   3
Selective dynamics
Cartesian
  3.0967259632149338 12.3283329712699157  5.6866399546520805   F   F   F
 12.5616567723423493 -0.5826159485533944  3.3267581195501270   F   F   F
 12.5349147439817656  3.2160549588902021  2.6857945154047527   F   F   F
 12.1905371076522968  1.9168058192390283  6.0151142058090157   F   F   F
 12.8624911398585642 12.3157022079287408  0.3595633830711851   F   F   F
 16.2494678318012689 -1.0969708997905991  8.8094236133064552   F   F   F
  5.8883045124235647  0.8532462274766632  2.0700956117053058   F   F   F
  5.5923681533351939  8.7704213364400996  9.0930752198010101   F   F   F
  6.5602951818997601 12.4991777937044848 15.1748091027177363   F   F   F
  8.6912076038294259  3.3337700771215064  2.4085184404455835   F   F   F
 11.9316994482814156 15.7366790462943875  9.3294375732378967   F   F   F
 12.3495019475622367  3.4240979379297993 14.0244478454763559   F   F   F
 11.7898806840411225  6.7690124427997258  3.3099275149365273   F   F   F
 12.0565713423584864  8.6158551995947832 14.8171564397380475   F   F   F
 11.8334716102726656 12.5179032167053990 11.7325719698449014   F   F   F
  0.2666676451648940 14.6131588115538005  0.4341300824461158   F   F   F
 15.9121176178498516 15.9408209674438517  2.4238661618988142   F   F   F
 15.3044193780416187 -0.0329000462949520  5.5364554437930753   F   F   F
  0.4774682201320166 15.3964445566362134 11.0555322478318452   F   F   F
 15.6592010753640078  2.8044673648230778  0.6353302652487638   F   F   F
  0.9542139945059741  3.0956195301463159  3.4560799906535724   F   F   F
  0.1712546603537925  3.4523798069422660  6.2301640366003816   F   F   F
 14.3991456776254481  3.3759161418060053  8.7588800368571338   F   F   F
 14.9807609942601907  2.7282870051190864 13.1525859359023833   F   F   F
 -0.2719787190280137  5.9689293710164897 -0.3672854239623544   F   F   F
 15.4048252321657824  5.7173530619837152  3.1712746578255753   F   F   F
 -0.0732640248545543  6.4072398249912386  6.3007363918640875   F   F   F
 -0.0249905806105949  5.9942997696830282  8.8974376408055651   F   F   F
  0.2922701864066780  9.4482069407218656 15.5945624564335219   F   F   F
  0.1153909362866891  8.1954711652265946  4.1165080252019646   F   F   F
  0.6903528854771482  9.5729169388942150  5.7753323784049231   F   F   F
 14.6711523577804730  8.5714170949504478  8.4728167958508447   F   F   F
 -0.4642174601201324  8.6177952123548938 12.1013854326982102   F   F   F
  1.0176300167731223 11.2105721374477660 14.2588814581845664   F   F   F
  0.4969870261111946 12.0556801365273465  3.1457044863461556   F   F   F
 -0.3342293507548387 11.5066625994641321  6.6883843859779413   F   F   F
 16.2072920316085600 11.0482794202536496  9.1645100323607878   F   F   F
  0.0910390959201266 12.2322850229670905 12.6503500874218062   F   F   F
  2.9737625758845279  1.3303720775587153 14.6286663746534842   F   F   F
  2.7485423361064898 -0.2943217485253491  3.0427822826648558   F   F   F
  2.9095079673902378  1.0267299341907765  5.8011465694186244   F   F   F
  3.8330693739006154 -0.2299379621186056  8.3816506234240844   F   F   F
  3.0237501814088330 14.3504258436746692 12.2883945308272029   F   F   F
  3.1306987835221722  4.6437955729038816 14.4808710604124400   F   F   F
  3.2442799705188667  3.3612161393115572  2.8909658879940334   F   F   F
  4.0570052332727231  3.2235337666120030  6.5922181788099463   F   F   F
  1.6380276634023592  3.7064576771963762 11.9801461431073086   F   F   F
  3.2872719496714606  6.2763910317062264  1.0048001815750724   F   F   F
  2.7846290559648956  6.7562698562365497  4.1838807829119586   F   F   F
  2.7165663524844899  5.1254418376525122  5.9447514677332434   F   F   F
  3.7433273115896641  5.4767085593381273  8.8253805809402692   F   F   F
  1.8254175942959616  6.0946712551322690 11.3381646477251206   F   F   F
  2.3924741449777924  8.5473203049981592 -0.4310866327247568   F   F   F
  3.1881665990799299  9.5718960823578225  3.0836908472091880   F   F   F
  2.7115962439241743  8.7208651657994416  6.6239757959005843   F   F   F
  3.2565146262919371  7.8728944096036910  8.2117471013393786   F   F   F
  3.2066466301627421  9.4225392746191527 11.9207546176301644   F   F   F
  2.8972123282637825 12.0594939585664545 15.4391858651881009   F   F   F
  3.4032230859626322 11.7719195260336917  9.1052198769764825   F   F   F
  3.8225812185505057 11.8044366654833777 11.7633134917251567   F   F   F
  4.7680132039151122 -0.2362322592038922 -0.3947097796101667   F   F   F
  6.0932075284744363 14.3787908758869740  5.3152383621258972   F   F   F
  6.3100168228683904 15.0643326608908943  9.2242615527678602   F   F   F
  5.5161974200812542 15.1313439558918272 11.9195899326523449   F   F   F
  5.8620434907189276  3.7975792673721518  0.2761393258735597   F   F   F
  5.3942163494443465  4.4143374912630522  3.2507819257140991   F   F   F
  5.8998960196853920  1.6565114574309692  5.7726564497721684   F   F   F
  6.1939769903759077  2.6271125064436576  9.5080443085197288   F   F   F
  5.6576198077122211  2.7077367710788125 12.5565393216696410   F   F   F
  6.6549593457213616  5.6619069859538929 -0.1540496348127001   F   F   F
  5.3910838923801130  6.7929964922633639  3.5201433441974275   F   F   F
  6.0581086212906143  6.9156379696474586  5.9187934439638710   F   F   F
  5.8639410410527972  6.1480023605189933  7.9205175252046924   F   F   F
  5.6910807576044053  6.4225671854893767 12.0297816535154443   F   F   F
  5.3251521884915194  9.1788060345137161 -0.0884424824897849   F   F   F
  6.6792169460328443  8.8900693021868040  2.1641693213662823   F   F   F
  5.8362831506596580  9.9590141835355617  5.6649286872740081   F   F   F
  5.6799093555021374 12.3797936244059787  2.9357129449505064   F   F   F
  6.7966561701142592 12.0931632178396349  5.2804636382960615   F   F   F
  6.0158848975113779 12.4823134991298126  8.1950012163042434   F   F   F
  6.6245042494325528 10.8456717561687555 11.7763928356439163   F   F   F
 10.7161974843278482 15.7399220903850505 15.8510760150888981   F   F   F
  9.3659453176568146 10.8537651158161950 15.8932431636255647   F   F   F
  9.3968857695795851 15.5258184410852866  4.3312167806080675   F   F   F
  8.3661476342385068  0.0428402523087603  7.9880794077963690   F   F   F
  9.0887958992022782  0.1027910871789760 11.5910143978487898   F   F   F
  8.9313406479942579  2.7103602836416743 14.2321446347139364   F   F   F
  7.6416014152582550  3.4662682427824532  5.8986108065709093   F   F   F
  9.6871136119134746  3.6688532756315126  8.0732987247487706   F   F   F
  9.3588872404030869  2.6576737794054002 11.7069316554002398   F   F   F
 10.2301889309358724  5.6027801810484315  1.1737880649619492   F   F   F
  8.2158254106889341  5.8535639498281125  3.3135541278299447   F   F   F
  9.6604800463129674  6.3772628336029467  6.5695935202952835   F   F   F
  8.2053753931778335  6.0385899762688418  8.8654856662712263   F   F   F
  8.1956275929767770  5.2598040569145850 11.6061934447738420   F   F   F
  9.0555410498658837  9.5529066586796798  2.9680681706648513   F   F   F
  8.8457771057856736  8.3823476836972812  5.0451179906633419   F   F   F
  8.8761018857386613  8.7101365155692463  7.4085023928188605   F   F   F
  9.2949363492050843  9.8070773411349084 12.4400701922571493   F   F   F
  9.4000976098449325 12.8195247249548689 -0.6713981357121453   F   F   F
 10.9173715809702205 11.2485202776293995  3.2638523305416647   F   F   F
  9.0367049214511148 12.0493070559917843  5.7573230195000722   F   F   F
  8.3561944214611437 11.3806664042932830  9.3466189219427367   F   F   F
  8.4351552063767556 12.6497167524383674 11.7020984463834168   F   F   F
 11.5510801945918793 -0.8841016138623474  6.8462307099261102   F   F   F
 12.6447677884962442 14.9609000563593959 12.8447161523718378   F   F   F
 12.4450152890440702  4.8629210325347190  8.6027054480724736   F   F   F
 11.7671219249485119  4.0156740297819349 11.3347855585791244   F   F   F
 12.6473646833809781  6.0553035491010405  0.5719386501734054   F   F   F
 12.1328111204169335  7.0917700416744296  6.4654564941776833   F   F   F
 12.4250802034290793  7.1511278368584659  9.2470641352652709   F   F   F
 11.7693120746849829  6.7204083394832699 12.6315430624150036   F   F   F
 13.8369525067948533  9.2119289499555386  2.4447312314615566   F   F   F
 12.2950630164022119  9.0899369112087616  5.9691227400439493   F   F   F
 12.0197815191639563  9.5774918143884644  9.6076423178825987   F   F   F
 12.8226788342091389  9.6979548066623913 12.5253720641615143   F   F   F
 13.3638197274459145 11.6628336288766796  3.2313875269126733   F   F   F
 11.0637237692832784 11.9694486824086805  8.0230011364565197   F   F   F
  3.1443044649932892  3.4235187306780404  9.2173658654040889   F   F   F
  2.9830242164605094 11.8134067074619260  3.0687419677694727   F   F   F
  6.6443711355802373  8.6381363092688055 12.8736342146544249   F   F   F
 -1.0127157579942407  5.1405342386517905 11.2451514583783503   F   F   F
 13.1241168255111962  1.1102898658300202  0.5434566203487087   F   F   F
 12.1042431605396494 11.9686116937881870  5.5521471360033399   F   F   F
