Zr Ti V  Cr W 
 1.0000000000000000
    15.5633147981762434   -0.0105082892338306    0.0011052113616143
    -0.0105224976463168   15.5390273600018674    0.0056805954645976
     0.0011054290159095    0.0056800010957864   15.5617863503600393
 Zr  Ti  V   Cr  W  
  10   1 106   6   1
Direct
  0.0078325656571496  0.1881300712756275  0.7962853406985858
  0.9987499430930759  0.5980105640487720  0.7988616640429724
  0.1907248521781109  0.0053986949961708  0.8016662486803300
  0.1965718496014781  0.8008706653217953  0.3978764912712796
  0.3960390607843201  0.9972676166930259  0.9982987282673536
  0.4238041864087396  0.7761147140165590  0.0015398687111996
  0.5981373562825878  0.2012773137253268  0.2022718219244785
  0.6104414427466610  0.4093584985760177  0.3992203980779963
  0.6006695051805846  0.8005958893797894  0.6035267540189808
  0.7940655451673270  0.5921600127897495  0.4006696655694191
  0.0002958900632194  0.9954983209121953  0.2029209366655906
  0.9975545992270350  0.0009350843800342  0.9998271365928362
  0.9983247629715958  0.9994214079936409  0.4011566302957923
  0.9986713212473236  0.9979949912966225  0.5973984743200174
  0.9882943545139607  0.9890912571895829  0.7981577882729470
  0.0006779484968912  0.1997859999817955  0.0034879648938468
  0.0015006897329475  0.2016419298281903  0.2007165089122367
  0.0025082500903300  0.1980875154391986  0.3991527794232932
  0.0026222892411163  0.1985681367247257  0.5942619869884186
  0.0011727613982648  0.3990465068551475  0.0000026670519411
  0.0011023237076441  0.4004641577442308  0.2003890748735087
  0.0038568296412722  0.3984126857852804  0.3990491015371513
  0.0020203820170897  0.3986768567803990  0.5993675186944235
  0.0003197745428323  0.3953675567390468  0.7993512581482359
  0.0008410345754508  0.5990989272335443  0.0035367149454633
  0.0002614686106497  0.5996973610410846  0.2007299028074732
  0.0019845400039606  0.5988507926604395  0.3992163023775200
  0.0009039112962010  0.5990059619316833  0.5948322267714202
  0.0009168502075597  0.7986417126072353  0.0002816721132215
  0.9982999615203337  0.7974113037230921  0.1999351763542061
  0.9940295122649861  0.7981615493225512  0.3997732678428357
  0.9997799067966252  0.7985488202173004  0.5998461942066149
  0.9985125640742970  0.7998765795219870  0.7994186001767685
  0.1928031818708906  0.0019820355374518  0.0052551320869816
  0.2007292779155924  0.0025507468200319  0.1986392250940963
  0.1987102070591891  0.0043825106434089  0.3980841783158047
  0.1982320598753428  0.0002670015222559  0.5963321900529152
  0.2005494073272398  0.2021903089334618  0.2004340389512586
  0.2004830498990374  0.2010670945646116  0.3984805361605231
  0.2070611813770521  0.2021399970894298  0.5974504126541916
  0.2091801205953553  0.2088262449482960  0.8009717933366999
  0.1997760096340352  0.4017354364575488  0.9998428237805786
  0.2005887440545201  0.4020088666352638  0.1982060168371943
  0.2004917679139909  0.4000222453914439  0.3986292300803024
  0.1996593391377621  0.4006393793193417  0.6000922336353722
  0.2017586127650622  0.4023597795122474  0.8014892872717733
  0.2015966859780443  0.6006828805575354  0.0002959146871362
  0.2006463460343019  0.6003960738101000  0.1984899128589893
  0.2005370158763747  0.5971867569000420  0.3992453418760331
  0.2019060251023700  0.5991648615541257  0.6001278293123299
  0.2007724043109439  0.8023409606096125  0.9981684443064537
  0.2003827957738671  0.8004459547655367  0.1944686851639672
  0.1976752517040015  0.8008918918475962  0.6033484110708854
  0.2004833465493700  0.7985268818051955  0.8010556855165997
  0.3986604542934117  0.0014643516762112  0.2055094298019062
  0.3999694762240156  0.0009072538613650  0.4013588082674731
  0.3977833237988541  0.0049749021263206  0.5974723846238700
  0.4003246447720086  0.0011519371146214  0.7930459882512014
  0.3995938290221797  0.2044748682133634  0.9993462506301793
  0.3956760867296756  0.2019014601621387  0.2013185320536681
  0.4002065479296589  0.2017358359256146  0.4046200843388877
  0.4023589990040355  0.2011417060176421  0.7957465717274400
  0.3990843079609465  0.4009857708022812  0.9983574994751060
  0.4005822250503544  0.4018840118673813  0.2004678234526895
  0.4001918727369544  0.4008401939174821  0.3995239825466959
  0.4004909038351083  0.3969782004414576  0.5998887474400397
  0.4020287623037749  0.4014223167902192  0.7992550927542280
  0.3986896964495170  0.6011689851929803  0.2008016237339198
  0.3978506025077220  0.6002642151795409  0.4007445386533829
  0.3986434281224354  0.5986231364901083  0.5993728538697739
  0.4009272262547722  0.5993962337678008  0.7980185526119844
  0.3991483389104221  0.8012349186582918  0.2049714676501317
  0.4012166404691630  0.8016321985685871  0.4021334717762658
  0.3972993176090903  0.8016254584206657  0.7966879703443243
  0.5991058221437743  0.9960232253965744  0.1999917526009330
  0.6001631573670199  0.0002606637133244  0.4002001735203951
  0.6001168934117622  0.0035544982324862  0.6000685740343464
  0.5984607180324967  0.9990731050441964  0.8003287648539004
  0.5989158595344688  0.2006232212205681  0.9962120956648326
  0.6018780341625135  0.1989379771244889  0.4050825190139172
  0.5967631262770077  0.2015993142140649  0.6009043813002967
  0.6005667763813025  0.1999525529419019  0.8000056968173427
  0.6018977846226770  0.3993621741047035  0.9983705702266233
  0.6022145536567659  0.4001973531957103  0.6037478956590726
  0.6007167661855566  0.4004344518088017  0.8006497088944390
  0.6007297306110133  0.5955035406353679  0.9988309464193196
  0.5989383629121927  0.6024293881680719  0.1973479984334921
  0.5904820461356741  0.6107381956711522  0.3995595237882767
  0.5971976693968718  0.5969691573768950  0.6014489144963212
  0.5991689381841189  0.5991485865216850  0.8007331225179103
  0.6035434648615378  0.9353494246070417  0.0010648597054175
  0.5978945987536828  0.8004239295708633  0.1977656806476003
  0.5997927349201089  0.8036461026092925  0.3968521504889498
  0.5972103427037968  0.7995141828465633  0.8090962946142917
  0.8000497185986718  0.9993630481417493  0.0007691703788140
  0.7972457956916031  0.9993005799808499  0.1996232586912017
  0.7996110335241194  0.9994274392671496  0.4001548503185809
  0.7998219492287678  0.0008394240014613  0.5999234687596764
  0.7947180207841089  0.9985235639269018  0.8006135397637264
  0.8010224738820330  0.1995110099891534  0.9997916765495275
  0.8018753999599153  0.1962893687819865  0.4000554654816810
  0.8009430857950763  0.1990175634123978  0.6006554646761774
  0.7981736719073824  0.1981694568849634  0.7993658047101282
  0.8023928773336456  0.3981482407450963  0.9989231339380946
  0.8030649670595649  0.3994599337208306  0.1969095723927143
  0.8118653443140871  0.3891607059317004  0.4002498643581825
  0.8025266422601758  0.3966380844490155  0.6021536812601086
  0.8001492008071558  0.3974632297200679  0.8006459113359699
  0.7983503730361736  0.5989873137007865  0.0005005722884759
  0.7992055588073771  0.6005297895365102  0.1964842903531288
  0.8000447117750047  0.5973068287437556  0.6035945129457982
  0.7950515114184006  0.5992366610426836  0.8005845735006371
  0.8034889220336733  0.7998980725389778  0.0004239781281768
  0.7976162217886813  0.7994435227412767  0.1982577100972819
  0.7993502589602802  0.8009099707518215  0.3994149888099006
  0.8032489225858186  0.7987130654287951  0.6005765981896262
  0.7968294184158319  0.7992670619516093  0.8026468870305362
  0.2006055934918927  0.2032779032388460  0.0018476195377868
  0.2043992656550094  0.6008068100747627  0.8001412668837954
  0.4014324542174021  0.5930393219924515  0.0002757503772857
  0.3950883101845409  0.8004648588796979  0.5995974484841105
  0.6008327232846360  0.4051438896377066  0.1939223167041943
  0.8037624717819539  0.1990265977455385  0.1998201450494500
  0.4010022427027333  0.2013845273043380  0.5993247298431579
