Zr Ti V  Cr W 
 1.0000000000000000
    12.2882735461728885    0.0000000000000000   -4.3445607757035454
    -6.1441367710433559   10.6419570608175889   -4.3445607757035454
     0.0000000000000000    0.0000000000000000   13.0336823299999995
 Zr  Ti  V   Cr  W  
  11  17  74  14   8
Direct
  0.0016915419919132  0.0006809791194516  0.2037324855736495
  0.9914392774632254  0.1939659520637633  0.3943271825412901
  0.9850743884246334  0.5966259826549837  0.3982863082880636
  0.9994816494092916  0.6067126866450436  0.6362788279969168
  0.2108546743646540  0.2086219202079559  0.2051754453987224
  0.2045429697800654  0.6047341032268478  0.4000662429286507
  0.3855573009328334  0.7920155670546422  0.7951389578626158
  0.5951470693932852  0.0081443403398097  0.8061057244857941
  0.6003118883262309  0.7969278944006785  0.3874875481828409
  0.6030054782126052  0.7979453499339284  0.6020894428139362
  0.7901751140558883  0.3983524945965211  0.6055116334687656
  0.9957391941601048  0.1907716977438410  0.6051207749590132
  0.9982722783606592  0.4072094265378645  0.0002221587909652
  0.0000816718511503  0.4126972049684271  0.7996090770033781
  0.1134023017930661  0.7143767362958113  0.9282789750151257
  0.2027993828710356  0.9878330877394766  0.1825313512060656
  0.2021964446615147  0.9997681149580011  0.3949643383766014
  0.2030445666405251  0.2012357424405401  0.7963937355911821
  0.2141344141480379  0.4028236820151108  0.6112804047721718
  0.1915470875458770  0.7997571383846810  0.3992853249462737
  0.4073351082045836  0.1971296071330909  0.6038710046421116
  0.4178086099622734  0.4049212346361527  0.4088806582246858
  0.4036226393765389  0.5980481960239219  0.0009555928072740
  0.4032450299307180  0.5935346177854907  0.3833307340172609
  0.5929436005158765  0.9974894715104136  0.1954744402120666
  0.7997062022125616  0.2040823148419524  0.2014025662449455
  0.8015657828677597  0.6020992768384168  0.1998768667752712
  0.8033095419371376  0.7977091166062178  0.7976838721513240
  0.9919938076932027  0.9877504593818978  0.4041463245581833
  0.9945186766138301  0.9938328981943844  0.5982930851239466
  0.0039594872515248  0.0045904133656433  0.8004008504244362
  0.0020024310496546  0.2042451768885800  0.0027067251692549
  0.9978234380286285  0.2006066990479192  0.8090313420190479
  0.9920684213440999  0.3934882926969589  0.1971420274693579
  0.9917883539934446  0.5893451718100668  0.1783999957242702
  0.9924020068743556  0.7923709136687097  0.9902254192524630
  0.9924789517665118  0.7879526276527383  0.1960962345594780
  0.9978443039930132  0.8122587472832407  0.4061296332189415
  0.9969113585492636  0.8079358361158748  0.6066559013019607
  0.2025586112773173  0.0014513047260228  0.9911458230975746
  0.2014282084589805  0.0056014782919449  0.6046521081125505
  0.2049103053746798  0.0059729520593724  0.8039041064279632
  0.2077404148566216  0.2019548668975342  0.9966642545200665
  0.2212460222192927  0.2144052479157642  0.4216171786318627
  0.2003943126174998  0.1878794716894874  0.5914621410473423
  0.2030456391360818  0.3956325639313629  0.9956656133547542
  0.1977222328282695  0.4028076131318527  0.1881138519068256
  0.2050095457031660  0.4035720234856950  0.8091365109437101
  0.2017408731271893  0.5969350129607796  0.0058746944343982
  0.2090917965458921  0.6025601195928330  0.1950699349268984
  0.1885460792368467  0.5875749117889559  0.5921721022710102
  0.2033897445350604  0.5918187825622007  0.8052173396141379
  0.1997926733118108  0.8129282208903414  0.6104066172911270
  0.1959614671169650  0.8159630068100380  0.8069104093422291
  0.3988654962038936  0.0056843746492719  0.9969859716773091
  0.3987888297446230  0.9984292272337408  0.1948183871393424
  0.3965417302669840  0.0009756884491021  0.6000899372501624
  0.4050092676217067  0.1954453321675359  0.1902317443585926
  0.4101522826411198  0.1899162267112124  0.3990513551111893
  0.4013692127947940  0.3950999124185009  0.9986762908745739
  0.4078416198268594  0.3988155975964358  0.1935308065808503
  0.4112621921807932  0.3997023698382283  0.6071774969447794
  0.4020391616287022  0.3917043290618572  0.7994282993464276
  0.3953704780120578  0.5894053021703266  0.1851648135814267
  0.4039443965522740  0.5920390322684819  0.6015933265638628
  0.4081019592720505  0.5921477684004074  0.8073814935066097
  0.3917771988644892  0.7974574445597906  0.0011195112437050
  0.3997263772436278  0.7999106305122681  0.1911953651754572
  0.3971716228722290  0.8118264836078991  0.3937348278067199
  0.3887896076164956  0.8072003114447698  0.5910123530555080
  0.5950595030913124  0.0075889217592484  0.0063259261830475
  0.5911689531278064  0.0060173048216159  0.3965218507640125
  0.5953762558082178  0.2009967402879482  0.9979075510524001
  0.5922566218321059  0.2014041131965891  0.1951803878907402
  0.5974765865992216  0.3873018112940644  0.3905518390342378
  0.5961166441829917  0.3952416811464146  0.6033399239462401
  0.6034095445865516  0.3987701668336723  0.8024196668804752
  0.6054895503806799  0.5972084873318373  0.9984413842190403
  0.5978609998061494  0.5906409297303283  0.1926930470868043
  0.6046755276881534  0.5895214070610532  0.3975219004038091
  0.6039929049894822  0.5943474852933039  0.8010637930368413
  0.6000046448359739  0.7961843580767308  0.9996605451692924
  0.6026311169323765  0.7955019776374129  0.1882841606309379
  0.7834875401747842  0.9820960383304458  0.1900941847590853
  0.7910254604369695  0.9952132123253419  0.3946831365364153
  0.8057428525584146  0.0099649214242115  0.6050127235298348
  0.8144604983233875  0.0177754039676421  0.8075757829886541
  0.8053717099253908  0.2154256759252356  0.0032189856065852
  0.7812221383242850  0.1971220038799581  0.3997492890467214
  0.7899456293254314  0.1943138775547270  0.5990256550589422
  0.7950094003753745  0.2028489495834865  0.7987921732672135
  0.7840012335120422  0.3923870412142519  0.1896984680637722
  0.7877172651692279  0.3916858192544825  0.3902744307557171
  0.7931432727232749  0.3952890937201173  0.8138381745523133
  0.8043917721575171  0.5934522898119804  0.9955167496472472
  0.7794643739096668  0.5919307767967366  0.3952587859935606
  0.7819806528769714  0.6044505490387295  0.5985020060773039
  0.8120527705142857  0.6000636681986592  0.8033696026663496
  0.7996966085614353  0.7868890262092785  0.9977055964260695
  0.7963960612289173  0.7955385128324882  0.1955513512996924
  0.8024179529317144  0.7958963839715097  0.3961393750269945
  0.8101461293336051  0.8048702776388834  0.5973747673206428
  0.9978616725140470  0.2095914602730947  0.1915742787287716
  0.9995400845382845  0.4009243835781332  0.4046903866626931
  0.0036698407896178  0.8093140755608326  0.8025258937831403
  0.0666398643191717  0.6685691558413921  0.0038676420441355
  0.4008635102931288  0.9998238975480758  0.3940069584150704
  0.3935242588270262  0.0142223991561794  0.8022191900595316
  0.4014924253385573  0.2031785339970895  0.9981972816995395
  0.4032903395671865  0.1960184459991917  0.8020071879852624
  0.5895985701936317  0.1904273584172073  0.3909983731113962
  0.5965983169905797  0.1970705081248708  0.5973136419488552
  0.5972551151494994  0.2079058992749215  0.8011114233464164
  0.5944454607008575  0.3953786985053168  0.1939105742193970
  0.6027671771308415  0.5900828399266235  0.6031883361569290
  0.7937283442058587  0.3969597542079432  0.9972009458102802
  0.0037550721881029  0.9999076760525994  0.9936418709092600
  0.9988277665783686  0.3887538109774940  0.5917830138061897
  0.2006257046816563  0.3976430679668798  0.3996788618712260
  0.1928882802519094  0.7887395706032423  0.1871601208215257
  0.5960484298263899  0.0081636681980325  0.5966583091460711
  0.5969807170109280  0.3968568530982065  0.9968011102553869
  0.6010222523253343  0.7919932653512805  0.8053981131656438
  0.8008954807820912  0.0037936572267619  0.0029793908951089
