Ti V  Cr W 
 1.0000000000000000
    15.4073529780286407    0.0026422717652441    0.0115039126781883
     0.0026423919818586   15.4169890810637895    0.0057190451176722
     0.0115025714523025    0.0057202193077188   15.4178430470237693
 Ti  V   Cr  W  
  13 101   9   1
Direct
  0.9981043020624271  0.4075071686055549  0.5969081104463881
  0.9996570122195425  0.4055397641789445  0.8075900493964210
  0.9964215616277696  0.5993873118572285  0.0036292032313429
  0.9952209743754601  0.6013993614373362  0.4108758740818780
  0.2008009577881857  0.8084222742439852  0.8043261246462585
  0.4029649838068705  0.9978734607321100  0.4009658224552115
  0.4019786791189267  0.6050668856335932  0.9989603036937448
  0.6013481858679853  0.3988479616369147  0.3917475300334078
  0.6014845684567017  0.6078532067752032  0.3956178118821703
  0.5970962422890096  0.7912285794199916  0.0015667286948926
  0.8034722486836747  0.9989944691845934  0.9974730905546997
  0.8084321225274089  0.5980744993884122  0.1896115271330341
  0.8087766284767057  0.5945982970802982  0.5959330309312142
  0.0026816138302486  0.9986502351976854  0.0007932366614718
  0.0001835185037917  0.0000530100853109  0.1999989679563063
  0.0004196957350326  0.9990345285890874  0.4003273198746206
  0.0014250075531025  0.9998495799130788  0.6009778365574556
  0.0009320409672133  0.9988874758311629  0.8005416896029943
  0.0005591963327312  0.1995097709068404  0.9993612538609129
  0.9997127873534968  0.1986415454966465  0.1997120776559159
  0.0005400364326551  0.1996672301442207  0.3992593191167666
  0.9971824957469870  0.1998387448845693  0.6018512703778962
  0.9993852197562315  0.3986131716420528  0.0021122565289634
  0.0001880586666259  0.3996283109278015  0.2012129741900846
  0.0029907619595346  0.5999871141576907  0.2025067023065118
  0.0062053883399891  0.6030925996060357  0.6060212620879017
  0.9985153984011561  0.8003787187766298  0.0011242368914262
  0.0002360609744061  0.7997663405949467  0.2020402382260593
  0.9992989853012696  0.8013209223903881  0.4006134325834866
  0.0009643348423451  0.8012690905380743  0.6006011542941975
  0.9980351055818200  0.7996269457753157  0.8011592183827079
  0.2312634783714442  0.0001527500584383  0.9999278790431319
  0.1987784275756476  0.0002388611428275  0.4000575253721351
  0.2004523458037720  0.0009492469227939  0.5996173521553743
  0.2015756274346149  0.0027705211889762  0.8008649740004301
  0.2010886514139421  0.1995462392047221  0.9999905590730763
  0.1994173855568914  0.2012665099060573  0.2003052987214620
  0.2000021010986072  0.2004955906419725  0.4010198347939554
  0.1997342517401606  0.2017525635285189  0.5998138831963896
  0.1999564500646189  0.2017080590557224  0.7993011563633106
  0.2001511718169728  0.4013019484745124  0.0007234347882814
  0.2001786385423822  0.4007363603438559  0.2000149199854022
  0.1982713879351166  0.4010326209801748  0.3989736321103640
  0.2011134593800904  0.4009947082387744  0.6002079048941156
  0.2019171397711983  0.4017692866954644  0.8004421074239388
  0.1995519050909620  0.6003987547319105  0.0000805532350531
  0.2001990564915125  0.5997481586612254  0.2018555952726379
  0.2009840188653549  0.5993023892555873  0.4017393920426474
  0.2006654584135586  0.6002998663430367  0.7999282473117252
  0.1993873746249842  0.7994472004910572  0.0037516166111462
  0.1998545425342819  0.7995594857341953  0.2010653050784781
  0.1995871077550178  0.7991873090565917  0.3991158102615465
  0.2013749745104347  0.7993842753273356  0.5990790548384348
  0.4006784638712262  0.9993501624800952  0.2000474706408187
  0.4012171078669171  0.9997639481379677  0.6024130575962177
  0.3999115060053169  0.9989835546671750  0.7988101723883427
  0.3992829219814555  0.2035350839037991  0.9991947626622677
  0.4009091285544729  0.1984416015155999  0.1988992110138178
  0.4004641192072600  0.2029640757868592  0.4008706740693879
  0.4018005721179469  0.2015212384304455  0.6002945422275527
  0.4015749370708954  0.1986226776095273  0.8003996270935376
  0.4009579712346602  0.4000369695797025  0.9998507770323639
  0.3995907589959860  0.4010380115079296  0.1999444244889409
  0.3990434213421864  0.4009367935840682  0.4003221456030601
  0.4010234756740113  0.4018697061318532  0.7988610973802021
  0.4007174874728968  0.6000105599555479  0.2022076117984437
  0.3992975710676528  0.5987557920039278  0.4008169473291473
  0.4008834208525601  0.5998193441829782  0.6001898277659440
  0.3971652032856650  0.7974688388253159  0.9999801788992512
  0.3996105770717195  0.8016829733804837  0.2001305702448546
  0.4012714456466892  0.7962373723419797  0.4008424804316325
  0.4005169818821745  0.7987194594343797  0.5989901347749378
  0.4034415591091379  0.7995946335474666  0.8003263203699298
  0.5994655747402007  0.9999049815279499  0.1973822414960022
  0.6032975704657200  0.9991578292660440  0.3989660079729587
  0.6000620154989169  0.9993147720539823  0.5983846943042291
  0.5995432003260056  0.9987224732488248  0.8009110447591122
  0.6006081221180035  0.1989535597898494  0.9987555771385904
  0.6012445142925302  0.1990766086483056  0.1981953665996530
  0.6002107852311216  0.1986379036825819  0.3979957492475856
  0.6035344839199009  0.2000949255460168  0.5993896503710882
  0.6004018142427652  0.2001716264709437  0.7996114944667242
  0.6004572096799184  0.3998474380642884  0.9981355335518048
  0.6004004850672215  0.4003117507451491  0.1959546082579084
  0.5992490747712983  0.4026320891208129  0.5988704657516055
  0.6003659158535294  0.4008698541601462  0.7989241099969104
  0.6019624522320374  0.5955681756380021  0.9967591661092944
  0.5991512925302651  0.6003833676738785  0.1950857410947896
  0.6010280448996803  0.5996603549471017  0.7969598427175876
  0.6010732792887831  0.7998985042125727  0.2008693062887123
  0.6010994473136385  0.8023164467581285  0.3991482275709637
  0.6015990444754058  0.7982651220878412  0.5995044537743612
  0.6018226835358588  0.7995011874216214  0.7984734336546426
  0.7991747907538416  0.9992372194247605  0.2006035344609053
  0.8012862401554151  0.9996308974121637  0.3984613320070628
  0.8003216960282811  0.0027123554773212  0.5990497665081402
  0.8001697567874938  0.9988649190059915  0.7981842538381868
  0.8005319151391770  0.2010065127077809  0.9972837879212204
  0.8004986884327172  0.1999527270089763  0.2001902410989070
  0.8013969066697419  0.1995878225540292  0.4030311162643748
  0.8011774080328256  0.1994770770926466  0.7948211557597660
  0.7999290854369188  0.3983546338799348  0.9990800472859255
  0.8000796158679460  0.3981031866759138  0.1986660150159232
  0.8021207094538487  0.3997535845228964  0.3968875177600208
  0.7973144953638569  0.3935707978871700  0.5981467309141044
  0.7986001072831631  0.4008692306415975  0.7987046189582377
  0.7978437851046550  0.5985845720979759  0.9933171698146527
  0.7985293453435641  0.5990957790962890  0.3976118190347061
  0.8020692701986125  0.5992869243960847  0.7975596180094898
  0.8001214975415064  0.7973838405346447  0.9996750198469128
  0.8001329609978343  0.8013512288367517  0.1994938201305751
  0.8000221034263655  0.7993379096939139  0.3997470213582965
  0.8007749573249099  0.8007630820121341  0.5984588474471502
  0.7993731727394306  0.7993934854465143  0.7982087596494725
  0.0007570475620349  0.1988528843130566  0.8003315690638728
  0.9999719030150839  0.3974025426853500  0.3977394627601440
  0.0009848494267376  0.6050879162900602  0.7997408008832660
  0.2005978425169775  0.9999100430029555  0.1997278963445927
  0.2024110043138406  0.6004196022487410  0.6003062840127623
  0.4001597477701970  0.4005355924572445  0.5991927686722792
  0.4010325894405820  0.6006114200052233  0.7966642566604717
  0.5918534435810392  0.0010360408245680  0.9993731720445680
  0.6001400229473046  0.6000582249301608  0.6003643873051059
  0.8000577152656372  0.1992003033304823  0.5971350823836404
