Zr Ti V  Cr W 
 1.0000000000000000
    14.8782703317832912    0.0409180639399753    0.0104377695695914
     0.0411276885692703   14.9524592008509369    0.1396165424262063
     0.0101941683320417    0.1388797537427260   14.8607189748102044
 Zr  Ti  V   Cr  W  
   3   2 108   7   4
Selective dynamics
Cartesian
  2.7959118315281266  6.4652421398720508  8.8162853033948778   F   F   F
  2.7786906098313806  9.1177676998381152  6.3284681774828941   F   F   F
  3.0645852945469554 12.0762793726454465  3.8959560615513089   F   F   F
  3.8989074111206277 11.2370648289264992 12.1855956356490474   F   F   F
  9.3475177573097561  2.8739217657767311  5.4209306491949230   F   F   F
 15.0548789410810056 -0.3956496737108963 -0.0134476906014393   F   F   F
  0.4232265627689738 14.6444340020662853  3.7960778327300462   F   F   F
 -1.2806036652926354 15.1645306743547366  6.1624141599721538   F   F   F
 -0.0771504414235753 14.6029840478365447  8.9625143408918397   F   F   F
  0.4039926300744142  0.2198682385295675 11.1621395032947905   F   F   F
 14.7211270252600315  2.6108343811023969  0.6435963079237866   F   F   F
 -0.0014919647945368  2.0540628245127404  2.9974052966983233   F   F   F
  0.6758738076842304  3.1247156907856883  5.0104371859729895   F   F   F
 14.1531176572920785  2.7793823179086181  8.6122223463221736   F   F   F
  0.0990499228559848  2.4101290312795225 12.2015695665585184   F   F   F
 14.9055870144635243  7.0201604769340245  0.4768569781269914   F   F   F
 -0.6386806915383562  5.6324774196223757  2.7984556356108836   F   F   F
 15.0376215235015458  6.5474512425352822  6.0287179230341446   F   F   F
 -0.1776404421825431  5.8247574498512407 10.6223296646814180   F   F   F
 -1.1173278611046973  8.8749317784178459 15.0963981193940366   F   F   F
 15.3535241310714028  9.3025914133604832  3.4843717888466603   F   F   F
 -0.9417303530344444  9.3133268593778951  5.0813993034849325   F   F   F
 14.8741712802618924  9.0149068598107682  8.7031198677214530   F   F   F
 14.9884037180269267  9.2204226470039856 12.3620782165046776   F   F   F
 15.9155522055755601 11.7187063774538380  0.8048907510181517   F   F   F
 14.4190296485297615 12.1491085406979753  2.8690169229259674   F   F   F
 15.3081762570559707 11.8037494220645272  6.2533307131691114   F   F   F
 12.7583830454298113 14.3954945712945257 11.7396800673546213   F   F   F
  2.6031351974145633 13.6757636978486392 13.9164909833603154   F   F   F
  3.1228884012098912  0.8215799297197686  3.6841194199595120   F   F   F
  2.4585809295461312 14.9768086355585481  6.0568875043082118   F   F   F
  3.6555830823806139  0.3264224237749832  9.4377492028800223   F   F   F
  2.6361160643622696  2.4466240412694771 14.9477463937999211   F   F   F
  3.5408980324998014  3.2705766769420053  2.4148090181185005   F   F   F
  2.7795682210232502  3.8769028643376564  6.1467173246139248   F   F   F
  2.1979217524786407  2.7467093986107427  8.5143264821098636   F   F   F
  2.7282317726406240  3.6841409040906625 11.3775368741069656   F   F   F
  3.1916159266924620  5.0296356420555650 14.9883073543958876   F   F   F
  2.9547307458298424  6.5141899644351655  3.6333492993360945   F   F   F
  1.7244878484419384  5.8330663759735604 12.4061126868310634   F   F   F
  3.1456543258736769  8.6335024137902678 -0.3200093565723014   F   F   F
  3.2346626574189945  8.7468128293707430  2.4612110507597755   F   F   F
  3.8686636587410375 11.6551262332420382  0.2989798782829341   F   F   F
  4.1161350169292898 12.3304151330641130  7.4186703128048590   F   F   F
  2.4182893818515110 11.7082841814862650  9.0832624489878793   F   F   F
  6.9470707286438254 15.0027461050810960 14.9866913768008434   F   F   F
  5.3272988273875690 -0.4931059427526334  2.1274806700446702   F   F   F
  6.2194277082713061 14.9810668942367808  5.9906923704271327   F   F   F
  6.6906324983788554 15.0235404362509737  8.9915826959690879   F   F   F
  5.7007167821936697 15.8834873317534218 11.4444706893187380   F   F   F
  5.3390020637454851  2.0045828280569653 13.9480344947931538   F   F   F
  6.0255488055078974  3.0816083415457838  3.7071275785051321   F   F   F
  6.5924270240665654  3.8404508554970764  6.0152269528856737   F   F   F
  5.1099675126399466  3.5554437000443109  8.4081296418952238   F   F   F
  6.6728210611313736  3.2935039315267183 11.9655506485761371   F   F   F
  6.3226185674586874  6.8921908296190200  1.0646658571588747   F   F   F
  6.6589088083204073  5.7901018512485019  3.7213954628991948   F   F   F
  5.5594567866933122  6.4794928633392113  6.2480359849641580   F   F   F
  6.6550010911043493  6.1157420676993981  9.0845158214009398   F   F   F
  5.7017169264709571  6.0646625114649542 11.1906770137637945   F   F   F
  6.3105057241520361 10.0355680955810680 15.7259394230049541   F   F   F
  5.3243224626214189  9.3036349413835868  3.6841904601494431   F   F   F
  6.7667160886234905  9.0022245856392153  5.8995771836557820   F   F   F
  5.1119094426367830  9.2640251455146974  9.1465674030381194   F   F   F
  6.4316892704671762  8.4978774983892453 12.5639375600173917   F   F   F
  7.0270657909110996 12.0178749280135744  3.6002437728934358   F   F   F
  5.7870902005700779 11.1576230761189699  6.1530229327988222   F   F   F
  6.0359984259740100 11.3060072319614591  9.8525066201107592   F   F   F
  6.5111695802088319 12.1299323328378712 12.5186801589595351   F   F   F
  9.4234098865922569  0.1836202472963805  0.2478183341481709   F   F   F
  8.7636871919944941  0.4584600223204316  3.2602139586553944   F   F   F
  8.9761512565827033 14.2978227141924084  9.4228344761778366   F   F   F
  9.6543929174175691  0.6425313508490833 11.5555209728538237   F   F   F
  7.9530476907669030  2.6282919260594313 15.0232258277471580   F   F   F
 10.0028288821154305  3.0441581629528538  2.5179726583682189   F   F   F
  8.9098260001911154  3.1913303558485526  8.9047395877310702   F   F   F
  9.4096939549303364  3.3199904920200818 12.6151433319874275   F   F   F
  9.0069374589944875  6.1925795978588036 15.1761746041404937   F   F   F
  9.2759546497069323  5.1895334484164888  2.8166561552886069   F   F   F
  9.0163728339755433  6.1353591183267975  6.5873516647977191   F   F   F
  8.8083484973709005  6.0711374713788597 11.2759012379192907   F   F   F
  9.0358189362536248  8.8293868365618788  3.0328287684065756   F   F   F
  9.3250750743304653  9.7511631888090839  5.3561044681274934   F   F   F
  8.8631999176027154  9.0680645340652024  8.8722586919468984   F   F   F
  9.0988982888984680  9.5592751065303752 12.4026727098872911   F   F   F
  9.2020261090673525 11.6467239392096733 15.4423592503918226   F   F   F
  8.8581087819365631 13.3449208906146808  3.7434386835063553   F   F   F
  8.3881480126629260 12.3019747741999499  7.2250040654655372   F   F   F
  8.7208218888283451 11.6908643797114369  9.6331299133450656   F   F   F
 10.1549946843471037 13.1979582788768575 11.9794566706208130   F   F   F
 11.4073655888085170 14.2837822505229592 -0.8326103611797632   F   F   F
 12.4001165472799695 15.1069823280190434  2.7941274025718981   F   F   F
 11.2032619970628033  0.6399670386346881  6.0688219830346295   F   F   F
 12.0118390796114873 16.1113769854817086  8.5179807517965589   F   F   F
 12.3094359836052174  2.4242070943633700 14.6001945221968796   F   F   F
 12.2581809617428892  3.0654028224023957  3.3937971981433135   F   F   F
 12.5983416864627156  3.9325323732777262  5.5493649301355772   F   F   F
 11.6276513145488298  3.7545726882160309 11.3260321118081801   F   F   F
 11.8762874948823214  4.8509641354013882  0.0341240147881726   F   F   F
 12.4667996067860791  6.7924510502401345  3.2948458824215052   F   F   F
 11.1804257661832036  5.7375763806873818  5.9704206759338607   F   F   F
 12.4271896719010169  6.1833093655117404  8.5031124747705338   F   F   F
 11.1015443482158673  6.6997854552421776 11.7733980941805569   F   F   F
 11.4442652234083493  8.7819935630956945 15.0895552645745514   F   F   F
 11.8205620620132432 10.0200897955986754  2.9115046965491906   F   F   F
 11.5723186533086668  8.7480087917253968  5.7070806363682838   F   F   F
 11.1586199071673597  8.7703399654956620  9.5599148761698061   F   F   F
 12.5769562241375574  8.8516972799201774 11.5268706664175689   F   F   F
 12.2533566297431609 12.2544729987833794 15.3723741453129801   F   F   F
 11.5548140876253438 12.9679657209899215  2.8291622407598638   F   F   F
 11.8843375717706206 12.6514319793929300  5.6679868141223153   F   F   F
 11.9793023901979208 11.1733236659301447  7.6598400334352350   F   F   F
 12.2422434367600808 11.7529105089241810 12.9074438307016468   F   F   F
 -0.6715832210645932  5.0531602206207289  7.8170592004052821   F   F   F
 13.8139778507112041 12.7309698193444945  7.8508604319251241   F   F   F
  3.1744164053066890 14.3844905465008033 11.6128478582050096   F   F   F
  2.6130225444979178  6.5073947275048667  6.1704913641206138   F   F   F
  1.7639517123044974  9.5930765752308815 10.4141469267110249   F   F   F
  2.7014088792138007  8.4741917786050713 12.1363211670439917   F   F   F
  7.3531396018235871 12.6854507765107307  1.3609133334882471   F   F   F
  8.7212610131907375  0.2921258005784237  6.6366024055624493   F   F   F
  9.8653741792620462  6.1984655391545926  8.9206247990960286   F   F   F
  8.4141330178818876  8.7389726677177162 14.8594499670104643   F   F   F
 11.2864310696678238  3.7601582558171733  8.0836126350488371   F   F   F
