Zr Ti V  Cr W 
 1.0000000000000000
    15.5633147981762434   -0.0105082892338306    0.0011052113616143
    -0.0105224976463168   15.5390273600018674    0.0056805954645976
     0.0011054290159095    0.0056800010957864   15.5617863503600393
 Zr  Ti  V   Cr  W  
  10   1 106   6   1
Direct
  0.0062886553117160  0.1893890901620622  0.7959128707716717
  0.9993635350104202  0.5994484682590258  0.8001853259008138
  0.1939463151302232  0.0032615326777829  0.8028681903852938
  0.1970083861036431  0.8005890956733777  0.3972853894501742
  0.3973613480037279  0.9979266077034813  0.9976942031078788
  0.3988106671239416  0.7733320418186497  0.0012215986752890
  0.5986363420562966  0.2020396028693368  0.2089462345007995
  0.6094501679723477  0.4058068452930213  0.3982818616548786
  0.6007371712772638  0.8010806440239008  0.6020657936641821
  0.7944471380341536  0.5930002115211213  0.3995062092292379
  0.0004120505824532  0.9939535792324261  0.2016746089539428
  0.9973006744741091  0.0001748128607395  0.9994085717662533
  0.9985245787685209  0.9994425822384743  0.4005894202056079
  0.9980232951133250  0.9990738887592214  0.5969268253093254
  0.9899062547410521  0.9903254240220750  0.7983708494141915
  0.0009964717851526  0.1994714449150876  0.0034590598414308
  0.0020175894421031  0.2015475148421167  0.1998550050510120
  0.0021768606451820  0.1980243019194932  0.3984856408925453
  0.0078001051458036  0.1992428964347781  0.5936844612399095
  0.0009826589570887  0.3993789102393793  0.9996616173660221
  0.0011523825985179  0.4005629036050637  0.1998968230481034
  0.0038535815631043  0.3987799990980703  0.3984826640015178
  0.0012983566271521  0.3981780495473793  0.5992227124177847
  0.9998610711230781  0.3960074812938427  0.7993172306473079
  0.0003095662136585  0.5992449419864118  0.0040410210685321
  0.0008933214355444  0.5997895114669132  0.2005371423552892
  0.0022122871492058  0.5989336062900145  0.3990774744788899
  0.0010974974107465  0.5993407624918040  0.5952965358370104
  0.9990059998002425  0.7983611227896551  0.0002869575400690
  0.9986095519710581  0.7969149188667675  0.1995743031504933
  0.9944349473027086  0.7984116187555673  0.3998643386644646
  0.0005139462066568  0.7985482394274724  0.5996113867257860
  0.9991363426597371  0.8008767010912099  0.7994798073108841
  0.1914408884827344  0.0025091074262193  0.0061221884402085
  0.2016720453338519  0.0018740647366731  0.1988838297701066
  0.1989971124862179  0.0040711365750902  0.3982263626515989
  0.1987484975858073  0.9995364045854868  0.5967608597489704
  0.2009321307821181  0.2018442250241613  0.2002100657163438
  0.2011003910762307  0.2008487229609696  0.3975346557531551
  0.2070141516623758  0.2019539460757453  0.5976854731869532
  0.2086995526098352  0.2074958343218870  0.8011998988505322
  0.1995133422315693  0.4009113170357884  0.9994618948364771
  0.2009211293709413  0.4020841013482405  0.1977793971668809
  0.2003338449118235  0.3999525150043254  0.3985359882992432
  0.2001077622408334  0.4010670928556627  0.5998357112073318
  0.2017088220884645  0.4022523250724234  0.8012976279950590
  0.2006585467335371  0.5995653702286630  0.0004669246961071
  0.2008407451594970  0.5999471577761177  0.1990388385716977
  0.2008588290559883  0.5971445437382289  0.3990719825410005
  0.2019941043097249  0.5990849855539571  0.6001868200294695
  0.1942916294408055  0.8010083083590963  0.9987879683929243
  0.1999538729065450  0.8001146357882400  0.1944846120609559
  0.1978520112378476  0.8007255252586616  0.6034848208152789
  0.2008101628084252  0.7973338969569527  0.8014291703809949
  0.3998261644470381  0.0009890476539526  0.2047876642260197
  0.4007557170759608  0.0008245664434468  0.4012501227077973
  0.3977618893107308  0.0044391184700534  0.5973728647022007
  0.4025337723538707  0.0002266657984920  0.7931892871590919
  0.3999386998692665  0.2044219967329783  0.9995421203766562
  0.3959694981086184  0.2015307162128535  0.2008748476525087
  0.3994794490095750  0.2018005152113637  0.4039212373707541
  0.4015508010976465  0.2012269834242217  0.7964063278973335
  0.3997297020990489  0.4005771752221369  0.9981619097054409
  0.4004014860706605  0.4019496424955629  0.1997818479949648
  0.3997140310425573  0.4013483805433332  0.3993442224895906
  0.3999487844001144  0.3977854891874997  0.6000469484362818
  0.4019885783710899  0.4015270561756554  0.7994437794496065
  0.3993743753772455  0.6011715180080593  0.2005715186896524
  0.3981107960272418  0.6003935375225745  0.4005860264993747
  0.3986329001756357  0.5989026475284139  0.5993596607486681
  0.4015314764385896  0.5998042219083083  0.7988276147630426
  0.3997536577503494  0.8011614867827720  0.2054579157154842
  0.4014168607914109  0.8013524430659053  0.4018050784503153
  0.3995805746065829  0.8005312403007905  0.7959466980741433
  0.6043291717753209  0.0006569279545783  0.0007614144098198
  0.5997993776544115  0.9970270113543713  0.1998129480319091
  0.6004600971028726  0.0002347586048622  0.3996503347462282
  0.6019888072561633  0.0060276958997492  0.5995275777720909
  0.5996640211764440  0.9996638708649555  0.8005912505910582
  0.5994966428024471  0.1998803644166512  0.9988704393149683
  0.5937664935893961  0.2023232854884161  0.6026150249073101
  0.6008725538280333  0.2000115972465568  0.8008100095289449
  0.6020202677115435  0.4001581600352906  0.9983319023166938
  0.6021973595673422  0.3999120797111135  0.6038134128731085
  0.6007183681090176  0.4013113923294351  0.8013276625775525
  0.5997626632485694  0.6002848296436443  0.9994907247824725
  0.5986976084757168  0.6023285061538618  0.1983070540085067
  0.5912202318091119  0.6091589689155287  0.3996164532894255
  0.5970159422045668  0.5971333676189541  0.6016290350653813
  0.5989990009758966  0.6002172829460715  0.8011150282862243
  0.6045450163489788  0.8004858000881377  0.0016315434152847
  0.5996642250248085  0.8002244623440307  0.1989148022637132
  0.6000634284923175  0.8036025221422847  0.3966162015189494
  0.5993619709187367  0.8003156633078186  0.8056726334733445
  0.8010410835206653  0.0001623712576244  0.0003474761684791
  0.7985405436661382  0.9996275336786001  0.1994596677172365
  0.7995384955032941  0.0005195649081746  0.4006726811660126
  0.8003853217819425  0.9992227254883159  0.5995560319282667
  0.7964352622645527  0.9997545006244617  0.7985966808895345
  0.8013071561330400  0.2000035054741042  0.0004156849545729
  0.8023293887106399  0.1969972865071912  0.3992949487393069
  0.6351780877400773  0.1992883530160219  0.4382469231481605
  0.7978511959864195  0.1985780098785317  0.8021920522524026
  0.8016341482767770  0.3991484998657987  0.9988243500428561
  0.8029827177452047  0.4000475594455470  0.1965531914300144
  0.8117831193839439  0.3880578574777423  0.4032318033261948
  0.8015466323362644  0.3988836261802964  0.6017052998925577
  0.7999131558924363  0.3963205147556696  0.7990009898988943
  0.7990961451275327  0.5982183227514469  0.0001808599233413
  0.7992455191170074  0.6005071119543756  0.1957834949825343
  0.8001263389324258  0.5977141069400750  0.6035493601401558
  0.7952687363015541  0.5996583337398980  0.8011737891626052
  0.8017287923619517  0.7994719461603256  0.0001020564652227
  0.7997198172570730  0.7994863143203513  0.1996233157889513
  0.7996268863151564  0.8012216993365010  0.3989010367035869
  0.8038140145881526  0.7988116211118905  0.6003515703283867
  0.7989444970914492  0.7994673407783053  0.8012644668160429
  0.2006387391811152  0.2027990904407474  0.0017446865642905
  0.2047161961948186  0.6001075633395608  0.7998329385063624
  0.4011410496244786  0.5903758287735855  0.0006176629567893
  0.3950909612616471  0.8002829100039556  0.5993491184608173
  0.6005741300562939  0.4054912786063535  0.1932709671733354
  0.8040440487350042  0.1993570464144665  0.1995875568065640
  0.4008739367885923  0.2013398721551853  0.5990966991172574
