Zr Ti V  Cr W 
 1.0000000000000000
    15.4679138161833851   -0.0234617701905078   -0.0073565197370444
    -0.0234807748335921   15.4835771831266733    0.0255900788900589
    -0.0073319414268126    0.0255288067535688   15.4688931063552495
 Zr  Ti  V   Cr  W  
   8   9  99   7   1
Direct
  0.1971691205078679  0.3991376836578291  0.6010775798254405
  0.3993172269459577  0.0055878923141606  0.8076117757583422
  0.3973218394222124  0.1892844054682026  0.9901521970591111
  0.4166180587593618  0.1999574335642742  0.4063813882602761
  0.4328222560910833  0.6064735913733813  0.4033811690070030
  0.8050039933168859  0.4248621691739386  0.1686060816283295
  0.7915988413931737  0.4172804568500049  0.3841254927235537
  0.7963923181790362  0.6327650145635745  0.2221805430004040
  0.9998428151154525  0.5808235658197742  0.1975414215957334
  0.4124909119517612  0.9893867216144019  0.3963447036651728
  0.4033828269207624  0.5953798876963021  0.0022610004312924
  0.6071647764794165  0.9980616489752777  0.8050627944469062
  0.6323067878804287  0.2297045988848662  0.3896469916113764
  0.8112994497510819  0.9913986233100702  0.8033778231801567
  0.7968220198526981  0.2003580368899329  0.2056396442000737
  0.8093166880476574  0.6237376816516838  0.4214370598623215
  0.7972053189057680  0.7889580003008360  0.0283074711090239
  0.9972924145149289  0.9966463071252590  0.0003009636543578
  0.9968411343722017  0.9984040025724472  0.1999199126090273
  0.9673745703097669  0.9991048603769002  0.3979833008124884
  0.9963329914280044  0.9993841387288903  0.5977603419662810
  0.0001341085569454  0.9987346475174327  0.7998593308935145
  0.9979945849205044  0.1963278933799892  0.9969866631838386
  0.0024590765438094  0.1944341417468975  0.1986933925502370
  0.0030702106621477  0.1990727235939767  0.3997745519218272
  0.0004902710392207  0.1972619203323774  0.5987304002129583
  0.9987991329498537  0.2002338914510317  0.7963537355572223
  0.9966700661179888  0.3956776475617118  0.9990933415981037
  0.0022241206579188  0.3879438556624685  0.1986142712058741
  0.0013162687784871  0.3999055657962751  0.3968876491429605
  0.9926254259466162  0.3986609874041571  0.5953432883745232
  0.9978021926838104  0.3993542367436771  0.7991246088788632
  0.9985972301380374  0.5962520622769605  0.9974007180918176
  0.0016896294127777  0.5992305974108967  0.4001534965076098
  0.9972398843808156  0.6000889553081047  0.6000981497475658
  0.9979182821952663  0.5972096307476744  0.7998710980074620
  0.9982564334513714  0.7960158358917462  0.0010274021303013
  0.9948634467427377  0.7970670343241262  0.2001457340355395
  0.0001521299539531  0.7992020752855886  0.4004679041971939
  0.9981958763033280  0.8005351089194435  0.6007129967632037
  0.9970328097994030  0.7966657381675544  0.8009603530919159
  0.1964022749672762  0.9951876051497166  0.0024710533973277
  0.1985254583466168  0.9970737118428997  0.1998566099081875
  0.1952934515462025  0.9963135790708002  0.3985944332933132
  0.1930154115164582  0.9974933647558984  0.8007477569187265
  0.1940565788125235  0.1963593012284530  0.9985130628634397
  0.2008790804300024  0.1967531050867046  0.1983114009545197
  0.2027606606339560  0.1930801200653452  0.5999454335326154
  0.1981856320890670  0.1996031566500418  0.7989349764080634
  0.1983168108467181  0.3979417479498881  0.0007790956528975
  0.2006120440342293  0.3971081624754974  0.1977955469589516
  0.1985447175448200  0.3998648269505219  0.3941716135467201
  0.1973936000359232  0.3999097796467850  0.8055677430110288
  0.1996086481077194  0.5970713762667023  0.1986021879815434
  0.1983488194046228  0.6035367679994718  0.6002989122161999
  0.1977911431663481  0.5999077636242693  0.8015392498627349
  0.1967136853438129  0.7963190347976927  0.0009227111239954
  0.1973134206750672  0.7963702548273806  0.2004973898596942
  0.1979058683907393  0.7979534444845970  0.3994175291417935
  0.1986347086373297  0.8004919094995847  0.6001785215468513
  0.1978966650743623  0.7986561164435881  0.8008242093579113
  0.3985755953466493  0.9871045715890692  0.0103604364397012
  0.3999275052596643  0.9983646054451404  0.2019078279656113
  0.3990515812912165  0.0027113716581179  0.5967308178563776
  0.3995542628552703  0.1980493183862227  0.1989145326033065
  0.4003584480879586  0.2097759407067229  0.7893073084161107
  0.4009399861496697  0.3976497161188845  0.9991825045165568
  0.3981471013576460  0.3968523316477609  0.1971564442102263
  0.3938075779172771  0.4063286211966544  0.3965769260918860
  0.4032597982921937  0.3966265730082732  0.5957439733286819
  0.3993433492254280  0.4035987097593753  0.8008157282101059
  0.3971373697114805  0.5989507523428317  0.1998209573934510
  0.3980279308807891  0.5990164698912970  0.6030388702599006
  0.3989754510073505  0.5990672703879824  0.7984162853435472
  0.3987939425715157  0.7951666729670293  0.0012244074603405
  0.3969128089378675  0.7977302174192969  0.2018918595057475
  0.3988285576608908  0.7994028343608409  0.4007043867596354
  0.3975014530493562  0.8015396297016314  0.6005705458323349
  0.3963184295465714  0.7971721801543191  0.7999099426503254
  0.6010888732286240  0.9974366229793828  0.0026157804398894
  0.5982314670378864  0.0019389621628301  0.2012447565671032
  0.6101941368688336  0.9917954774148952  0.3980722462050168
  0.6000843649630729  0.0015960501353927  0.5964117717987228
  0.6037793291337887  0.2003620190715547  0.9981764970260703
  0.5968501724198861  0.2012829131996026  0.1959313373011015
  0.5976524147580907  0.2015563603751403  0.5974334376362835
  0.6010547388810524  0.3984354277947736  0.0006992370086584
  0.5980679250963802  0.3999314439398986  0.2005682895891709
  0.5898150723684145  0.4177598977412220  0.3979587999735063
  0.5997610169026881  0.4023044387693528  0.5957965268813462
  0.6029085365745342  0.5988423379538416  0.0006174896188487
  0.5933692772525582  0.5984120933073170  0.2009318938647442
  0.6215126549899005  0.6042745741052636  0.3997103837388976
  0.5977010275732955  0.6013575510794270  0.6002202400779856
  0.5985753555415179  0.6002229010400134  0.8017585672902765
  0.5983186089809764  0.7988580130263832  0.1999597713390618
  0.6008650318976836  0.7980799166877224  0.4003702435352985
  0.5961416607892649  0.8008488559371880  0.6009767091195191
  0.5978244173214052  0.7974726977495619  0.8016603936865961
  0.7989808989158609  0.9998556243797287  0.0042052856380158
  0.7967044963464818  0.0063002803426586  0.2002063802690416
  0.7971668237363877  0.0015793055360499  0.5842231148750107
  0.7990307606367153  0.1983085601642481  0.9942311964978110
  0.8113968494237597  0.2064614183340469  0.4018045301546735
  0.7972334553323429  0.1981770233510167  0.5961558567837484
  0.7988026615858677  0.1991173618817679  0.7943693115114536
  0.7989264233956531  0.3956080604228079  0.9800103586677577
  0.7961619707312021  0.4012355777395649  0.5968240092801997
  0.7984220659259034  0.3997229390979339  0.7921750747255734
  0.7981619157759984  0.5945326588806167  0.0002285519489875
  0.7976692171671602  0.6012624946012199  0.6084303757234383
  0.7980356741300705  0.5999232144332558  0.8020767586832209
  0.7960538513114903  0.8260125256387285  0.2162238921392161
  0.8013602618386447  0.8153414128985361  0.4067941355876524
  0.7961838723686504  0.8029168466802378  0.6027143930875229
  0.7970548814953541  0.7969372249962566  0.7973502089506532
  0.1980860205905930  0.9975943379820681  0.5995969701305917
  0.2006720911962938  0.1970308750851655  0.3989145012503795
  0.1965262173529402  0.5978220858851965  0.9996249864845219
  0.1969499824066318  0.6006358558110455  0.4003050289513570
  0.6017674368449069  0.2047454575376226  0.7968319739697300
  0.5991329063476281  0.4018690676618397  0.7980723075545186
  0.5961452062008337  0.7974729598359462  0.0019687757681287
  0.4001249886371507  0.2010006517341658  0.6040558248307150
