Ti V  Cr W 
 1.0000000000000000
    15.3720038313806135    0.0023998420144863    0.0001449001601191
     0.0024007571799185   15.3633006247875361   -0.0006442210894229
     0.0001450310074229   -0.0006449824026597   15.3697544548857330
 Ti  V   Cr  W  
  15 104   2   3
Direct
  0.0061691864298501  0.3933235479420311  0.6012685690091885
  0.9941350092541823  0.8001012749705994  0.1918584070562360
  0.0077820191912343  0.7986486269929415  0.5938194957731492
  0.2008521785773023  0.2045470936176223  0.3923904149152114
  0.1965012446553384  0.2060973944362018  0.6029479576459740
  0.1996312780193260  0.3949675277009793  0.2058218663665154
  0.2037414899874070  0.7996665456429458  0.1984143042478209
  0.4063836392682438  0.9968719580488226  0.8068596224170785
  0.4009479571435214  0.5978715873425952  0.8007587715453581
  0.5916038029441163  0.9985371524399906  0.9959273557703743
  0.7922495580462863  0.1973182353246963  0.7969624551621386
  0.7997624829132538  0.4024558428419567  0.1935588052138060
  0.8034277322711814  0.5962085058504949  0.0043381268692887
  0.8014084766311456  0.7970431899690610  0.3898472013023283
  0.7983042556991293  0.7969168189523577  0.6040882664636906
  0.9985544703210989  0.0039753198068528  0.0007775827505947
  0.9994435462898283  0.0004314746376675  0.2000591552794463
  0.9982441540605108  0.0002431403903782  0.3999214327810693
  0.9998828396699821  0.9994370472120202  0.5988644916028870
  0.0001159355764961  0.9992513591076747  0.8003290813607157
  0.9992708500231485  0.2000202183354599  0.9999249140951949
  0.9991009982776643  0.1997411280777568  0.2013768115142776
  0.9978188253885439  0.1958906972829511  0.5981762935251760
  0.0006212695709200  0.1994818437176686  0.7989608874593493
  0.9971306108628765  0.3996712196489376  0.0010028764617305
  0.0007423421796093  0.3989829021355409  0.2013914855289795
  0.0000241645779171  0.3982243342587763  0.3981185354905415
  0.0002658519137867  0.3982796273451989  0.8013829969985287
  0.0024019209721433  0.5981300863052913  0.0025099463815679
  0.0009399696285581  0.5982249962054782  0.2012569455035123
  0.9996624600453965  0.5987645412510557  0.4003989349821843
  0.0007442142827837  0.5998224547300038  0.5993595377142960
  0.9996298543458553  0.6016432837849108  0.8013035353003398
  0.0019598438150543  0.7996167644991359  0.3936576420768431
  0.9997504446296728  0.8004668295961483  0.8093822602055406
  0.1965239807781832  0.9986979072329506  0.9999180886195305
  0.1987046269135445  0.0015412246520480  0.2021669526868161
  0.1996088344712825  0.0004173571864629  0.4009547377358487
  0.2005990436475329  0.0004084612019540  0.6002720887328178
  0.1991370422919195  0.0001517783341147  0.7995286542480097
  0.1995993320271761  0.1975101821301934  0.1965356619318407
  0.2009670598313665  0.1989439434446320  0.8021688761350229
  0.1993770203912818  0.3999438119283648  0.9993410868197270
  0.1992411477437874  0.4022064490712663  0.4060124326669687
  0.2037696971185119  0.4039002560305729  0.6029236212883690
  0.2005525662775460  0.4009287141046833  0.8017790312124746
  0.1980746013969829  0.6003963993991709  0.0014376471140647
  0.1999555356526793  0.5990972605850815  0.2029415578938957
  0.1987736390855234  0.6001281618508449  0.4012581809068723
  0.2005172042022548  0.6018724354579604  0.6013108267138376
  0.1971772054192369  0.6002869739845716  0.7997722059502743
  0.2012102511811792  0.7996802210606657  0.9988296160856964
  0.1994000294501271  0.8006570972029379  0.4022733999797832
  0.2039185541078442  0.8008252203309589  0.6016870562741566
  0.1997696052162523  0.8002298501574386  0.8013968821387112
  0.3950891266600032  0.0007658096972468  0.0046727366018061
  0.3984172639290914  0.0003384445265842  0.2011916201790238
  0.4023620291145324  0.9997171789645340  0.4004241270502952
  0.3997279000293201  0.0001866600586986  0.5983071279669373
  0.3991037389548032  0.2008572270474719  0.0002040780683520
  0.3999595010079838  0.2005075445063693  0.1978342856503805
  0.4013997280694780  0.2008059774520128  0.3995159459918944
  0.3996374430934356  0.2001431205180035  0.6000959220251957
  0.4024274482614256  0.2018916194222785  0.8007001033964495
  0.3989950911229115  0.4010956676066677  0.0012390130944920
  0.4024103588329362  0.3993603158920689  0.2007174466900539
  0.4000668210806739  0.4000556398027125  0.4003985416696441
  0.4013714536088845  0.4010200230787504  0.6000519815040822
  0.4007221831651140  0.3986397580298858  0.8009759929432098
  0.3989383372824589  0.5987058163137043  0.0036993613228964
  0.3994475808017331  0.5995620920979196  0.2013221863771372
  0.3995156648997380  0.6002377211773743  0.3995755245432827
  0.4008128937239585  0.6001686332233380  0.5968785707000839
  0.3984298175176590  0.7992225203855652  0.0000037385791423
  0.4024364254213526  0.7997141711579577  0.1990852587082982
  0.3988261296385208  0.7994975362214225  0.3985209504937325
  0.3999409489944076  0.7996248373739694  0.6009060666689575
  0.4017690426292219  0.7995135047125360  0.8005208787086450
  0.5996216606095174  0.9992752709788275  0.2042622875744089
  0.6002691998317424  0.0002902204881381  0.5944313588889617
  0.6051750944185477  0.0044403584999034  0.7940601825083855
  0.5989063073536441  0.2018522148909983  0.9947660590736052
  0.5995354124602003  0.1993290393630824  0.1976859243070004
  0.6001468807796176  0.1971617245462327  0.4003932117934136
  0.6005415295757081  0.2004761569449525  0.6032175972053917
  0.6039517152212427  0.4009376097573313  0.9997993068289344
  0.5980707419097248  0.4004406674987941  0.2002223598424634
  0.6007503559872134  0.3984254835359838  0.4005021476933927
  0.6008300552724134  0.4004523198483749  0.6000843876312455
  0.6010946198204278  0.3969822477292574  0.7995489885893073
  0.5966268590901316  0.6001255003631494  0.9997912878050506
  0.6000823731070019  0.6013736947072875  0.2021039268756302
  0.6012922899320772  0.6012057890180230  0.4007483022994588
  0.6004918933617707  0.6003986346709027  0.5991834750998777
  0.6028955178648329  0.6003435473063065  0.7990304350599441
  0.5990419829607031  0.7982016573425668  0.9985545572538991
  0.5995073555696627  0.8004059933805623  0.1977855459721421
  0.5984231324075371  0.8042496677800762  0.3997770313903020
  0.5988600838306178  0.8005721188261193  0.6000808612219115
  0.6007992603580887  0.8023331914093662  0.7991414623171240
  0.8019114585813684  0.9990855496231681  0.0003059080211174
  0.7990719354065317  0.9999713119166922  0.1997939964732709
  0.7961027472144382  0.0012430510239931  0.3993805694749980
  0.8017548635513255  0.0001123524321170  0.5985635735137663
  0.8015509036898110  0.9966277753105758  0.7990177199944727
  0.7990362191340925  0.2028043548438395  0.0017826029395612
  0.7987716498674315  0.1979235405359999  0.1984097022108819
  0.7995194413185190  0.2014361348213145  0.3981141984910297
  0.8006631550164576  0.2015040982638370  0.5969588777353134
  0.8003399301167589  0.3996976011563456  0.4011546885458443
  0.8005465381830085  0.3994900791260203  0.6008502372806552
  0.8007721001230184  0.4035885326534430  0.8024911066590504
  0.7993581296843476  0.6042012485688734  0.2042378612501875
  0.8012018575144424  0.5967790511866965  0.4009061542166417
  0.8018255301005703  0.5973561836095328  0.6001070055252123
  0.8009548232020055  0.6010838066094862  0.7979377648970812
  0.7956208174717136  0.8006094662799709  0.9997668083338160
  0.8313584859306150  0.7993209404502737  0.1601457626146734
  0.8013151100015489  0.7991392876718292  0.8047997260388747
  0.9965288589585263  0.1995621172672000  0.3992345087341376
  0.1990541432048867  0.2005073392731864  0.9993196643800515
  0.5994433548136390  0.0014155035637198  0.3995861972481016
  0.5974993793813779  0.2005951376709801  0.7976189666182225
  0.8006054672282608  0.3984641181498121  0.9969705265460892
