Zr Ti V  Cr W 
 1.0000000000000000
    15.4774007178547244   -0.0057270445464663    0.0060485456842571
    -0.0057275938548885   15.4869400142696509   -0.0016006725836938
     0.0060484205712483   -0.0016004018593464   15.4828342852602923
 Zr  Ti  V   Cr  W  
   2   2 106  10   4
Direct
  0.0021418209634725  0.4018897739133185  0.0016429762340571
  0.4011592878735931  0.5962447217423006  0.8023278006191144
  0.9998180155028107  0.9958520361653951  0.9997293514443099
  0.8011585693910508  0.1926986860240027  0.5989535095831257
  0.9990133161990504  0.9998528926048158  0.2031964642095367
  0.9997254119216370  0.9996984339848537  0.3993579081958118
  0.9971401628861366  0.9988834141086148  0.5988837818911844
  0.0002245875600082  0.9998622684298833  0.7968439409439595
  0.0010409408650629  0.1953335069170555  0.0012061102752636
  0.0002784185693314  0.1993031586030480  0.2000894696677594
  0.0000602236500710  0.2000284878651280  0.3995196914848664
  0.0034886736492580  0.1996458855456375  0.5984706163334967
  0.0013310925880487  0.1993625579410586  0.8001988527013273
  0.9993697376450618  0.3995024460905690  0.2051337182713325
  0.9996159102631765  0.3999621185429758  0.4016932895871567
  0.0015462003649322  0.4006113331865596  0.5984361117156572
  0.9947836204586106  0.4005995253850885  0.7950770620818221
  0.0000286563904135  0.6065067732328896  0.0006062299483214
  0.0000178317908044  0.5998498621835340  0.2010181163273275
  0.9992954780431822  0.6005365770885014  0.3996213505204316
  0.0004658676027800  0.6014907117166599  0.5990214739259130
  0.0004583070818984  0.6006535021171466  0.7982609708819823
  0.0002098499884979  0.8008335596148475  0.1962231408311572
  0.0001762592514099  0.8003685258662455  0.3984767613903631
  0.0014136501863702  0.7987525399339858  0.6007871516012446
  0.9998019317600991  0.8006691544799719  0.8030049278395924
  0.2028625236662632  0.9992810289913806  0.9995143247190427
  0.2005554728426212  0.0003832914320594  0.2002742168453880
  0.1994812603601329  0.0001355372579144  0.4009041817237803
  0.2003449441647722  0.0012957656545569  0.7986661106669684
  0.2025406238891073  0.1993624643195044  0.9995165944244733
  0.1996812999862236  0.2002300907048780  0.1997712688317901
  0.1992577321588971  0.1995567751275452  0.3990935924407591
  0.2005229669613964  0.1984267651601614  0.6011113353611346
  0.1973411708530719  0.2000030128124152  0.8007114439530247
  0.2055654330424881  0.4004083156918545  0.9994179397399074
  0.2016786783937811  0.4001661732349628  0.2014841732029162
  0.1995668389752438  0.4002730411554858  0.4008887616788516
  0.2044722113854139  0.4002176405086223  0.6007414624965894
  0.1978082168439733  0.3984391102981518  0.7994287813038683
  0.2005587607962590  0.6009073595616478  0.0001434875199480
  0.1998985525085798  0.5994997984287537  0.2002112790056275
  0.1988816178289565  0.6005068029038693  0.3992169274992936
  0.1958620147531145  0.5997832268452490  0.7998935404773140
  0.1975435464652651  0.8008014842916996  0.9988322317102136
  0.2004308026849707  0.8001449531028263  0.1998439078882437
  0.1996562698309679  0.8003653571555656  0.4001635838342769
  0.1998913983725470  0.8004613348782421  0.5999623227450597
  0.4012587807048200  0.0013172078607369  0.9987313184475184
  0.4005008183721315  0.9999168133759946  0.2012300606568110
  0.4002642988624754  0.0000994252635497  0.4009563528658281
  0.4012185827518869  0.0015049096849987  0.6007073566408483
  0.3993389165897597  0.0010101747897506  0.7984740115180495
  0.4007429383617417  0.2002444381916802  0.0031802957499934
  0.4005370744373985  0.2003045536038618  0.2003904600846332
  0.3995998764522884  0.1999214527621956  0.3985576452754531
  0.3995755618147428  0.2027309779350794  0.5967168807455084
  0.5332739677951859  0.0670421354190284  0.8003864922724684
  0.4018444897140923  0.3978131976518569  0.9995656981382692
  0.4006114686908994  0.4002292425818313  0.4038454654365498
  0.4021493592034838  0.3943012809995110  0.7954868188394698
  0.3998851747344179  0.6014648803182652  0.0056910400292360
  0.3999937088165182  0.5996041112546874  0.2019166431410990
  0.3995612036246153  0.6010166688980179  0.3994288834566574
  0.3998346757981138  0.5969210302494543  0.5964206592511166
  0.3993098696291377  0.8016178971746741  0.0009579605715562
  0.3996944097147199  0.8008122186424411  0.1996543191266415
  0.3994621740805408  0.8004005916816715  0.4001832738573049
  0.6004374709818889  0.9994152786362159  0.0005435447837892
  0.6010784028219197  0.0007952923151209  0.2004142572792019
  0.6004763196119262  0.0002187679485310  0.3991323892714513
  0.6031639964913302  0.9989061769752229  0.5983118502018631
  0.6009997946458155  0.2002889426114391  0.1996485763159833
  0.6013105356223084  0.2006268013378991  0.3979710114627477
  0.5971729541065979  0.1982431037320950  0.6005063681985673
  0.6024597184146108  0.1999942373524650  0.8008747840957802
  0.5983813644881619  0.4012582436293179  0.0002609790249715
  0.6007351664931314  0.3995810205727852  0.2002626894248656
  0.6013770772067799  0.3998520233033636  0.3998686940398927
  0.5966583888998404  0.4008632532864390  0.5994352088869946
  0.6065147958861243  0.3984170502195673  0.8004968704502047
  0.6007548337664437  0.6016063054881117  0.0017050397961288
  0.6006604295825367  0.5997423337825565  0.2003128025441645
  0.6011222426403573  0.6004337665941633  0.3991757931352449
  0.6007536817838608  0.6022658212201601  0.5988522704486581
  0.6053127912729818  0.6015251569333269  0.8002702645117681
  0.6008582678349058  0.8008574713442236  0.9993706176500023
  0.6002197540657660  0.8002201874662090  0.1992395119798031
  0.5996153646064148  0.8002115296127646  0.3995113264992688
  0.5990033749818280  0.7994332435462030  0.6010351217339449
  0.6013834223624178  0.7999883523886863  0.8007049329260307
  0.7966817096154066  0.0005249003204304  0.9986525102442962
  0.8000456471394932  0.0007152521811074  0.4031007453621852
  0.8007137222560947  0.0023849768698524  0.7955402685117645
  0.8005723571354103  0.1976910118810246  0.0013957126213311
  0.8007529863400982  0.2003843486777288  0.1988220817963380
  0.8011003805027910  0.2026400740578903  0.8031312059023066
  0.7956930467318861  0.4002924548926481  0.9951847294587229
  0.7999297359603768  0.3996446818909114  0.1986330128213492
  0.7998883400978485  0.3991087165810782  0.4017290785842847
  0.7988346645643660  0.4010028960165533  0.6037825943164484
  0.7997505377534422  0.6004328528771442  0.0006514758184828
  0.8003705835408889  0.5990160508696812  0.2003495843674075
  0.8005264626333406  0.5997347880249362  0.3999615588681937
  0.8002669510160858  0.6008564545822558  0.5986615497028849
  0.8029233386640755  0.8013302420939629  0.9993160376323943
  0.7995863175619268  0.8004816499027853  0.2006349343082462
  0.8004508951121709  0.7996072476036590  0.3987898690108198
  0.8009496355263240  0.8012288473348321  0.6006550816571811
  0.7998884287600730  0.8011808414319852  0.8002191809848581
  0.2001446229565065  0.9991751705851427  0.5996683909904686
  0.1996190395339693  0.6007163703330605  0.5995063797220838
  0.2001898221546786  0.8006004602801052  0.7987384741023202
  0.4011026189099449  0.4000405889933605  0.2020267891846159
  0.3993441268077875  0.7999750127827883  0.6003271737694139
  0.3998244288014158  0.8027547279499938  0.8000937876405256
  0.5997669845794823  0.1998564682432594  0.0006095267767237
  0.7996531032367626  0.0003227425023352  0.2008435674543562
  0.8006952415406989  0.2001162057144196  0.3970175536970729
  0.8016506293812169  0.6006357843954869  0.7993730030382695
  0.9988934458885705  0.7980349000009090  0.9997300576038812
  0.4006837926174799  0.3984433428389869  0.6004816256134118
  0.7994429677309699  0.9956852589181847  0.6005683690354338
  0.8010375924288006  0.3966855134063936  0.7998220596243075
