Zr Ti V  Cr W 
 1.0000000000000000
    15.4417928835717451    0.2472837549206161    0.0369721192490037
     0.2501997795631014   15.0916203139855103   -0.0623420006450765
     0.0382694678049891   -0.0619448499758365   15.1421195473823111
 Zr  Ti  V   Cr  W  
  30   9  49   9  27
Direct
  0.9745853177441729  0.0111267971695264  0.0386753586627082
  0.9856364266191576  0.1876562543691603  0.1893133285822298
  0.0223817250346479  0.6282397587880454  0.5519111763870993
  0.0100102140940361  0.5881851703934481  0.7869383213009765
  0.0219290487963613  0.8211043566120446  0.1596899851761047
  0.2232061931780026  0.9983724069402404  0.3962715776058125
  0.1904738084656401  0.9933017098858868  0.8204236789466555
  0.2216695776578619  0.2190047097384299  0.2549556745270675
  0.1187811451865584  0.2045508266222041  0.8100452469398570
  0.2235952628725024  0.4259469836335899  0.3940809294956231
  0.1390269846861624  0.6249810163277706  0.9968637778367370
  0.3638586935947964  0.1935858308309909  0.4235617792376122
  0.4652505038743350  0.5536592412829118  0.6069048679421137
  0.6197610703094089  0.0245218882695401  0.8002236167190627
  0.5852448490241173  0.3206623050457816  0.9944018408395584
  0.6581789203750079  0.3653640106487563  0.1995552736798464
  0.6288598738294348  0.3886827512227389  0.6270937003304161
  0.6106201474086963  0.5509741960375546  0.9600276918370239
  0.6310078090517313  0.5495501026053516  0.3374847693171171
  0.6724774163655219  0.5996292469106067  0.5575148386434761
  0.6253729577939694  0.8257973142666447  0.6376901098202709
  0.6359614971446400  0.7555331814747535  0.8471191627223199
  0.7479200677361727  0.9651242312875279  0.9841831255309088
  0.8495487695783452  0.0044370632725971  0.3826132499189747
  0.8044293576542945  0.2025322671279564  0.0239577552228587
  0.7713540933264001  0.1856291687875724  0.2609123566778240
  0.7829578185260581  0.3930810606618886  0.4387933038091599
  0.8478242854746508  0.6230425748543964  0.4248768798849027
  0.8249604502904834  0.6994216879273583  0.6821970068083378
  0.8214764685024499  0.8798266797632335  0.7942961273920182
  0.9281105628672811  0.2250944702668697  0.4160913474230405
  0.9985324741363893  0.4196667158190450  0.4365023285126592
  0.9885862970964953  0.8180028426637745  0.4023541238811801
  0.2066214615366216  0.7139231469145352  0.7812058635873769
  0.3403606797448658  0.0489151370247372  0.9602534668386560
  0.8128934791020296  0.2196893143909073  0.6284248883788495
  0.7046915141848608  0.2411169603870720  0.8009679518229383
  0.8575900804831326  0.4659767397861169  0.6341043640430104
  0.8057354448916811  0.7953853535123813  0.2551829982505444
  0.0364498560682012  0.0709829444217474  0.3538774853122239
  0.0125141784508464  0.9968632662011875  0.5825017325350691
  0.9781935806631133  0.0495087298663456  0.7735258961237735
  0.9860711563751789  0.4227189796557714  0.9798513541800907
  0.0419000204980496  0.4393968484845207  0.6354009552311529
  0.9462473112075092  0.6268385432662510  0.9902721322324985
  0.9443163231494455  0.6063424908020133  0.1791854991807186
  0.0573457466220673  0.5698788388087334  0.3588248201504494
  0.0148604924576277  0.8026812043334591  0.6528859275231653
  0.0283373808946179  0.8776267754342570  0.8423936181070308
  0.2007115739321794  0.9548538602019440  0.5871065619148410
  0.2191069608116389  0.3754528901170542  0.9516320960685773
  0.1986888614211006  0.3859885927655118  0.1362801014483856
  0.2057056085365947  0.3313974289226194  0.6114675285641661
  0.1896659904603802  0.4006656349295730  0.7836126442872440
  0.1901595289232348  0.6503407188380663  0.4237881947025322
  0.2463059750406907  0.5496802397099569  0.8378105877578890
  0.2253791836037855  0.7861080460790599  0.1330163206654323
  0.1759019617742491  0.7958962807378772  0.2890284866816038
  0.2283927596400024  0.7831297445897527  0.5544782239272789
  0.3824755970038141  0.0043473119755446  0.2155321771645632
  0.4128416817800259  0.9907456924205820  0.3987157734768814
  0.3946635994595519  0.0014826688851308  0.5951136058486720
  0.3750202426617664  0.2335754862936618  0.9764623519241452
  0.3212507172654632  0.2107464589096054  0.8044292159891427
  0.4007486692490451  0.3933513808769164  0.0119770213706398
  0.3774285616376713  0.3979585981908691  0.2147276041410751
  0.3641082880311338  0.5854445225145751  0.9985197731615834
  0.4606229974058716  0.5886621912627115  0.1651720983589754
  0.4121844942205644  0.7912857092825236  0.4289150518367008
  0.4349006986615325  0.8297288944491704  0.7917086754724207
  0.4932402645455643  0.9248939764893599  0.9209625762648856
  0.6369301698996266  0.9835655928612713  0.1677855680124298
  0.5982069813891869  0.9814494312796505  0.4150385303937801
  0.5927047055165390  0.1784442205201389  0.3811766041525400
  0.5263271615364341  0.2234263324505164  0.8204164944290558
  0.6102163837840120  0.3642522486594879  0.4146779785666731
  0.6227470736495293  0.4031993562401137  0.8206252219256385
  0.5938879404784995  0.8199955623596172  0.0588961696040592
  0.6076050197238352  0.8007857910241513  0.2221514266489883
  0.7587903462032901  0.0197576262914782  0.6132330811209133
  0.8021280008046296  0.0804274191326830  0.7789303758830803
  0.7573326962317488  0.1782138558829293  0.4511330540196961
  0.7875647296173517  0.4141474110976122  0.0476606143054414
  0.8019400369887452  0.4137707628728833  0.8196352743093744
  0.7882446334901290  0.5865372078725410  0.0504405403800761
  0.7840754349675523  0.5280574767681271  0.2191824271549844
  0.7883834756202255  0.6081790689618410  0.8594568346090768
  0.8789495836437259  0.8701421638724217  0.5438406279889546
  0.9797599584316292  0.0033948935961452  0.2294333906423477
  0.0030994481553162  0.2066825688731912  0.9734389694434626
  0.9956324053338330  0.1990414432694936  0.6156618895936978
  0.9897136988930817  0.3983557805412608  0.7816258428599263
  0.9658369791096918  0.8138637649044647  0.9648943075247323
  0.4114736442158414  0.4172216013278461  0.7936709282895150
  0.5926353269334582  0.0031063766454396  0.6091445930975814
  0.5977656472146206  0.5460387672693332  0.7765333507336646
  0.8200893018359016  0.8188963516704223  0.4191228552621352
  0.9007165051434199  0.2313758254263070  0.8168177913586756
  0.0563559677738388  0.4420945439883517  0.2160003911871547
  0.1750183871570352  0.9974766500721508  0.1629545544998928
  0.1540083781532433  0.1879847204108728  0.0356156053030507
  0.1233134729463150  0.2171369682284521  0.4288799988696071
  0.2162565663143020  0.1315230509600312  0.6043348075209494
  0.2369937442144825  0.5824379816364059  0.2172996637501938
  0.2299719398349650  0.5386844921123666  0.6153641152195920
  0.1553768357743590  0.8620675834287324  0.9730168073212864
  0.4113731074445696  0.0266231465656104  0.7884438365270450
  0.4201644870887438  0.1955046949333658  0.1676447124295030
  0.4104885856819936  0.1992029032350429  0.6483322717477368
  0.4502766585823618  0.4035071047237258  0.4071512650037870
  0.3836823459819861  0.3744352361992140  0.5806748362145210
  0.3967231777011061  0.5807862193519178  0.3671889777325570
  0.4365338680638208  0.6349256262689074  0.8244217427453967
  0.3787622359402210  0.7977218580381762  0.9886230332078313
  0.4322571456948252  0.8151818160357653  0.1708686279108349
  0.4130701752309741  0.7579161626065281  0.6252375200600923
  0.5546444417443237  0.1062593603189317  0.0156436770734565
  0.5911696374568721  0.1741778058979324  0.1855262127311545
  0.5961921562283692  0.1669779595164301  0.6128923877074374
  0.6412351193139196  0.6448664895990759  0.1321351097272439
  0.6187736294076031  0.7792502627698893  0.4021109618437551
  0.8216797905178430  0.0098272235279362  0.1746019910162996
  0.8805377814804068  0.3561609135039536  0.2271812165462267
  0.7844160198727936  0.7575848939587951  0.9932227790649162
