Zr Ti V  W 
 1.0000000000000000
    15.4529206753737594   -0.0089219929548298    0.0139355642811389
    -0.0089343212131673   15.4627799901828133    0.0191221628419376
     0.0139437596884260    0.0191164033920139   15.4587375740632638
 Zr  Ti  V   W  
   8   6 108   2
Direct
  0.9905895510422841  0.3871902961309361  0.3661911903708133
  0.9974429047642283  0.3857285362544217  0.8092815085300412
  0.0317400664183574  0.5961479541672878  0.0029217714294132
  0.2438355006592314  0.5992079623288868  0.0014548236683680
  0.1987410171822273  0.7981898965821606  0.6038535448388936
  0.3996564362601601  0.2015443383451667  0.4023732851999310
  0.8154907054505186  0.0209897659024783  0.0141245650365846
  0.8079551413084349  0.3989665514748378  0.5962383978561029
  0.9843248087557546  0.1975183624322169  0.9750538208765874
  0.0065204530600838  0.2125641034873213  0.1914278317913876
  0.0002433147379366  0.1801166465559951  0.7834793826957662
  0.1916175390782450  0.1975024767149124  0.0067884035312444
  0.5909420155652887  0.3989286274875907  0.6011990932083610
  0.6119396008541623  0.5991060006371093  0.0013401767512073
  0.0129427208243110  0.9978073560534299  0.9977413356322549
  0.9975577111706118  0.9996396779517192  0.1966548686157089
  0.9992826608466941  0.9968862364366737  0.3984866378565303
  0.9999892803928422  0.9990405208054709  0.5988612002027359
  0.9996873775976857  0.9901191376211326  0.7989358022317059
  0.9987901862845704  0.1911818395425566  0.3971574415683943
  0.9993615493439768  0.2002546167081173  0.5913272942604537
  0.9978208287694773  0.3933725579656341  0.0060562452611124
  0.9979051666820780  0.4115037448921698  0.1726298541288586
  0.0093958054826720  0.3982100998421458  0.5997783181615867
  0.9979524873641789  0.6033778582860010  0.2076853480936719
  0.9979472123956423  0.6000616271039780  0.4024465502514146
  0.9986702903872464  0.5959970065479759  0.5992301256776633
  0.9962076624675867  0.5988003066578569  0.7974132014853009
  0.9988041909441613  0.8024925636718151  0.0008477841582324
  0.9981841447299143  0.8001641199462011  0.1992581849817280
  0.0010649140724206  0.7987109668457126  0.3995914510337363
  0.9931421071459724  0.7997125274158550  0.5991149585536140
  0.9971695853841022  0.7959481058626893  0.8013410484033855
  0.2030075436716701  0.9991338876098775  0.0024898959446382
  0.1991060856513799  0.0006282300751437  0.2012193386126728
  0.1986595647524846  0.0004704373545750  0.3992861515995339
  0.1993003038293030  0.0035042862555977  0.6000742383103107
  0.1983585285383808  0.9999785543118385  0.8028504390675518
  0.2014500825360346  0.1982847912452792  0.2032034581766214
  0.1944651804558020  0.1997058005282346  0.4025611600983802
  0.1986502396905188  0.1999936551983487  0.6013696548207819
  0.1983209518969438  0.1979499061097214  0.7983729027613998
  0.1996516243488166  0.3977221359101868  0.0017718837463492
  0.1949823365313931  0.3990150396704657  0.2043739541002438
  0.1997603424545364  0.3984104230269242  0.4017492257821152
  0.2011029460652088  0.3974812289476013  0.6026481568866214
  0.2019155153076148  0.3965794317225382  0.8034821844920531
  0.1969426249069680  0.6008097695517536  0.2037117420632314
  0.1989977507009058  0.5972342070648726  0.4031188581976161
  0.2000096249184908  0.5937386506373488  0.6016604448006078
  0.1930507998402799  0.5964336180928077  0.8009103034341160
  0.1969277665369354  0.7991881670584629  0.0027916501990819
  0.1991560908814438  0.8007005304319861  0.2008889100498694
  0.1994229296474456  0.7996085378358722  0.3973727120362576
  0.1986906235724767  0.7986938961470271  0.8070151276249597
  0.3990034627584838  0.0010447298237855  0.0009135791341426
  0.4004420390885410  0.9999585555959889  0.1995295879511549
  0.3991015597405386  0.9964412191872212  0.4004733763454190
  0.3993258191358748  0.9998269809949808  0.6028791404645496
  0.3979034985757617  0.9989115427005623  0.8028076464636715
  0.3981295816123362  0.2047266098049347  0.0001281943202984
  0.3994907934508495  0.2005507305396489  0.1967359044387960
  0.3988982035315474  0.2006720100980086  0.6065995958360699
  0.3986769352707119  0.1988129126658359  0.8029234915085808
  0.3954395758500032  0.4012961618597581  0.1955174220713221
  0.3968337270737375  0.4052122175612725  0.3970312197737279
  0.3964461790194019  0.4003193545360497  0.6052896936813870
  0.3968254445386785  0.3999824998871414  0.8075576836146240
  0.4302384540942248  0.5944978828691674  0.0012399485862586
  0.3994828986556920  0.6008238411280896  0.2018008831061357
  0.3991505344389670  0.6003318891143702  0.4023298881388582
  0.3995349658812042  0.5984112699495292  0.6026738294125331
  0.3989936328137407  0.5996423958572077  0.8021249541450609
  0.3991083215860130  0.7965961455220073  0.0018504503185748
  0.3994828704733587  0.8006101308897150  0.1997583938884381
  0.3992964139921239  0.7982180408588507  0.4003613386926809
  0.4037303710442171  0.7989579879589319  0.6029049301365625
  0.3983935739969920  0.7987978669805125  0.8032164971065201
  0.5987141415870290  0.0022652795191225  0.0008188092072855
  0.6032728204555331  0.0017580988799428  0.2006837469415177
  0.6009311409030351  0.9998966011766742  0.4017305161892596
  0.5994793307116052  0.9998437463801773  0.6004713385326906
  0.5997308529688805  0.0002990457021630  0.8013467488156044
  0.5965339994577281  0.2000244610608030  0.9987533722800357
  0.5990310216172849  0.2015231615111841  0.2013440456985398
  0.6039753795005541  0.2012687748463240  0.4005988236111261
  0.6008172700325961  0.1977089604835359  0.6011135524673279
  0.5985193565641516  0.1989590741487625  0.7990280580439613
  0.5932744861410116  0.3966043948365989  0.0021851025648481
  0.5973744813436318  0.4015001901781975  0.1991896283412780
  0.5949068958459928  0.4003034862383805  0.3970949351441339
  0.5955745673040858  0.3998786152980095  0.8039815483529280
  0.6012145199840430  0.6027079057216436  0.2059645027672744
  0.6002168649506580  0.6013858516927382  0.4023101825648119
  0.5998060527000464  0.6022849445485843  0.6003330905467288
  0.5997762340825246  0.6006767979021858  0.7967252768550723
  0.5995485019438724  0.8046869706303527  0.0003599962264627
  0.5995001344775918  0.8014445922713814  0.2003001430532920
  0.6314630106370208  0.8003623464134729  0.4007361397259118
  0.6005950342638922  0.8015460275233924  0.6004907483355373
  0.5980574816117060  0.8003355430920418  0.8023716185026122
  0.8008295574829285  0.0045318725623330  0.4004153791518541
  0.8002603270122635  0.9998308691912975  0.5993939184582686
  0.7999641815254407  0.0006939351312645  0.8016296419913899
  0.7897114802360513  0.2151430205301350  0.9968151920465311
  0.7971054943690433  0.1989359749467755  0.1946405824929614
  0.8028470531821180  0.2036904889102800  0.3987986649101393
  0.8006524454253735  0.1967253821514152  0.5992395817080924
  0.7956971105044346  0.2011231561149651  0.7982263420214858
  0.7955517225694162  0.4064425927677865  0.0012589972736620
  0.7987101596857551  0.4023789320549315  0.1973842963629909
  0.7887912277959110  0.3999575085388437  0.3923843032494112
  0.7907727275625815  0.4020507832363899  0.8034909390090791
  0.8078713784162708  0.6027281897412115  0.0005442875633075
  0.7991481008715272  0.6062934909569028  0.2023514594835486
  0.7991976258241072  0.5955260924639101  0.4019029491124017
  0.7994518055657233  0.6050372008335462  0.5995522215189906
  0.7988717041089981  0.5997629938747786  0.7998904413901317
  0.8002771475433150  0.8028277835537501  0.9992087130678509
  0.7987184514270377  0.8067983402847805  0.1964724922943947
  0.7980080023998075  0.8012107711599294  0.6024207281154612
  0.7970733696807234  0.8015131737652839  0.8019708537901720
  0.3949214202420204  0.4016719845584793  0.0023365025413468
  0.8007962028017938  0.0023164762135798  0.2124481597757878
