Zr Ti V  Cr W 
 1.0000000000000000
    15.4549315649027950   -0.0222495129286640   -0.0105509386160289
    -0.0223053274730288   15.4776580052303601    0.0156777599783081
    -0.0105831741986949    0.0157005871891177   15.5087905410777189
 Zr  Ti  V   Cr  W  
   8   6 107   1   2
Direct
  0.0005180816073835  0.0004986327338275  0.3538408382516217
  0.9969664166185749  0.6475572282270815  0.9654058623677479
  0.0096990502197017  0.8072634036603618  0.8032185030280095
  0.2163018320079966  0.1889213301887281  0.9863620405058926
  0.2178320570537154  0.5744205770236176  0.9979429597694736
  0.1896925635579791  0.7917676470634508  0.9919768208569651
  0.6092876170804616  0.2004143517969735  0.9962711795311725
  0.5994375890183683  0.1969441568377530  0.4030367974240762
  0.9992806362324276  0.9960517070216643  0.5829974324504563
  0.9877081993194462  0.4041035548757950  0.4237950559803972
  0.3915196107307394  0.2016295292646065  0.8092045485427810
  0.8064151287452770  0.4019045286882522  0.5908849452121456
  0.8004439417731599  0.5933054632053905  0.4077744744158607
  0.8125391200737592  0.6005558496874395  0.8044857707815700
  0.0003472697225178  0.0129609213472418  0.0022639005752574
  0.9993905252366975  0.0072964488650586  0.9363091210873471
  0.0014203277564970  0.1411383008039438  0.9369466044014537
  0.0012560603585741  0.2081184105629756  0.1331858263070967
  0.9997972357227718  0.2015196295957745  0.3352171109636559
  0.9998924660336543  0.2045529490010844  0.5324565181248736
  0.9994557869344067  0.2034084487656232  0.7323324263366513
  0.0018679179850418  0.3380190982152494  0.9349272439903109
  0.0037975819751552  0.4008390686987376  0.7410776173289225
  0.0007790946200755  0.5280863113774709  0.3420554825148122
  0.0009839801848392  0.5991584413844376  0.3360999973350823
  0.0024877257054501  0.6007002861087265  0.5298079148499371
  0.0053123054228370  0.5962668741408258  0.7197718648302968
  0.9942403637835920  0.7541057028673430  0.9402352535539851
  0.9943594246086200  0.8039988436246278  0.1406368574136236
  0.9967919104016666  0.7984606744362009  0.3355643312990079
  0.9988014436240502  0.7973727596034276  0.5302013809515405
  0.1322780162310613  0.9286676480832223  0.8652834506931156
  0.1998996087564039  0.9963593880119940  0.1290358608306782
  0.1999390161017266  0.9981686870970256  0.3362769636712820
  0.2028969093133371  0.9997315212396650  0.5332594729401564
  0.1990376848109809  0.9998220828590936  0.7310090214090955
  0.1990820285684239  0.1318844258434083  0.0662452075586564
  0.1982773261084118  0.1989345389806678  0.3333668687198016
  0.1990185693349443  0.2004049421629739  0.5317289817204152
  0.1948965041681057  0.2006416845936088  0.7240949799480986
  0.1990622962644379  0.3274788052248986  0.9295138538868966
  0.1977160240689524  0.3949223839341063  0.1340604644654285
  0.1972496212851443  0.3984925064305523  0.3351904808079323
  0.2014827612685754  0.3998109876119810  0.5356723537131470
  0.2004097371051234  0.4008851128765208  0.7359161036533104
  0.1991312648913350  0.5318708151013706  0.0693491755982034
  0.2000552966764402  0.5986737437243631  0.3344157277928385
  0.2016757799164549  0.5983851611481441  0.5317356912284351
  0.2005239884391963  0.6005547623660481  0.7288870377395675
  0.1986651892418103  0.7316227000749747  0.0655864632382902
  0.1996709173168140  0.7986115490397605  0.3347430959345741
  0.2000501300506230  0.7991365972871204  0.5314481348970768
  0.2065404717007154  0.8008532233927876  0.7238306379697045
  0.3356227119829623  0.9319400669344058  0.9301180411316738
  0.3981336175843111  0.9981708100284830  0.1341147050078468
  0.3983014436687194  0.9988381712074981  0.3330798371492018
  0.3999877118721855  0.0004314910558484  0.5354418047549360
  0.4000589474368706  0.9995548379885532  0.7356859786819400
  0.4054078338127916  0.1325212952630765  0.9393017614803567
  0.4019591895705494  0.1998628873894834  0.1380796423109222
  0.3962290876483672  0.1995439711636249  0.3353107040061715
  0.3978295448581620  0.1999025773312926  0.5330778242090750
  0.4021008861696819  0.3323006670893928  0.8682135787969045
  0.4008499980367726  0.3986964377577756  0.1350137907842804
  0.3979956236949532  0.3997389338000487  0.3333502605372987
  0.4002707527883725  0.3996715644130748  0.5350142599307731
  0.4005422714086426  0.4006288459654999  0.7360201338072823
  0.4077135397841700  0.5350027558713982  0.9346712826378343
  0.4023834465008819  0.5984385645425593  0.1329596549791617
  0.3990944150608529  0.5980519099014232  0.3341876987120922
  0.3994956175687697  0.5992423262449407  0.5347725527474407
  0.4003483131906818  0.6002012003884114  0.7351262736438825
  0.4004805090487536  0.7322732022771026  0.9350631452539538
  0.3979509139347649  0.7978106938585597  0.1333769558568556
  0.4003657812601077  0.7984984604613971  0.3330352221459216
  0.4013824458197884  0.7989172414059705  0.5341566821340105
  0.4011276445999239  0.8002684221681122  0.7344583779476720
  0.5337392342063554  0.9305169072537801  0.9330668988967293
  0.5981682204859330  0.9975205376375152  0.1338261642752117
  0.5969617519916084  0.9936234583700727  0.3349733489455490
  0.5979648975133673  0.9968881114983302  0.5369737462613196
  0.5984203621733523  0.0015845140730164  0.7350903837743559
  0.5990881706097585  0.1340187348457720  0.0676100249124231
  0.6002194135785424  0.2014580625139317  0.4705083606276035
  0.6019869872151051  0.2019846781092635  0.7321258089299135
  0.6022038545765914  0.3375648837122053  0.9328644734581221
  0.6008060786962477  0.4024005374423062  0.1344183723336173
  0.5987471844349058  0.4031610992161880  0.3345313802964751
  0.5994288180911953  0.4025587701787781  0.5341827855536218
  0.6012440228311411  0.4025505343902568  0.7337138101716713
  0.6029716623907758  0.5357637968933907  0.9334843363692009
  0.6009344491932102  0.5995594819975482  0.1345531789094517
  0.5982849103070730  0.6011126298069989  0.3351652140443966
  0.5998164967522090  0.6005851796145839  0.5364187370986658
  0.6004883719301950  0.5998524772257028  0.7343378641266565
  0.5994009809855597  0.7343494191300055  0.9343540201511229
  0.5990001272680761  0.7976359743216292  0.1379381340204466
  0.6000515513595422  0.7991079351831141  0.4660619326854344
  0.6014897140417073  0.7992936878978886  0.8005299420457922
  0.7973299460374368  0.0038986502459659  0.0034156349006780
  0.7977794225900046  0.9999101450593390  0.2005361982060863
  0.7952973420747893  0.9982755263828811  0.4039620893029287
  0.7961619030991756  0.0007249848953834  0.6022378634359548
  0.8014672738525466  0.0021739671419776  0.8014220924889199
  0.8079663934169873  0.2003125895860314  0.0008906742478523
  0.8008641183719757  0.1994808915583876  0.2009561244442282
  0.8027725586780915  0.1959919887991402  0.4000506478288939
  0.8015126096329130  0.1982698209020559  0.6012113062828596
  0.8020409082965415  0.2029089815714905  0.7986335627044377
  0.8014472622663597  0.4032547609379329  0.0001101660562801
  0.8023419893739582  0.3986904749586611  0.1992325214291860
  0.7937396058950345  0.3950240849087900  0.3954079554102183
  0.8023662666322845  0.3999674980299309  0.8040285289373525
  0.7974512178722331  0.6025641913728127  0.0053636835749222
  0.8002647774308856  0.5976575052157098  0.2007050628288651
  0.8013578927296395  0.6034184557914289  0.6032054089310516
  0.7961022460586844  0.8040922878300814  0.0025677068905330
  0.7992846410646344  0.7979310794629341  0.2030963368599306
  0.7952434435132369  0.7997484626799906  0.4032699799258931
  0.8018282709696223  0.8000473919145681  0.6043080991097224
  0.7977954681380131  0.8048016959547297  0.8014404150235673
  0.0010032598310667  0.4029341271280700  0.8033971261532121
  0.9986016970809257  0.3995566044381917  0.1965858426368891
  0.5992311731793294  0.7970037339517443  0.3999650693242250
