Zr V  Cr
 1.0000000000000000
    15.5176564344983579    0.0055358052127085    0.0009235349890332
     0.0055289702635454   15.5339659065587714   -0.0041197367383691
     0.0009253811786535   -0.0041210125583897   15.5341853465245965
 Zr  V   Cr 
   5 117   2
Direct
  0.0000859129036972  0.4007797543500161  0.0004261782574967
  0.3742577197012474  0.2034507523432036  0.1959192500906088
  0.5999275342958328  0.1996632119243749  0.2006121702366055
  0.6085211371758876  0.7910783646734414  0.8003968829273079
  0.7931413973907054  0.6077634885552072  0.8004303468238910
  0.0018736546746547  0.0001778852836054  0.0008779342339401
  0.0012464775767540  0.9995675483250195  0.2003228605637097
  0.0008406106872825  0.0006700667634156  0.4004692551993588
  0.0022895370258273  0.0001188700844718  0.6007105195066489
  0.0016207332969680  0.0011477449920182  0.7993544715139136
  0.0004572722882370  0.1966075549566005  0.9993540628042582
  0.0014279412926575  0.1997157822963406  0.2010303124281394
  0.0007521891267383  0.2000021039594522  0.4010725323002437
  0.0004197250242866  0.1996963104583574  0.5996553875161791
  0.0015364453056800  0.2004611535152418  0.7998524567359349
  0.0000478942096423  0.4014732344567111  0.2043074508150111
  0.0008519267636671  0.3998791036400403  0.4007026241551309
  0.0002469372284786  0.4011709605343647  0.5993558747766328
  0.9999389587862699  0.4012121758382742  0.7958100619038661
  0.0000058561843095  0.6049749052030555  0.9996797582878756
  0.0009427459693555  0.6008067694185791  0.2005443603955691
  0.0006708990623470  0.6007917960079536  0.4002504044592032
  0.0002622929898391  0.6005369073397343  0.5998329545647934
  0.0018080776482140  0.6010326219047907  0.7994888224220157
  0.0015245858555960  0.8011212333503063  0.0001655467345735
  0.0015733191275616  0.8008200932660565  0.2006805733584957
  0.0012579399192421  0.7999806178534721  0.4003120228496483
  0.0009872560117246  0.8010417362731047  0.5992407927337116
  0.0044583571808055  0.8013500984675531  0.8000643518708308
  0.2017855849595529  0.9997111231601145  0.0002018171537115
  0.1997166565808092  0.9994381056118615  0.2006246896987960
  0.2013423597555323  0.0002912646286926  0.6000606452066736
  0.2014244636619394  0.0011482787237302  0.8011496517932091
  0.2006441328802678  0.1993443089402526  0.0005867187221187
  0.1993089909998514  0.1997896318632492  0.4009783925054669
  0.1998946087933569  0.2002025026529078  0.6005749830395399
  0.1996804107150076  0.2003682211517855  0.8002023869975677
  0.2043096501096557  0.4000374097361741  0.0003558198860287
  0.2002223467699348  0.4000577104332507  0.2010195395948911
  0.2008323291501405  0.4001422937330565  0.4004929117830532
  0.2004265984335424  0.3998748620973363  0.5994986511697471
  0.2008584403977562  0.3993380327425643  0.8001271578642304
  0.2012911326126350  0.6003872106157272  0.0008803114499404
  0.1993662338404441  0.6000979732062539  0.2000082724512217
  0.2003840481430335  0.5992821477380678  0.3994288271987405
  0.2002232550800663  0.6001004444738103  0.5999156474917372
  0.1995076725731997  0.5995140081848850  0.8003711649432466
  0.2012684692640772  0.8006903132505059  0.0008899525411961
  0.2003040394582125  0.7996699609648630  0.2003757501653196
  0.2008260679523374  0.8003441319355610  0.3997799424892188
  0.2007549657420137  0.7998990684203691  0.5997237203788618
  0.2011572496190930  0.8003727557131720  0.8002815812334978
  0.4014718795431617  0.9996775007338176  0.0000102414403558
  0.4014333599727280  0.9959597539315439  0.2008519505706167
  0.4007309376021767  0.0002783183348596  0.3994575118039449
  0.4012349226498452  0.9993890730875480  0.5994907474754300
  0.4008137902800062  0.9991153706813672  0.8000823983723494
  0.4017373722667835  0.1991915306236532  0.9931843795819428
  0.4009503749560380  0.1991005156350965  0.4036054194334161
  0.3991637668625987  0.1996324801007202  0.6006759802703882
  0.3990864325904684  0.1999972948247960  0.7983730797001612
  0.4014470879296802  0.4000661538049445  0.9997412503873239
  0.4012594981035376  0.4065315838633515  0.2003482699830056
  0.4005426378087394  0.4000001951148279  0.3999408490013892
  0.4004202306253047  0.4001976575675694  0.6002060407572086
  0.3994120278186624  0.3994939298097830  0.7995464804197747
  0.3999941376009676  0.6007718894149062  0.9998456735555306
  0.3988559740469387  0.6016382632822495  0.1996415731938823
  0.3996354562722652  0.6001070106798662  0.4002209408287730
  0.3995575462884093  0.6004584982128530  0.5997132083935742
  0.3964067057491493  0.5991584180894505  0.8000934421371371
  0.4013085591796210  0.7998161552911325  0.9996138689699301
  0.3994257433734404  0.7992694518880850  0.2003074523217663
  0.4009414818435103  0.8003914332631756  0.4000979313136995
  0.4005300137627856  0.7997922753558023  0.5999711914326396
  0.3993621362224782  0.7999053917017190  0.7997769484401367
  0.6005898090648470  0.9992244044223102  0.9995684495738643
  0.6014688354616378  0.9943161567882499  0.1985110750340323
  0.5993889663675237  0.9991490019909171  0.6019731501941248
  0.6010629916568637  0.0006027662480799  0.7996177835604843
  0.6013206765146217  0.2000643602466730  0.9944155955621559
  0.6014539840476494  0.2015386366206870  0.4058914165054774
  0.6016972229692877  0.1990207741878887  0.6012312644295682
  0.6007756490817806  0.1995962297017718  0.7984207642756270
  0.5992952569994113  0.3998674040105490  0.0001017369309585
  0.6009798880711735  0.4058117058338316  0.2000044448513076
  0.6003052308677418  0.4002325440264811  0.4003234695417694
  0.5999738506755541  0.4001610624482227  0.5997958274134703
  0.5991496131826143  0.3967712645613497  0.7995708389221646
  0.5983617883018268  0.5988894785674468  0.0011769002636646
  0.6003116790183094  0.6011105402989271  0.2001860448158286
  0.5996150102369913  0.5995637761852420  0.3994215361925377
  0.5985901927597637  0.5984161393740515  0.5984732439072558
  0.5902836970363905  0.5895364212749267  0.7998563799534191
  0.6011295571774916  0.7992557527139016  0.0039953763923614
  0.6015474732424249  0.7981217378645490  0.2012766921807982
  0.6008491830837509  0.7981386490091519  0.3992087343145253
  0.6017568748023312  0.8004108297518053  0.5950154364567420
  0.8004080566597211  0.0010146817708306  0.0005111108833777
  0.8010427136386239  0.0006546306254656  0.2005055791072772
  0.8015243686430557  0.0008426094566136  0.3985691148086739
  0.7005273948025033  0.0005414013317295  0.4996366319886641
  0.8018015443298231  0.0039975841568394  0.8019461388768390
  0.8006484875483425  0.2000455976951530  0.0001598073301164
  0.8051460950429492  0.2013197056030775  0.1995822829542472
  0.8011573858954345  0.1995554386927169  0.4006650425371789
  0.8012278757774326  0.2018608887928723  0.6003070624767554
  0.8018953391351537  0.2009447427948020  0.7992556193900208
  0.7956790760270527  0.4009769254596743  0.9998907123617883
  0.8004801415588827  0.4007740248059205  0.2007268601642585
  0.8001817663598461  0.4005384821359763  0.3996544470365864
  0.8000137702402089  0.4009947355970606  0.5995261185913661
  0.7998110100228388  0.3993737679013032  0.7997546772755904
  0.7989785218309032  0.6018085350838676  0.0042965399200689
  0.8009974678572179  0.6011127630602815  0.2005817619661863
  0.8004996038508182  0.6001069551502847  0.3987965418050353
  0.7999288774494049  0.6009858084679272  0.5956184013627318
  0.8022305353420642  0.8024514510216642  0.0019361367879929
  0.8020846746868555  0.8003101374305983  0.2003667489437837
  0.8007298224467683  0.8023940367248876  0.3997775645119001
  0.8019262632046121  0.8003975810037099  0.5984690455370850
  0.8111067993743144  0.8113730922355361  0.7988458360756738
  0.2006846937544819  0.9995665834792318  0.4007121083415620
  0.1914339523200327  0.1999194356423727  0.2005554866073011
