Zr Ti V  Cr W 
 1.0000000000000000
    15.4218125631900325   -0.0059686382723848    0.0062585989012477
    -0.0059677460242910   15.4281327699692579    0.0068346148581175
     0.0062604253005019    0.0068382331099848   15.4329886035241781
 Zr  Ti  V   Cr  W  
   1   3 110   3   7
Direct
  0.3994163202346321  0.8022521688246739  0.5988485354246821
  0.2004527939381862  0.6063969420204907  0.1898913587714025
  0.1984866911470351  0.7899475832994300  0.0071371378551852
  0.6002557158844497  0.5975254793492726  0.5817842003556223
  0.0017976687858723  0.9983295098871841  0.9992134882308605
  0.0004554280446815  0.0029000254810709  0.1952163154069272
  0.9989783625672763  0.0006582654887333  0.6051949752278883
  0.0000275657661211  0.9982050741585708  0.8017542260254107
  0.0002643053053957  0.1999059754101812  0.0036343551471871
  0.9999314873881934  0.2045571979608088  0.3968639148360885
  0.0019985126988282  0.1986711866351418  0.5970445535670165
  0.9985477605420501  0.1994282912410474  0.8017481777049985
  0.0050198234088421  0.4005012505686817  0.9996955535709617
  0.0012912388019101  0.3973923478902355  0.2006312525931741
  0.0010633904134051  0.4037477421035148  0.3992890303415115
  0.0005137052585070  0.3995142600103140  0.5996199913630972
  0.9990972362447277  0.4005432303649129  0.8002364906858467
  0.9999439213325224  0.5995811844587531  0.9991059779936090
  0.9981995094225490  0.5987766423700333  0.1993777806703203
  0.0008837426227498  0.6031199247588822  0.3991858838043267
  0.0005334571681623  0.5985116732562932  0.6008719056362962
  0.9992106224889240  0.6008464032876580  0.7991247827900996
  0.9988004080085489  0.7985039568509973  0.0009277477219576
  0.9997190665140675  0.8011559340734137  0.5973127028775413
  0.9998671010636512  0.7985727881785033  0.8010577907787700
  0.2014392943974842  0.0014486841722769  0.9990270276350774
  0.1986646396892635  0.0011459356180545  0.2011945028580617
  0.2035648116153216  0.9994068478841537  0.4002194417141970
  0.1982253783137836  0.0050596314271499  0.5993739921177001
  0.2010151247013734  0.9982965895729604  0.8014099218632048
  0.2003656472844924  0.2020129887847158  0.9990234695784606
  0.1954092347950566  0.1997290478242760  0.2017751886586870
  0.1988247303770644  0.1990651966570051  0.4033109520534736
  0.2000888135601759  0.1991023333501035  0.7958087535111671
  0.2005738816579396  0.3974098609049956  0.1954975345244227
  0.2011748139977142  0.4027712075518282  0.3986570264112964
  0.1999029075121405  0.3947368162668985  0.6004289396230061
  0.2009004416427245  0.3996402570699936  0.8023757603712864
  0.2007077211342778  0.5909179200400899  0.9934336939185119
  0.1998442689435883  0.5967448169962872  0.5999825721170069
  0.2012321859681107  0.5990109954828641  0.7973031485181857
  0.1989757841621879  0.8036839785210690  0.2044532169627556
  0.1958655258618561  0.7995570500343223  0.4004152805604657
  0.1956145387332928  0.8002311744560902  0.6007873977682988
  0.1998448014951631  0.7976895019847556  0.7989278814161527
  0.3988422643873392  0.9989569185378863  0.0005623423246347
  0.4001361178337862  0.0004886650016249  0.1986455511971264
  0.3994260523967461  0.9979780931991304  0.3984412764867580
  0.3995576779150661  0.0044678568328456  0.6009057459233127
  0.4006852749671711  0.9975325778852028  0.8020944525174876
  0.4007662834842697  0.1992814748090969  0.0005944632681733
  0.4005588569472489  0.1988011515879385  0.2005875567585089
  0.3998279977909481  0.2014391141947997  0.3977317112948241
  0.3994966135891503  0.2007247334846151  0.5993620364299256
  0.4015400085339588  0.1992582844701205  0.8012200433892369
  0.3963882315486587  0.3992110492995246  0.0004448944412693
  0.4001354646725271  0.3997641096469605  0.2004557442632646
  0.3992165019752661  0.4018077146069280  0.3980210563799307
  0.3991125881998650  0.3991172345304299  0.6004338002477618
  0.4008590158257572  0.4000852687597699  0.8002860184386714
  0.3995994515091755  0.5992193563380301  0.0008364077205504
  0.4018373640512937  0.6004485738312594  0.1994815045406760
  0.3986438389792850  0.5995887161735612  0.3989047858272719
  0.3978453952355617  0.5954027424665402  0.6000521977190949
  0.4053886299316151  0.5998216215325866  0.7992881947034953
  0.4010745300987253  0.7984338555511052  0.0020323289865896
  0.4003905882372698  0.8006100316088285  0.2000345667901317
  0.3989989979517382  0.7974505724948603  0.3949278548936483
  0.3998172054518436  0.7988644772673392  0.8046950201176427
  0.5992098323297620  0.9991542154585660  0.9985062337719431
  0.5993511513809464  0.0004540196432612  0.1998606899211372
  0.5983487860247173  0.9983204841350040  0.4007595550179905
  0.5998660849362156  0.0047861147359210  0.6013873002105146
  0.6002268460860375  0.9976233485270173  0.8003273248461666
  0.5997893004659869  0.2001962455028048  0.9985972635046357
  0.6044897856957464  0.1999699664313533  0.2013930975635566
  0.5994137502597041  0.2006384245975686  0.4033095549418090
  0.6006602969657105  0.1994955815468637  0.7965944485784029
  0.5982449006343870  0.3984119136330735  0.0004021153535736
  0.5997689011223485  0.3988368964454115  0.1998018232436419
  0.5991757688160406  0.4020962218901875  0.4010031277692176
  0.5999232967079616  0.3933225258857651  0.6004851251157141
  0.6005580481152439  0.4030583927646157  0.7997390907393650
  0.5997971943006936  0.5986464875824883  0.0010312798696711
  0.6007728273824509  0.5993790930050250  0.1991114966339032
  0.5996336201890959  0.6002846086741478  0.3951205017762963
  0.6001739630548095  0.7994464159048611  0.0021978765812195
  0.6017355844180247  0.8009310076988072  0.2005600577403878
  0.6000067186692911  0.7986807729618419  0.4006302286716232
  0.6046232186654033  0.8031167713361476  0.6002619661360652
  0.6013410626418029  0.7947915981761851  0.7998670269432561
  0.7990502055437199  0.9992907893016887  0.9994816215687855
  0.8010319140882369  0.0032356527378192  0.2010425385610753
  0.7955931170835162  0.9987096431199017  0.4004855892191267
  0.8020534367166353  0.0018047804289301  0.5991608648026853
  0.7995179290270292  0.9987952286660099  0.8018278761501846
  0.7996427737241485  0.1998419651168316  0.0027573577692370
  0.8010948836161379  0.1994156351667988  0.3974576318158576
  0.7972064057251402  0.1999386763649054  0.5993132933381475
  0.8015792012218618  0.3997692712866327  0.9994321116348684
  0.7991066644031823  0.3962656329198592  0.1996907277656038
  0.8001992341488756  0.4022678567893840  0.4002514673237224
  0.8017149379723603  0.3978944500003840  0.6010403363946717
  0.8011545650014511  0.3992897533978375  0.8009730514611849
  0.8013129044354250  0.5987179381999168  0.0016879700630782
  0.8005361426043176  0.5983608057673538  0.1994828353054302
  0.7987236691611119  0.5996728951260875  0.3999321443248608
  0.8017788080847824  0.5982288718236052  0.6001219944817995
  0.7963752810488784  0.5996156670354399  0.7995221040871068
  0.8009150168787205  0.7995613471983042  0.0014619531590359
  0.7998619317448808  0.8011326058462046  0.2006915678731264
  0.8027207891176594  0.8002043854870879  0.3995975169378633
  0.8010345511353710  0.8008267973059172  0.6016250775799304
  0.8007780474172308  0.7992206254275458  0.8000311988613996
  0.9994901841721133  0.8016984229997807  0.2012154668321153
  0.1998789482480381  0.5995190505879345  0.4010756886679823
  0.8002055301372016  0.1996055505358180  0.8009159468438222
  0.9968037159401437  0.1984232216913705  0.2016771184573378
  0.9984184357705433  0.7960346069894634  0.4026774810368005
  0.2003437803409644  0.2003885901681583  0.5997697425783510
  0.2010921235126779  0.3968836222887119  0.9977421769603653
  0.5988288575941834  0.1998521843669916  0.5989157146891531
  0.6010370138253304  0.5988495995530351  0.8079972737434816
  0.8023402633601132  0.1999770416883486  0.2009478187979350
