Zr Ti V  Cr W 
 1.0000000000000000
    15.3960504026614231   -0.0029059402776773    0.0109527228615838
    -0.0029019596058232   15.4211892961187402   -0.0178703021294289
     0.0109643357546517   -0.0178836246684765   15.3929296075496413
 Zr  Ti  V   Cr  W  
   3  12 107   1   1
Direct
  0.3894857924512101  0.4112082537786449  0.8016817252356884
  0.7978295245582172  0.9747633172172112  0.2237801714736033
  0.8102162372920572  0.2076694329353002  0.7750287170379583
  0.9855782378969279  0.3866601108625467  0.7984822320003704
  0.9997637040337279  0.6369438435807999  0.1862918378249754
  0.0096314073824317  0.7890682962020907  0.3859010763728756
  0.2068881447570758  0.9990348289797891  0.9997380770967623
  0.2062654348768477  0.5828882282250218  0.7999768263661081
  0.1837664187937372  0.7981909213323347  0.2041193627377827
  0.3971352931014864  0.0029173101762855  0.8088171466937226
  0.5920168416793493  0.6014868906700668  0.0005149254720913
  0.8039227637434305  0.9965630606534263  0.4238914104382171
  0.7997671545149659  0.1936302889640986  0.1891634986889965
  0.7976589902466399  0.2013918926828560  0.5746202582532013
  0.7958500660773123  0.7752947251740139  0.1922139562565265
  0.9998144943905091  0.0031052038319882  0.0016178767069781
  0.0037637229431625  0.0094097972719816  0.1991315337106197
  0.0015079487402235  0.0019360664708915  0.3992088435405189
  0.0006288160309265  0.9980625139436168  0.5987928263688619
  0.0000774656137349  0.9969393480159954  0.8024474240785052
  0.0006703138157973  0.1997597336905232  0.9969953171069766
  0.0028126643194861  0.2024184583474957  0.1980022300375859
  0.0004757940303961  0.1990711539939987  0.3996541046538729
  0.0027625574958428  0.1986576050392650  0.5997240765152930
  0.0089105930971370  0.1912075290239096  0.7997806807512614
  0.9976991692187173  0.3987870778333560  0.0017154236755667
  0.9983519963531104  0.3972767613040866  0.1996689341879389
  0.9988113853991026  0.3989837452157359  0.3987473422471058
  0.9992749962872904  0.3989266644748731  0.5982411843266294
  0.9999006379360661  0.5943104073943953  0.4070450912933203
  0.0005883957694317  0.5999887889083971  0.6039138312020500
  0.9990127517260019  0.6007650529910732  0.8024929041535822
  0.0013996781849437  0.7053594274669167  0.9943634118470298
  0.9864456570995453  0.8215360462553540  0.1903867837434335
  0.0007660362782576  0.8010828743006058  0.6001095732514848
  0.0018584693313490  0.7984905260152743  0.7989474916641682
  0.2005431583515411  0.0028047304516709  0.2045784868465118
  0.2009298870535839  0.9996816585403350  0.4015704576378712
  0.2007286992553958  0.0000769337144523  0.5997001575287971
  0.1971067255570733  0.9985575790820995  0.7974132383546939
  0.2000178751765713  0.2045790200581719  0.9994495838795436
  0.2010123760070416  0.2015965834060721  0.1998780310248390
  0.2005990439684144  0.2005397132212225  0.4010381291969664
  0.2010668363979709  0.1991452102557540  0.5995694954085719
  0.2030386303562485  0.1977665553346030  0.7985934452479538
  0.1957958158444264  0.4021038064222946  0.0013306060365028
  0.1971649799275793  0.4028067991209945  0.2017429657487376
  0.1990045558739017  0.3984555927356149  0.3999547681805531
  0.1978137126206692  0.3991004016773514  0.6001843485232130
  0.1885829730048148  0.3918382497213873  0.8003163152722904
  0.1980233836188820  0.6009639231963338  0.0048902574954626
  0.1997100310933478  0.5989326096196993  0.2020363397743626
  0.2008709363413740  0.5969421169901095  0.4023298899644396
  0.2004223602011961  0.5996859194275282  0.5999274604933650
  0.1985037193253561  0.7961366328253793  0.9975376862098817
  0.2041316663222877  0.8001552181093402  0.4044614956760371
  0.2004474027351182  0.7994542222624265  0.6018401481365114
  0.2000033746580821  0.7981935143528768  0.8011293150455163
  0.3975962164166280  0.9992590011547391  0.2000368767397879
  0.4007164625775668  0.0004545033840204  0.5998393269957594
  0.3989771412960179  0.1974619792526587  0.9996915051989884
  0.3991160197402425  0.2013839362446750  0.2004084149007436
  0.4002232898792968  0.1995940091671500  0.3988062385614146
  0.4000284786427695  0.2005175539556540  0.5995513650115681
  0.4002624737586454  0.2024479116686124  0.7998077111437517
  0.3982040150027946  0.4005335172273533  0.0056058268451353
  0.3990695886583790  0.4016811677743677  0.2003448380502286
  0.3996242428316002  0.4009853196721532  0.3989201447095971
  0.3995983052968471  0.4013398541368511  0.5959714608235152
  0.3949117296125303  0.6041302863728024  0.0020647018597121
  0.3998169406203700  0.6037156686628893  0.2010532572899607
  0.4008876012177447  0.6011280697035030  0.4000876283137520
  0.4005269392184678  0.6031227182622976  0.6002898379932757
  0.4054605651573326  0.6113492193769320  0.8024911102367631
  0.3978453969103599  0.8059002636492210  0.0026376375092407
  0.4006327187832211  0.8010340457154952  0.2011645529685685
  0.4010644636317998  0.8004941129282064  0.3993044339524025
  0.4010684445277495  0.8024189480510063  0.6011791243094236
  0.4002685145429275  0.8026296117817859  0.8010305652000271
  0.5981145147318079  0.0026965998169897  0.0020798677659322
  0.5953600748774230  0.0033941737575116  0.2016429232244432
  0.6008373218371030  0.0005465653731625  0.3995867548309442
  0.6005728987103568  0.0018883469434730  0.6009357505328673
  0.6035983384964994  0.0030142544971174  0.8017040739794923
  0.6004196530257555  0.2018540349703244  0.9979431568411836
  0.5971610281633356  0.2009256695264724  0.1989063305912164
  0.5997971301196280  0.2001659665357732  0.3990995182146770
  0.5988322128837686  0.2008293683762346  0.5989505909656917
  0.5982926975019796  0.2022991346396483  0.7983989472988026
  0.5985691418562927  0.3993563254730018  0.0002402263471907
  0.5997583293642026  0.4004174901406571  0.2001697300044895
  0.6006721625575303  0.4000131376113432  0.3998792666235635
  0.5984593060986300  0.4012157258558927  0.6000680436636240
  0.5989604555644928  0.4011489990222326  0.7998209014692930
  0.6008420885194019  0.6019830268995633  0.2017889348579899
  0.6004276766981747  0.6007217659803913  0.3999304279446139
  0.6013572474350967  0.6014774198326553  0.5997217324263914
  0.6015445158011079  0.6022086971254402  0.7991391926912421
  0.6005803223550176  0.8039510452223210  0.9994787662927322
  0.6012161271488415  0.8042262719659773  0.2004385382672009
  0.6007317940344877  0.8008393492038500  0.4010683236983648
  0.6009685101259324  0.8030301503940028  0.5999389001756990
  0.6010623587188759  0.8029256093214110  0.7991705940598879
  0.7998980902711893  0.0016527535970576  0.0056903437264393
  0.8008261965396447  0.0020898999156871  0.6126732297064220
  0.8011507464249289  0.9979582667797938  0.8062342370810169
  0.7988972920305074  0.2007895031364093  0.9928142342428191
  0.8009699124000448  0.1961388159500961  0.3865922146605446
  0.7990792652349611  0.4019898498508980  0.9997113986523021
  0.7998949756326963  0.4020044532465489  0.1991950800690217
  0.7992979820698806  0.3965899108636071  0.3994007286612463
  0.7999485232362736  0.4018563012552535  0.5997705722482424
  0.7924733697352149  0.4094561055267467  0.8012010322922437
  0.8130075587342560  0.6003013777469116  0.0007570980461817
  0.7991526740517587  0.5919198893263288  0.2014606181013978
  0.8019798539200711  0.5970552355988837  0.4021719030321773
  0.8003088311900939  0.6000822540771046  0.6007437169527418
  0.8005456889867185  0.6036321888182711  0.8001298615228760
  0.7981617350685718  0.8001374655272421  0.9967065173839479
  0.7996777536184254  0.7951751972134605  0.4030517458048782
  0.8021992467886635  0.8001187830293779  0.6001064655368918
  0.8008738681408778  0.7996796389128544  0.8009792294433142
  0.4009869744007468  0.0001819674890246  0.4005861236581592
  0.4042865553850986  0.0016966281182644  0.0058539345958996
