Zr Ti V  Cr W 
 1.0000000000000000
    12.5621370302832354   -0.0144609796444934   -4.3694671498154918
    -6.3106504411076889   10.8455967951286638   -4.4172525574444723
     0.0645936488402372    0.0530360159305710   13.2904639751343350
 Zr  Ti  V   Cr  W  
  11  14  87  10   2
Direct
  0.0111144842288965  0.0134476661820807  0.0133497790633652
  0.1971371651792230  0.5944394077242188  0.1934713716064190
  0.1868477408936117  0.7836126624880319  0.5895422612369211
  0.4054663829168469  0.5995061578586434  0.4023039070085010
  0.3880142709792937  0.8275188094477681  0.4250340012637496
  0.6000246548850560  0.6013729058781622  0.9968114118455370
  0.5945585606657898  0.8031430403969285  0.3917472411102185
  0.7946691238296575  0.2222711186343435  0.2246220356909431
  0.9380250979553215  0.5338792977115351  0.5338095986297456
  0.7980760060820065  0.3969204343199582  0.7997033620102605
  0.8012698524401400  0.8046391789948972  0.0033172233797442
  0.9999673980795741  0.9970220629872919  0.7842094003891897
  0.9841879637276111  0.2116968162725627  0.0019338293848138
  0.0263224969793395  0.4066113216605301  0.4109095304730197
  0.2044077329025888  0.2012490386924836  0.9979063828260987
  0.2030494672173545  0.1970619072110422  0.5973810575167909
  0.1985273000880231  0.3763805859937954  0.1967064904830665
  0.4146404735691991  0.4002646666010229  0.2000752683801345
  0.3935645690857750  0.8012601706890744  0.1877110998361582
  0.5970750666068578  0.0053574387165864  0.2021751637229412
  0.6159746936474287  0.0150300422269875  0.6221617602680669
  0.5877105056211253  0.1932675075695126  0.5842334717661219
  0.5920876264561598  0.3901612857243534  0.9990158745915981
  0.7922618617832494  0.0010435245538689  0.7993420529897615
  0.7990930393873431  0.7896702222193659  0.7876142965059777
  0.0053045890784475  0.0128116211184009  0.2203285471979463
  0.9982703133177606  0.0005358611932595  0.4025625340888304
  0.0017180837769075  0.2058895439970411  0.2155348567912616
  0.0039666751630736  0.1995891755760686  0.4073461483306454
  0.0032959587394633  0.1991568276109578  0.6014275757905170
  0.0103436027381672  0.2125299900348653  0.8022470081476243
  0.9970175246960101  0.4007561715739639  0.9884259141423354
  0.9991086231631210  0.4025108718510050  0.2001399496443752
  0.0037799027002537  0.6075237841435694  0.0030007919251505
  0.9905918248398830  0.6000443856266511  0.1974393645471459
  0.9942960858501517  0.5919716162083580  0.7910610951139130
  0.0032750900716938  0.7863592536633424  0.9891348513412137
  0.9987775627382330  0.8039855462075240  0.1992827634706938
  0.9978133890050410  0.8029628858642929  0.3989885484157820
  0.9896806642544762  0.7998132911532210  0.5934375295065044
  0.0025881733407114  0.7890472402857794  0.7927467625501721
  0.2065433674749313  0.9930467702159144  0.9921418873289269
  0.1999904752613566  0.0034905636079710  0.1987421484387800
  0.1976869785747281  0.0049008273103532  0.4026730174394735
  0.2030605813205929  0.1976511639400029  0.3958561213387745
  0.1970245327240100  0.1959135238811658  0.7938894432351939
  0.2121540113168669  0.3956713649438318  0.4108075967225780
  0.2034667247223768  0.3986197316933713  0.6042401199011127
  0.2007690627020230  0.3972654538796659  0.7975929632027055
  0.1906186586171812  0.5864561101120593  0.9763650973312984
  0.1968461737074324  0.5890603271659527  0.4067115638854512
  0.2169638018278038  0.5894528093447471  0.6118942073522067
  0.1939165631278441  0.5913368194414748  0.7913128362139035
  0.1963393114512290  0.7947361442026473  0.9903927533833612
  0.1905521794735348  0.8107265987411180  0.1957890244964621
  0.1742401314689613  0.8066448223744731  0.3859159002466144
  0.1931562094948760  0.7927610116114043  0.8020476340010516
  0.3950914959449536  0.9996949155890879  0.9983657180006578
  0.3939818319763944  0.0029148316876950  0.1932649269169303
  0.3851068770879107  0.0086992315987584  0.3855148522780040
  0.3903929595841958  0.0089714798178307  0.6082904815730854
  0.3994462888011556  0.0027056183699418  0.8027111162245789
  0.4013386924439953  0.2000393049826791  0.9973643292579479
  0.4017975424067146  0.1941120313437723  0.1954263899279496
  0.4056656523392163  0.1999244442897322  0.4009726131660387
  0.4012351963405489  0.1995754858238301  0.6013731578918372
  0.3912654237759430  0.1935847717814682  0.7915511468529095
  0.3860184590103564  0.3914057858768824  0.9861551366536008
  0.3997336487115781  0.3826075316650641  0.3966600629292796
  0.4052360781383106  0.3961818649888676  0.6039335138008500
  0.3971662747989458  0.3929431649245370  0.7958862835202941
  0.3905714346536674  0.5980885553196253  0.9868368487418407
  0.3910927969474250  0.5798331592582973  0.1583598855976099
  0.4051507436367549  0.5954271011428552  0.6107215093503080
  0.4011483507919496  0.5964470874330776  0.8002149937461541
  0.3894097925801556  0.7966611620555619  0.9867374410539419
  0.4100030103898957  0.7959958610441497  0.6231964588635599
  0.3961937015218925  0.7964527991281447  0.8024543521353535
  0.5912249313503113  0.0027501489165387  0.9966647824376683
  0.6052295223095447  0.0209823634968611  0.4079327317040783
  0.5923351679875574  0.0011300911425163  0.8109732225266786
  0.5940137638464182  0.1970665589768887  0.0011295223751122
  0.5991710394780163  0.1989570300470737  0.3878672500705903
  0.5900382194622595  0.1965557091203348  0.8010435627736499
  0.6163131567715345  0.4020174239188250  0.3962180282894918
  0.6016597878935190  0.4006125950974842  0.5946998567166900
  0.5897781424157951  0.3997373586036303  0.7930794868865817
  0.6013849857945482  0.5939208628814899  0.2015762637529861
  0.6154982739327676  0.5951636686285193  0.4015584090853657
  0.5961780513184745  0.5882435447778324  0.5999574932645909
  0.5941610554578864  0.8194987912174208  0.0100903882063706
  0.6046045779295028  0.7992739451285137  0.1911678856454313
  0.6049283079117542  0.7978393895491656  0.6198675457240043
  0.5978052394593231  0.8004206824616193  0.8081456907266031
  0.7938723944967996  0.0231171721153671  0.0204927042821298
  0.8075388903852926  0.0077631806554299  0.2138949040803211
  0.8025101352182233  0.0051783745800648  0.4031124313872787
  0.8175670199826932  0.0106016428501700  0.6012771929407952
  0.7899001519225821  0.2075563981405961  0.0017436570124187
  0.8173732797912086  0.2149781838272332  0.4337747608692875
  0.8081015105701853  0.2031844987110347  0.6042410420593328
  0.8145326381784354  0.2067664734156694  0.8130958758912049
  0.7996018703053872  0.4016717538411487  0.0075597520320323
  0.7966229243748650  0.4199971514722333  0.2047814940730197
  0.7900259528499620  0.3938707504362764  0.5916081565785460
  0.8063305677959980  0.5906703834473058  0.9986123198312541
  0.7972589300941155  0.6023791403347721  0.1976658237750364
  0.7944900995019223  0.5992819040670454  0.3900599535493679
  0.7935418500482253  0.6015053623932290  0.6037134621626983
  0.7960003281809981  0.5965613857812394  0.7964653709540018
  0.8096226258203635  0.8115001862419270  0.2170107498752632
  0.8073314059433873  0.8044434791502807  0.3999198662992993
  0.0066316095904145  0.0042629477602163  0.5958459976232108
  0.0103706027835498  0.3931136921531484  0.6116568089594674
  0.0062907542936090  0.4000443693392757  0.7908028319991788
  0.9867700479248853  0.5951718591852349  0.3718265943132541
  0.1976692913055279  0.0025969966977033  0.6000225239773352
  0.2174230656049750  0.2001915497674343  0.2181188001195467
  0.1981827664414297  0.3971072000388893  0.9852598417954849
  0.5747512662834109  0.2002895654110232  0.1903677877140621
  0.6011256045200624  0.3930577920569993  0.2004883035993507
  0.5966547886538888  0.5850473668067313  0.7841782654849085
  0.2001012837779730  0.9964798120205129  0.7940996343516750
  0.7980524078673729  0.7984266309011661  0.5911125305231243
