Zr Ti V  Cr
 1.0000000000000000
    15.3990340272275770   -0.0170018773457157   -0.0022529018582575
    -0.0170107766548915   15.3787801482628375    0.0165544931564424
    -0.0022517709109467    0.0165430754876648   15.4057927644380346
 Zr  Ti  V   Cr 
   3  13 107   1
Direct
  0.1951125023806065  0.2018942755995366  0.3714661976826678
  0.2042258498400007  0.6210486734204143  0.3837048936548147
  0.3861517251023844  0.7947243416633754  0.3902889029235713
  0.0009251025686330  0.0040897742255891  0.0006522025046467
  0.0006945634952742  0.1967717628001772  0.8059488711800676
  0.2029588438684017  0.2003243657650924  0.1743145689568280
  0.2025796711751292  0.5927042145015164  0.1838311815004038
  0.2109602461529378  0.8030815921811498  0.2145287914748203
  0.3897838445334978  0.2051722871757255  0.6013978628617517
  0.6091019065306308  0.0136632906842835  0.5927853548622036
  0.6047054795288372  0.1916593498878610  0.4124825993038437
  0.5891331467111378  0.2027253138965664  0.8122830415918165
  0.7959841714388097  0.1973519177008279  0.1970417491945921
  0.7833757164351111  0.1956766852185879  0.5933016356751918
  0.7973572614409262  0.1988594671841986  0.8027867496434218
  0.8013722705210258  0.8024941944278008  0.1993207901141729
  0.0028558539995334  0.9996010699472511  0.2048372701792293
  0.9997857480423910  0.0013504796522363  0.6009756955377440
  0.0016062208179035  0.9980327612638163  0.7983232868493370
  0.0007260587656925  0.2026698336979244  0.0060413079707386
  0.0027221133210955  0.1992846503758059  0.2024036051481957
  0.9935596794547034  0.2028579136666248  0.4013113996002254
  0.9983209783332053  0.1992976700545802  0.5976285419619636
  0.0004406718445005  0.3998291536976726  0.0021585452543984
  0.0002743958932889  0.3992237061067420  0.2022083174275214
  0.0007294491655051  0.4007197697986896  0.4013083738785010
  0.9985651133979725  0.3993526251729562  0.6013634626689269
  0.0008076345350831  0.4005459704282746  0.8010046232760325
  0.0012311728608398  0.5996837492253770  0.0016848898339696
  0.0005518313432313  0.5993416786877999  0.1998343266531805
  0.9960494910268323  0.5997950194687404  0.3996757102391768
  0.0010645922614408  0.5996556906113453  0.5992314231226825
  0.0000451013648724  0.5997021137971874  0.8017061191849945
  0.0025696585080976  0.7987134990118895  0.0032764879972917
  0.0025483209549052  0.8007770999453174  0.2021598101461118
  0.9937313259085537  0.7973911191620222  0.4009709436021023
  0.0001948425233784  0.8011692770562286  0.6009416869387346
  0.0003848284861105  0.7991221734302650  0.8012702321277758
  0.2028098787596373  0.0000752560759563  0.0000691963371264
  0.2020333373150635  0.0048471544759576  0.2014164458135884
  0.2008023144588310  0.0011684352776675  0.4007147108850288
  0.1004401505971673  0.0031856648617800  0.5009014027850623
  0.2014169322696477  0.0002169651775983  0.8001130339055875
  0.1992601961720619  0.1997615153885267  0.9870768828769922
  0.1948979640349540  0.2011489439659233  0.5959733393524093
  0.2013184777656537  0.1983917326179116  0.7949366309329202
  0.2001222869812311  0.3983833874318521  0.9991967287060093
  0.2013800519916809  0.3970835082703819  0.2003576400386710
  0.2000482350281458  0.4070126773863451  0.4012000740193644
  0.1991938687446633  0.4010347490481592  0.5989185816967404
  0.2001404203075239  0.3993442535465891  0.8001253250820867
  0.2007802272851545  0.5996033747773645  0.9937560348981005
  0.2002334889701257  0.6011002289487052  0.6000583520981025
  0.2011632343268512  0.5994948523406647  0.7986018691697273
  0.2012954387702677  0.7999886277301067  0.0002908373245160
  0.1846176277002630  0.8214180780191709  0.4113374535957957
  0.1999226925327315  0.7994269448927793  0.6036532367463092
  0.2005168077743854  0.8026642403331953  0.8015247209078932
  0.4013807841409763  0.9996242080727377  0.0023412308338336
  0.4017689183319593  0.9972897325648999  0.2011362951170992
  0.4001970041554358  0.0043270607742460  0.4009851112837053
  0.4015029157515159  0.9998858948581362  0.7980281331021157
  0.3993794049889676  0.1985652405189010  0.0019533930533947
  0.4005443885479511  0.1984910245469985  0.2014875060666743
  0.4006964421542197  0.1986989789393367  0.4001948517545008
  0.3958104856384562  0.1991663135031513  0.8050185509585811
  0.4007035241055728  0.3985784760820064  0.0021731095115949
  0.4017531791677252  0.3977227346245262  0.2019116487028266
  0.4007246475560314  0.3946405590825638  0.4014030584542752
  0.3995455470712065  0.4012721586365997  0.6011371383598817
  0.4006480041056465  0.3991768535927701  0.8007378852234163
  0.4008338318639922  0.5987743048391335  0.0008818351012485
  0.4040865915569564  0.5970321278479940  0.1999575634400221
  0.4089520250383878  0.5898727664480490  0.4002115715434480
  0.4008753243213271  0.5980695124863576  0.5995102971260227
  0.4012801996818051  0.5997779154174788  0.8014406636685847
  0.4001768443037459  0.7994079719901886  0.9975538569513097
  0.4061073221160202  0.7994398839793688  0.1910084155595577
  0.3999831843003825  0.8004538802027181  0.6019655110279285
  0.4010468865304708  0.8001488152246200  0.7991957335886244
  0.6013940813986867  0.0002632606198356  0.0003228507270513
  0.6019326218036603  0.9997828320130153  0.2020376097892588
  0.5966141594379440  0.9944896755958889  0.3982168208054727
  0.6004529774599388  0.0003846700772505  0.8012679693570713
  0.6000609742948386  0.1996631893556251  0.0075160101575447
  0.5976208244845963  0.1980214952515436  0.2020676801710247
  0.5907646099180406  0.2058717413230674  0.6089395129063032
  0.6016250825260561  0.3992139788036896  0.0014649976978729
  0.6007645985803575  0.3972050373869421  0.2029260707676884
  0.6016208523977785  0.3988597724851671  0.4023314269767707
  0.5999926377889296  0.4020877213656225  0.6024942530214240
  0.6005433451683487  0.4020708452092271  0.8021783139594084
  0.6014213465165084  0.5994150472166067  0.0014020680169523
  0.6027676355158409  0.5993489660326240  0.2002222682008828
  0.6025492328940210  0.5984763456515145  0.4001058480173931
  0.6004264721370982  0.6021861769742781  0.6007949907034209
  0.6008646154172774  0.6004653986891459  0.8010660114189865
  0.6017559479704178  0.8000368242591618  0.0007032793060737
  0.5999637028058576  0.7989508718299646  0.1999589789096530
  0.5996954358725398  0.7995633096376478  0.3998732840173876
  0.5989095294738418  0.8014819664068571  0.5994875788773912
  0.6003745057762633  0.8019586299807634  0.8003391479082181
  0.7998743051246112  0.9997506758322987  0.0007102175688221
  0.8017259259088345  0.0000447292607827  0.1998005376554579
  0.8188331244761629  0.9967353493264346  0.3964426446115527
  0.8052564728692727  0.9966425613297500  0.5987306863241507
  0.8005936665760368  0.9982427605504063  0.7991415943309993
  0.8009985985566462  0.1992836798172513  0.9987347061229001
  0.8014123089152736  0.1974956121361558  0.3964078507676269
  0.8012766127248940  0.3983183877516300  0.0007179330708986
  0.8012541265382780  0.3990004628857990  0.2006183503955882
  0.8001710803110078  0.3979997321406181  0.4002411408054016
  0.7995311704749354  0.4004272409071747  0.6001143146359134
  0.8003993198951409  0.3996293713768147  0.7993205401420144
  0.8016343976811767  0.5987456782682729  0.0000373114296457
  0.8008819199269177  0.5969440872808534  0.1994113672162589
  0.7993171605334246  0.5997120209111190  0.3992520873542520
  0.7999971267032998  0.5988928749390492  0.6002179352074291
  0.8005574892213206  0.5999613313507883  0.8006098603779267
  0.8018418113395530  0.7997991312171902  0.9973858965001846
  0.7978114248363887  0.8000844668914711  0.4027381264235533
  0.7991537613843701  0.7989137104560615  0.6014885744943774
  0.8006775867113768  0.8000503249004297  0.8001667673282840
  0.3962480900921780  0.9978198661356611  0.5985293952969899
