Zr Ti V  Cr W 
 1.0000000000000000
    15.5633147981762434   -0.0105082892338306    0.0011052113616143
    -0.0105224976463168   15.5390273600018674    0.0056805954645976
     0.0011054290159095    0.0056800010957864   15.5617863503600393
 Zr  Ti  V   Cr  W  
  10   1 106   6   1
Direct
  0.0077506332110885  0.1864242456980713  0.7976560680399813
  0.9977849906870788  0.5981042224474293  0.8000218516087243
  0.1928877955593541  0.0048358979392032  0.8034100420728374
  0.1968668355672765  0.8013403055181504  0.3969059368260694
  0.3974344627374706  0.9977907636447164  0.9976268070554564
  0.3982520806929581  0.7729500864912155  0.0007666845961070
  0.5988085611902856  0.2017784941922008  0.2025969603494724
  0.6114129844995566  0.4094898273679382  0.3985112718797481
  0.6015045723850626  0.8013447099472440  0.6023051140605002
  0.7933086135543468  0.5931559287936592  0.3995941253969265
  0.9992888294884509  0.9941240399988278  0.2018424640572532
  0.9973935408368896  0.0002316628983379  0.9994743245169616
  0.9983549793601130  0.9992929531544301  0.4008631855439295
  0.9986011792977144  0.9978906785266816  0.5975941150972433
  0.9891312716452785  0.9887158061846276  0.7978776662628354
  0.0003770273795338  0.1996378232805039  0.0038282399013634
  0.0017173872726022  0.2012276395908294  0.2006914738426611
  0.0021977513254285  0.1977939941138398  0.3990028295049501
  0.0038095159641496  0.1998415667807433  0.5945493875367928
  0.0005995216229890  0.3988275358730487  0.0006861593522817
  0.0005061903043855  0.4002550415277246  0.2000759166322586
  0.0049833269865130  0.3987539929006513  0.4001231227854990
  0.0006712019908839  0.3991604158445450  0.6002628658759039
  0.0004791519060676  0.5989683055952384  0.0037451169933957
  0.0005247135096242  0.5995482483794373  0.2008129262289799
  0.0015232428664620  0.5992051560830726  0.3992996611488799
  0.0014588030022307  0.5984426720611992  0.5955868069960188
  0.9988693676159647  0.7981556733264656  0.0003954191355204
  0.9982385527727259  0.7970936936618535  0.1996448478736766
  0.9941359890318314  0.7982024563364600  0.3999337544390703
  0.9998540411733859  0.7992002544605621  0.5996006695392925
  0.9994130534487849  0.7996974003985162  0.7997544918768260
  0.1915124984114916  0.0021257134947530  0.0065750174651772
  0.2013728634967741  0.0020492344071978  0.1987516862851487
  0.1990115446612765  0.0043062731902328  0.3976142069600289
  0.1987130309406893  0.9997736108613623  0.5965910847335864
  0.2007544183462302  0.2010584135900002  0.2003805334944706
  0.2002684589386867  0.2018266836148971  0.3995813066674830
  0.2061405037878632  0.1986681991490685  0.5981711342825061
  0.2093358324524735  0.2109405200835013  0.7984268873961338
  0.1997729097087026  0.4010183481691627  0.0006081859461100
  0.2010254480663320  0.4018552032066735  0.1977951012246132
  0.2010345434590001  0.3995144863758285  0.3951947013367157
  0.0011057068876475  0.3950527749163109  0.7989120344645529
  0.2014082960918274  0.4029673003085737  0.8055193160564119
  0.2007464549046087  0.6002241130682014  0.0013548931349982
  0.2006559029186749  0.6004428821119114  0.1992226318602035
  0.2006021082010927  0.5960664290371607  0.4008451068503454
  0.2010998531766597  0.6022061540949666  0.6010668424818043
  0.1940422046537628  0.8015429932466508  0.9990531812341396
  0.1998187227806520  0.8001965069656649  0.1945816335671118
  0.1981698472970448  0.8013444026344926  0.6035417526697433
  0.2006674891308600  0.7983595609764903  0.8017621978841758
  0.3998642343909521  0.0008300740112287  0.2047136273233709
  0.4005360014661439  0.0007657047780076  0.4007274123637722
  0.3983093035648423  0.0046400446551593  0.5973478395461647
  0.4024467625597932  0.0004273874986407  0.7931635417852649
  0.4004423242617343  0.2043455762920742  0.9990213798584062
  0.3960723099382269  0.2015655258651466  0.2011895609422477
  0.4003535924707040  0.2015915469763026  0.4042196697556865
  0.4024427733307857  0.2010459323168398  0.7960110978623063
  0.4008112928688761  0.4002699751722699  0.9991271536213849
  0.4015749247663705  0.4015911509758484  0.2000354360315918
  0.3994011289949698  0.4012312401027491  0.4000958593066690
  0.4058253243021638  0.3968687825570469  0.5995532989523055
  0.4009598129549642  0.4018208768839738  0.7982256640398629
  0.3993962413254485  0.6010125779641172  0.2007613044556212
  0.3975306037072540  0.6005116615159368  0.4007153140593139
  0.3973062731775530  0.5971086070301418  0.5994664798093610
  0.4010496802639457  0.5997264302703246  0.7987801876723853
  0.3999361590109403  0.8012228905308154  0.2052229084889229
  0.4015261590920763  0.8014373246334267  0.4017618182211431
  0.3993788141263067  0.8006397826585405  0.7958932007048850
  0.6045986514507720  0.0005193526623288  0.0004069397482294
  0.5997371254675866  0.9968738683371872  0.1992067666270086
  0.6005983005335650  0.0006362182554977  0.3995101440055097
  0.6006251689216190  0.0037562335965793  0.6001071977920707
  0.5995920119228050  0.9994401030476679  0.8006813078842653
  0.6002164767666265  0.1993892685569671  0.9964902113630150
  0.6017930143715066  0.1988727556936211  0.4048850186535372
  0.5970719902305022  0.2013817469769501  0.6012573246602858
  0.6006980013897174  0.2002248858204285  0.8005739684808478
  0.6024292010872896  0.3999485504090072  0.9983803906528662
  0.6031108667911443  0.4005172375917709  0.6038414354519293
  0.6012841217513081  0.4015163000962673  0.8019811136004200
  0.5998652118852186  0.6004373234857636  0.9992739241361437
  0.5987624332255950  0.6028560979197521  0.1979539534416845
  0.5901880012159519  0.6114361423633016  0.3991458963930381
  0.5976052873300353  0.5980578768344320  0.6016802824813401
  0.5984380083165574  0.6004956772749430  0.8009391170370197
  0.6044857509521656  0.8007113750924196  0.0014958382516428
  0.5998027930638669  0.8005132658934776  0.1987284941873959
  0.6001079851316841  0.8044284148784770  0.3965623814879803
  0.5992604593645720  0.8000461006699824  0.8058512039483978
  0.8012577781119657  0.0004180541688825  0.0003104791837334
  0.7985261512510449  0.9996639661532235  0.1997925102392667
  0.7994571459443273  0.9996585918214336  0.3997336887309071
  0.7998895170027477  0.0012563206028104  0.5996207712685735
  0.7958991768919079  0.9985942995228435  0.8000553484011503
  0.8011222536938573  0.1997022482031156  0.9998839104608339
  0.8020336374367324  0.1965465071484406  0.3999310700595137
  0.8004253235968192  0.1989287560298079  0.6003658944557803
  0.7985342887377643  0.1984092529655212  0.7990188943722265
  0.8017781936127519  0.3985626326009419  0.9987917209439393
  0.8030545145856536  0.3994644722374949  0.1967905840245363
  0.8122762989793089  0.3895865802289831  0.3993405084497021
  0.8026940937764886  0.3968192949700871  0.6019915594672948
  0.7998240600139931  0.3975287856874684  0.8006986919535790
  0.7989829945367876  0.5982121005597999  0.0003570294313293
  0.7990938430268235  0.6005186703712275  0.1958865253611667
  0.7995204988337655  0.5978446733851606  0.6032498735494025
  0.7947437814481513  0.5992485751491013  0.8007493476571509
  0.8017285919918166  0.7994279127868112  0.0003132521224743
  0.7997236423486087  0.7994339131523462  0.1996785753499049
  0.7993522846097099  0.8015540761149779  0.3991841226636196
  0.8039854469597595  0.7988805090453164  0.6002419140602995
  0.7988704409081167  0.7995315926687390  0.8012577439424678
  0.2007970435232120  0.2025065079657074  0.0019118436870880
  0.2040022130187376  0.6006406978674117  0.8005320561546124
  0.4012649458486143  0.5902081747654756  0.0005855083559680
  0.3956120978793309  0.8005905488054680  0.5992041266798360
  0.6013343635530993  0.4057690011186110  0.1933645044654846
  0.8040263429341292  0.1991669368125823  0.1996700210883977
  0.4002241190106856  0.2019491789392995  0.5991523441775245
