Zr Ti V  Cr W 
 1.0000000000000000
    12.4464128923583193    0.0329532373591988   -4.4042728874541686
    -6.1942673799282799   10.7804165612832890   -4.4030632695668288
    -0.0187017307525534   -0.0309225315138513   13.1599908318643308
 Zr  Ti  V   Cr  W  
   5  10 103   3   3
Direct
  0.9226343378931121  0.9274720717003315  0.7142616125575688
  0.9890490869491120  0.1844367685488248  0.9902101532655907
  0.9984836578685040  0.4041243467986277  0.6063175352199265
  0.4044872457258353  0.4014279999335680  0.3974747778779153
  0.6011097459738232  0.4002118580833295  0.0059836817325571
  0.9882029760847271  0.4009442789406329  0.3904815611052935
  0.9989881347843060  0.6063389561204243  0.0081119568743813
  0.0010706798714681  0.6000234896866499  0.7995178646711313
  0.1871686502590673  0.1728182098890479  0.9789975695359173
  0.2071311913877280  0.2003292836496263  0.5971781828109723
  0.1938937752714688  0.4004215993065882  0.3940671898268321
  0.4032146824982365  0.8006400532326268  0.2023508124392112
  0.6022084621080419  0.4029609022356351  0.7952709229956550
  0.6186039199177867  0.8017618205487875  0.4025758308378580
  0.8035112937535066  0.6209772830010825  0.4050518425895515
  0.9976874860362597  0.9820378095362071  0.0024168805135748
  0.9990888871645778  0.9992130574387329  0.2034578915984135
  0.0014603585616044  0.0007885853595844  0.3991639368020943
  0.9898900796301012  0.1901593549470375  0.2020169123202296
  0.9999483611583306  0.1985906101109043  0.3984484465070665
  0.9981444038431294  0.1901408231733560  0.5960763392484190
  0.9994889771926385  0.2134594634038607  0.7894238829746018
  0.9969665950519858  0.3990235379036663  0.9940421335606870
  0.0024079791863008  0.4018037648329251  0.1961831876060917
  0.0033801111416298  0.6027895917600471  0.2087489180211340
  0.0045351201327205  0.6087794680806138  0.4000171565303863
  0.0031922983658687  0.6134730606370269  0.5951556434248194
  0.0026491298580562  0.8045718494593090  0.0048618832283709
  0.0025196915506343  0.8022195487454087  0.2045448369449499
  0.0053631278878538  0.8038361700802518  0.4009366788617266
  0.0168070437102024  0.8067529815506189  0.6045286454378934
  0.0101497899088975  0.8055630908917414  0.8099477816032278
  0.2072618204773392  0.9923766329079567  0.0051291169901263
  0.2007074336337587  0.9969081257421516  0.2013428630875110
  0.2028770691852365  0.9982456616824230  0.3989078599659838
  0.2025409606269221  0.9969797339701363  0.5977991555376760
  0.2058788277666996  0.9965898348048942  0.8001935454165986
  0.1902175444366983  0.1847486696368972  0.1930695850957635
  0.1988529105356104  0.1927201443254719  0.3904073638767875
  0.2020909330042733  0.1979737050028935  0.7914669773782856
  0.1992671674309408  0.3967350538735130  0.9952719535897324
  0.2071329211273451  0.4071967257710468  0.1962354697914160
  0.2052935852227575  0.3997357958330606  0.8018168025949775
  0.2033462079190271  0.6017551825753602  0.2013058999431793
  0.2045062187793408  0.6075023633974859  0.3998720752060858
  0.2072621806637214  0.6077310148797780  0.6020476799047854
  0.2196027444519621  0.6154803277668931  0.8106469935186781
  0.2065968076175579  0.8026314542030296  0.0059355284987700
  0.2042936533851923  0.8059434260836369  0.2101477142284304
  0.2032446362935459  0.8009731596513325  0.4008006175252186
  0.2059516167567471  0.8024033174356020  0.6007945873432996
  0.2046623943829609  0.8009876262938035  0.8018092800156812
  0.4037850431049088  0.0012011129255896  0.0035005624100793
  0.4005539378803495  0.0029953805603974  0.2007801600423779
  0.4005525724784209  0.9991726349581027  0.4004667427633660
  0.4017378543948278  0.0003241042141977  0.5993876467593717
  0.4019400930216750  0.0004782515116408  0.8008518563895698
  0.3947917496075442  0.1899423479190754  0.9938540512914527
  0.3994753781432201  0.1939336582271810  0.1945698739055206
  0.3971254091199937  0.1888997781715906  0.3951605920824853
  0.4036500444234528  0.1938580176824010  0.5938785247651077
  0.3917539401745903  0.1891959690690428  0.7899916488751165
  0.3902338851164573  0.3952997966963079  0.9971173041245996
  0.4025526261243398  0.3983938917722090  0.1884540221861512
  0.4036279474233252  0.4022042061638704  0.6083723288763024
  0.4028756450901264  0.4047270241616699  0.8079125529445507
  0.4046862617646331  0.6011624701483692  0.0040348588873075
  0.4026830646632621  0.5938400829733838  0.1995643479337289
  0.4095866958673983  0.6160759946327836  0.4047596573843241
  0.4085458997640946  0.6107749401559475  0.6072295415648766
  0.4055342252443938  0.6049408916697329  0.8048379590097714
  0.4041416396359205  0.8039930408216436  0.0001200081139541
  0.4006969466348733  0.8021975886537718  0.4063291267946202
  0.3997038103292888  0.8019646589957768  0.6016293220132638
  0.4005341813068894  0.8018690978344535  0.8012670187738518
  0.5978231329747957  0.9996442645829651  0.0022482034078433
  0.5989931709999560  0.0030844577284868  0.1989509537664017
  0.5977704103532610  0.0024882244079237  0.6018943624926438
  0.5935841084516603  0.0004197073528651  0.8011966671285066
  0.5981564568318702  0.1924625052700011  0.0055840093414796
  0.5972358955303805  0.2004244810804748  0.3940414060431094
  0.5964955769697941  0.2012000789454062  0.6010280258388729
  0.5974652367190537  0.1966739977698099  0.7997251896064274
  0.5976580208184590  0.3936603764733679  0.2081006990585921
  0.6119872092115278  0.4052267630876271  0.4013854184657005
  0.6032462362326396  0.4040206635804379  0.5986128464174949
  0.6046580932057521  0.6125337510395313  0.0061977881127406
  0.6051173403872742  0.6064448828713834  0.2082902106625611
  0.6002320125412897  0.5999551264962262  0.4037743108862061
  0.6165981276750652  0.6166433163738376  0.6152253031087803
  0.6015279007302985  0.6068213493986371  0.8032914565874076
  0.6009817988585473  0.8037145121014904  0.0043941106781200
  0.6053201137234447  0.8014207058593095  0.1967558516400748
  0.5988230506960741  0.8039242814371528  0.6071324855645048
  0.5977149708624043  0.8019508095461029  0.8052882557240664
  0.7926400162617728  0.9960321754341063  0.0037223223318450
  0.7984075517500347  0.0008063225764456  0.2024875563337428
  0.7999315365183537  0.0019447205689171  0.3980000575669593
  0.8009630652118369  0.0178123402998786  0.6035143205635075
  0.7684179661350690  0.9898585076885643  0.7910694546002734
  0.7895756829650336  0.1996474003558401  0.0014438284146792
  0.7892713812280837  0.1951952878500536  0.1961404416750932
  0.7939050033634937  0.1955787611046382  0.3909379456436377
  0.7949122680565266  0.2021462486636619  0.5999018739819045
  0.7905633389808470  0.1995263826962467  0.7971035468861823
  0.8092157206343847  0.4011128380484130  0.0027206275200207
  0.8041906798017664  0.4024931509597484  0.2030475342226080
  0.7896147952121697  0.3978208503674067  0.3946710331809408
  0.7828746735872195  0.3960124643342345  0.5962306291418019
  0.8029749889403585  0.3978856175691093  0.7990039837011457
  0.8012079515659950  0.6108077508174650  0.0106435537470320
  0.8119459973330719  0.6114333696178427  0.2065685891304110
  0.8109921108835157  0.6085512608613626  0.6150842076446278
  0.7996302808333653  0.6020016376041837  0.8058538915220071
  0.7995012129030191  0.8028686315483767  0.0065628406251397
  0.8017180874190240  0.8025180804283599  0.2135812905063690
  0.8097770289950350  0.8106675586201997  0.4716011412024196
  0.7978576682076191  0.8003246692910848  0.8102802094264658
  0.0030306182034974  0.0041944103792343  0.5813331449453435
  0.9963414768338446  0.3981740231521356  0.8079805071449681
  0.5975320298140429  0.1980729015815724  0.1982769071222739
  0.2089229854479481  0.4069180099426815  0.6040032465919810
  0.2003962143354662  0.5973669710386200  0.9971465587656065
  0.6029007428699372  0.0057750881557724  0.4023776866845133
