Zr Ti V  Cr W 
 1.0000000000000000
    15.3205282173675101    0.0002014824685806   -0.0032720455521328
     0.0002023707323046   15.3277042438828079    0.0007193262014022
    -0.0032728540049734    0.0007198926617368   15.3420216939870571
 Zr  Ti  V   Cr  W  
   1   2 101   1  19
Direct
  0.3734530790368772  0.4161068486660097  0.8083230325651073
  0.6109091083537324  0.6082606987936939  0.0080215372044336
  0.7909139382935005  0.7889052355159063  0.0100417927329788
  0.9969763066510515  0.9989491258228065  0.9951416044792742
  0.9994063279991872  0.9988385360895985  0.1982537775191527
  0.9997961953716351  0.9978393455802432  0.3985298663934848
  0.9991095143380022  0.9947694454548003  0.6065859354921300
  0.0016518844974486  0.2010016454967603  0.9988542073893999
  0.9988103881041189  0.1996666882963821  0.2001623806497464
  0.9991756893168778  0.1985479735802020  0.4025581705574914
  0.9996354610555975  0.1988767784089984  0.6008792838111715
  0.9977305160224909  0.2165190956230856  0.7996091650212254
  0.9992964343038009  0.4001399222617779  0.1977381398097271
  0.0014488359459413  0.4007032430405340  0.3986865432224724
  0.0054877884144153  0.4025258452736015  0.6051624648806601
  0.0007317882438680  0.6011974852729703  0.9960197699937932
  0.9981923375685871  0.5982448978787157  0.1981729593433408
  0.9952643976673414  0.5980902383970813  0.4057973716978590
  0.0033393992594704  0.7988798892526717  0.0003835927212222
  0.9953244093677092  0.7986766962673073  0.1998550185501267
  0.0027432116544694  0.7986021859917346  0.4042253898739628
  0.0005783208327802  0.7922771421632673  0.7973384922292569
  0.2003976842668267  0.0034854173466581  0.0011102969918788
  0.1985397173557668  0.0004330429001615  0.1984227304881375
  0.2043161035638128  0.9958500892353401  0.3984325119881828
  0.2003839610713303  0.0052333608169114  0.5995102171074970
  0.1949480556765401  0.9995727414228545  0.8007597684308155
  0.1998005340281930  0.2004983286512133  0.9974721717817681
  0.1990514288163577  0.2003857124541388  0.2023796165901218
  0.1996382232298164  0.1996053117076310  0.4045642241003479
  0.1998297186064814  0.1972964407054899  0.7944845350991563
  0.2064449579623035  0.3993645798223626  0.0021023309121049
  0.2007686597344742  0.3999047524971940  0.2002821578961192
  0.2018643136791138  0.4001941372314355  0.3981332955757145
  0.2047751423638652  0.3937000098211075  0.5997740336044860
  0.0377053440903002  0.4008652549574648  0.9663800757321991
  0.1978480106473549  0.6013347519512866  0.0008511168435987
  0.1986003871047158  0.5998687580427632  0.2017137641021668
  0.2010690861134527  0.6029291439641449  0.4017210583118891
  0.1969956441557514  0.5964415084794994  0.6009237553846026
  0.1993065821171401  0.6034324782112307  0.8007764106259946
  0.2001762509803651  0.8031420962740871  0.0036941304348259
  0.1992081277531621  0.7991137939492219  0.2037787369004139
  0.1972587501580578  0.8020291673578038  0.5941818752486764
  0.2029403170078758  0.7995016371991003  0.7997912604847426
  0.4002161374132994  0.0020036843369460  0.0005229860277853
  0.4017227784960717  0.9991587984782389  0.2007181351342987
  0.4007005575997290  0.9986472789037741  0.5968117785030949
  0.4009791234881268  0.9939464370073173  0.8015409986605115
  0.4016087399680133  0.2028110783396904  0.9972793804153307
  0.4000553662874142  0.1998284761948768  0.2002758654624319
  0.4001262000572429  0.1955286682508209  0.4006943334999103
  0.4031641229167681  0.1987030781347139  0.6004191429767167
  0.4014294494989604  0.1995620362296420  0.7980379067534455
  0.4043809224712611  0.4016444499806546  0.1991859054754624
  0.3997208925297155  0.4019493980764348  0.3979880064226448
  0.4013067533641885  0.3985556349600973  0.5992512971963811
  0.4000001267916199  0.6000869288641878  0.9976399465497189
  0.4014776100992662  0.6014740656416582  0.1996886372976271
  0.4006131956843507  0.6004562417647165  0.4037539472324876
  0.4015547427241442  0.5980231362118753  0.6048335364030755
  0.3978567762535173  0.8016643148972534  0.9978940186356087
  0.4019029722055703  0.7979589882912085  0.1969641718791848
  0.3990073820394871  0.7996655035898342  0.6029833567034381
  0.6025064281214777  0.0033758751314751  0.0004695817894897
  0.6002790716657421  0.0009647372501744  0.1997711955310617
  0.5959953664937852  0.9984799410175822  0.3984609050634304
  0.6014033071342862  0.0031626517125151  0.6008129996963326
  0.6013010983116884  0.9975905892493847  0.8008736761396936
  0.6008078035811050  0.2004466002989083  0.9988847298594090
  0.6029539313526223  0.2024736106110942  0.2027416555476050
  0.6003588848439551  0.2000868331137955  0.4053530407512079
  0.6043388758699674  0.2001419563884244  0.7965933530436727
  0.5956304570197009  0.3978400239852289  0.0056002193599316
  0.5984542754868649  0.3990208716289950  0.3958297376980136
  0.5980930182781472  0.3948388759471471  0.5996136303568224
  0.5941644317238151  0.4008650200181123  0.8033313176661884
  0.6007499191823010  0.5955395401547808  0.2064560108461752
  0.6029772430451655  0.5995001054846808  0.4048346586418769
  0.6030876062565098  0.5977718344597739  0.5998615312509057
  0.6027919594362610  0.5993691760785048  0.7971594002250673
  0.5941038869230810  0.8054150731319065  0.0005366166311826
  0.6019809343744903  0.7982374510006059  0.2002697580020590
  0.5993573807076565  0.7989771048657303  0.4015065065496242
  0.6015903420103001  0.8020305340584993  0.5986997034376919
  0.5976470111380459  0.8005493880685038  0.7983018577586162
  0.7997926600314667  0.9949491329356930  0.1952634281918677
  0.7990780273413461  0.9977362268262734  0.3983266457433371
  0.8009637747098621  0.0017598995204888  0.5988698849435732
  0.8039873356213829  0.9996285567690696  0.8063676288260415
  0.8005860197246213  0.1998917466357221  0.9951720563708213
  0.8009903188370456  0.1993303545445324  0.2033335903198374
  0.8011142713933175  0.1978970128571805  0.4046585741445914
  0.7977630641466271  0.3983792923394282  0.0026313816549095
  0.7969426813954951  0.3995833916247837  0.1992288528698835
  0.8003860852365342  0.4028230768154720  0.3997462110531729
  0.8001333295467724  0.3950715528125872  0.5988722687513121
  0.8003222115649287  0.4006297670662112  0.8039259323480139
  0.8030379516443488  0.5942502990507748  0.9953167160536558
  0.8003832443620131  0.6026722047959088  0.2056660211184558
  0.8022258182811920  0.5963024321109236  0.5996839128014315
  0.7988764055073652  0.7963025242695173  0.3980912655663195
  0.8034635365113059  0.8027221649689987  0.5987606982993741
  0.7961238901072853  0.7932922148350496  0.7988332346499412
  0.3998310986391913  0.7987774292686856  0.4001780150224330
  0.9990083858112315  0.9797432892054089  0.8011229179921072
  0.9944915989015171  0.4109193382055265  0.8030052686360649
  0.9998558965757807  0.6019627187503869  0.6035581344696385
  0.9919892600854751  0.5977197640084682  0.7963856041251441
  0.0015536672878027  0.7955197803290749  0.5996467950225737
  0.1977635509878070  0.1984817138526827  0.5990808034495608
  0.1975573302969164  0.7999521137008970  0.3988446016106709
  0.4001963406995102  0.9991509445584413  0.3978056682309538
  0.4022410511200322  0.4027553084054730  0.0055293652736175
  0.4059247626382149  0.6118019091201632  0.8021110997400969
  0.3985464625547149  0.7984182507742884  0.7999430955652439
  0.6039377398980482  0.1998605624434227  0.6009720762135083
  0.6002467837473022  0.3984843647749098  0.2009255131446245
  0.8000283045299331  0.0072544631309746  0.0005608373876972
  0.7994013160096469  0.1985848130564307  0.6036773073732898
  0.8023616854389907  0.1996823534932298  0.7963767140095670
  0.8000685073404925  0.5998400226130547  0.4034113589287098
  0.7988853945357437  0.5971956218074077  0.7970100744171027
  0.7991867891297069  0.7996963919073202  0.2049527475498184
