Zr Ti V  W 
 1.0000000000000000
    15.3704372863088707    0.0041087699184726    0.0045828320708022
     0.0041071823098185   15.3593176205705255    0.0049868964281650
     0.0045832368054306    0.0049883200619353   15.3853693029952101
 Zr  Ti  V   W  
   1   2 107  14
Direct
  0.7917207473962291  0.4017264172691575  0.8101334522701332
  0.4092697207290251  0.7979809192774308  0.8037569238286306
  0.6129007510568651  0.4009527060714735  0.9886787283796553
  0.0001785366220811  0.9980909602357848  0.9987267366387027
  0.1322873208428482  0.9973029277660485  0.1979847406006910
  0.0000097814966429  0.9971763805429048  0.4021163279272243
  0.9948367827758364  0.0000608391849644  0.6017561060918486
  0.0030695787376900  0.9985046530915159  0.8008672443341313
  0.9997738101563789  0.1983909359523725  0.0018168378452252
  0.0005834874270852  0.2039441103062716  0.2020301646198905
  0.0002180938494962  0.1985599659673329  0.3996035346209884
  0.0027455116533597  0.2010806631788306  0.5992626036664619
  0.9993699380538854  0.2013559712090678  0.8012083171818968
  0.0040436599441618  0.3998038455758245  0.0057782879405691
  0.9985022366614644  0.4016029021550940  0.3973085870030080
  0.9976532769748681  0.4001622902355696  0.5998857838168461
  0.9996433574270089  0.4010503176510509  0.8030087545455659
  0.9984313271292865  0.6053883957536526  0.0001399129737875
  0.0038227429945130  0.5958506929503339  0.2006506927130164
  0.9995603244015137  0.6031126715167910  0.4025097995023427
  0.9995399926790378  0.5997095768872270  0.6015507642235731
  0.0026722112130799  0.6009596013775231  0.8002676815707296
  0.0044011612945637  0.7950379917869610  0.2011870281699203
  0.9991122746868591  0.7993442204520423  0.5942783701431842
  0.9996226888205078  0.7991961541933028  0.8064740241962436
  0.1997681824048346  0.0011097010558079  0.9944784587092133
  0.1972469469396418  0.9990567537121298  0.4018610686672670
  0.1987836740879396  0.0027472058681997  0.6056397125435234
  0.2004692227674076  0.2029524738909002  0.9991467302189403
  0.1995322317403685  0.1972919316133254  0.2001899631505268
  0.2024651934127109  0.1990265313866919  0.4032840272121151
  0.2007864989441444  0.1956932399532280  0.7959935712303828
  0.1967840916295024  0.4048627567683986  0.1951802906181103
  0.1993151273219429  0.4008987833853135  0.3993483400916045
  0.1979178967837337  0.3963818548737059  0.6011917349385749
  0.1979086458669195  0.4046567870183850  0.8045574248633038
  0.2008562637710653  0.5963336845911235  0.9959893862937026
  0.2011424067042167  0.5990760049366157  0.4001694401022557
  0.1996792177859052  0.5988366291396375  0.6048536732368905
  0.1965229616008669  0.7997810196664176  0.0023152021166191
  0.1966142250696749  0.8004244594291966  0.3983958881242064
  0.1996410949999469  0.8004788535301539  0.5995382577113878
  0.1987778700218585  0.7991382090294663  0.8003117325290136
  0.4004322185829970  0.0008131399689394  0.9996418506293823
  0.4014521835997023  0.9958530988178450  0.1989589067977213
  0.4007966621021356  0.0025837852022152  0.3994291164972856
  0.4005278498092490  0.9986179014910647  0.5994899633039330
  0.3970648120844207  0.0006922439704372  0.8000975979082106
  0.4011427749850078  0.2003611688859448  0.0021055476600780
  0.3982541056218283  0.1973978422279365  0.2035485223652725
  0.3962385194376230  0.2003669107284650  0.5949598393947686
  0.3999323540089620  0.2004068881948986  0.7987247081728547
  0.3959839434742371  0.3981195161781025  0.0001989968609372
  0.4016085702912534  0.4004455071107367  0.1981259250548379
  0.4001854714921080  0.3967712965753518  0.3976624923780024
  0.3991936101772075  0.3998960943989037  0.5981799801083529
  0.3965627752232275  0.3992272476694156  0.7996537601538499
  0.4018627249162126  0.5992083551358379  0.9990912006914433
  0.3976707443411222  0.6030493815588079  0.2005940371493562
  0.4004942925624821  0.5985739093957010  0.4008109333829366
  0.3985008813365693  0.5998415211248033  0.5987663180972512
  0.3957729871674520  0.5992464761576507  0.7996719241789904
  0.4021923438156502  0.8010818261614122  0.0068520858426313
  0.4012360393486624  0.8016555573303210  0.3965151864015478
  0.4003368950665693  0.8007074404061407  0.5938901522553252
  0.6010288209929475  0.0004997594531586  0.9971341367063727
  0.6027663685457455  0.9996330469555444  0.1980922194301712
  0.5993937847147837  0.0004241332541122  0.4014939963108897
  0.6018011418553120  0.0008131564369697  0.6025471436333023
  0.5975503115516494  0.9991295792954769  0.8005659000640412
  0.5994718949635542  0.1992004268455169  0.9990034399461215
  0.5979158553549786  0.2023422355714787  0.1986532891447266
  0.5948577115287268  0.2013615443726358  0.4008399751526553
  0.5978711475000851  0.2009357664788256  0.6008414766340746
  0.5966241531856454  0.2012740657123030  0.7998273793842859
  0.6019000977626332  0.4013613097077326  0.1990588191192349
  0.6010150353799520  0.4012224290329319  0.3985523352842105
  0.5997459402706764  0.4006703981482636  0.5992159701367422
  0.5897889184576518  0.4011212932987128  0.7944868201130413
  0.6003561111981550  0.6013488940054025  0.9982594606512315
  0.5978924866360606  0.5985870743001375  0.1978683115341603
  0.5993604845903043  0.5993253524132702  0.4019192861708473
  0.5984131619525871  0.6000620371776119  0.6019633606772522
  0.5953996396696182  0.6009603253055820  0.7999858596059592
  0.6021842150807544  0.7996187654510390  0.9998712131085253
  0.5956287512782955  0.7985935339119936  0.1996973424489042
  0.6033937206186368  0.7987215686452830  0.3989034985339504
  0.5995631104318296  0.7995229817555614  0.5998191680588203
  0.6027836026997597  0.7995336274484406  0.8005562052822799
  0.8001754859611240  0.0007188471940112  0.0035487693840861
  0.7985705984277149  0.9977612855424269  0.4023854517646323
  0.7992930557445524  0.9994795909212417  0.7969216458394938
  0.7995986462461552  0.2001320924143081  0.0012928917089337
  0.7984352549357016  0.1975364874299233  0.2027675213280421
  0.7977187326051293  0.1992138500277917  0.4015641367835476
  0.7993428382168626  0.1966717515787930  0.6001660889612193
  0.7997361707680211  0.1957026326710518  0.8008318743184234
  0.8081056356046536  0.4003213574077318  0.0106325811520473
  0.8039098170847043  0.4010385601069377  0.2046723609687121
  0.7997798517292982  0.4002990194290671  0.4019832135889017
  0.7992869217555806  0.3989638265219425  0.5994856228334675
  0.7996143315192322  0.6015850912015773  0.0011803363474014
  0.7977528820254981  0.6004809009209106  0.2013553729704100
  0.7981612084719996  0.6051219489798474  0.4019028411291374
  0.7985589378030421  0.6001528275934944  0.6029758305580540
  0.7991890048566589  0.6064510510981355  0.7994642707777304
  0.8035988521653833  0.8016450869002252  0.0032160324390402
  0.7997119306033607  0.8025469723671440  0.2047959621747286
  0.7997371374278938  0.8046849290273943  0.5962570008984666
  0.8007014834114509  0.8016705590242759  0.8001923019847906
  0.0010970732707545  0.4008507091897963  0.2020026061861657
  0.9985287608813949  0.8016244843907501  0.0058751225054467
  0.9980833397069401  0.7999400394430702  0.3970699843033104
  0.2004203744768126  0.9979367698347650  0.7993071024218809
  0.1991650632244348  0.2001389861729967  0.6005644262121522
  0.1998470328876552  0.4000722720913555  0.9995637834772125
  0.2024946084653075  0.6015362903663318  0.1980222442467828
  0.2006379029183779  0.6010858627776305  0.7996809974079484
  0.2025462903167431  0.7914245371440255  0.1994886041593028
  0.3987248554844623  0.1994130418220308  0.3985496771805774
  0.3973754238657457  0.7999186788669512  0.2017945407415835
  0.7948622042726932  0.0011741661682918  0.2020154605738945
  0.7984691084376014  0.0007187358077803  0.6016020269911244
  0.8030326583921661  0.8014780556382268  0.3995947547514365
