Zr Ti V  Cr W 
 1.0000000000000000
    15.3744491836082720    0.0010508954282058   -0.0253238060416878
     0.0010592939098717   15.3780775853147933   -0.0134510921438446
    -0.0253485541273269   -0.0134855486456777   15.3266289615822995
 Zr  Ti  V   Cr  W  
   3  15  75  15  16
Direct
  0.0273837080473150  0.9975819598113278  0.0000683864857208
  0.4558197238608457  0.0035117760956052  0.0015839688882056
  0.3631014239449328  0.0030487953140469  0.1987405635562035
  0.0003342374288953  0.9893235003475956  0.5983519096333255
  0.0010985172441699  0.6047869818286418  0.0035500115390038
  0.2297881757817961  0.9746225251577090  0.9910705272527199
  0.2008342742311287  0.6021138974233375  0.3877438782075520
  0.2002789175043431  0.8070980283633273  0.8110948506300959
  0.3970516915056613  0.7978935779424076  0.5995973396141899
  0.6474878270702317  0.9941388193569297  0.9917909609520839
  0.6024654806252461  0.9868439225830353  0.1984342839752329
  0.5911868136928192  0.2013070008974737  0.2095166550519172
  0.6086690178249148  0.4205705613782572  0.5993579637684903
  0.6148850070264209  0.5874811333612440  0.4215125981851299
  0.8039435681462318  0.2005301278251740  0.9905442250358478
  0.8031260491064900  0.1903839021059854  0.4061445891738476
  0.8044695680959980  0.3986794771882965  0.3927920198994030
  0.7809120521931801  0.5951210419865661  0.6013382034469291
  0.9917967252189502  0.0029756879107716  0.4022582621232861
  0.0012138618909816  0.9975571819225090  0.7958545198222993
  0.0040331755776634  0.2059554314281385  0.9997981487804112
  0.9999280479850560  0.2056379365972177  0.2055071127399973
  0.9996131404932136  0.2040063369455503  0.4065283707642108
  0.9996437356671533  0.4033560668549224  0.0012807588687279
  0.9982593883349926  0.4043884545501456  0.2009516299396304
  0.0021975062659014  0.4019779067529658  0.3999841022014047
  0.9994751382628129  0.4058188967662977  0.5985678553966257
  0.9992559659672759  0.4012067258674112  0.7985920911497595
  0.0021369467400196  0.6041442982896612  0.2078774210110110
  0.9979598060967912  0.6009728987815836  0.4051133326328590
  0.0010193867898107  0.6007201913160091  0.7947063900440294
  0.0011146523062613  0.7908085872976360  0.0008994375478859
  0.9965515795212178  0.8003031623585108  0.2027695100032223
  0.9956266222589641  0.7987545932254811  0.7997942949933393
  0.1934464970000456  0.9989830043029212  0.3991814393695265
  0.1991542883223545  0.0052277191549597  0.7918080542159508
  0.2006833811756640  0.2102137126824878  0.0008265286466898
  0.2021360421517830  0.2002876197369531  0.3975250558032324
  0.1969953002825279  0.1975203037281008  0.5971463705900132
  0.1988116911781238  0.1990863860824695  0.7981589348094994
  0.1955056718506673  0.3969615087502654  0.6003307793457074
  0.1984624878288944  0.3969966818601961  0.8026885303195999
  0.2054476553922947  0.5928221299245504  0.0005502282528567
  0.1981953027782453  0.6020501596652472  0.1970219682384067
  0.1985113181056326  0.6021810315537095  0.6017038021531099
  0.2016216830294411  0.5963050559625970  0.8012722528385938
  0.2017643620393485  0.7854227170819585  0.0037852245810515
  0.1991241470209780  0.8063533116014077  0.1977343496330275
  0.1996658637045897  0.8016673569086306  0.3980888721383467
  0.3971305300229664  0.0035703746813148  0.4039311923430746
  0.3885400092039193  0.9976039322554537  0.6007941658534199
  0.3900611866056490  0.2056481021466275  0.2026173561472102
  0.3972501502679858  0.2004121656943069  0.5978968002380051
  0.3991226740704721  0.2001981442994783  0.7983127103927490
  0.4018259271924594  0.4016659848317829  0.0011993823389069
  0.4004306392058938  0.4036662288242643  0.2010567304974015
  0.3930046065112459  0.4014958544924705  0.5960871319952861
  0.4012937729860012  0.3987326648152708  0.7967982610220441
  0.4021361973400406  0.5989880372623615  0.9975861637543553
  0.4024515031806717  0.6016673084976337  0.2012632816624439
  0.3982863550898904  0.5953128258405467  0.4011685133615341
  0.3927588132856829  0.5998849157304094  0.5998160412928996
  0.4000161274691963  0.6005651052014305  0.7983355807208643
  0.3994880989951750  0.7973428870525332  0.2027596267070691
  0.4031877473515516  0.7986974161813648  0.7991388754325103
  0.5949272552788892  0.0011092350803776  0.3991063213309372
  0.5941786969649048  0.9969996495265064  0.6018308294570394
  0.5993486788304759  0.9993985922057621  0.7992573006080754
  0.5985709855100595  0.2053759609100968  0.0025315169917717
  0.5970013222621752  0.2008189290391200  0.7957488884756876
  0.6054746057610978  0.4070167806889936  0.1981341251477932
  0.5997743066667875  0.4005218292775084  0.8056398561861988
  0.5985394470765324  0.5971563704746640  0.9991258761265255
  0.5887044603219342  0.6110368703375596  0.6090679423919377
  0.6016834575153365  0.5991648546580901  0.7996398631365146
  0.6008964516063997  0.7976134804317548  0.0004934959504121
  0.5999228464500893  0.7931217584433639  0.2035161670697485
  0.5989980814986114  0.8026509534952535  0.6008553796247621
  0.8025624416086630  0.0048404734714482  0.1944709461484378
  0.7932259002215383  0.9984914064952193  0.3964309177073720
  0.7971999436368471  0.9991881967036322  0.6010120600301637
  0.8033967049490880  0.0049210939341970  0.8031373506206658
  0.7895738921590476  0.1970499334784766  0.6066581394476178
  0.8083491061706958  0.3897359400192397  0.6033614163464719
  0.8031539722202684  0.3928177207732504  0.8038345169735893
  0.8005261540154400  0.6017197657911750  0.9978424542864092
  0.8002539718277042  0.6056712313940600  0.1961338391216750
  0.8055789079079551  0.6056588134582697  0.3934255452143097
  0.8021637122639415  0.6005009643983236  0.8033462065782482
  0.7988108304400841  0.8042711159669741  0.2025635299849362
  0.7954843503522739  0.8030151008959446  0.3989568483045014
  0.7987272099194215  0.8039871155744711  0.5995387885691611
  0.7989190102644613  0.8000604909168783  0.7996120167740255
  0.9939675462934711  0.0015348362863315  0.2072825450108314
  0.9976623158067949  0.1990427729319459  0.7964104758864141
  0.9965360928841611  0.8012973419716890  0.4037456541248129
  0.1989216102336616  0.3993729357478428  0.1977870659772521
  0.2012885583864188  0.3986536152923456  0.3977653962136067
  0.1941953456303084  0.8004869707194335  0.5980651234265948
  0.3989798309107695  0.9996382916700307  0.7972701690707520
  0.3997170775839513  0.2060757380753885  0.9990922537814562
  0.4027185550211946  0.7942237447950041  0.9995096608176741
  0.3992628613241559  0.8013982703051359  0.3999137649798247
  0.5970041343427294  0.7990009427242520  0.4027294266788794
  0.6022861970231269  0.7997596884427015  0.8009093114374911
  0.8048823944043179  0.2055492136948988  0.1996371881294604
  0.8027644320667306  0.4050998374262736  0.1913376547748945
  0.8026978660575499  0.7989054404753110  0.0008291465928807
  0.0051234924680928  0.6007374251714100  0.5998692017742193
  0.9927192326339347  0.7929081113875800  0.6049432020042423
  0.1660526101237265  0.0023700878049699  0.2027333704589150
  0.1920813057144179  0.0016127120731515  0.5950561348699450
  0.1973189126660769  0.1902401565962252  0.1946854837114261
  0.1987588202944783  0.4012137537538612  0.9976142514278329
  0.3980283345426079  0.2001984889047793  0.3970007813993320
  0.4049840183483881  0.3957971269170428  0.3979960072491843
  0.5906551238611594  0.2015740212539554  0.4077708788879965
  0.5948282079912427  0.1913496569343939  0.5993917216741067
  0.6045761118470493  0.4021069966931130  0.0004733502100066
  0.5923332976210378  0.3887915203893452  0.3912488963342479
  0.6015913122123330  0.6025176515176154  0.1923794649173757
  0.8271539525839204  0.9987216428853343  0.9980591839953510
  0.7925219918156181  0.1984845165308413  0.8006196564205743
  0.7987423695656011  0.4071080399705245  0.9944493912327605
