Zr V  Cr
 1.0000000000000000
    15.5176564344983579    0.0055358052127085    0.0009235349890332
     0.0055289702635454   15.5339659065587714   -0.0041197367383691
     0.0009253811786535   -0.0041210125583897   15.5341853465245965
 Zr  V   Cr 
   5 117   2
Direct
  0.9999833855927903  0.4012797697416513  0.9996572733197325
  0.3750065476903708  0.2036245073304793  0.1970784162759919
  0.6002329730391505  0.2008361009838869  0.1997652155605243
  0.6085270180741454  0.7918413148220831  0.7996946871529950
  0.7928229808330433  0.6074913085201804  0.7998808155782312
  0.0014519676267135  0.0004178435363053  0.9983139968548951
  0.0013414862608810  0.0006311049665721  0.4025793860561819
  0.0009101624704813  0.0002981468087262  0.6006820504447008
  0.0019897775052367  0.0008974552388120  0.7995387371507098
  0.0001338664883379  0.1954613343372008  0.0007302414764754
  0.0016933793095674  0.2033435734319444  0.2009245042326586
  0.0005225531175309  0.1984495066483913  0.3998521858582572
  0.0008668629105416  0.2008664159189330  0.5999810638316997
  0.0012804811829568  0.2007174708346433  0.7994823546056773
  0.9999155846861717  0.4019212481024327  0.2044252876845097
  0.0006313241575766  0.4004290348443268  0.4013921168884725
  0.9999002912296665  0.4009588479555463  0.5993064475711096
  0.9998588569854033  0.4011536185804601  0.7954707100661805
  0.9997800388022632  0.6049925058901177  0.9992623817787167
  0.0007951597493664  0.6007733926780865  0.2007296237435666
  0.0005158623383310  0.6005189929687034  0.4008750051072886
  0.9999746955186111  0.6005967923603558  0.5997210257829052
  0.0016310011329465  0.6011132951383250  0.7995010606005142
  0.0012609384742228  0.8348776665851185  0.0346291282103081
  0.0015454198285850  0.7987708791689992  0.2012161414608478
  0.0010541082220770  0.8013083543091863  0.3995202389658589
  0.0014993659944884  0.8000650418831337  0.5996196797462828
  0.0042372351500233  0.8010190041603217  0.7991283091619960
  0.2005926704557564  0.9992489174751653  0.0007236942781745
  0.2025135606054553  0.9996034580145513  0.2007682814407398
  0.2017448634591789  0.0003129815832386  0.6004098762525523
  0.2018224488251801  0.0010586084895750  0.8004870440475074
  0.2004189531616108  0.1990716421766322  0.0005483062225577
  0.1992541962919356  0.1993379729017515  0.4007801709658318
  0.1996918161936349  0.2000457427835686  0.6003655759808390
  0.1998144661710849  0.2002754305370849  0.8002336182490144
  0.2043762703731557  0.3998083225426670  0.0003414501723473
  0.2006586802673922  0.4000463663512225  0.2011144098656414
  0.2007847258429958  0.3998746344280621  0.4005714933435040
  0.2007366517307632  0.3997706353549819  0.5994405186645262
  0.2009441884323352  0.3993875503388853  0.7999481631893901
  0.2013371043831339  0.6006338120959369  0.0008126882863743
  0.1998444683977193  0.5998789762820153  0.2001582576105094
  0.2004990291236943  0.5993657952682482  0.3995605424859006
  0.2004322228864845  0.5999714535780416  0.5999406951470621
  0.1995163328569250  0.5993504245370462  0.8000812958274376
  0.2017135652731007  0.8004893583201821  0.0006890472080683
  0.1990907741577974  0.8008272396905119  0.2003322392686465
  0.2011552646819617  0.8003052816461483  0.3999275079948619
  0.2007262144647234  0.7999762108392416  0.5995854884106283
  0.2012328333716307  0.8002878281313113  0.8004208511324787
  0.4023035113936835  0.9996473256485648  0.9994874186228553
  0.4010094167322527  0.9960175190157263  0.2002030107813552
  0.4017578112630942  0.9999396578494636  0.4003870072525236
  0.4012379295793474  0.9993404568672621  0.6002322836108815
  0.4013570993968748  0.9991232920725905  0.7996301494616854
  0.4012439758713470  0.1993051055113963  0.9935316170482487
  0.4001380992796307  0.1997162193108840  0.4039746724223662
  0.3993849766406342  0.1993801418437057  0.6006867637797382
  0.3991300637215935  0.2001373993373032  0.7983557160067484
  0.4015926331353551  0.4000251023199275  0.9996926444173821
  0.4015580250294145  0.4069474125876970  0.2002239653833800
  0.4008461735359643  0.3997469582143030  0.4000461935919959
  0.4004984866122597  0.4003044495510544  0.6002202923293410
  0.3996622330028921  0.3993707770893208  0.7992966939355272
  0.4002735225210489  0.6006294032415014  0.9996901738086863
  0.3989727146748175  0.6015742263426965  0.1997655225902439
  0.4001423854431095  0.6002074069974500  0.4005320996273025
  0.3997128698505715  0.6002351520221775  0.5997287791595097
  0.3965897003844382  0.5991502926544775  0.7998110053448523
  0.4014621234738350  0.7997823014583055  0.9994384209616859
  0.4000729409580053  0.7987256442221656  0.2004860754751578
  0.4005060201921571  0.7997944165297868  0.4002170480022043
  0.4007996326480560  0.7999559217621390  0.5999811005858565
  0.3995347419332966  0.7996737825528064  0.7995951756338383
  0.6006391652029750  0.9993258217078405  0.9993079285686645
  0.6008613726930243  0.9950344506176408  0.2004505511676553
  0.6008389924679840  0.9998344875836640  0.4005721805830980
  0.6006473133135947  0.9993464088579158  0.6001230756015969
  0.6006621490413816  0.0009982419542629  0.7997452415087162
  0.6013662899490477  0.1999924047804772  0.9942848063074383
  0.6011152678707984  0.1997775278618843  0.4053606373971759
  0.6009308891700865  0.2003231962887535  0.6013574093287272
  0.6005962125775037  0.1995645382313591  0.7980189374183974
  0.5992086984624206  0.3998070997002902  0.9999029586627043
  0.6009971972864178  0.4059468275998646  0.2002694293249589
  0.6001954717137726  0.3999809049092875  0.4004353252955223
  0.6001184569655124  0.3998061314378402  0.5994709124404780
  0.5991754504701837  0.3967736262611610  0.7993060738212333
  0.5982312658327430  0.5987992280981556  0.0011812735606684
  0.6004613289618076  0.6014114380290092  0.2006292933339621
  0.5994737101848536  0.5995347286498910  0.3995921660214795
  0.5986787449223503  0.5985368474761765  0.5982026320739363
  0.5903300213495892  0.5897457569333731  0.8000054023712474
  0.6013662797063091  0.7994502046296859  0.0040139166715496
  0.6012885032644459  0.7978453235382057  0.2008929290036357
  0.6011176303663367  0.7995429089334680  0.3995235267822325
  0.6013483707081497  0.7990205938031725  0.5958287989240354
  0.8011518011948522  0.0006506825004256  0.0013791540310040
  0.7987135408000019  0.0009680711013211  0.2000999292764527
  0.8014495266553716  0.0006956140279730  0.3989510676859436
  0.7999903460102608  0.0010519437030729  0.5998025760044134
  0.8011896751419996  0.0039483107531372  0.7999073320404909
  0.8003514845695499  0.1998910064304438  0.0000078071462364
  0.8064315131325696  0.1999028444857458  0.1999373499849176
  0.8012751386450707  0.2006005449259856  0.4001800452515085
  0.8010670789299414  0.2005541739349012  0.5999555496371436
  0.8016707367234455  0.2011783320715034  0.7999838351414373
  0.7956222584974277  0.4007221790840061  0.9998670142193929
  0.7999790028458427  0.4009532418404711  0.2006864799577323
  0.7997925530889037  0.4000044146076948  0.4000502809585818
  0.7997289814822852  0.4009418334712098  0.5996295680634546
  0.7995601068928264  0.3992705376838084  0.7993279365442637
  0.7988236403853316  0.6020911168149637  0.0041469620613290
  0.8004414865425136  0.6007828450133942  0.2006518762057262
  0.8000456914369850  0.6006600036826447  0.3990161165748572
  0.7996414256542543  0.6009771947168775  0.5957002779723767
  0.8013675464528522  0.8023099731882081  0.0015884791511844
  0.8032342888688560  0.8018593677250624  0.2003682077187595
  0.8010956879767194  0.8010637484885827  0.3992863721097482
  0.8021301170382595  0.8018070229063645  0.5980858269170229
  0.8111427002379401  0.8101692058321656  0.8003326589037232
  0.2008847351453416  0.9993169804686610  0.4011501296791963
  0.1916001644745565  0.1996078895381608  0.2003717778811223
