Zr Ti V  Cr W 
 1.0000000000000000
    14.6627348430701243    0.0892688566683254    0.1059670007499842
     0.0884375479100361   15.0071679566365095    0.0897910479508522
     0.1055615761702499    0.0904936321540005   15.0646449811769880
 Zr  Ti  V   Cr  W  
   4   2 111   5   2
Selective dynamics
Cartesian
 14.6805917370945931  0.3318626957031374  6.0511508747881262   F   F   F
 15.1591451795132777  9.0247400278424497 -0.3019978898657917   F   F   F
  8.5033267374610730 -0.1227398532949177 12.4852933158062172   F   F   F
  8.7695566771882820  6.4703039646900287  0.0706442408373452   F   F   F
  3.5506956262770983 12.3667271060261381  6.5765826959111795   F   F   F
 11.5046255985655872  6.2320635348157243  6.4236714207461860   F   F   F
 -0.4790860397981299 14.4559436179270211  2.3949904816341849   F   F   F
 15.0234936207554988 14.2677067798384627  9.6811755687153056   F   F   F
 -0.1105348612687318 15.2245741201176585 12.5810111632560808   F   F   F
 -0.3603294038063246  1.7981024712257743 -0.7603109204092330   F   F   F
  0.4647801870057972  2.0808974835457850  2.9765090325244752   F   F   F
 14.4605754577392940  4.1605296110724259  5.1441835370608269   F   F   F
 14.8571433539333349  2.6610428183753316  8.8822151903921043   F   F   F
  0.2637662469801882  2.8846857034846423 11.5770233062356240   F   F   F
 -0.1258338028489419  5.4804312411454701 15.7405399154792978   F   F   F
 14.5795779172527329  6.7604211041646192  2.5626070246501920   F   F   F
 15.2899086723207986  6.3969212953768171  6.3915604205331435   F   F   F
 14.2726288442755749  5.3054283817716925  8.8033920771159835   F   F   F
  0.3328719845518359  6.4017123690461482 12.1765670672425959   F   F   F
 -0.4389974274189217 10.1624686637774690  2.9838083398990629   F   F   F
 14.2548227565857726  8.8576039948762446  5.8803259721916099   F   F   F
  0.5651048773424597  8.8667855684128476  9.4682916352098783   F   F   F
 -0.4221520526278288 10.1252540617750952 11.3158497207586901   F   F   F
  0.1473106584160943 12.4639471092546685 15.7287195375710027   F   F   F
  0.0067630249718529 11.3903707184208489  5.5569088083659404   F   F   F
  0.2505790352870225 12.4149936158684966  8.3991873170377218   F   F   F
 15.3052121833740635 11.7172328370464331 12.1854600476980348   F   F   F
  2.8871672993158097 15.1909221079897669 15.7737719719914935   F   F   F
  3.8985676695102325  0.4254107663578221  2.3853359645553791   F   F   F
  3.5374622311243948 15.4687255307099161  4.5310837144221736   F   F   F
  2.8900861880609043  0.0575199951344275  8.0796205711890625   F   F   F
  2.4831265915186784 14.9152011579656918 11.8328981269839613   F   F   F
  3.9020314641627647  2.6605361995800112  0.7094004363656866   F   F   F
  2.3606384756282810  3.4652291434136329  2.4359631369732386   F   F   F
  2.5513440408889960  3.0606185923081126  6.0181738671890006   F   F   F
  2.5770633102438336  3.4851109254277270 12.5252086967366409   F   F   F
  2.7406725732353427  6.3133249355183292 14.9920984820821150   F   F   F
  3.0787358427144662  5.5178868091299575  3.4874046524092712   F   F   F
  3.0164807034877019  7.0189765208831219  6.9615628030555818   F   F   F
  3.0025704833956657  6.1028298314288847  9.5896652202681931   F   F   F
  3.9597321982346583  5.4488719363463032 11.6016373791349121   F   F   F
  4.3420793603479853  8.9391809918425302 15.4879578054555385   F   F   F
  2.8685098219689236  8.9841254005001581  2.3495598653695033   F   F   F
  3.9652158290304178  8.8921238341986530  4.9777293436544561   F   F   F
  3.9710010200448926  8.7791550389121564  8.3264843607417518   F   F   F
  3.1540395614003489  8.8786752162715761 12.1241703930563496   F   F   F
  3.0977062767304844 11.4963773181910582 -0.3406922490602307   F   F   F
  2.7089139173773193 12.0303249306199618  3.1528837167605217   F   F   F
  3.6188409748324482 11.9497706803017270 10.0471868413061873   F   F   F
  5.2242255356468839 14.4760009171052015 -1.0119584233431587   F   F   F
  6.9428203472904633 16.5502487548625261  3.6093296927287457   F   F   F
  6.7918616039634623 15.4658648494638626  6.4109733418587433   F   F   F
  6.0747665831577713 14.6940477956143329 10.0213746966737762   F   F   F
  4.6657363551555582  0.3207884974897872 11.7341415549295398   F   F   F
  6.5741684760472259  3.9709053475111844 15.5187078694751310   F   F   F
  5.7341740919776631  3.2823627380582523  3.8228008040177066   F   F   F
  5.8931211458712811  2.0634178860832488  7.1843529209529056   F   F   F
  4.2751210810103935  3.2869953557233149  9.3775501471331637   F   F   F
  6.3171094177252440  2.6873963582498956 12.1522375443733122   F   F   F
  4.9356249336302822  5.9383059640807669  0.2696721464649077   F   F   F
  6.3422224901212134  6.8371217612249033  2.7027797211394855   F   F   F
  5.0767803165032728  5.7251083899010480  6.6163211100435939   F   F   F
  6.2685662741995909  4.6560534274171896  9.7698270644120804   F   F   F
  5.8068436026751575  6.3701266318048351 12.9863020638507400   F   F   F
  6.4929509310597311  9.2202236832222990 -0.0899269545539168   F   F   F
  6.3023563208943534  9.1111830904512825  3.7501135828542407   F   F   F
  6.1721847950137674  9.6096449849831274  6.2662006590199297   F   F   F
  5.9745324032418221  8.5491167704506044  9.7585293443302774   F   F   F
  5.0862561159755888  9.7275267903337621 11.7894471258459141   F   F   F
  5.2506875526744405 12.5529487336236265 15.3733506668350177   F   F   F
  6.2074871260965452 12.7821869481265065  3.8123199734592101   F   F   F
  6.3469033732129949 13.2894522177450032  7.4484434335685350   F   F   F
  6.7699851841494176 11.2597573959591237  8.5343134710145812   F   F   F
  6.6355761607035468 11.7315176063730817 12.1171657267698656   F   F   F
  8.8665211791429943 -0.5097126661762735 15.5254294648708147   F   F   F
  8.7915961702111893  0.2270650632652168  2.9327576617999753   F   F   F
  9.0590462666561500 14.8797999232949447  6.5763256401912749   F   F   F
  8.1810625228095866 -0.2938418232597725  8.8402400465397353   F   F   F
  7.5792605811523872  1.6577831293270957  0.6164908748312460   F   F   F
  9.1552828572577134  3.3094548312640044  2.6032226921646719   F   F   F
  9.2154575321742680  3.2963456803024820  5.1206629124904097   F   F   F
  8.7430464855750891  2.0329754794407928  9.4536736940837454   F   F   F
  8.3609150506082326  3.7439434296267535 12.6843759520115942   F   F   F
  8.5846571931660609  5.9488456267563814  3.9345748654259602   F   F   F
  7.9242347444391212  5.0255960946537792  6.2982710511513318   F   F   F
  8.5304253380771229  5.7946132067368836  8.7548176379476814   F   F   F
  8.4419167047638588  5.7016678406472545 11.3356487882511541   F   F   F
  9.5023326582800482  9.9875841084497718 14.1040567777460293   F   F   F
  9.0618495972058977  9.3265777096029172  2.6716287206760532   F   F   F
  8.8667979857383070  8.8964816440903256  6.6099389354319564   F   F   F
  8.5553803453881851  9.9918121432526785  9.5253519704335563   F   F   F
  8.7930353246231086  8.6678811408408638 12.1099078521091954   F   F   F
  9.0074116427244793 12.1229380767743571 15.0042547886682680   F   F   F
  9.2885479449261332 12.9316612765522176  3.6189248346400147   F   F   F
  8.6633475673986702 11.1264811785925257  5.9357205784383185   F   F   F
  9.3268705102272733 12.6672578304135346  9.5023515411718318   F   F   F
 11.2759859470515202 14.9875661603942696 15.1693436903097734   F   F   F
 11.7475616093799928 15.6107724950327817  3.8920891570458567   F   F   F
 11.9239203334635917  0.3580310869955191  8.6056290424083919   F   F   F
 11.8704797096863626 -0.5234979644284664 11.3878572327358594   F   F   F
 10.8196296961624583  3.4293564427458030  0.3425780351890175   F   F   F
 12.5744515051600025  3.9644649671604615  3.5851428405189640   F   F   F
 11.5839434900524783  2.4257570121999192  7.0303685163930547   F   F   F
 11.9830341867058383  3.8142807208160376  9.4595442800613192   F   F   F
 11.4820191465840757  1.9552475760883310 11.9509118855507612   F   F   F
 12.3961027736257741  6.7810270544155289 14.7800049269546125   F   F   F
 10.8009108906117905  5.8935767659912131  2.9820948873039845   F   F   F
 12.2533101471700796  6.6071817598769798  9.8873695406832507   F   F   F
 11.3491657017263030  5.8464255864935968 12.4153140710639356   F   F   F
 11.7663725200862075  8.6692723952930972  1.0346747717585505   F   F   F
 11.6285005696509423  8.9553657463607319  5.2718395775653208   F   F   F
 11.9647080922366804 10.2086290439101326  8.5967600271653311   F   F   F
 12.4738607719631425  9.3653910455880212 12.1610474259483006   F   F   F
 12.7008357646650953 11.7174601676792172 14.8573997977999674   F   F   F
 11.2941575952915905 12.2353181787836842  2.6060365351124810   F   F   F
 12.0643402846488872 12.7557922942025552  6.1512310264321455   F   F   F
 12.2633408660412062 12.2694375756090199 10.0691733410075113   F   F   F
  0.4419567919379881 12.4812530263251542  3.3473376943309363   F   F   F
  2.4977101974446403  2.2503658191280853  8.2780197451045776   F   F   F
 12.0034779853532392  0.2079491182017364  6.1327591340111978   F   F   F
 11.3095477635770667  9.7893816009740693  3.0162165991552810   F   F   F
 11.8981237447392605 12.8395950274226784 13.0959799153670513   F   F   F
  4.0921645979363204 12.4252326072681871 12.4373779862148162   F   F   F
  9.8998547577699405 11.5682687269851296 11.8996862813449393   F   F   F
