Zr Ti V  Cr W 
 1.0000000000000000
    15.3990340272275770   -0.0170018773457157   -0.0022529018582575
    -0.0170107766548915   15.3787801482628375    0.0165544931564424
    -0.0022517709109467    0.0165430754876648   15.4057927644380346
 Zr  Ti  V   Cr  W  
   3  13 106   1   1
Direct
  0.1859480655729069  0.1968359605140850  0.3734686669618892
  0.2055564241998261  0.6152277363794370  0.3817129758170675
  0.3866765055322335  0.7950680138484018  0.3887373629404599
  0.0030143303160743  0.9998879662688301  0.0078880855432684
  0.9998201686668112  0.1832599683762917  0.7953936834045434
  0.2046219051876036  0.2001915740526128  0.1753497076140710
  0.2032962064524976  0.5892803763471888  0.1824778396249994
  0.2111772866386068  0.7985084051477552  0.2123704993114773
  0.3903522725818929  0.2033482593541343  0.6011773467691522
  0.6094856581813954  0.0152739654369669  0.5932726973799300
  0.6019995740402195  0.1935077128154037  0.4125189040913173
  0.5880352008456984  0.2033601840348085  0.8130554759757812
  0.7924937190151797  0.1990647118398377  0.1955522543651995
  0.7837124709448778  0.1956987016414332  0.5941886933343770
  0.7955776319130549  0.1986746824333888  0.8042162558826161
  0.7994608728909043  0.7981775130507988  0.1965941881865154
  0.0031746367026699  0.0000883578324970  0.2063995877779877
  0.0011897814294230  0.0002434784412799  0.7290906109077875
  0.0012324733464417  0.2004887032715521  0.0037282933321218
  0.0005684356851027  0.2010937736589927  0.2004599893034030
  0.9870354153290558  0.1999130825755306  0.4013690037521913
  0.9953234464689662  0.2041634730139649  0.5973886019869126
  0.0008051540689888  0.3991080032174889  0.0015966566300158
  0.0003325802735024  0.3992976230790057  0.2026369448347881
  0.0016322660763020  0.3998458242552344  0.4011019520554875
  0.9990034866952521  0.3999058337008863  0.6008032917377402
  0.0009660500376802  0.4015764598491355  0.8010035631616538
  0.0019735224924542  0.6004730356869404  0.0027231450282574
  0.0012610201525660  0.5997628256691784  0.2009503834905156
  0.9973817626816450  0.6008569369277305  0.3992030027922096
  0.0016207305104312  0.6009292998971850  0.5980307080760434
  0.0003154066099601  0.6003559532978413  0.8021292703626881
  0.0030670579600415  0.7993730461480865  0.0038271872414586
  0.0021369241393802  0.8005054802339435  0.2023939959525011
  0.9951644558112969  0.8071122789775942  0.4020692160055691
  0.9995845083535055  0.7992050181447992  0.6028700471573595
  0.0002740617400954  0.8010773169044931  0.8009823342961893
  0.2027698308507981  0.9995701194993787  0.0009841433238158
  0.2042474479280576  0.0039375462993962  0.2013360225906503
  0.2006585789702450  0.9986064173212784  0.4016221591907962
  0.2044036853774252  0.0024098191934065  0.6006702161691941
  0.2006534215246824  0.0007513305413698  0.7990033371254526
  0.1996107144315080  0.2001717928553698  0.9872027575977799
  0.1925372564161456  0.1993895639588750  0.5939418170978387
  0.2006092309639947  0.1988728619692140  0.7945981268033013
  0.2003365854132624  0.3983586997748357  0.9996266433773086
  0.2017033820266597  0.3945782130421150  0.2015049164314891
  0.1999337468300586  0.4021933578310239  0.4014728533742742
  0.2001185718439811  0.4009570218744467  0.5987880415862571
  0.1998321050059646  0.3988081077308183  0.8000132496028819
  0.2011519959261520  0.5992239753182952  0.9933502089489367
  0.2011959249276837  0.6007456822240220  0.5993346523501974
  0.2012997719855118  0.5997109804201860  0.7979306820051379
  0.2017945070606762  0.7994188735984280  0.9994105306127560
  0.1880120663826559  0.8123136857227472  0.4089718058374096
  0.1993347726352661  0.8017257745412840  0.6036838694948018
  0.1999253058878098  0.8031804781759311  0.8017502093178227
  0.4011831526666149  0.9994397415906682  0.0024716775110939
  0.4023326639869264  0.9973023891381779  0.2020318180233023
  0.4008837432408735  0.0043595847042520  0.4010033690772321
  0.4021241537571668  0.0003111590457769  0.7988099222876314
  0.3995740090191167  0.1984540218985886  0.0017792061782848
  0.4005471761058444  0.1985303337517150  0.2015866049759196
  0.3970787385244900  0.1985831968336859  0.3996101750438093
  0.3950701771860993  0.1995394047179130  0.8046063840784405
  0.4010161104823405  0.3989992316460099  0.0021823734933877
  0.4018910924566754  0.3974890807008725  0.2024565568686587
  0.4007585857092087  0.3945027463401654  0.4020067575049973
  0.3996568558346306  0.4014133920980832  0.6014032713815337
  0.4008108661224232  0.3994867774899323  0.8007811032470451
  0.4010040591565127  0.5989572809553294  0.0012955260449434
  0.4043986996816347  0.5968198586970682  0.2004709179812428
  0.4102715450981948  0.5898924258669468  0.4004086326047465
  0.4011282910879065  0.5989041458156682  0.5992863238664138
  0.4013454845069125  0.5999144992417216  0.8015851493921109
  0.4003991126735296  0.7997548984592199  0.9977502541597835
  0.4066214245858863  0.7989239588901859  0.1906935430485704
  0.4008446152114928  0.8003321283707845  0.6012814845861983
  0.4008072129025726  0.8000912504674027  0.7996147792615543
  0.6016569435880689  0.0004879098948993  0.0013929741522000
  0.6018779351547635  0.0000443161422032  0.2022230790850169
  0.5992391151528904  0.9959151312546252  0.3981067258146329
  0.6004064421263708  0.0011752949822760  0.8025900097096202
  0.5996831905843499  0.1999830214977038  0.0078822776987819
  0.5965647674572536  0.1985053725000649  0.2023517550669267
  0.5906591432442032  0.2071543921100962  0.6092118480938612
  0.6018215670562136  0.3996923411876385  0.0017797611861863
  0.6009094222508515  0.3979922754378674  0.2033551409300391
  0.6016414623484798  0.3995571193698685  0.4025037827913715
  0.6001281044267076  0.4028337823171519  0.6027053206217292
  0.6008275228302767  0.4024071849530668  0.8025063918223191
  0.6014204254717623  0.5998044441526005  0.0018133936630708
  0.6029562611046690  0.5996709618328651  0.2008550216535130
  0.6037024285604013  0.5992325175649704  0.4003499988530322
  0.6006143417140859  0.6026708536659721  0.6009674374450862
  0.6008184136638616  0.6006847719339413  0.8014919059119314
  0.6017046394760799  0.8005663897178086  0.0010636232013790
  0.6000572877868827  0.7994315696025855  0.2003938079443815
  0.6002041738903561  0.8004771725608603  0.4002653435524955
  0.5992382728670269  0.8018545058577102  0.5998103664527616
  0.6000827670803572  0.8024085205920383  0.8006265608137824
  0.8012597867899435  0.0000083074962742  0.0016089901708348
  0.8011134528171550  0.9998917564204615  0.1998753199170442
  0.8115714635931104  0.9978987488934349  0.3969834854044107
  0.8022678927480258  0.9976085292540272  0.6004669721584516
  0.8005899737833897  0.9992217181367311  0.7994441964938842
  0.8007892781214049  0.2001741673871446  0.9987166932953758
  0.7977825463720961  0.1998031402303892  0.3964780274634979
  0.8019882418333208  0.3990981712412859  0.0012533410686930
  0.8011282956936394  0.4001771129834296  0.2010152020614989
  0.8009608923256960  0.3993889125839443  0.4005028197183178
  0.7995220156933185  0.4023192635865345  0.6002400204396192
  0.8009820690826325  0.4000250257943613  0.7997147441324589
  0.8022007811734398  0.5989574771928121  0.0004444560374186
  0.8010653479730377  0.5970140683902424  0.1995304063310414
  0.8012016417917606  0.6013104110963851  0.3996191690078059
  0.7998381723553342  0.6000930536740336  0.6006249307508882
  0.8007549602050997  0.6008828113308969  0.8010030585362563
  0.8016006884257726  0.7997670480685646  0.9973029991470606
  0.7987630507795608  0.8006608010828100  0.4026007042817231
  0.8003478961466712  0.8003918595792315  0.6022301047443126
  0.8009452539221359  0.8015207898235175  0.8011743665931486
  0.3998974071702775  0.9978707913981816  0.5986219308645669
  0.0095429767049174  0.0093714343126115  0.3995744403355570
