Zr Ti V  Cr W 
 1.0000000000000000
    15.3588010967021305    0.0381806448688091   -0.0011461608815607
     0.0377189553745143   15.4626467649938046    0.0471277022245046
    -0.0012562496435299    0.0474526793402898   15.3469525699308225
 Zr  Ti  V   Cr  W  
  10   9  91   5   9
Direct
  0.9818309078953681  0.9694493933685973  0.6109582842764800
  0.0010371968422891  0.1935287150028946  0.2212636504385646
  0.1972240433822623  0.6384162674008963  0.7663734012832836
  0.1925405111866299  0.8265998670193895  0.2350457009192980
  0.8001844895108033  0.0050542671053576  0.7764779114204680
  0.7818003027028584  0.2303405712367223  0.1891810560572805
  0.8530948831038337  0.1522157987585214  0.4021945351834563
  0.8077739030265124  0.4441345739585871  0.1748679450081947
  0.8210603474332016  0.3605362297167207  0.3641502195158682
  0.7985948459005311  0.8373835545791790  0.2290014486788552
  0.9945486756887381  0.1910818162211776  0.6051759693528390
  0.0076816574232126  0.8030681971658495  0.7891004789743357
  0.2182127125922418  0.2001834088915754  0.4014820936993634
  0.1831428850053214  0.8277052648452965  0.6142453179295536
  0.4256671206626926  0.4029294183850459  0.7919454906789499
  0.6233494452691209  0.1818065964819185  0.7953643629794389
  0.5949516554059425  0.8026108228314673  0.5998199844913830
  0.8197856677309384  0.2129738796863885  0.7785022819465244
  0.8007078827293654  0.4162627795724713  0.7964789708852366
  0.9980030885950648  0.9914428617432939  0.1954201850381569
  0.9977503180046179  0.9936431999663734  0.3983577837244963
  0.0034165377400713  0.0120941443989778  0.8098030295445139
  0.9960048497114881  0.1976947110858262  0.0035960278242688
  0.0327661977026057  0.1928765295467061  0.4150571607303098
  0.0116023715571707  0.2050386396225775  0.8049604357185962
  0.9988630093905756  0.4000869724621698  0.9995228961981558
  0.0081454477102613  0.3917850233095224  0.4019200078605026
  0.9987669494959538  0.3993640748782256  0.5989530306294900
  0.9988511776033950  0.4034379057966315  0.7995069077808108
  0.9938303740564718  0.6117251201792627  0.1970971282988432
  0.9946516080043716  0.5898675860484670  0.3948395281423702
  0.9970986653216313  0.5939148952754946  0.5960691994053825
  0.9973961890717663  0.5998805134262730  0.8003998380754898
  0.9967248277082420  0.8047119955459844  0.0037191877222848
  0.9955315475291184  0.7907790460706485  0.3987299307739519
  0.9924154724465061  0.7837876102752472  0.5934233515182133
  0.1914354619217206  0.0040070203431153  0.0039126500922178
  0.1957746544366082  0.0213432991161309  0.2031208520145645
  0.1960692820783046  0.9962760384027325  0.4083067981903271
  0.1953439141319415  0.0213883577202395  0.6025270356895045
  0.2003402211225652  0.0100878727072653  0.8022264265183872
  0.2061041054320154  0.2028846531116353  0.2019860505700234
  0.2082712408036339  0.2057323546128628  0.8016407688387849
  0.1778541947108418  0.3951706708246960  0.1953666923335451
  0.2027553156466305  0.3994642216113631  0.3941711985791590
  0.1995894325506805  0.3921394177689961  0.6021965801716190
  0.1903222708989027  0.3997851434664020  0.8081733286452758
  0.1920727850244566  0.5929352026590531  0.1982089177030094
  0.2000988038990906  0.5965037774785337  0.3962530672885945
  0.1986269264496104  0.5854088968620139  0.5857043373599236
  0.1965014932812537  0.7939318544385734  0.4226092528795873
  0.2044982177465395  0.8225836505118085  0.8104378254663895
  0.3975868252153613  0.0038899886691960  0.0016680180180118
  0.3945092213292237  0.9972706938569879  0.2017767434035927
  0.3979382433291542  0.9963419916364463  0.4018056912458538
  0.3967164225460876  0.9997549599039656  0.6010878751466866
  0.3989451528411242  0.9976918111124607  0.8014727999427681
  0.4003973477096922  0.2001769260670699  0.1948964126134027
  0.4091989374463231  0.1946572012300260  0.4007606774768365
  0.4071146586121133  0.2009592375358893  0.6024531903839950
  0.4091876809652384  0.1955171215553871  0.8047909241389760
  0.3929689585481888  0.3979974001230911  0.0028530162391427
  0.4174112312460929  0.3969867224822780  0.1998488573551259
  0.3974111219330955  0.3983172490504501  0.3968415846538062
  0.4009950272822647  0.3988610744401593  0.5971052325663417
  0.3938200305131205  0.5972617099431746  0.1948748188653920
  0.4014344684407422  0.6010963632440670  0.3974366695959535
  0.3970593413850466  0.5986934600211459  0.6006371912843241
  0.4030249179130974  0.6022170002499743  0.8035131346186878
  0.3980113948753284  0.7954281682996718  0.0028767890604013
  0.3971092159793323  0.8004106364051127  0.2014486182821033
  0.3947005704995552  0.7962248537918487  0.4025624023033029
  0.3972300624695159  0.8029984320065044  0.6020820001731415
  0.3975842599758553  0.7994880085175342  0.8022836772046180
  0.6009513007406161  0.9979048344449598  0.0006527521581310
  0.6002209241700294  0.9993981080528631  0.2006872516837543
  0.5974554632848095  0.9966674448580085  0.3989928246269262
  0.5940013521488485  0.0041847471559782  0.6004324313658195
  0.5938717403415912  0.9891830316096516  0.8001620422055165
  0.5973699263228460  0.1964023131265268  0.9991893113793359
  0.5931970410333238  0.1989890341944111  0.1989557482634992
  0.6016333912996494  0.1955198565972833  0.3974151722690929
  0.6026878062611423  0.2005082827216432  0.5946123342277616
  0.6106673627700456  0.3951754353741517  0.0043712458814659
  0.5929056826006286  0.4022485520879562  0.3974232130716506
  0.6014679045891540  0.3966530563033317  0.5968993133035044
  0.6089089393427124  0.4004862161169012  0.7989218817849666
  0.5951226408915858  0.5968387602547328  0.0006770820320118
  0.6044002578777520  0.5941129991224616  0.2060452078456680
  0.6015777945659463  0.5972365211951335  0.5966509564042648
  0.6009784837680391  0.5994991996063749  0.7979290308519118
  0.6000413634081710  0.7985001724397955  0.0053930557796694
  0.5944014975561299  0.7994974243117771  0.2021982036901282
  0.5986247712716714  0.7917400614858067  0.3989256327144430
  0.8025041934673336  0.0007594919220564  0.0007896903448977
  0.7962265746030019  0.0237097078829751  0.1998757075869437
  0.7961383341775534  0.9688671253971010  0.3966516099203877
  0.7849523099759772  0.0006307898519475  0.5759959953522766
  0.7976758347021650  0.2026028004791826  0.9821001717237203
  0.7967393284727622  0.2007782799839586  0.5921332513850246
  0.8018991811977256  0.3975284985250224  0.5948017778564062
  0.7988258527360638  0.6019565325299842  0.9938447905926294
  0.7954698000912781  0.6280419325109704  0.1959295466321222
  0.7928795636821114  0.5953076063390257  0.3990380786112747
  0.7990035770965765  0.5967324267777457  0.5990881329941086
  0.8003863900422709  0.6094981424613628  0.7947069619216788
  0.7977545386165700  0.8005465491837248  0.9936498647901050
  0.7962214990473010  0.7883106759317359  0.4180043152038231
  0.7995003577974701  0.8032607370922751  0.6089444115464354
  0.7938342703904911  0.7980842676693660  0.8009188122205475
  0.9982291562671167  0.6023438453617510  0.9983053179785972
  0.2019139718039301  0.2025713402272508  0.0017402842326322
  0.1984495135475354  0.5984432392241490  0.9998624711423582
  0.1985411762855058  0.8031514516089017  0.0018073022820745
  0.5971557864454693  0.7971989404446379  0.8041398144687019
  0.9957193996760204  0.0039905967359556  0.0010083758175652
  0.9955510454964320  0.7996170814532103  0.2020903579142386
  0.2147701312349543  0.2074806862949686  0.6080440730343897
  0.1976666866541647  0.3983588532371105  0.0025942432584576
  0.4042366328681288  0.1994026160606518  0.9973307036121805
  0.4013616553336483  0.5985603473264800  0.9982025036907436
  0.6152060790823315  0.3941533400135695  0.2074788383409512
  0.5946582467576206  0.5950813265818904  0.4018806218793206
  0.8033651016406471  0.3959989876155081  0.9863846559960223
