Zr Ti V  Cr W 
 1.0000000000000000
    15.4244097105604929   -0.0012107223225386   -0.0042394490092486
    -0.0012099076426666   15.4412294863263000   -0.0024734284807045
    -0.0042424892746054   -0.0024736538270091   15.4407019588637713
 Zr  Ti  V   Cr  W  
   1   3 110   3   7
Direct
  0.4017095998779197  0.4037031842197377  0.1975142254274831
  0.9999172955714928  0.3905998733590350  0.0010810805219819
  0.1987891454788172  0.9966474368988315  0.4004295233087923
  0.7992808498901580  0.6001564650421057  0.2133459640035772
  0.9992400777353523  0.0018987782828956  0.0004313498128434
  0.9998414147284426  0.0005104247054178  0.2006544123915051
  0.9975111982209258  0.0003393618569205  0.3995437673166118
  0.9994693184336120  0.0012795240803094  0.6005089093825148
  0.9999778295424987  0.0001874225264735  0.8000297893559889
  0.0000436090136975  0.2004290329118474  0.3997634927104788
  0.0001248922997212  0.1990187398397051  0.6009822515679264
  0.9995878447368540  0.1995333151600784  0.8027059184208436
  0.9991651075053161  0.3982826794357238  0.2013750901260216
  0.9996445990710738  0.3993185131377433  0.3999019257526056
  0.9995190209806502  0.3978501155027553  0.6003077375511874
  0.0008580677092857  0.3988472892421226  0.7972866976148363
  0.9951981315550271  0.5999696171399268  0.0016543319652997
  0.0020821494996430  0.6000044428166535  0.1991778562343138
  0.9987390650865161  0.5990072082811866  0.3996035661582957
  0.9998718855185624  0.5999643335578184  0.6007517710407061
  0.0011612034116001  0.5993053500389967  0.7994182047506063
  0.0000906422267992  0.8004844769558631  0.0012807648491580
  0.0004933122845561  0.8020591519192336  0.1986700950769967
  0.0032841805420529  0.8012394379861503  0.3993835080947079
  0.9995031953973404  0.8011984760527734  0.6007437514830495
  0.0012428628754113  0.8011295255561620  0.8001647526229503
  0.1997041930985117  0.9987855149240572  0.0008400765570793
  0.2001993293065978  0.9994734260214558  0.1990927071366482
  0.1998049927968448  0.9997709621614838  0.6016362030089386
  0.2004361088622830  0.0000834802843632  0.7998895491579859
  0.1959656869431639  0.2005007429709663  0.0003713721130915
  0.2007293425416922  0.2000059405253502  0.2010079644217877
  0.1991706461733095  0.2035434575572924  0.3996185286879549
  0.1998629449247249  0.2003390005124908  0.5997070594946018
  0.2021217665374813  0.2005074198015996  0.7993753876150685
  0.2008252638243662  0.4007202340141872  0.9999624967734986
  0.1952056200970634  0.3996052118201931  0.2007195006702495
  0.1982324448761326  0.4049686998489651  0.4009443229234406
  0.1997908708655928  0.4005180639686967  0.5997786627686418
  0.2003173004559219  0.4006755917788986  0.7988881500094082
  0.1970934155873403  0.6000115465443244  0.0015935358555476
  0.2017133837008460  0.5991180400359329  0.2035301201043374
  0.1994132515224166  0.5990482136098724  0.5967961552864955
  0.1995312162923466  0.6000913737663361  0.8004278573808209
  0.1987716116046871  0.7988743707391621  0.0014912312367450
  0.1998086526759765  0.8010101159374731  0.2049096315730011
  0.1999444886246897  0.8005375739594321  0.5961255532582899
  0.1998997437215464  0.7992524056714913  0.7991970804390863
  0.3992092324598716  0.9996521064627942  0.0004640605135492
  0.4006609717387896  0.9991365762921622  0.1998191294887499
  0.4014869996475935  0.9989815405012579  0.3998615766345610
  0.3997720562964578  0.0004828128963466  0.5998803545359731
  0.3993704284068521  0.9984828313878897  0.8006881153677553
  0.3984181107908071  0.2001077509875429  0.0006331625931475
  0.4000435579396228  0.1967086750068016  0.1993433387588436
  0.3994713699252080  0.2002339057862126  0.3998361482643690
  0.3992922013865761  0.1996980752541109  0.5993601331470838
  0.4036881126437110  0.2009525068674416  0.8007185503467140
  0.4003222237056525  0.3995587431489045  0.9934912992937378
  0.3999656794519315  0.4004322503442049  0.4040978951145093
  0.4004406421583442  0.3994428997838285  0.6010730998095347
  0.3999609627089789  0.4011037111250919  0.7990407490702294
  0.4010539013736709  0.5997910908232612  0.0026446865429551
  0.3955014062039622  0.5990235937530932  0.3959484575116871
  0.4010180715254552  0.5996356817314538  0.6009182321947890
  0.3985739947374151  0.6007522230602198  0.8016318543847856
  0.4003977826779192  0.7998998540090561  0.9996174114096622
  0.4005517433370232  0.7997951064674198  0.1995381034249110
  0.3960353764672426  0.8001200385043375  0.4000606537221750
  0.4012551810851146  0.8002784287983846  0.6013439508568407
  0.3985598525527478  0.7990045362131394  0.8002871563773047
  0.6010524110236892  0.9984913906057982  0.0010848651571544
  0.6000977906436630  0.0004249556356266  0.2003633869910002
  0.6002325096344577  0.9998532783620353  0.3999210838674021
  0.6002825636389448  0.9988902992788538  0.5994062614502551
  0.5997642862787191  0.0019889616003785  0.8002542624130102
  0.6016458286359225  0.2011754564387372  0.9964358872945759
  0.6001812252482993  0.1990590338124990  0.1985594480222106
  0.6005017521998938  0.2006449779201502  0.4004480768566640
  0.5998864756675725  0.2005289956807789  0.6039244249082398
  0.6013283837671642  0.3999472838668541  0.0003006696530492
  0.6053440717489716  0.3971619504298430  0.1996979482185345
  0.6001535167887642  0.3996630913480851  0.3999568811317424
  0.6001713522254872  0.4002476032956306  0.5995790251114022
  0.6038174247450503  0.6006064201377824  0.0027621724761919
  0.5950633434819376  0.6000502167687354  0.2007647181101032
  0.6029645284307897  0.6005785903964505  0.3997579030081038
  0.5984780254306080  0.6007806350185544  0.5985486812143559
  0.6000407784775882  0.7996443053252266  0.0005335156779250
  0.5987307303432597  0.8000688022481650  0.4000282242026665
  0.5992654949115107  0.7999629377100476  0.5990120572383769
  0.5988172707424185  0.7012666509095783  0.7995061230217935
  0.8001665097122158  0.9975764304783354  0.0012919298741084
  0.7994703564503208  0.9994312370332985  0.2007241248100887
  0.8001067550019935  0.9986622940419557  0.3997182013972728
  0.7999681456650243  0.9996620516654000  0.5988079560299390
  0.8002649339201001  0.9976805768818202  0.8002061075944321
  0.8048532233028716  0.2017733418737711  0.0008101753726258
  0.7991995931902417  0.1996082699407600  0.2004662833777492
  0.8003836017560247  0.2014046064569361  0.3995888078969971
  0.8007601724249545  0.2004420753981395  0.5992317059583562
  0.7958610400135114  0.2014936181801409  0.7997095479269914
  0.7983126440426324  0.4045547288863169  0.9999433780587523
  0.8010742614547612  0.3981241366832158  0.1998929858133739
  0.8009055711344528  0.4045821943524014  0.4000360092038030
  0.7996521341901275  0.3996859120241203  0.5999832377926616
  0.8007116281513503  0.4009110963479649  0.7980387421802416
  0.7992683742314195  0.5994616630125278  0.5991877685713761
  0.8010870207813482  0.6006206998856326  0.7988544377860248
  0.7994317386922681  0.7952469461073963  0.0000335349235100
  0.8001839312204728  0.8014881237418124  0.2006117870490835
  0.8012506228526591  0.7958750184957224  0.3997685005808299
  0.7995396758216631  0.8001877207479480  0.6002408210617936
  0.8007862174701910  0.7994732669108503  0.7982466745502754
  0.9998331355894513  0.1989022866619771  0.2001711518967592
  0.6000903382012388  0.4072478689919644  0.7997972369554794
  0.5996100074142098  0.8009739172339028  0.2004100047326215
  0.0000134214669559  0.1958159380067662  0.9977379697173177
  0.1967494031106838  0.6020471479117997  0.4006392600704005
  0.1987857620130629  0.7917981903913969  0.4003629642448807
  0.3984696757522477  0.6047349468583391  0.1996699150351443
  0.6002389051097250  0.1934095721405802  0.8009202082977110
  0.7978965817180813  0.5995766214960869  0.9926339980338339
  0.8010763114018465  0.6006415163951890  0.4050720562822857
