Zr Ti V  Cr W 
 1.0000000000000000
    15.5250581035635555    0.0249023373092759   -0.0029593452149727
     0.0249075060967649   15.5258599297975692   -0.0072275987838562
    -0.0029689522119990   -0.0072397786097423   15.5108223676839163
 Zr  Ti  V   Cr  W  
   5   2 106  10   1
Direct
  0.9961045993796810  0.1913781185056515  0.7994090496812366
  0.0018297899675764  0.7990757345275757  0.2027806773453920
  0.4072774432066673  0.3922491577780419  0.2020092147998830
  0.5910656072858288  0.2086672652069502  0.2023852640157760
  0.7945602782812793  0.4019673781388766  0.3996118288097439
  0.6175220166247214  0.4176816850063840  0.1821490721816255
  0.5825752521051767  0.3860059820880861  0.3639738838893066
  0.9987545217531149  0.0016271739358227  0.0005934150858399
  0.9998398746714122  0.0050348569404421  0.2012463699203423
  0.9997111939817088  0.0005903062380390  0.4009247611158464
  0.9984306622610274  0.0002993153410731  0.6004649730623701
  0.9984827134265998  0.2002154351900791  0.0034753383625709
  0.9990432887674684  0.2042558233809993  0.2013061103814120
  0.9994609592646236  0.1995591083783819  0.4005442583383729
  0.9988059593170540  0.2010036010439300  0.5958386189319980
  0.0015560130473551  0.3997800621395252  0.0037991172726187
  0.0040710401554184  0.3999688638930506  0.3968337026198675
  0.0008724869377969  0.4006122585174385  0.6003799963313793
  0.0001933945594192  0.4018429276497937  0.8024963831280550
  0.0004148179781823  0.6002469722694946  0.0002479726466750
  0.0016124609374635  0.5931868941492948  0.2003192728032524
  0.0009638573894735  0.6001351121153674  0.4005467410531849
  0.0003301552782309  0.5993634255408059  0.6003702302411843
  0.0013983032034227  0.5996637360530931  0.8005205443449118
  0.0007272562367291  0.8001786988891115  0.4053778956491786
  0.0001117168292353  0.7998252049256150  0.6016283579486489
  0.9997432787406548  0.7988223088083116  0.7995351177280493
  0.1992128543108578  0.9989590694584117  0.0013622943459957
  0.1983940849898949  0.9990490187015859  0.1999982455803190
  0.1996553107510478  0.9994718893645250  0.4006831703297182
  0.1997212688066732  0.9998547707713445  0.6006206234077903
  0.2009213703216330  0.9999719962682576  0.8012174850942982
  0.1976293733688211  0.1989223793340016  0.2014309860416635
  0.1996632898639518  0.1982475737846361  0.4011944797603206
  0.2001262472104524  0.2002861238182749  0.5999437285903088
  0.2032145121133326  0.2000001755980400  0.8003549074556930
  0.2016947575795161  0.4006226960012509  0.0000525387613499
  0.1966145187205230  0.3997516849220469  0.1994730268092490
  0.2000684796979590  0.3989748601230775  0.4011582138912121
  0.1999346545718397  0.3995719251107996  0.6022035193443334
  0.2001891763830462  0.3997938819383582  0.8014445459755637
  0.2012837359611128  0.6001326135385665  0.0004541005460093
  0.2039326540152460  0.5986403572900239  0.2005019265182815
  0.2013100104615834  0.6004279676643656  0.4005017925254554
  0.2006578305914590  0.5991959414951374  0.6009689575701179
  0.2011741727148630  0.7989321349671527  0.9996661252420204
  0.2047337004439749  0.7991541767925771  0.2000892992258420
  0.2016368307425025  0.7991915523210352  0.4015778452714104
  0.2004424129687217  0.7997002246957975  0.6012963279518061
  0.2006885776535512  0.7993714467327887  0.8008475022130641
  0.3990591961433421  0.9998283627019666  0.0013650623578131
  0.3996341987475288  0.9965404583492259  0.2009897126144519
  0.3988329806238017  0.9983101308236976  0.4011553019551820
  0.3993453400179751  0.0002800370519761  0.6007034300730461
  0.3991824692432445  0.9999598811408941  0.8010548529809851
  0.3986391166554122  0.1994178259282764  0.0012570374497132
  0.3881386655783642  0.1890893844421425  0.2001721770651563
  0.3972206895683411  0.1979537574345216  0.4023353145444875
  0.3985044518780369  0.2005898525163002  0.8010349540427991
  0.3991535109483537  0.3985989210255915  0.9966959799140881
  0.3927168760269165  0.3984164667837094  0.4074963820374200
  0.4005238318483871  0.4000962763196105  0.6016131754245558
  0.4011510398550400  0.6013696135566324  0.2012025263246782
  0.4011169963123609  0.5977805441514705  0.4015207408463548
  0.4010425421081368  0.5987750911499260  0.6002674773420884
  0.4007926642572598  0.5997070007762656  0.8000105145164732
  0.4009430319762170  0.7990256366998121  0.0000985809151737
  0.4014099018661340  0.7981658714820555  0.2004219491907502
  0.4005164029918493  0.7993879474182991  0.4012052423528966
  0.4003483248869640  0.7986000718660632  0.6011961883384740
  0.3997932513705779  0.7987281740759430  0.8004885754039450
  0.5998482918992887  0.0006579687508130  0.0004938676726434
  0.5993125217191686  0.9986839096155079  0.2012459384318072
  0.5978145934227013  0.9975036024255550  0.4003039176517587
  0.6003293720330771  0.0001848982329549  0.6020796181337813
  0.5965304874660289  0.0003656321429029  0.8002651099628600
  0.5977791089977120  0.2009434590304299  0.9966489797185583
  0.5969058271884788  0.1915625047826488  0.4066683680099706
  0.5988672996318327  0.2012871056547332  0.6007855715480107
  0.5967354348609134  0.1995571977090153  0.7997219648198209
  0.5997897577308885  0.4014345557232605  0.9930137276107543
  0.5992918074323030  0.4003004953288886  0.6037687618615331
  0.5991986528684730  0.4025271504763115  0.7986874017234662
  0.5997914833434103  0.6012025969994986  0.0008213297964041
  0.6012801434299108  0.6063442706638428  0.1996706316187597
  0.6007114161469278  0.6022857975933408  0.3987341120264385
  0.5991826554517360  0.6009735765966646  0.8006947700613255
  0.5995110952850530  0.8007065903850413  0.9999968882894558
  0.5990162275254702  0.8000085028413878  0.4011180601315347
  0.6002638695334632  0.8003997281542217  0.6008479803096204
  0.6004936646233769  0.8010174715050015  0.8012672973987248
  0.7993141387902247  0.0012583358244301  0.0024489936017860
  0.7984298176557058  0.0025044312622629  0.2005317911902089
  0.7993923137972988  0.9991941657010521  0.3998111799867068
  0.7996341806312270  0.0008620659831287  0.5990165988930803
  0.9693990074642297  0.9966285234441461  0.8009108792138225
  0.7965558957499355  0.2000504793036151  0.0004793257817218
  0.8005658714803774  0.2003188622082067  0.2000160874649130
  0.7971070377842685  0.1961248626868185  0.4000587456431250
  0.7983375125240277  0.2002744521268998  0.6006410549533171
  0.7932310095713140  0.2047034833900506  0.8005732178224172
  0.8011586335503607  0.4018858614533453  0.9987349317830259
  0.7998150443424988  0.4008008462531125  0.6024279368382790
  0.8002848811205096  0.4021095987472129  0.8011456772697638
  0.8008570925320966  0.6031964741285971  0.9984871028190507
  0.8003006869497292  0.6062325035506331  0.4014680653080272
  0.8001861197583534  0.6007835489478970  0.6009261829703557
  0.7990501819393764  0.6004620163944395  0.8001166073043247
  0.7991865705963134  0.8022845602310724  0.9994121110496683
  0.7977974150095929  0.8016130673119570  0.1998025999289661
  0.7992976811962326  0.8011576056063341  0.3998359642838555
  0.7991450284349111  0.8016083245165460  0.6018665937855496
  0.8003414251365710  0.7987676354456745  0.8000220469212374
  0.0003914402137539  0.8004428949022500  0.9967872362849628
  0.1989890121817099  0.1994148875860211  0.0005098667861793
  0.2011282217948898  0.5997733469325206  0.8010944101579569
  0.3998574221139629  0.2002297136273055  0.6015859570547610
  0.3994103258295022  0.4002477472636417  0.8003688597078952
  0.4005018313002449  0.5987314519105398  0.0007867848379971
  0.6000253364633724  0.6004901192287425  0.5999344197546707
  0.6007502151870558  0.8012875930275390  0.1996399328833789
  0.8077496768106556  0.4024881707483910  0.1944384472704556
  0.8015411425580774  0.6031327783425959  0.1993927009684383
  0.0020172550545228  0.3986640791677688  0.2004616782401045
