Zr V  Cr
 1.0000000000000000
    15.5277836321495606   -0.0011014415353407   -0.0036444284316418
    -0.0011015311309700   15.5268057001839015    0.0012045176117796
    -0.0036459540422085    0.0012051907892001   15.5242636607114743
 Zr  V   Cr 
   5 117   2
Direct
  0.9993691823255829  0.1999352963225272  0.3981531539790946
  0.9873862781581134  0.3670180695433729  0.9937913273292365
  0.6001351783042369  0.0003927569950686  0.0025740399376111
  0.6020121663451480  0.0009851102679124  0.7788411161544921
  0.8036278561282000  0.3922400565163607  0.8072393864880775
  0.0011262850224099  0.9964723851804244  0.9997635766008623
  0.9998766526152134  0.0000846215943759  0.1985752932117769
  0.9998930423480243  0.9951675417179311  0.3999847050639082
  0.0004577232317515  0.9990295280085926  0.5996717809519928
  0.0021600329710654  0.0016070261023235  0.8005472047942774
  0.8332011368808998  0.1945981837475161  0.8349474584428833
  0.9986796120822242  0.2010765357975756  0.1937019885939461
  0.9993258323927235  0.1991286115603903  0.6033831562465903
  0.0019831277614807  0.2010020957984074  0.7997917475654375
  0.9993454212069284  0.4006901729886247  0.2012400333583848
  0.9997483399846182  0.4042301971460400  0.3998575905736368
  0.0009748048074676  0.4011468535959672  0.5976539615721053
  0.9986964840004047  0.5945649633924990  0.9996701173858098
  0.9993061903461801  0.5995803223346020  0.1994693792165830
  0.9994903625788556  0.6010399741113611  0.4005338316655804
  0.9996601258387734  0.6005513411654684  0.5996234949539371
  0.0017104944337894  0.5998040956946352  0.7992749488949770
  0.9995381570478099  0.7972076908922857  0.9994450362835523
  0.9994868432910111  0.7995944225961812  0.2000341112348204
  0.9998824166758485  0.7984315967284542  0.3997931354615060
  0.9995538225930264  0.7997990285971642  0.6006040228880515
  0.0009381422408021  0.8000261881153418  0.7995074119687995
  0.1972481961056534  0.0012511526681080  0.0004503397911819
  0.1988760398484514  0.9998681130713096  0.2006348387666665
  0.2004764964428998  0.9987246110017265  0.3998550339871382
  0.1997372807340234  0.9994767825444930  0.5987767420691995
  0.1993525503093219  0.9996406405976926  0.7988756781154027
  0.2018149110460092  0.2004925180756333  0.9995172248679126
  0.2001925948993855  0.1991397848625630  0.1985466041555515
  0.2042980307154155  0.1997686287197613  0.3995727006072018
  0.2012896405052383  0.1996232566000239  0.6002320267767520
  0.2009347516006699  0.1990840211515633  0.8006029139217845
  0.1997721125295495  0.3989744530052793  0.0002717697222135
  0.1992563981805818  0.4002680436109138  0.2006226153823970
  0.2009251483299003  0.4002532018567065  0.3998537319151363
  0.2008522583574726  0.3991056362380551  0.5986124219914237
  0.2024406855932938  0.4010548363458890  0.7982481475314853
  0.1984585992747191  0.5986374198706513  0.0000279838590403
  0.1993161414599690  0.6000298805374181  0.2001870903581976
  0.1999376381650925  0.6000435905647493  0.3998952000251826
  0.1997617559926453  0.5993835034445095  0.5999517425251063
  0.2008630280685395  0.6005674194629473  0.8001377878605658
  0.1999059277167519  0.7997290491479754  0.0001642991022705
  0.1995181209929532  0.7997316685291064  0.1998726050421219
  0.2002673310420072  0.7989183241782316  0.4001275968553655
  0.2007140213754479  0.7998596008714812  0.5997444412671659
  0.2002432878185389  0.7996394586918764  0.8000416772659552
  0.3946354640635775  0.9992165068956146  0.0007892674983363
  0.3985041237813114  0.9995088843302912  0.2007418429704461
  0.3991794634786987  0.9991586233340534  0.3998954641411233
  0.3997539690133861  0.9996800753006369  0.5995158313937869
  0.3961683087193704  0.9993336374579253  0.7997738303744417
  0.3999154069488502  0.1995774223822429  0.0000304570392044
  0.3999878620331189  0.1995239380520366  0.1998689930493474
  0.4010610931496160  0.1992088470163329  0.4005242982274900
  0.4009019802257486  0.1993322839210891  0.6006976032756699
  0.4002276924430408  0.1998893310733435  0.8008782540062163
  0.3982043287672817  0.4001937075958569  0.0006167276180504
  0.3989841399666487  0.3996700307573500  0.2012413447896875
  0.3998067036135289  0.4004236442406386  0.4003857696941979
  0.4004884129364776  0.3994061416260978  0.5996031058456168
  0.3992571726601606  0.3998642383148113  0.7999071126247183
  0.3994989826062337  0.6001065811710680  0.0004536112908328
  0.3992869475776069  0.5999094118167808  0.2003322966191437
  0.3997408113047887  0.5998407306896696  0.4004093115301609
  0.4006429949430589  0.6000527383995096  0.6004451069297294
  0.3997864183148790  0.5999792170022872  0.8005833258443378
  0.3990390581610482  0.7994294237655186  0.0001987094352916
  0.4000008974662791  0.7996829074907973  0.2002441875033478
  0.4004730787933295  0.7994307180367208  0.4003591958159569
  0.4004798598854640  0.7995650949481758  0.6002451409305438
  0.4003859142003325  0.7997660536548888  0.8007544889987013
  0.5994761365831066  0.9997855151768046  0.2056521544530273
  0.5994902048824905  0.9994878182508538  0.3986181015469177
  0.6001491325422610  0.9997663292902463  0.5872761330973234
  0.5984206285285478  0.2053082637188102  0.0009482418945883
  0.5983675372647956  0.2011663674988232  0.2013503118726774
  0.5983757448411846  0.2008868443549768  0.4009203238692159
  0.6001797394859000  0.1998389827652151  0.6009608924726240
  0.5993534601330378  0.2056396592888172  0.8004125127832538
  0.5945303642991401  0.4024491410832556  0.0020358051491489
  0.5979990952633336  0.4002089791400392  0.2026110407232152
  0.5985513048518867  0.4004532270517982  0.4012020758859235
  0.5996868321159512  0.4006783125117723  0.5997787477130510
  0.5969997056430076  0.4016326732443268  0.7994467902631125
  0.5988703749517579  0.5992783428788212  0.0007386870883647
  0.5993120103970463  0.5996895677871217  0.2013102913962993
  0.6002522318029807  0.5995337546565588  0.6002777113097693
  0.6002570782255455  0.5989793630978568  0.8001222516612326
  0.5995411784153540  0.7948129595933587  0.0010155065394539
  0.5992266375216112  0.7989437355953198  0.2012670715906909
  0.5994392906624010  0.7985469768076863  0.4001761993028479
  0.6001499010225165  0.7990685595663475  0.5997256191076881
  0.6000294253699906  0.7955157995983080  0.8000636821134605
  0.8064730889312152  0.0021490918863407  0.0014416626139249
  0.8006158958853042  0.0001157262823066  0.2013856198175311
  0.8001060177271648  0.9987651062582565  0.4002876792994388
  0.8005617420655087  0.9997252260275381  0.6002161857397750
  0.8066473498626512  0.9986579618438337  0.8008734055966055
  0.7949557908488095  0.2001577745047213  0.0018817355339651
  0.7977384399626467  0.1990003840676050  0.2005232701627416
  0.7944655835575293  0.1991443853967294  0.4007078110020228
  0.7992265719560727  0.1995146338812267  0.6007365639098312
  0.7885825436316153  0.4016829038474827  0.0103774374595486
  0.7977861627020759  0.4010044275423657  0.2047114171829802
  0.7983913139904079  0.4007425441758916  0.4010914855462652
  0.7992092266635370  0.3990910762297386  0.5983236376456029
  0.7995951832584594  0.6002677593363900  0.0017360522278007
  0.7994531008969142  0.6010228163304967  0.2017311455311173
  0.7993138803094573  0.6006146959143661  0.4006304949502587
  0.7998700542003118  0.5998194669772159  0.6012750471824634
  0.8009833794223702  0.6019692290116323  0.8015168607925151
  0.7990937120019410  0.8010687283823370  0.0010671000381894
  0.7992311758367563  0.8002503002948842  0.2007601175057969
  0.7987339246270200  0.7997409505601687  0.4011018729747879
  0.7994691687963388  0.8000523501580531  0.6002550490586795
  0.8009483147263050  0.7999069285764755  0.8016283035689862
  0.0068704008390024  0.4010839527543891  0.7929421096394003
  0.5996777958664479  0.5997913893016766  0.4010286113620206
