Zr V  Cr
 1.0000000000000000
    15.5364267418827353    0.0141760265446098   -0.0034442262972265
     0.0141671620811882   15.5240745923983035    0.0049821264813726
    -0.0034426786392167    0.0049831204927505   15.5354998368454975
 Zr  V   Cr 
   5 117   2
Direct
  0.9509570008987346  0.4084862851689672  0.3997955296811715
  0.1992539579338310  0.5998271463632842  0.5595671071729559
  0.2018766858548776  0.7967541309168401  0.2030370892569997
  0.8006204631541783  0.1987138358680977  0.4002804301217625
  0.8053494764995163  0.5958019285758807  0.3998141033373103
  0.0000476847506765  0.0001480065906809  0.0006884659902924
  0.9995379513603141  0.9999499939497384  0.2002352039613007
  0.0014215924621354  0.0007124044725336  0.4004505671639141
  0.9995589188142310  0.0005359845727502  0.6003464101621109
  0.0007200060526995  0.9999679992333931  0.8006998849081602
  0.0004654406327675  0.1991060530373121  0.9995412088579529
  0.0061267532000082  0.1982747202465121  0.4002520663832815
  0.0006117753205615  0.1997490658478104  0.8009318509980965
  0.9997242975657725  0.3996812398863511  0.9996004005810620
  0.0008472203074076  0.3993524198326270  0.1961897036481179
  0.0003169006678558  0.3998839418601593  0.6046650303456551
  0.9995604313381231  0.3998874113341675  0.8000419661141227
  0.9996887991599068  0.5999289098902137  0.0004755151748257
  0.0016366369528853  0.5992100000078033  0.1985900291796157
  0.0128137613556514  0.6077798323386714  0.4004221022179451
  0.9983241174575572  0.6010535183235794  0.6027092637211819
  0.0021706253655467  0.6001666363458021  0.8010938000631252
  0.9997658401737748  0.7998343693629064  0.0004893935853745
  0.9958409537997589  0.8001431380468310  0.2014229605542384
  0.9996449061148427  0.8032062915151970  0.4019378138900135
  0.9991451490901877  0.8014719752246668  0.6019986195411259
  0.0004771987082823  0.7996464017674353  0.7998288751131406
  0.2014755673329013  0.9996150309463663  0.0001770655246216
  0.2003094860592958  0.0027090702280024  0.2011463066119001
  0.2008184387356808  0.0008624388362694  0.4001904946562543
  0.2003257517531681  0.0019509255872440  0.5995496771386370
  0.2005730487794792  0.0006077245464048  0.7997971205559060
  0.1997436777912174  0.2003747470045921  0.9999233569877830
  0.2001047787566201  0.2000875439877453  0.2002125345525365
  0.1984673930770030  0.2034426849671192  0.3998191199950403
  0.1997944220733196  0.2007262440049492  0.5991946997894319
  0.2000813442882529  0.2000166411455321  0.7996095506791489
  0.2000172457676312  0.3980374760296675  0.9998586808307703
  0.1991830095522573  0.3962859630893512  0.2000193207268669
  0.2058385277071291  0.4040754442076240  0.3995005241904983
  0.1983507311677573  0.3965217281497040  0.5983897540512161
  0.2000802544074968  0.4009604098318613  0.7994681557068821
  0.2026388504340161  0.5998060402130995  0.9996384793787150
  0.2013183126362846  0.5928535850076571  0.1944883489551946
  0.2039568527760895  0.6027741319375857  0.3688676109446146
  0.2012551702245275  0.5995160620512628  0.8037700753917550
  0.1972313609150395  0.8009205768557072  0.9978727173916204
  0.2016681243107627  0.8006399860554370  0.4068652712738784
  0.2003070487949152  0.8044346444474646  0.6025387744606567
  0.2016065342476409  0.7990058749887535  0.7999956659935756
  0.4004569733888120  0.0014056142838492  0.0006392563226603
  0.4012139322344060  0.9985287562050488  0.1989379401242940
  0.3991658175195992  0.9994583881371735  0.4007896970302482
  0.4011653685887633  0.0008572134847895  0.6001392388258615
  0.4005141181807397  0.9984533673904491  0.8016001893417932
  0.4002709016312364  0.1995480662682919  0.0001608233406015
  0.3998184151149355  0.1998272522391599  0.2004235960428763
  0.3973375839054523  0.1988217067023372  0.4000337879248237
  0.3996890810644229  0.1997091446412002  0.6001405124204175
  0.3998977230086563  0.2000719247687942  0.8000108089423054
  0.4000076689691261  0.3994138188040811  0.9996922288548755
  0.4010140662612017  0.3986328315850785  0.1992595717877924
  0.3997977073837013  0.3999724350337966  0.3998163665704436
  0.4006108089259313  0.3988267370718163  0.6021469411822686
  0.3996923810890883  0.3998960847692720  0.7994044949525292
  0.4021415968307819  0.5976245964308436  0.0002213968776066
  0.4037849695315301  0.5987033175711217  0.1973195014887291
  0.3987084640564868  0.6010087806830801  0.4001781753136083
  0.4037463682656114  0.5986290442485456  0.6002444009700983
  0.3996522238726694  0.6007518723032731  0.8001905589503715
  0.4067192322241781  0.7992538143426702  0.2044619314299417
  0.4017512682660569  0.8003488685678291  0.4020945289543262
  0.4023432406044869  0.8003575410493187  0.6010722625656119
  0.4005930615807690  0.7992006725352084  0.7971999233578813
  0.5995858357094187  0.9979215613280584  0.0006336930274840
  0.6012252471887981  0.9989615867348138  0.2007264483664425
  0.5990487997846441  0.9978070867549783  0.4001592551116989
  0.6012712368072242  0.9994052310733638  0.6002535869242263
  0.6006502338050471  0.9992027335028650  0.8002883917245406
  0.6003812627841694  0.1991366790517673  0.9999448277515991
  0.5995740069218144  0.1987412988732681  0.2000852024654768
  0.5938125563069672  0.1963273495762714  0.4002849935082690
  0.5996429283674175  0.1992667631736424  0.6003179533387124
  0.5998831578143893  0.1991844628289844  0.8003292211225188
  0.6008480400049527  0.3986371670149252  0.0000654204941291
  0.5999086504421117  0.3983690673340740  0.1987926817834737
  0.5918087363748052  0.3995145127243711  0.4002842439155004
  0.5996049244859949  0.3986154690031904  0.6012539274771134
  0.6003034608984812  0.3995571273263937  0.8001691492018589
  0.5995969198394105  0.6002979077238386  0.0000816083106117
  0.6025506900059467  0.5975719123490366  0.2004487787147080
  0.5968517461228604  0.6007674136418322  0.3994401767735660
  0.6017711928346450  0.5983925703168390  0.5994885965029375
  0.6005085924548652  0.5993082894362993  0.8003695926886105
  0.6039781411252584  0.7989817510118684  0.0009075853552356
  0.6022820419179825  0.7986068761945144  0.2000510311024801
  0.6011991254389382  0.7980773891709041  0.4013995648462247
  0.6022939320806211  0.7993866069490088  0.6002094653198040
  0.5998753375975356  0.7989118762404301  0.8014417122412673
  0.8008572486123516  0.9991571650230500  0.0002895751102163
  0.8007439423596878  0.9996712785609625  0.2003256768569778
  0.8001365455344190  0.9952223971229408  0.4003870142897354
  0.8009553849742527  0.9999858769408884  0.6006587124056969
  0.8005244391244364  0.9989315299457675  0.8006099261209919
  0.8006844274103782  0.1992517433108416  0.9998300478965180
  0.8002926789796752  0.1980559367020020  0.1954562325694632
  0.8001271209756566  0.1983256836109502  0.6051275103587610
  0.8008984899248732  0.1997761880619948  0.8004332638838260
  0.7996338066212931  0.3987104213114937  0.9994696325455444
  0.8000543536934277  0.3966579443530987  0.2000147050553737
  0.7649366812903747  0.3975685668498159  0.4005039762396979
  0.7997279222069275  0.3974672567138307  0.6001444766510098
  0.7999367382642497  0.3992315585303831  0.8008958304377939
  0.8013495730048872  0.5980700057934321  0.9996189249602806
  0.8018643086356162  0.5986309547426540  0.1950416705947424
  0.8007327031885749  0.5993651135238414  0.6051527266278673
  0.8002453806355790  0.5984547244365928  0.8009785265641609
  0.8008581537342598  0.7993803471190354  0.0000906519681712
  0.8002994042192537  0.7981931755456376  0.2012566905840404
  0.8006844785564483  0.8005234969234662  0.4012585875462200
  0.8004674618324272  0.7988333659096790  0.6008026534550882
  0.8011419667302684  0.7991009682429747  0.8006456538884401
  0.0008847894908710  0.1999938690676355  0.1987874238180091
  0.0008868548631107  0.1999862223585972  0.6016377353787211
