Zr Ti V  Cr W 
 1.0000000000000000
    15.5037299355992140    0.0053875915022060   -0.0049673339968089
     0.0053888447929185   15.4932120490820822    0.0008447035454455
    -0.0049676779853922    0.0008426987699688   15.5021949562625245
 Zr  Ti  V   Cr  W  
   5   2 106  10   1
Direct
  0.9988290521310876  0.6045330858732990  0.0810233070169029
  0.0022587100756547  0.7911651652298753  0.3904895268005127
  0.6072769371173145  0.3976603362527689  0.1807887263948285
  0.6305505981348986  0.5982233880064860  0.6387947020707534
  0.7974625255979176  0.5991468713317646  0.8022324646441344
  0.5985914898860686  0.9979937599885909  0.8029629704337372
  0.7833757437611203  0.4035491123814514  0.0032402318830163
  0.9988548740787853  0.0020471111341496  0.9983683026740251
  0.0004814835369797  0.0005672812012199  0.4004032844198705
  0.0009613544745799  0.0001823199580503  0.6008416200024055
  0.0001308791909209  0.0016282332491624  0.8001343543730247
  0.9987294105230946  0.2016071897201178  0.9994111153581673
  0.0008860134942662  0.1994479146530199  0.1989430034300469
  0.9996506980917175  0.1983909997230989  0.4004476228422461
  0.0004415059374123  0.1997497949390252  0.6016609528579996
  0.9997734347048796  0.2012099463542361  0.8011108195699106
  0.0045073725334421  0.3958281876174400  0.2024696126152321
  0.0028138251976062  0.3954510767704276  0.4020389973073734
  0.0012117982618618  0.3974964055510402  0.6024810641242127
  0.9984863388662381  0.3996524240738076  0.8022261616810268
  0.9952953836813536  0.5902771534194309  0.3938814593660070
  0.0065932177256546  0.5987270578331709  0.6007100305992888
  0.0022615461674822  0.5995555737540956  0.8006847332762647
  0.9986029435227063  0.8049743091805345  0.9961035007201655
  0.9997552249402326  0.8060248506232514  0.1900563709356768
  0.0009644865763629  0.8009802803984457  0.6018977130045796
  0.9990892792837319  0.7992425875961384  0.7998409557636077
  0.1994626680994018  0.0008148452740375  0.0003028405364812
  0.2005708125321289  0.0000005129838980  0.2002510083709011
  0.2008363937640370  0.9999522101042607  0.4004726546617087
  0.2001869382922966  0.9990252377942336  0.5996475350923148
  0.1992034249549771  0.9999823781436620  0.7993807024522803
  0.2002537464944973  0.2002229674300009  0.0001344867257311
  0.2005476932706637  0.1994007651013658  0.1998040304826377
  0.2014303945034047  0.1995912637901055  0.4004220040428138
  0.1996027666386038  0.2001023503579895  0.8002517362311921
  0.1986102569154441  0.3994358114775977  0.9993637496280081
  0.2004861264444037  0.4007489513994293  0.2007600602549130
  0.2016887028331589  0.3996011485604080  0.4011964958565943
  0.2014542396073705  0.5998243852202414  0.0010607380059394
  0.2025966451736700  0.6003643811724351  0.1997646911137338
  0.1979684325298198  0.5988850011922677  0.3982074571362459
  0.2014300539492565  0.5998472595419084  0.5989881074695186
  0.1982260726594564  0.5996159718297989  0.8014764179616704
  0.2004865350110303  0.8013054869831312  0.9973911845013673
  0.2000052777621064  0.8003678781031821  0.1988489876825636
  0.2053788122381392  0.7987189729006969  0.4000996176534942
  0.2004833429013993  0.7998360932522585  0.7992129906842204
  0.3996840338259424  0.0006154628729319  0.0010095462008420
  0.3994119337148869  0.9995559945473028  0.2005496348667133
  0.4007785636753935  0.9995060570512080  0.3997955393046120
  0.3995489675212556  0.0000926532000274  0.5997940857487902
  0.3975657843279099  0.9996247797330458  0.8000571056842531
  0.3994028409060201  0.1996925190415312  0.9997708705797296
  0.4013714642158355  0.1999926880492285  0.4007737374402381
  0.4002470394151382  0.1989488100828534  0.6007116508152457
  0.4002168952997254  0.2009920148044073  0.8001338555378104
  0.3966245037102227  0.3995906032592279  0.9999883178598785
  0.3979036397621470  0.3994029022896466  0.2001464954186516
  0.4004052659429214  0.3996586783697976  0.3996974382943054
  0.4001303168972140  0.3992109051324828  0.6005030872593552
  0.3978101785251621  0.4000115663811347  0.7991294088701913
  0.3982009323247759  0.5998237860682422  0.0024303836258164
  0.4044639117827789  0.5987355451082096  0.4026935321648637
  0.3987578228638897  0.5995022293264883  0.5998069443461628
  0.3975225733059715  0.5992390523146990  0.8011074275665194
  0.4003273945394684  0.7997364626288849  0.9999221325668964
  0.3998952704733720  0.8003046880256383  0.1998370789221461
  0.4014123803559297  0.7981428832410861  0.4003165749096478
  0.4013188212864544  0.7992935745066001  0.6004393512046499
  0.3993210544295269  0.7995874126119824  0.7996586827498363
  0.5992092895653048  0.9994139210650830  0.0011951660948638
  0.5999825833842500  0.9993332710701247  0.2001459782985083
  0.6005157861441520  0.9992583624152088  0.3998101984799894
  0.6008566913740897  0.9995111272870433  0.5991334976221212
  0.5985354391698240  0.1990026306109164  0.9996077223627927
  0.5992619403119589  0.1936897959288351  0.2004150231430291
  0.6009420728195922  0.1994683192116771  0.3989984471512858
  0.6009170275043512  0.1982720399507930  0.6016118480816899
  0.6004390823179655  0.2008879078506396  0.8008360252338588
  0.5908074498202900  0.3985592858499298  0.9872567165451915
  0.5995454948245491  0.3988618406928101  0.3991406610013511
  0.5993905971720478  0.3948127057696321  0.5984173651696449
  0.5972120320690734  0.4016577119173433  0.7956870844719036
  0.5977659892044256  0.6005810600247533  0.0091045014107167
  0.5983849111526400  0.6047734016860941  0.2027443947943172
  0.6045179774428124  0.5983201984180565  0.3966984554754622
  0.5895698286225537  0.6005850292856904  0.8230568700330207
  0.5992200975681335  0.8012052104191377  0.9993838878570650
  0.5989708887512410  0.8021606132408913  0.1976292218602089
  0.5978972990346553  0.7994240356809449  0.4012793723764839
  0.5993458680621655  0.8030311796465553  0.6007091727407894
  0.5987241982405759  0.7962839205810788  0.8004226218689793
  0.7989095911780120  0.0018453173050192  0.0011880056633966
  0.8002230742907767  0.0002532284225811  0.2006746365081912
  0.8003029202970288  0.9980120186014764  0.3992536933857802
  0.8012428864103736  0.9997739128720436  0.5987524267621196
  0.8011539129257395  0.0009114635742231  0.7992526617389564
  0.7982875222291100  0.1991782674562344  0.0008307502074307
  0.8020166488429357  0.2001002768111162  0.2014833351908635
  0.7994380924888007  0.2003567195895423  0.4009206314204455
  0.8001545591089811  0.1982108068121115  0.5997854568004894
  0.8006156917237561  0.4027216168290394  0.4033279165648386
  0.8012041973648115  0.3986371398194317  0.6011484867532267
  0.7985331674917641  0.3939076310751354  0.7994274762539217
  0.7959797384319547  0.6024082180435222  0.0094601185780279
  0.8003519839923748  0.6007620218276051  0.2075793646778781
  0.8166489304613500  0.6005214588729839  0.5904238682166767
  0.7972480642997509  0.8013215557122949  0.9980866348548756
  0.7995929161510377  0.8023858801724090  0.2002359933998489
  0.7947506256022175  0.7953551656973820  0.4003824748384655
  0.8000639909169921  0.8011211898076841  0.6007442465825344
  0.7993278986516432  0.8054079986553082  0.7997153102559660
  0.0003408276757433  0.0025098178232166  0.1983637782745177
  0.9997595923955320  0.3991105932811979  0.0008854610815381
  0.2006586853632840  0.1993681982141865  0.6004927419861900
  0.2000256016303431  0.3987729383698072  0.6009653022291717
  0.1990301385183771  0.3996684181200604  0.7998577560079010
  0.2008938564681894  0.7999992557573011  0.6002388284954454
  0.4001472607832246  0.1991906409333511  0.2001643622417908
  0.4001763606658647  0.6000147660306636  0.2017759382755969
  0.7997670574836290  0.1993773044564640  0.8000457935087741
  0.8099184671926282  0.4003166538998558  0.2067643239269971
  0.7993414654219770  0.5998519767937280  0.4017221358145198
