Zr Ti V  Cr
 1.0000000000000000
    15.4889002550493640   -0.0195313770937778   -0.0155534076795571
    -0.0195267745976093   15.5102089440028070    0.0059105293967036
    -0.0155475950656657    0.0058984254639578   15.5083315327291498
 Zr  Ti  V   Cr 
   5   5 111   3
Direct
  0.9993622356193856  0.9932704487081482  0.8016660506636853
  0.2092594340853908  0.8024764040618928  0.1944385126361000
  0.2166016683801449  0.8089300025200047  0.8035718008142965
  0.3933655729434982  0.9642764496392334  0.8364414015339023
  0.3849834384370383  0.7952661758716333  0.9978373491967898
  0.1962741432953816  0.4001368760942469  0.9848545006153812
  0.2100691423117094  0.8136843826650116  0.5928942099592209
  0.3995835742009691  0.0133569252333908  0.0261186388937292
  0.3903134225966722  0.9885652517454009  0.5967404605707257
  0.8024994023723702  0.8013425300425835  0.2004428901732487
  0.9959420982270328  0.9998757311872607  0.0055294282734705
  0.9986816332127850  0.0007508535356044  0.2013707509701770
  0.9988128544949179  0.9993838746656383  0.3987100765093811
  0.9975485471334792  0.9999517040210739  0.5953376030587505
  0.9978181264227883  0.2010007755879657  0.0001706481948680
  0.9988191172888240  0.2002172221330802  0.1995403484185632
  0.9990096734061646  0.1997341668100730  0.3986717764934206
  0.9984515606618648  0.2016811589264005  0.6000715831760473
  0.9982696623546922  0.2029099396838734  0.7999561038420866
  0.9970894382114137  0.4013309507999316  0.0025463635257168
  0.9994290105641885  0.3994726503661190  0.2001281986677391
  0.9992521916397412  0.4007288850055026  0.3993510578884760
  0.0006659941197842  0.4007816655725135  0.5973113480340966
  0.9985615331072565  0.5995293016193513  0.0001802634289862
  0.0009685866227237  0.6001522383921558  0.1997894028625768
  0.0006162785373014  0.6008965617811751  0.3993155661783639
  0.0022571387867552  0.6004306808014481  0.6002374863969475
  0.0036000444856300  0.6002682306744545  0.8003249006779853
  0.9944389790842669  0.7995741222657422  0.0003407962380271
  0.0000153646843777  0.7995999657118668  0.2013449119288719
  0.0003610683654416  0.7992592541597531  0.3997546249560728
  0.0019568850633978  0.8006588061843903  0.5995926350637921
  0.0026472063995611  0.7929521695841131  0.7982937278075974
  0.1950108212463805  0.0029037117403312  0.0005976250328036
  0.1994249798926107  0.0048506466723668  0.1999871959283083
  0.1979138831517504  0.0014390206009440  0.3985630417951610
  0.1942442986252960  0.0085720569418879  0.5979562546946119
  0.1977128849913040  0.0132628783729725  0.7990249413650210
  0.1985870821340210  0.1995580597571409  0.9983463020855293
  0.1993612964586190  0.2017034336357598  0.1990598613628440
  0.1997460703918018  0.1996226668581934  0.4001332269165468
  0.1987317860061031  0.2034292640043198  0.5995463662695582
  0.1989722172897762  0.2041054177991209  0.7993728840369634
  0.2000988505174254  0.4000191310801695  0.2021145143090824
  0.2000403598369932  0.3993102111350940  0.3992686630795367
  0.1997181748443285  0.4006774830486172  0.5984292911464718
  0.1342947190162636  0.4009918069355322  0.7986921567165874
  0.1985276217553068  0.6027964646721274  0.9989417153988394
  0.2004918920820312  0.5962853913765429  0.1994800056078540
  0.1997217939971372  0.6012628869659843  0.4002272944305627
  0.2016289602953041  0.6003394022104476  0.6012631683301082
  0.2011779398362916  0.5987190670831586  0.7996184486486744
  0.1853916442089468  0.8020249945195129  0.0024911756798854
  0.2001951266132881  0.8011210427605495  0.3984438789968032
  0.3990008904483605  0.9993498498716680  0.2093685338568949
  0.3984650930847492  0.9985580822233880  0.3999619891450144
  0.3981746858883221  0.2030474935199916  0.9992577595848928
  0.3993570984532885  0.2013124343905782  0.2010484550459967
  0.3994545950370315  0.1987214146424703  0.4003987124074122
  0.3990122680639595  0.1978183387386806  0.6011124619922217
  0.3991447434055755  0.2019722934411812  0.7986859075758879
  0.4012114715760965  0.3987800483791500  0.0003062645739787
  0.3995759901900569  0.3990442223380214  0.2001157375258254
  0.4002698764373989  0.3993269064335404  0.3995739476452200
  0.4007047144190271  0.3980326984143799  0.5984702423430427
  0.4029254803519545  0.3973608298508107  0.7983376868426141
  0.3988858612743642  0.5916548325853819  0.0009817474610911
  0.4001298450561890  0.5981280433784580  0.1994226941601144
  0.3995939479659748  0.5985880339388507  0.3987567685495554
  0.4002104426146865  0.5954194219007439  0.5974927534409165
  0.4009070383084365  0.5906060796923311  0.7996882127873719
  0.4088071243844901  0.7975778948753669  0.2055359779053795
  0.4017483963052256  0.7973995575523716  0.4010827767255064
  0.4078193015009090  0.7916431283952879  0.5952891482881526
  0.4172564259310146  0.7758852571780466  0.7890895341401503
  0.5971650970514782  0.9990267779251180  0.9993665297129486
  0.5984970949437673  0.9996626840046279  0.1987926471468618
  0.5991128184568836  0.9993765819098976  0.3991853834158510
  0.5992522274430416  0.9984253355010924  0.5991405867962523
  0.5987164622395060  0.9992299752516894  0.7985863964936234
  0.5983385182655568  0.1984755336504634  0.9982197778866688
  0.5987766159354364  0.1993586979604610  0.1995919755917608
  0.5988100033642039  0.1979694264341809  0.3994883585318445
  0.5992718575271031  0.1977741916471615  0.5994070421219723
  0.5998687143788268  0.3986905988607327  0.9993895619481953
  0.5997737997665380  0.3986759353755035  0.1988697219310825
  0.6000306199978902  0.3991511281498845  0.3989205155424415
  0.6002343693897495  0.3983020208024440  0.5986043607029664
  0.6014288081197950  0.3983428642462553  0.7994360921773523
  0.5988288734680403  0.6007183890945715  0.9987698361087534
  0.5993952748886827  0.5998184512465862  0.1984655595415694
  0.6002995900603977  0.6001967315142475  0.3986567380259673
  0.6017180768550571  0.5986260262870675  0.5994637859431176
  0.6025807244594983  0.5975768649254941  0.7998205702359892
  0.6000064038212244  0.7994275052830366  0.9980853706384200
  0.5995751882444817  0.8004663836857290  0.1972701492730612
  0.6011305440864951  0.8001098356561330  0.3990949794805350
  0.6042638678304036  0.7993124151463694  0.5984415760790032
  0.6048739784986011  0.7986082094096123  0.7985077613967332
  0.7972963952736903  0.0012636454910100  0.0007486375182797
  0.7976804315943288  0.0030979734592496  0.1998972839149265
  0.7990052911493191  0.9999530794568956  0.3991119707077000
  0.7987628925118477  0.0005913565218367  0.5991933005411680
  0.7949163501160732  0.0006015816043405  0.8002601339357095
  0.7983327894128861  0.2002456150655696  0.1993692986514653
  0.7991925876667123  0.1994226200067335  0.5997328647341105
  0.7993246976605922  0.2006033110827521  0.8001290496711707
  0.7989800036704034  0.3992774319286416  0.9990692371713962
  0.7990165301595092  0.3993505098313543  0.2000457536955570
  0.7993896480133295  0.3994753206068919  0.3991228015532231
  0.8007771925073475  0.3989844372866761  0.5998480324993487
  0.7993246623959215  0.3997920583560474  0.7997764178239595
  0.7995855019055417  0.5999757117219192  0.9994922122755138
  0.7994254485832908  0.5975436666512800  0.1992452787495194
  0.8004612614196620  0.5999152647278784  0.3995579154776442
  0.8016696512339090  0.5995811545763899  0.5997604958685446
  0.8022372544209270  0.5982785902514151  0.7996531362689914
  0.7981471667828278  0.8003236136627285  0.9968139412219176
  0.7997842318251296  0.8000002375584979  0.4017359898314584
  0.8020018128151928  0.7997980443519084  0.5993959426393469
  0.8015932796898202  0.7992253395666716  0.7987317264352629
  0.5989888353742100  0.1981738101794905  0.7993334708744709
  0.7975458914698382  0.2003744778109025  0.9996330278601595
  0.7988626642122278  0.1998846297787896  0.3998825025613479
