Zr Ti V  Cr W 
 1.0000000000000000
    14.6016769615270903    0.0249774814335260   -0.0525012101451269
     0.0248928550325180   14.4399736792285580    0.2156910460904048
    -0.0522890570087768    0.2148145740109667   14.5383697926078792
 Zr  Ti  V   Cr  W  
  29   9  50   9  27
Selective dynamics
Cartesian
  0.4183713367532844 15.2118148645081241  2.9648659890921052   F   F   F
 13.9436873022033101  6.9978154009812812  6.3560110300620822   F   F   F
 14.7095636801363927  6.0099196974096953  9.4068373028752532   F   F   F
  2.8389530768841755  0.6763366697083321  5.3270712915390313   F   F   F
  3.6696455821614311  0.6246089757538393  8.6585273371440845   F   F   F
  3.0348080670927113  0.6021450230439334 11.6976681616536542   F   F   F
  2.9833768602505764  5.5121715926410486  2.9970369345262515   F   F   F
  2.6947930680979164  6.1073668930747793  6.8557738683256151   F   F   F
  3.6295680773371108  9.3965386901347934 -0.9959990191570411   F   F   F
  2.2888364008062259  8.7657736557119410  2.1033650335215022   F   F   F
  1.9162482229099698  9.5116981566317147  5.6488436814231022   F   F   F
  5.8262183054183119 -0.2246432408532544  2.7117668247512134   F   F   F
  5.4305318462391208  2.0562013677993094 -0.3768620253389983   F   F   F
  6.2194197382479155  2.2051943027987195  5.7314445370781151   F   F   F
  6.6086316372171821  5.3354325726510350  3.4373200487881479   F   F   F
  6.3511291085031516 12.5117522911617733  8.7842332087504946   F   F   F
  7.5463391075271717 14.1400075263880627 14.2803347260478581   F   F   F
  9.5063561645470873 14.2638156363106976  2.0478736886475932   F   F   F
  8.9242254697295547  3.1285329420229480 14.2833040978119605   F   F   F
  9.4226810477210190  3.3959210993388265  6.1911419916217270   F   F   F
  8.0292004178571954  3.3596251605451757  9.1275257118057098   F   F   F
  9.9879680981362249  4.2006949415363621 11.5568884252498059   F   F   F
  7.6438052991350700 11.0425655701448449  5.4498435407312824   F   F   F
  9.7520073044482718 11.5720422806644780  9.8793985320561148   F   F   F
 10.7066125325855666  8.1834056744056891  5.4040853787894809   F   F   F
 11.5038487540804688  8.6325727343492638 11.5355415675449215   F   F   F
 10.6828053755370007 11.2006525581596570  3.2500145417720065   F   F   F
 10.9643964777957894 12.1423567468874953  6.5813060947888635   F   F   F
 12.5333754766876346 12.0233551057903689 12.1271045495801477   F   F   F
  2.6205146665098207 12.3636128328667123  3.0928731858538234   F   F   F
  8.4474878323814266 14.2253544808219843  5.2593348337070189   F   F   F
  8.4686826434134375  8.4724149887169347 10.0203958139704632   F   F   F
 11.8045728617647274 14.2779279874556906  3.9766437508259322   F   F   F
 11.9789678470267695 14.4759892420567748  9.2602023507675604   F   F   F
 11.8589169797093277  2.6900425391344260  1.8463748576070793   F   F   F
 12.8881224179361311  3.4591459335701260  7.4175992685772609   F   F   F
 11.1458308096680305  7.9545812800675293  1.9841727965822713   F   F   F
 11.9594630305096103  9.2008621281810186  8.3761641041462198   F   F   F
 14.9118293986858674 14.0473702436363208 -0.8084536233796559   F   F   F
 -0.7808837346438006 14.9894859377083254  6.5148596658384257   F   F   F
 15.2000773160380298  3.6966694014065764  4.8314762019432296   F   F   F
  0.1789884169097521  2.3459580758773733 10.1703818768947531   F   F   F
  0.3046067512865076  3.3926516423596906 11.9595654004352170   F   F   F
  0.6928200411089569  5.2628001409914376  0.3369926128806533   F   F   F
 14.1901961978804305  6.3437621925195158  2.4708047866363700   F   F   F
 14.3136865429667175  9.0295542513768297 -0.4638970083768948   F   F   F
 -1.0121591359264372  8.9755707187649243  3.4064160585366157   F   F   F
  0.8436258966000264  9.7817101901251782  8.9505747463338814   F   F   F
 14.8825694648068403  9.2236023270669225 11.4844903581270703   F   F   F
 13.7727773777505487 11.4401766346809932  0.4111808051190042   F   F   F
 14.4513774396353494 11.3436093242141034  3.0354309730403695   F   F   F
  0.0441150638805420 12.8216356454744478  5.4841957447805791   F   F   F
  1.3363924477662554 11.4034059021385303 11.5769687948686997   F   F   F
  2.1685055182312318  0.9647312191557198 -0.3596606226226822   F   F   F
  3.2357308837730914  0.6729106105472418  1.7228497937047826   F   F   F
  3.6487167675094514  2.8441713363618417  2.7641264604053535   F   F   F
  3.2231583003826536  4.0570054633174530  9.7081715741648491   F   F   F
  3.6609966407956129  5.4340933141018075 -0.0945908332883679   F   F   F
  3.5043586602908561  6.7705267947985854 10.0863260300478874   F   F   F
  2.3786858750071507  6.5357526124121907 12.1756807003924337   F   F   F
  3.6678681596126737 12.6081231396673061 -0.8945034961144891   F   F   F
  3.1903599945978871 12.4201246643846837  7.3511754656225259   F   F   F
  7.0428925683418306  2.4753309680792506  2.7101474669913306   F   F   F
  6.3465540191728289  5.8371838236870364 -0.4590833339246528   F   F   F
  6.0597606743036110  5.3818008299810911  6.8713414326195412   F   F   F
  5.9988536910283621  8.9089493359043832  2.9480034203694392   F   F   F
  5.2624294411143717  7.7816251773974523  8.8040802185277300   F   F   F
  5.9764474900435198  7.5111206713275234 12.2439740246980406   F   F   F
  5.4745808512790282 10.8267564428846601  1.8214985535119561   F   F   F
  4.8462527774484405 11.7685123056396250  5.5386095035573817   F   F   F
  6.2058500930172897 10.4915330882764657 11.3795732353947638   F   F   F
  8.6101909593248145 14.7056945903642386 10.3612842661513866   F   F   F
  9.0750405630250963  2.8420543406575436  3.4371919784475171   F   F   F
  7.4225095291922036  1.7466074914667582 11.7244571886317335   F   F   F
  8.3498597701563124  6.5141509251060601 15.4573039858883927   F   F   F
  9.3941491721504136  7.9934238536163802 -0.4570087991141752   F   F   F
  8.2446728966392850  8.5052547286905931  3.0345291425159426   F   F   F
  7.4022383688730766  8.0751251837900391  6.7130604840897483   F   F   F
  8.7552744840927819 11.1921225079988016 14.8168893948097420   F   F   F
  7.8848975892240061 12.3470709735951534 12.0508100628459651   F   F   F
 12.4961219317459555 -0.9209494826752954  0.5599167082213465   F   F   F
 13.1182190510808425 15.5225243473647811 12.6765648005058029   F   F   F
 10.5308962675465754  2.1192308720975981  8.5323328319863130   F   F   F
 11.8299027172410245  5.1444500355759590 -0.1814502661706569   F   F   F
 12.4366057617456107  5.5868195226298125  3.5519238488347726   F   F   F
 10.8163157557738430  5.9500655641077094  8.4422326073346756   F   F   F
 11.8191425509844610  5.6935423036241426 11.9718925635249995   F   F   F
 13.4424519445038388 11.9529035054408386  9.5669252145278172   F   F   F
 14.1399024241258733 11.9660821559540409  7.4904976413169271   F   F   F
  2.7222358402919826  8.6200415585946359  8.2085339776838726   F   F   F
  3.6397326638096490 10.8406933547742685  8.9046264149501333   F   F   F
  4.8039457980016902 14.3069943653684852 14.7176588797111414   F   F   F
  5.3149269045023981  3.5004375158092866  8.3095415887720758   F   F   F
  4.8360414369897002  5.0457212527529878 12.1315762625056927   F   F   F
  5.3530625656968347  8.1959507535540723  5.5708453903996027   F   F   F
 11.3486606710811895  5.5641261920416900  5.9886547505239092   F   F   F
 12.1820279035592307  7.6756179483802649 14.1248977396892688   F   F   F
  0.7414412850612381 -0.4098892997743833  8.1095498993813937   F   F   F
  0.2484709571521153 -0.2826810789046363 10.8115914477688229   F   F   F
 14.1407360876784978  2.2922376956423878 -0.0040268259959080   F   F   F
 14.4889221665492585  3.7018094908749397  2.2948536451784749   F   F   F
 -0.5766433918222615  6.8019131606509680 12.6718462855377751   F   F   F
 13.1300883153657111 10.3012893042121583  5.5377050422016429   F   F   F
  2.3198105164929506  3.2747267460816749  0.5124000266416650   F   F   F
  3.5670479468556082  3.1895824985175065  6.5447345186594532   F   F   F
  2.7821367469902167  3.5633985560668355 12.4167397376622635   F   F   F
  3.2646507457627916  9.2241156438879361 10.7655753524116964   F   F   F
  4.1752961943757052 12.1322042710301830 11.1189526293558476   F   F   F
  5.9707676773716400 -0.4920463852281784  6.1830389082850248   F   F   F
  6.3686698023057851 15.4596368279291081  9.0927939081021290   F   F   F
  5.8274382463843368 14.0729774527513545 11.7364590515894847   F   F   F
  5.1755156343108233  2.7412024185367980 10.7843785685634383   F   F   F
  5.9802780156507360  5.4925192420229703  9.9018921328432903   F   F   F
  6.7098373109983980  8.8596157201742844 -0.0484277542589339   F   F   F
  6.1150001452078149 11.4744126504210016 -0.8116276561724843   F   F   F
  8.6673704916520862 14.9442033690243559  7.7855974025509198   F   F   F
  9.9059980270755013  5.3341382180450783  3.3842145026053165   F   F   F
  8.5407924720831225  6.0288732815225972  5.5564252495156783   F   F   F
  8.1672725030913949  6.1631384802153750  8.3665661983758906   F   F   F
  8.5085010736488531  9.9434075327848337 12.4663406900581677   F   F   F
  7.6261500406072127 11.9895746047661227  2.2231126446978511   F   F   F
 11.1926782306499444 15.5209271392397259  6.4566259104664221   F   F   F
 12.0759001952464455  3.1079973510742556  4.5129852743052270   F   F   F
 11.3906845877662271 10.1283864412308642 -0.2364889577584666   F   F   F
