Zr Ti V  Cr W 
 1.0000000000000000
    15.3185418189025757   -0.0058579337440910    0.0011531853961578
    -0.0058580518235424   15.3152820885503385    0.0003427542276612
     0.0011540796390519    0.0003423374486165   15.3446139054441577
 Zr  Ti  V   Cr  W  
   1   2 101   1  19
Direct
  0.6096609718525219  0.0000252065331216  0.8018991570358333
  0.1995890231574098  0.7915400945142318  0.2099492904776596
  0.3989746266476545  0.7998925278188289  0.6101310581421726
  0.0003121530501971  0.9996874332475928  0.3956890382158102
  0.9988041715068277  0.0013421703545038  0.5980147919858356
  0.0005099898213630  0.0010031347493211  0.8033952015097877
  0.0037151558300816  0.1993493006301426  0.9980602517315673
  0.9989579037761203  0.1982426381238545  0.2010928176204848
  0.0000044659974161  0.2043677397209583  0.4004181131395161
  0.0042470267199641  0.2021600021018579  0.6005006922016157
  0.0002221684211412  0.2060853797917634  0.7992299837633661
  0.0005549699925478  0.3998400386208743  0.9937008768734282
  0.0023744849184183  0.3983738929376066  0.2060554150561756
  0.0039472873652798  0.6026834451080597  0.0004529399981895
  0.9963079616203272  0.6008776878671396  0.1992079667751267
  0.0004890705893916  0.5973282372855179  0.3997706886011029
  0.9995244949273683  0.5973187299209588  0.5986207331887676
  0.0006837070821417  0.5984759273873362  0.7997015233678916
  0.9983217026758348  0.8049319127923089  0.9980516373995072
  0.9992149935185078  0.8021535160534788  0.2012133630822683
  0.0022564832857186  0.7991444149887651  0.4015341343538090
  0.0000278924500441  0.7998510702999166  0.6007392521449959
  0.0011521464966758  0.7993508827427707  0.7988516169880405
  0.1944348512055054  0.0029877162374730  0.0020144533957323
  0.1946435183705006  0.0016790937482728  0.2022138046564010
  0.1994395497819024  0.9999644609746913  0.3995679871817694
  0.1954298732313287  0.0041073536110430  0.5992745707827050
  0.1972946594655061  0.0004533070550712  0.8002111251358160
  0.2009073340397002  0.2039872364495412  0.1950959353140098
  0.2035382716768103  0.1997869640908831  0.4060858507375550
  0.2050058709164563  0.2041292577307965  0.8015160090451512
  0.2034114805089573  0.3989917961509652  0.0011324460067695
  0.1989527279603191  0.4002537347585495  0.3951977655428547
  0.1972532324609453  0.3959688321013354  0.6048535868393720
  0.1983255852669897  0.5921668698989704  0.1955512060306656
  0.2008568254629745  0.5998840160770428  0.3984427875520974
  0.1982750441891173  0.5997540799545621  0.5974995511029436
  0.2004420330772804  0.5976862853541520  0.8065024821300164
  0.2057158786494601  0.7986624491870871  0.4055145798587007
  0.1967860592493450  0.7997538869864400  0.6018620781715461
  0.2047933950118997  0.7999702346385099  0.7996104799071768
  0.3957770601574951  0.0002905756819886  0.0017759114978397
  0.3957523381578681  0.0003797397306038  0.1991308184915397
  0.3994873910571540  0.9949839604392570  0.3996880236837703
  0.3987141345574218  0.0013502137524259  0.5994272446446711
  0.3972274734071302  0.0013196712150600  0.8001538662472963
  0.3953225035233959  0.2013215870028651  0.9926533686348237
  0.4000470345525968  0.1984904749057384  0.2002735539152395
  0.4000002147658240  0.1979630958615903  0.4022064886925288
  0.3959192121762843  0.1982829803252368  0.6052735615604818
  0.4007925413425647  0.4004502408427153  0.1950908040176895
  0.4025629588841982  0.4014217436482246  0.4023591835289089
  0.3988420020033120  0.4000328270073594  0.6028277045273293
  0.3949302928499259  0.5993540586748310  0.9993465671221597
  0.3986423545212798  0.6011320719489333  0.1981275540904646
  0.3998322911242959  0.6036713971451800  0.4008155466188066
  0.3984435339985133  0.5971211845061701  0.6001388723871398
  0.3998308319970348  0.6029421159266912  0.7973691709184093
  0.4019861280382163  0.8013010664540519  0.9968049016126526
  0.4017227329924746  0.7992797162104543  0.2005737187254866
  0.5955477797921775  0.9969807735047790  0.0083726371052646
  0.6036573835406053  0.0017843741413689  0.2018622144690008
  0.5992846505459531  0.0005142749568349  0.3972664072079899
  0.6010846030345209  0.0006529804833593  0.5930980984181478
  0.6011633833868791  0.1967012341854236  0.0000826062825148
  0.5995973351789332  0.2033892093308163  0.1995533396468950
  0.5984451600098767  0.2034887457313419  0.3999188607059270
  0.6003265203112969  0.2004916930308044  0.5987243562928464
  0.5949836332071392  0.2051937030078705  0.7987660651029262
  0.5948699831433609  0.4020630332255376  0.0042041442211334
  0.6011150916852979  0.3996235535328189  0.5954716753277469
  0.5976585271531571  0.4020380966463364  0.7994620938486283
  0.6006281429622193  0.6048296354222922  0.0014894121725599
  0.6044636479577499  0.5952223859280421  0.2005361770962267
  0.5993486398970149  0.5955563084990277  0.3991556399839291
  0.6024497479058736  0.5981435088731943  0.5974776164926908
  0.6001447652004847  0.5967212455210169  0.7994280029258528
  0.5999735692718375  0.7982921667547495  0.1959489438229996
  0.5945095872174495  0.7983956261146378  0.3997048346330158
  0.6018566936225590  0.7986015390419005  0.5996623428880180
  0.5952018349795279  0.7936180130245598  0.8034333343543090
  0.8044130960317661  0.0015159415025197  0.8301446825720499
  0.8038287849573602  0.9992859656885555  0.2039757331411934
  0.7996605198868292  0.9991372525159478  0.3991833365504461
  0.8021307542556104  0.0003064930152346  0.5985125277935135
  0.7998798166940184  0.2027286141891690  0.9981117473098163
  0.8001354580728178  0.1990066686738335  0.1960013044256545
  0.7990882420437219  0.1994419354838592  0.4008796902296286
  0.8002771050772605  0.1985177042879483  0.6014025463536729
  0.7990519322299473  0.2021247953526836  0.8011202726347503
  0.8010561097468624  0.4005311733891312  0.9992073904236953
  0.7981555190602783  0.4032433316538159  0.1989778007056069
  0.8008549679520371  0.4000539570675262  0.4005667522751942
  0.8032238141566979  0.4002902502323166  0.5997554502446382
  0.8029527702754400  0.4019471866244635  0.7998536361558077
  0.8024140343420144  0.6024010951755773  0.0029254163721141
  0.7998023064329574  0.6023007885450727  0.3948479088041585
  0.8005722593369468  0.6023698104769613  0.6000280050684715
  0.7999818592887380  0.6000362017045533  0.8011741538824886
  0.7950468343262928  0.7993980989157251  0.9983820759199969
  0.7991093710825523  0.7971078649610359  0.1995575592859505
  0.7969590983405886  0.7990508631832165  0.4016404663294762
  0.8001190015584891  0.8001202539578944  0.6007489512591023
  0.7993120215586245  0.7996929758045438  0.8007067074597525
  0.2005919168711131  0.7997141701786098  0.9992708271748924
  0.0018240030581045  0.0023539211838881  0.0032266563490206
  0.9985366124876562  0.0000739953615894  0.1984053707326099
  0.0005384732955630  0.4009952889103855  0.4039402422021178
  0.0012542226632081  0.3998237532640104  0.5999259616620749
  0.0045650705417633  0.4023881910349356  0.7954380325134249
  0.2010637215798972  0.2001589716006671  0.9997722810365046
  0.2005660780536853  0.1987206668563813  0.6021224132515498
  0.1999200537548607  0.3972933575382862  0.1996490694468180
  0.2016351469306916  0.4013560941194056  0.8003668864785770
  0.1991081922240858  0.5980511157057540  0.0023027888932130
  0.4002592792598020  0.2035554106405176  0.7990825850864994
  0.4001267379436861  0.4016502338746926  0.9947598188793806
  0.3967642924071793  0.3997012963117855  0.8022930517541194
  0.4010523407132173  0.7995171851696578  0.3955713481980201
  0.4021171693590497  0.8033949628331937  0.8031201049509755
  0.5996317297005624  0.3995432342924935  0.2025369572294595
  0.5990549360903008  0.3995807449628047  0.3973841437435166
  0.5989891823382384  0.8014848063880905  0.9997960704645505
  0.8013254890581284  0.6000164503993167  0.1984905114369121
