Zr Ti V  Cr W 
 1.0000000000000000
    12.2882735461728885    0.0000000000000000   -4.3445607757035454
    -6.1441367710433559   10.6419570608175889   -4.3445607757035454
     0.0000000000000000    0.0000000000000000   13.0336823299999995
 Zr  Ti  V   Cr  W  
  11  14  88   9   2
Direct
  0.9896879828180031  0.7906427205668117  0.1874822944094043
  0.2029845300146246  0.0075028444084031  0.4062393147162772
  0.2000489966662868  0.5970772863049498  0.4015519639494550
  0.1622576852840115  0.7674813989485256  0.9694299981504145
  0.3950996671969819  0.9927250050320695  0.1965265310159667
  0.3955094583944856  0.5964496958516158  0.7992796567338211
  0.6011646685243286  0.4123930836316268  0.2034771985897833
  0.8019201704308035  0.0109848038550837  0.6029334526112354
  0.8120611530993237  0.2490252541574199  0.6145353583028285
  0.8227718446790852  0.5952452568413379  0.8016004899642490
  0.7995071874341305  0.8034612473394813  0.4037919623058493
  0.0117414804051644  0.0192757961226322  0.2032839260594153
  0.0082706195798581  0.2163652083986652  0.8097985973645302
  0.1979105081519749  0.3910602047445306  0.3936773870686732
  0.3923936209041424  0.9944877675507203  0.5948285345029286
  0.4076745466190975  0.0095639772485128  0.8097834881377002
  0.3940891684464166  0.2030587313108938  0.7991349512705517
  0.3975479206627061  0.5921854749985527  0.1960133408778049
  0.3998297900559555  0.8019365853150728  0.7986953180664306
  0.6019977310651476  0.0009187231657148  0.3986104279346590
  0.6013653139227348  0.1988187406346925  0.8095771571851671
  0.6006190641994550  0.8040573333361142  0.0023179146633920
  0.8072362639916982  0.0026217793258467  0.2019239137667022
  0.8036837189927978  0.3947820626035084  0.1979120945827489
  0.7961841589441099  0.7942033590634711  0.9880669584257616
  0.9959786189013889  0.0067917763405717  0.4063664464479733
  0.0158941095688585  0.0152222444377743  0.6093201012924069
  0.0018199220416914  0.0023345997548528  0.8011718880340181
  0.9997919889211154  0.2022562940634118  0.0044467756988076
  0.0105653473641604  0.2079823669497673  0.4020095113040731
  0.0122629051486433  0.2087247049977458  0.6001277551349784
  0.9965067809674197  0.3959349664932002  0.0041278225974565
  0.9939836998711370  0.3978069350267351  0.3964530308397388
  0.0079892046698458  0.4001688839201073  0.5970205847912953
  0.9978892458100673  0.5887137618500575  0.0025021037713698
  0.9920124851941873  0.5849380582904005  0.1964307581844583
  0.9946820806930479  0.5999410886702317  0.4057887643407428
  0.0031038954464505  0.6027138792103435  0.6078394673255015
  0.0040305806870773  0.7961166825224884  0.4077286507528087
  0.0006929254154462  0.8005094943762469  0.6033933331025106
  0.9965679126841802  0.8020350318931860  0.7925442039862657
  0.2004179896375538  0.0086497542200083  0.9957427372690444
  0.1989644013580382  0.0033707984247566  0.1922332544981423
  0.1884889256884344  0.9964439838779238  0.6056568641383768
  0.1978961139838432  0.0028946674271171  0.8019826544083051
  0.2005824736045594  0.2039353309185299  0.0000971034972645
  0.2015879829668779  0.2054248384506943  0.2002971974696098
  0.2190859213363568  0.2193164679161621  0.4131398148910537
  0.2063812303757640  0.2089138523803700  0.6063088513499610
  0.2015443974776003  0.2047819880583565  0.8027985009031725
  0.1984701762313250  0.3954689732744364  0.0013901068978835
  0.1973933203884372  0.3992223372351775  0.1952312093328879
  0.1987154198829486  0.3963406058823649  0.5958216940545786
  0.2016870755205253  0.4010249304472212  0.8025276764825721
  0.2006824563625945  0.5857922079687033  0.9992374580506711
  0.1916648401438742  0.5940560540688543  0.1915026316862156
  0.1916467765982827  0.5931866124885349  0.5998009421218181
  0.1886302596830153  0.5945211813031669  0.7943322756386221
  0.2030462518763688  0.7885735978251996  0.2063006079608394
  0.1909638122176925  0.7908727088015145  0.3953662565718839
  0.1986697168934855  0.7976986067337364  0.6005391315847566
  0.1992527832432598  0.8039905491013243  0.7927950234594714
  0.3977707632912065  0.9970853407451635  0.9954173844867453
  0.4025963004856954  0.9986627527268267  0.4028933435123386
  0.3965530208971241  0.1973412885531452  0.0000561938998679
  0.3980772635452428  0.2055849066354082  0.1995291888875002
  0.4040288784288117  0.2050414112017224  0.3989883042362061
  0.4113216870590878  0.2183001169081171  0.6045691563640971
  0.3959356429746739  0.4012076373072271  0.9951769721737368
  0.3898316744168763  0.3939184968857359  0.1978226529525476
  0.4071757174044303  0.4024888372059295  0.4023712552291651
  0.4036613899721566  0.3982207306823243  0.8002745598738231
  0.4096184575949888  0.5984019513752658  0.4048959099676899
  0.4093494589400404  0.6005914872547132  0.5980670060538276
  0.3920743330798311  0.7888373636594246  0.9981937195129269
  0.4004367230231498  0.7890958882523187  0.1977920737568341
  0.4022978323104263  0.8010878945038192  0.4004636248513035
  0.4131609032657809  0.8028846102615457  0.6046161622929923
  0.6037731804307214  0.0087383218951095  0.0025940543677255
  0.5977858357229013  0.9862573502881568  0.1889152961665115
  0.5952528531930446  0.0019378105548837  0.6075508246511293
  0.6027612196785754  0.9948959673881144  0.8020248053704829
  0.6031965549929172  0.2099815439905901  0.4052327613254769
  0.5893665225144492  0.1961702584026489  0.5993043249421719
  0.6010634149172767  0.3956835966004145  0.9971318292628563
  0.5979659580061725  0.3996112571541163  0.4039020819450926
  0.6008784181911998  0.3948185431143857  0.5951242175938527
  0.5983861363256401  0.3988565589211474  0.7994838824769667
  0.5951412721208766  0.5910501940378173  0.9953865108599936
  0.5975745382038988  0.6090106924629195  0.1916497481459147
  0.5999502504594847  0.6018922455057122  0.4053363015530095
  0.6031385648785429  0.5978340888854542  0.5989773636098238
  0.5947268166596378  0.5875649691934797  0.7859135333124716
  0.5874406339165293  0.7936960648237819  0.3954472761586184
  0.6001779959821786  0.7987081129471739  0.5994304991066127
  0.6067649024301343  0.7995453323959419  0.7938711564015528
  0.8017778765669047  0.0079621593941021  0.9992340826862668
  0.8111268395772669  0.0131074744553325  0.3985695684199026
  0.7972924869119289  0.0039110742258070  0.8059027603818447
  0.7981407923564857  0.2039408406882878  0.0041013628642007
  0.8058526148776269  0.1992230941671935  0.2013320191032216
  0.8056331826414841  0.1987116263156428  0.3938266058723979
  0.7981443695420501  0.1987755243752787  0.8104756272543592
  0.8058775468868569  0.3988888315685849  0.4138347063270460
  0.8969595565760273  0.4856785408850742  0.6818921849259652
  0.7951348614568188  0.3868758433732415  0.8170650359177526
  0.7877769287563979  0.5792790931022969  0.9944887203074086
  0.7979879479253316  0.6000438083091185  0.2005918034009704
  0.8102955385892422  0.6016557423183020  0.4111379698331062
  0.7973261701359790  0.5966410698533069  0.5885443608962502
  0.7778946215602510  0.7889860881060857  0.1861158915791718
  0.8000548174615554  0.7976495469177003  0.6107017226443594
  0.7967183830244624  0.8010062031467644  0.7902456817415195
  0.9975133686079717  0.2056721057002892  0.1942038521147621
  0.9960619719265661  0.3881874712309789  0.1944574647058111
  0.0144457375428937  0.4251698969647089  0.8196912510420773
  0.0003327662565500  0.8103519470326850  0.9969712249033836
  0.4057978126235542  0.4021817503354199  0.5974872716885249
  0.3951006476184711  0.5935344091733662  0.9970262644021815
  0.5980443408093875  0.1989685309525266  0.0073501666950269
  0.5918738002051880  0.7944254864607739  0.1945822031316484
  0.8020184331723305  0.4010197520484461  0.0050254040569208
  0.0000329359787700  0.0029040100016484  0.9950336323111199
  0.6024472557590707  0.1972492998189818  0.2008617649636587
