Zr Ti V  Cr W 
 1.0000000000000000
    15.4546529229448950   -0.0040749683285616   -0.0054037382233372
    -0.0040912970430347   15.4638570505567383   -0.0473148360752500
    -0.0053791826064366   -0.0472533129127416   15.4680791581891697
 Zr  Ti  V   Cr  W  
   7   3 108   1   5
Direct
  0.0047558123258451  0.0064992926015603  0.0323333318320047
  0.0085753970150814  0.1902902883739269  0.3948734414732989
  0.2032331250304974  0.9943025691597458  0.6012214039792166
  0.2020959993921174  0.8394753811124164  0.4205404982921733
  0.6042172193462807  0.0074736779458793  0.2137885309531299
  0.5984184678884443  0.1907483067336625  0.3926504278230097
  0.7673405720082266  0.0287588212173305  0.3890473984797776
  0.1931393011602437  0.0350394926255484  0.3848920935927158
  0.6106573163217044  0.3981515863211282  0.6008585785213463
  0.7917397480735219  0.5879340860107289  0.5936429046900417
  0.9989720140379988  0.0006065269448208  0.2215091268640053
  0.0015854123994095  0.9855471054934323  0.4061890904328355
  0.9934037180787143  0.9947199189420940  0.6021191009513419
  0.0014037376115830  0.2052299125333116  0.9945865177137733
  0.0006269735025843  0.2015628544713369  0.1903768216123765
  0.0003979181651614  0.1941540373084671  0.5996860673000166
  0.0005934108471344  0.2016362408814892  0.7957887916528894
  0.0010321442656246  0.4014120405113032  0.9942012398238241
  0.0002694242458707  0.4014024664572731  0.1990896103187944
  0.9996623323685101  0.4086364590583616  0.4003891658576936
  0.0013429947021692  0.3965663600078366  0.6030990341701040
  0.0008203727817409  0.6003527288148950  0.0006273369716403
  0.0009789139475262  0.6004204436691564  0.1982380298284969
  0.1329501744396002  0.5997684680880119  0.4002724276414534
  0.0026931632735325  0.5959502076795069  0.5995947926106663
  0.9999970502125064  0.5946512988033592  0.7986104665098490
  0.9996977206407863  0.7980123277399135  0.9996646261528880
  0.9998822022917113  0.7989088471788448  0.2038760471355945
  0.9941980464867688  0.7950056707173573  0.4035526212337341
  0.9970520879310222  0.7912282911669761  0.6039845696814976
  0.9973080191136013  0.7962352579965465  0.8012430927098548
  0.2051875952392999  0.0013282086188966  0.9972406034907869
  0.1958914014242935  0.0016664106905255  0.1928435477779414
  0.2023560883514372  0.2000738378769091  0.9984171053943584
  0.2004811037214081  0.2045867247478433  0.1975796461492917
  0.2006925815745456  0.1997843198117547  0.5927887981619292
  0.2016836440785783  0.1931512847385984  0.7959241960986577
  0.2020414057060232  0.3995092141424158  0.9995353968611170
  0.1999868689478248  0.4019192286234273  0.1979919379892745
  0.1971164981713857  0.4023417014735613  0.3989224004176815
  0.2012479646407589  0.3971221524298890  0.6005093910679766
  0.1968090028994220  0.3959865394902802  0.7996775524026958
  0.2021686817638355  0.6005638975662747  0.0003360235459606
  0.1991853446712748  0.6025511996846520  0.2024766434880281
  0.2027956938660240  0.5953487483518843  0.6006046040700354
  0.2008744140307066  0.5994716971808701  0.8026821845543054
  0.2009038724693668  0.8007658759155198  0.0030556850522318
  0.1996166046018147  0.8012388903869522  0.2042269846031116
  0.1989832679392585  0.7876440027355228  0.6128204253604512
  0.1994258162699472  0.8026514327557337  0.8063936151152257
  0.4030401366858072  0.0009131399754027  0.0050673113641577
  0.3947891803627225  0.0008959485278944  0.2019941579270196
  0.3890864799130928  0.9999167319201642  0.4010264721118974
  0.4052338471411836  0.9980594536705940  0.6030904113483231
  0.3976414706033529  0.9991412433714700  0.8007746503895218
  0.4014721898776843  0.2005626103994763  0.9985641132483849
  0.4017550960867348  0.2003844128101471  0.1989952536069358
  0.3945800598518802  0.1992953298185919  0.3997330442033113
  0.4032809162447245  0.1989475892219474  0.5974843405671141
  0.4015340850062917  0.1997437386748995  0.7975243697604170
  0.4013932801832688  0.3997281483579119  0.9990115428319307
  0.4004636406733635  0.4009072793916382  0.2004305004462349
  0.4028639888972725  0.3982429949269381  0.3998520448909124
  0.3996816891191031  0.4007080077501246  0.5994099975205152
  0.4008079031063059  0.3975169126779567  0.7988044683331698
  0.4000131704451186  0.5993344135650361  0.0004241525763091
  0.3989163448041926  0.5997876740172197  0.2027583991010154
  0.3979297414837019  0.5991899200530708  0.4031353047346590
  0.3988625525778934  0.5979350034322858  0.7965140189902677
  0.4011582540337427  0.7996145772097785  0.0024525398588820
  0.4013693560469266  0.8012675703875680  0.2026187216927556
  0.4031726399439335  0.7971032428962598  0.4010335124944314
  0.3999863336179780  0.7918456891062817  0.6001766137639037
  0.4053674771015918  0.7991209745887334  0.8021859835526920
  0.6002506879820995  0.0007895419626640  0.0025638600133100
  0.5773741571592259  0.9851401737807877  0.4161337020903160
  0.6007299481615874  0.9967721338826586  0.6057640040103127
  0.5984748285616760  0.9947690759240597  0.8034892849241697
  0.6010929228276861  0.1995906970388591  0.9966257416706689
  0.6013007779929106  0.2100051906180472  0.1888986002160463
  0.6013115394786138  0.1960333477775821  0.6015552796319573
  0.6013641522071944  0.1977123571220064  0.7979261633514261
  0.6013279659171219  0.4010791678878809  0.9967435987203886
  0.6021338299819957  0.4029618732428146  0.1978726706479961
  0.6006418441738329  0.3995690517124345  0.3963850575841278
  0.6028038013807356  0.4000450292007901  0.8012308404041240
  0.5989709381118309  0.5996857400945905  0.9998439710820174
  0.5986623404976611  0.6012681937223107  0.1990977450205760
  0.5967743441781594  0.5983299510699180  0.3996946536059882
  0.5919595763128239  0.6001903229898962  0.6001580635531666
  0.5995592687784409  0.6031822446492063  0.8006921041638875
  0.6010008050346708  0.8010341193422680  0.9992513520754203
  0.6023750030787477  0.7986737726987408  0.1997313637379250
  0.6010298671329488  0.7962202216430210  0.4028948924638577
  0.6014114565377956  0.7972879630615504  0.6073478337850070
  0.7989920983437812  0.0008071244822448  0.9974725456854950
  0.8107272473517722  0.9991716255015253  0.1901318907476131
  0.7996328022661793  0.9968569282708015  0.5986869934352869
  0.8006471114146150  0.0002140857125488  0.7985258466622319
  0.8007632983122396  0.1987275585783318  0.9964983183116111
  0.8027033350767913  0.2015538497079408  0.1988578636254341
  0.8063765589518902  0.2177262332830628  0.3961680177814027
  0.8013287903330142  0.1953711724211142  0.5926155543578883
  0.8005980969170283  0.1975401441006967  0.7975584213805714
  0.8005201014108173  0.3988373268036353  0.9993115828435539
  0.8023488419845892  0.3998454846672682  0.1970956288348952
  0.8016520524413669  0.4047671121009777  0.3977501115843263
  0.8043644487682805  0.3924409793630679  0.5981415863000056
  0.8052379954763010  0.3969887873463264  0.7981789221023073
  0.7988927611360668  0.5991889340165359  0.9995198635137776
  0.8010298334190553  0.5990022367492818  0.1987173042552235
  0.7944248450333905  0.5997385931060418  0.3962551169338985
  0.7998269536992385  0.5977991253924128  0.7998143458322147
  0.8009156917847063  0.8002867739039571  0.9995610351056473
  0.8010727092584623  0.8006176043927462  0.1997505203783915
  0.7990991185246774  0.7956748672711691  0.4000254978796768
  0.7991275990191865  0.7987939838052227  0.5990579821750821
  0.7975469790035055  0.7982919847696368  0.8005037239902169
  0.0011451896368097  0.9979304625774525  0.7981735018934126
  0.0018467876141013  0.3981607229577671  0.7991175342264654
  0.2021087387872555  0.9985432656640613  0.8048660210408876
  0.2058893236162039  0.2150919137665508  0.3964206278161608
  0.3981214532387801  0.5954830042591996  0.5989242206099459
  0.6009530373565580  0.8001797448857697  0.8024532842003720
