Ti V  Cr W 
 1.0000000000000000
    15.4171836946855763   -0.0006458025225840    0.0021743795697675
    -0.0006464432342440   15.4108214600062574    0.0048957167363750
     0.0021730867805691    0.0048939939426410   15.4267125679285311
 Ti  V   Cr  W  
  13 101   9   1
Direct
  0.0010690754909466  0.4012546253751068  0.4007901624393116
  0.2077865828123016  0.1991145615267781  0.7954064390716467
  0.2016065315029622  0.6034972736158540  0.0050403847417468
  0.1986376162667971  0.5985933106027258  0.7913375560723070
  0.4003693825559979  0.9944741072524251  0.5987980997082373
  0.3954245216463584  0.2042467285768188  0.6056241741807740
  0.4019928244409072  0.6036869314533077  0.4018699420105892
  0.5971917355302842  0.9988658808316027  0.9959860926574965
  0.5964655791631267  0.3994383835872922  0.4061114760103817
  0.5912584749495774  0.7976910724943043  0.4017783791071360
  0.8056119818901182  0.4059678782312361  0.9911498052556514
  0.7979780079401464  0.5934624234276430  0.8042250705759330
  0.8049215796647016  0.8014345866662026  0.4018919045863414
  0.9997638544302074  0.9998006385181786  0.0000514252973012
  0.9993288354359514  0.9993923394098170  0.2006404870692089
  0.9996832336390274  0.9991163565577948  0.4005276369508417
  0.0003444755661176  0.0006132451901277  0.7994109523218502
  0.0015856456890171  0.1991188663406209  0.9988400642974105
  0.9992280122978852  0.2003971902842490  0.1993828089784769
  0.9999953668296385  0.1978000889718197  0.3996246453038098
  0.9989997023155011  0.2005635629375364  0.6000434610230766
  0.9994458382508669  0.1996063554901523  0.7996943124255098
  0.0042764824969848  0.4005888968925159  0.9987692220247146
  0.0002291388234992  0.4000111064950881  0.1970462158567742
  0.0011183779131108  0.3989306343838779  0.7998109164415020
  0.9968553145739084  0.5998807114406332  0.0003926779401886
  0.9977022164761985  0.5985914686081978  0.2015799917937625
  0.9988756989261919  0.6015951773300372  0.4001800055261974
  0.9976390163039079  0.5990660096783718  0.5995847600927467
  0.9993030818003642  0.5990743437929923  0.7996547597571210
  0.0027517141904179  0.7990015653588377  0.9997394949371884
  0.9982666949466757  0.7987496066217468  0.2007489680191107
  0.0030462182699216  0.7994392048264952  0.4011551895188875
  0.0010933435145495  0.7987080223476647  0.6023381506398047
  0.9995949798565932  0.7987394356128600  0.8001480085918713
  0.1999122009879109  0.9974710161756496  0.0002975674909469
  0.2001859643074257  0.9998058150247994  0.2015389874134655
  0.1996215699538146  0.9996234826013595  0.4000340199757321
  0.1974562956388544  0.9988222883700090  0.5997894599833921
  0.2012214344700454  0.9981207182690510  0.7987943194145198
  0.2009439307137061  0.1995666423795186  0.0007259074768389
  0.2010546812307898  0.1997129687315980  0.1989352611102115
  0.1993724452396629  0.1990723212698133  0.3992129107368400
  0.1969018905394882  0.2000218713822563  0.5962862795593636
  0.1997554622171678  0.3988734820382215  0.9992047692692280
  0.2020103956073250  0.3996511976864745  0.1993956163952414
  0.2013490277400105  0.3996300925748226  0.4004488761157360
  0.1978841141503175  0.4006279601928676  0.5997914427001179
  0.2017981511200007  0.4005917860506455  0.8002774725385574
  0.1996715860979375  0.5994133407613387  0.2042273429979267
  0.1978119532194891  0.5999605244498061  0.4002068500683737
  0.1992480357541437  0.5998016603281705  0.5959171739890938
  0.2004148695852445  0.7992536673180568  0.1970748174676039
  0.1998374506386404  0.8006103104337086  0.4004400207096225
  0.1997878378303708  0.7985921974058960  0.6020451117190351
  0.2013665531342665  0.8005735980273302  0.8041264346748569
  0.3990732882086321  0.9992621188969218  0.0010116525732100
  0.4012820312615011  0.9997247444394511  0.2002085505048849
  0.3995011542265074  0.0002391603604401  0.3995006531867492
  0.4022605890695047  0.9989963771307809  0.8020652944576170
  0.4013737663013719  0.2008331972410203  0.1994678957659085
  0.3999544155604088  0.1990702116091805  0.3985857999333610
  0.4046931246762286  0.2003131473797492  0.8031495847633879
  0.3996718031307859  0.2656695760552409  0.0006908695216683
  0.4013722158356289  0.4003562395278190  0.2020767660266398
  0.3975824448883252  0.3984152559844888  0.4017781556771761
  0.3988701917941861  0.4036004864626624  0.6017938085360216
  0.3992792789051564  0.3992086320049793  0.8009675691951837
  0.4010489587317844  0.5998225915704207  0.0001714031320551
  0.4015878417760614  0.5988417524546734  0.1985076582555555
  0.4003206408861373  0.6002295785830225  0.6021352670027899
  0.4026229848777578  0.5993642997026554  0.8008977723785125
  0.4009212302368515  0.7992622577236584  0.2016116037207380
  0.3955826686991112  0.8019957169494171  0.4008307904911103
  0.3990727532497019  0.7968818232163122  0.6023722694915654
  0.6001399941268273  0.0008144147700465  0.4002602012216475
  0.6025757654209611  0.9991348556225234  0.5986893981063341
  0.6008741186570214  0.0000208513094009  0.7960116118551139
  0.6010344707875780  0.2030816194400540  0.9992090421742710
  0.6007140809472639  0.2000238282857028  0.1984919821490546
  0.5989739219868285  0.1983668794849123  0.3999476019805422
  0.6022534558107567  0.2001798255714159  0.5996754229981045
  0.6013225476479883  0.1996874643019789  0.7996255580679307
  0.5955482652024210  0.4007305152626333  0.9987853340236841
  0.5995550637171344  0.4003117971152559  0.6025102319075251
  0.5984627976559530  0.3995641963564066  0.7995921299519628
  0.5996610068199952  0.5997667444708391  0.0002067465187476
  0.6006856802703776  0.5988349432106060  0.2013141518211934
  0.6017074870836687  0.6002880878455468  0.5985645053723749
  0.5990155565869045  0.5994868831361191  0.7992901264759629
  0.5994616922850706  0.7981764548989974  0.0001558141170537
  0.5999498099880558  0.8006175085523419  0.1987239778727939
  0.5995055063978367  0.7992980081619346  0.6026452953472853
  0.5995491269316393  0.7992791646716999  0.8004215597369182
  0.8020776056272103  0.9995626741914100  0.0006031242175770
  0.7997056743363073  0.0004318857279166  0.3995574701007517
  0.8008492016901886  0.9991987733872350  0.5986358302587146
  0.8001857984490273  0.9989968860889730  0.7990810260155341
  0.8002754194771896  0.1984345410279680  0.9998775426000032
  0.7994365330876518  0.2006090441927311  0.1985144363141046
  0.8000891852721194  0.1998447067016290  0.3985139993704332
  0.8004737617209794  0.1993071113602072  0.5984035827902884
  0.8003763124809993  0.1984858609374793  0.7986360862579417
  0.7986247134909366  0.4007876737163210  0.1994280617273453
  0.7994473142703056  0.3991741481770079  0.3983201134064592
  0.8011833670634839  0.4002976131039167  0.5985044652939012
  0.7993213065143943  0.3957689723682823  0.7957861691791029
  0.7991172356244629  0.6033242224959777  0.0045937942912428
  0.7988363108839480  0.5980002086717617  0.3983859206969463
  0.7999937658581626  0.5996487307841906  0.5970907891893477
  0.8008106192706483  0.8007907784835236  0.0001500096636827
  0.7988981832608196  0.7993806266380760  0.1993780157250606
  0.8003960887093153  0.7983295043072951  0.6031415716193620
  0.8002642718391011  0.8013903925042186  0.8015526700421909
  0.9994261795103594  0.9988024149270149  0.6002173611462936
  0.9999268333223048  0.4000970000366380  0.6024657048300183
  0.3991859028756019  0.7994037926187363  0.0001990628915516
  0.4002344476556138  0.7987165126577376  0.8018024383339186
  0.6007867731600733  0.0000337132510421  0.2021469403858271
  0.5994710910673586  0.3994476397656175  0.1969624685567507
  0.6020273534680080  0.5993098360795273  0.3999654889324982
  0.7995546904356670  0.0000020144292393  0.2002194378537525
  0.7990534761606118  0.5999081918471149  0.2004058252532172
  0.1972258141447468  0.8024938039605125  0.0009759753188572
