Zr Ti V  Cr W 
 1.0000000000000000
    14.7457463513072824   -0.0149763431985364   -0.0655365999946418
    -0.0143951563989034   14.9971730879302907   -0.0462561394235708
    -0.0653521615894450   -0.0483054845289625   14.7995314272351983
 Zr  Ti  V   Cr  W  
   2   2 107   9   4
Selective dynamics
Cartesian
  5.3585706848176038  2.7256768925732726  0.1993911859004579   F   F   F
  9.0988579413853170  9.1819842864794499 11.4841132843357911   F   F   F
  2.2494562541244805  9.3211639352532867  2.5643243349619684   F   F   F
 11.8972705043390068  8.8473769527336348  3.1576416745811060   F   F   F
 14.7770777144930090  0.2457150041609005  2.3327437502800579   F   F   F
 -0.5019125931490575 15.0481336785366420  4.5587809477282946   F   F   F
  0.3333909706690361 -0.7823602393894296  9.4443485261492679   F   F   F
 13.8050672184299295 -0.3311263515380658 11.4799886610690542   F   F   F
 -0.8572089878417152  3.1709642369856947  0.2123985536855936   F   F   F
 -0.4131092303175597  4.0029457643486639  2.1077189524439839   F   F   F
 -0.0909709086803455  2.7756345163448475  5.1064982626640889   F   F   F
 -1.1030361413422494  2.2011312581063569 10.0011970829744943   F   F   F
  0.8132176811530772  1.8768917531224285 12.6398288361087534   F   F   F
 13.7867023136269733  6.9447822732052957 14.5297820736935765   F   F   F
  1.4597557479296341  6.1290298544359523  3.5448079679185396   F   F   F
 14.9786676349782315  5.4420984071148331  5.5877014172221893   F   F   F
 14.2093718709067947  6.2674756460786742  8.4529964387868137   F   F   F
 15.1375368264130703  4.8086720585816085 11.7452878990586935   F   F   F
 14.0786754028012524  9.5774766971574437  0.1469903253486857   F   F   F
 -0.7859963712767893  7.3727677501489195  3.5261670407518211   F   F   F
 14.4283613243298880  9.0070457756200994  6.0371235250998803   F   F   F
  1.0074874833933327  8.1715552361828969  8.6583822448829260   F   F   F
 14.5403296667498445  8.8028292284556251 11.3116267136216653   F   F   F
 14.7423221257580153 12.6027359982593605 -0.4053688744346057   F   F   F
 -0.3483312617654997 11.6376962979793070  3.2432321776926294   F   F   F
 15.2303103621766098 12.7059810384225980  5.1725970830657078   F   F   F
 14.3488924021378565 11.7392210846755045  8.6748264696905260   F   F   F
 15.1997881896188201 11.3563200991401594 12.2104107407835620   F   F   F
  2.8045065102085172  0.0657642505462387  0.1845084253795412   F   F   F
  3.3438835717200464 14.5219163648035412  3.8766450621156556   F   F   F
  1.5529645156788328  0.7708177985053158  5.9492804214044677   F   F   F
  3.5027538240106990 15.1714913030274836  7.7409081334645933   F   F   F
  3.5735224164983537 15.1975219317206758 12.6575264015516140   F   F   F
  1.6741838816234971  2.1408831929101955 15.4131364914443498   F   F   F
  2.8045514733024102  2.7014166423054795  2.7851233512979587   F   F   F
  3.4487200073146114  2.3347156655502497  6.5706904642506618   F   F   F
  1.9552464909309273  2.5038456587239164  9.1925212957007041   F   F   F
  3.0363035613398197  2.8928136866252947 12.1063639870374349   F   F   F
  2.4854737117207644  5.2480336194663844  0.1288351212953889   F   F   F
  4.0864366030398189  6.1578270602717611  3.2535345276212877   F   F   F
  4.0898260009294720  4.7938616668885636  5.5954887451142001   F   F   F
  3.5118970208946050  5.3551084161136560  7.7527230825904123   F   F   F
  2.1798513904331940  5.7127475283115885 11.2655154468391174   F   F   F
  3.5525752405489186  8.7520377735757009  6.0874932037075649   F   F   F
  2.9158390544013626 10.1424579525362919  8.2288100216695899   F   F   F
  3.2941064534772329  7.8209751714009830 12.3710949478330541   F   F   F
  3.4088344370617305 11.2437354522537660 14.4183747570612883   F   F   F
  2.8557630074598679 12.9173674396952531  2.2191268071239159   F   F   F
  2.5921525278631239 11.1757530127726596  4.6327888341991894   F   F   F
  3.0074096852058450 12.8835601629759111  9.2937859526011657   F   F   F
  2.7996229670475272 12.6614929954864088 12.0000727320798255   F   F   F
  6.0375050387833573 13.7468604352839492  0.1663370563132092   F   F   F
  6.5398710147694050  0.4619424394568087  5.6356259131070416   F   F   F
  6.4588942518485455  0.2747551254485663  8.0322704470182327   F   F   F
  6.0406964728280199  0.7097267366819892 11.9855785772009664   F   F   F
  6.1376882283337171  2.0635138808479536  3.9842154375927041   F   F   F
  6.5647625339288567  3.4616401317594550  7.2772310734792303   F   F   F
  5.7053297059976495  3.0746511697635204  9.3976802934025585   F   F   F
  6.0572403071180334  3.6094418545707980 11.6712484575762847   F   F   F
  7.4806203107894582  5.6369634684226027  0.0939202473572536   F   F   F
  6.6201873846302925  6.2503262275359477  5.9928380814305866   F   F   F
  4.8575446490938541  5.9480912802350963 12.1879724677514769   F   F   F
  6.4406765385096465  8.9322989822439247 14.0450780272206188   F   F   F
  5.8383975274463644  8.1538680785408442  2.8700943656502842   F   F   F
  6.7113920024622162 10.0703545673175654  4.7654230275033207   F   F   F
  6.5366451403057724  9.2037921776177392  8.5279538800828334   F   F   F
  5.2577858765791277  9.6350795801346525 11.2760011193194192   F   F   F
  6.2605268651551365 12.4471383151859101  3.7066694160982796   F   F   F
  5.1238005030485798 12.0712691004081965  6.0214124531149817   F   F   F
  5.7202510658309587 12.8330893098611920  9.6505624641143957   F   F   F
  8.0588282808145237 15.1751266093436907  0.2202420085486595   F   F   F
  9.0282918660092442 -0.7166446520112041  2.1612440211440713   F   F   F
  9.2339498374263602 -0.7892070299095381  5.7872665332149618   F   F   F
  8.2685054539668066  0.3511579340802030  9.0199029865219877   F   F   F
  8.7560947475911171 14.5153153359235549 12.5506473830758463   F   F   F
  9.1834071990312722  2.4958544859976670 15.0612069580125514   F   F   F
  8.0264678057229251  2.7652700744876055  2.6448161913084323   F   F   F
  8.7724018893464262  3.2266596756293691  5.1705653369003928   F   F   F
  8.8355850244387746  3.1557838390191715 11.2404370720117832   F   F   F
  9.1490032889738817  6.3037680238840128  3.2276057515116343   F   F   F
  8.9355382052701700  5.4030605212722351  6.1162415007992568   F   F   F
  7.5737161374011635  6.5083521242853895  9.4717391050390347   F   F   F
  9.5153056195417989  5.4828338748439682 12.5224021564097630   F   F   F
  9.3636452835865693  9.1531681543954964 15.1359948078866005   F   F   F
  8.1752180979896156  9.4094426395645900  2.5885857726467818   F   F   F
  8.9462714374290044  9.2442090179818290  5.4969519832846396   F   F   F
  8.8403621000848496  8.7634673690644878  7.8940347108877331   F   F   F
  8.9736104461852513 11.4893216869171226 14.4717262420326946   F   F   F
  9.1134266223757621 11.4657504055458830  3.3968860714958358   F   F   F
  8.1652895509276231 12.2932577679679458  6.7841204336895347   F   F   F
  9.2982697671193826 11.7251496224872422  8.7862381101469396   F   F   F
  8.5048672283446525 12.9478803855563207 10.8034073740342187   F   F   F
 11.8960622590640508 14.9431503041943543 14.6558397356466568   F   F   F
 11.4004400373737838 -0.3282793982829472  3.9124589082684218   F   F   F
 11.0434084329056645  0.9053038058789989  6.6178479480473982   F   F   F
 12.5735019811725603 14.9949139585722211  8.7334630293452875   F   F   F
 11.5900676128708060  0.6995950613526788 11.1371899877968623   F   F   F
 11.5238213286869033  1.8650616997158460  3.0317705687167020   F   F   F
 12.3539105107475500  2.9303502229104992  6.5549262567838857   F   F   F
 11.2628078308128092  3.5083079060307445 14.0579330586976550   F   F   F
 11.8986810897883224  6.3495184697991460  0.3350927446120678   F   F   F
 10.8669051516897568  5.2188387822919999  2.8499230012665326   F   F   F
 11.4015981457989213  6.6436427223221628  6.1955495602034487   F   F   F
 11.2417311530776693  5.4294700251853110  8.9522292464078337   F   F   F
 11.8160459148114523  9.1254616168849214  8.8165583880372171   F   F   F
 11.8659251234062566 10.0959604759429755 10.9986436598577253   F   F   F
 11.2393314180727799 11.5553415756394191  0.6681451223009287   F   F   F
 12.2872712495589003 12.5342688749139040  2.5525549130226666   F   F   F
 11.7489413921984802 11.4650165616623081  5.9794377137834287   F   F   F
 11.3268443046210727 12.8603833240851131  8.5889107316429083   F   F   F
 11.6774813257381869 12.0870260205422788 12.1269950776895694   F   F   F
  2.7703506421464241  8.9257657376330997 14.6495914692764604   F   F   F
  5.7241295921631092  5.9128211288724142  1.6402146625258558   F   F   F
  5.0946766804233663  6.6814702023896926  9.2133922224902829   F   F   F
  6.0851215295225982 11.3133970553692738 -0.1832549285829475   F   F   F
  6.5212182909815839 11.8049476103954838 11.7416175182598721   F   F   F
  8.5530208820786005  2.7037682374147525  8.8020534414656275   F   F   F
  9.7200347779169185  7.0810199306059403 14.5422892231336327   F   F   F
 11.6749464043914486  6.3504687270516067 11.2490296060518666   F   F   F
 11.9208765009097135  9.0751222073722619  5.8505905521973345   F   F   F
 -0.3728538192033330 15.6118792652752632 -0.4944724964130595   F   F   F
  5.7036592748447985 15.1492520022353805  2.2753499668141823   F   F   F
 11.0669815006469587  2.4481648484140357  9.2731382594190119   F   F   F
 11.6909301518649880  9.0751224582931318 14.0121137942084903   F   F   F
