Ti V  Cr W 
 1.0000000000000000
    15.4171836946855763   -0.0006458025225840    0.0021743795697675
    -0.0006464432342440   15.4108214600062574    0.0048957167363750
     0.0021730867805691    0.0048939939426410   15.4267125679285311
 Ti  V   Cr  W  
  13 101   9   1
Direct
  0.0014501556216789  0.4009297959713215  0.4005306834667542
  0.2085250822520039  0.2000468848486045  0.7923450166303432
  0.1998964971915438  0.6008097006204693  0.0059574186263682
  0.1989698454261672  0.5981363886733322  0.7917354472052935
  0.4007214375430387  0.9951570111062445  0.5991320056293308
  0.3952647905934466  0.2050173479243932  0.6062232337108358
  0.4026481368096810  0.6018904075663571  0.4010599936598996
  0.5924464577870673  0.9998461954958550  0.9970666004450150
  0.5946274176880484  0.3991481882777111  0.4037436995957595
  0.5904933126768807  0.7984309002390877  0.4012819356604136
  0.8015407908512946  0.4065086263315204  0.9907738681662033
  0.7976722259867709  0.5925739093718844  0.8045461874010373
  0.8040708504643213  0.8019031455112308  0.4021557833808783
  0.9996704821129582  0.9985805166580813  0.2037896976710243
  0.0000692752607033  0.9992336929694344  0.4012053299609512
  0.0014862007207711  0.0000876352812438  0.7987227747496901
  0.0017873411370530  0.2016210240006708  0.9988593795098741
  0.9991814864665700  0.1987053249311337  0.1981199666752983
  0.0002848492251571  0.1985247183254281  0.4000284572787720
  0.9991092360513291  0.2008044848890901  0.6000047094474135
  0.9997779810236821  0.1984209219782220  0.8006849414510561
  0.0036443114943957  0.4002281618321353  0.9985762088482595
  0.0000660919347462  0.3998422400100507  0.1970472223580882
  0.0014866850106126  0.3986477606558056  0.7999146002120265
  0.9970904751756956  0.5986252749468802  0.0005148986144514
  0.9975275202277093  0.5984837771428156  0.2016686701945801
  0.9991950592450997  0.6008993310871648  0.4001155267072845
  0.9976406966872576  0.5986112540137811  0.5997399009251689
  0.9994216334882048  0.5989160816915536  0.7996508089873415
  0.0015831743716457  0.8299011063999748  0.0000846356059965
  0.9978828076939789  0.7991624884353359  0.2005571406364546
  0.0029134692197237  0.7986612314992386  0.4018702662223598
  0.0008969393100129  0.7980664496766243  0.6021011956110970
  0.9990466524388256  0.7990895655991007  0.8005779808253218
  0.2021826534569374  0.0000854537392710  0.9995587262427822
  0.1989400662351878  0.0001374149605804  0.2004001413104516
  0.2006814603200175  0.9998618484060631  0.4002064211659839
  0.1981958245117610  0.9989101365397600  0.5991129752806684
  0.2009339178118485  0.9991023106329744  0.7989214031747658
  0.2002968201120627  0.1987331177528668  0.0010551411552593
  0.2010348775854786  0.2003403616390120  0.1998917741791383
  0.1998163491922145  0.1993542371634393  0.3990671007743249
  0.1970942626401593  0.2002337151135613  0.5956157094505296
  0.2010310220876073  0.3988824920614992  0.9996102822674587
  0.2007128483081386  0.3996521122082666  0.2007936692797901
  0.2023464547325897  0.3998128081480654  0.4001218288031233
  0.1983071043471867  0.4008115383579808  0.5992154133306721
  0.2016178021911120  0.4001796892497907  0.7990690071155613
  0.1997542346640937  0.5999138162672493  0.2037511557463602
  0.1983384996596565  0.5998790162750280  0.3999177516783541
  0.1994511735134797  0.5997464554334536  0.5957030608163589
  0.2001216802985003  0.7994157969446256  0.1962973083388344
  0.2000014503886401  0.8006814006564937  0.3998541958198725
  0.1998079726633252  0.7985463173539746  0.6018900135046878
  0.2011880225731608  0.8008103238282834  0.8043045599451948
  0.3988195921763154  0.0004563779121789  0.0010327264149170
  0.4014849594299269  0.9993571631976826  0.2006015927967584
  0.3997324558335416  0.0007250743508114  0.3994589671786223
  0.4028535675972429  0.9984360049290875  0.8014357901975226
  0.4004641660042293  0.2009827203373903  0.0015072565602695
  0.4013497026295848  0.2001453302885859  0.1999424669678272
  0.4003322381167256  0.1997337512010355  0.3983435655330719
  0.4051002776943373  0.1996908101834157  0.8035129624209691
  0.3989757550487881  0.4002866109792181  0.9985219405902015
  0.4012068730500578  0.4008944864698504  0.1994447315133751
  0.3979310523125599  0.3982590795802715  0.4007201184374186
  0.3990759436439019  0.4035233463215815  0.6014227925245084
  0.4001923819619366  0.4002783023213383  0.8010920423024357
  0.4016558345825204  0.5994110976660180  0.0002261358770137
  0.4016638652931119  0.5997043083902180  0.1990991912712036
  0.4003551101504237  0.5998300486636352  0.6018002760919480
  0.4025698732026773  0.6005082441559808  0.8001856441011738
  0.4005440000407074  0.7991374141202195  0.2013324418683464
  0.3956282655414284  0.8018007155407992  0.4006910159633010
  0.3991344423846817  0.7966941328608993  0.6019599148799220
  0.5999189524309145  0.0011071624439781  0.4005891864323427
  0.6024442474005820  0.9993555792607351  0.5991010501236705
  0.6010869982715550  0.0001867849195125  0.7961764313814431
  0.6009003959165515  0.2019114648761867  0.9994786802853953
  0.6013674048712435  0.1999106200747464  0.1994968789544677
  0.5989745570541171  0.1982936556375009  0.4001504907203315
  0.6019088502537883  0.2005375599414380  0.5997442612757656
  0.6019162240230868  0.1998171613606747  0.7994118635467844
  0.5981131328366039  0.4006798556565265  0.9993032419548143
  0.5993020364984672  0.4001742811005641  0.6019666814533268
  0.5991960252226172  0.3994185880658938  0.7985081293667771
  0.6001888190415906  0.6003747709130729  0.0002741696151547
  0.6006166574839300  0.5986122031364993  0.2013932205110746
  0.6014915739527198  0.6000464536324144  0.5984691968638913
  0.5984890068513455  0.5988744139651713  0.7995604212423749
  0.5991265284934443  0.7980068837401074  0.0000154463285074
  0.5997138956232120  0.8003616594695485  0.1984004275533756
  0.5990807189257588  0.7990922354499507  0.6025167448414911
  0.5995495816846933  0.7992448392107686  0.8004338005890920
  0.8049209278919647  0.9994643499358830  0.0009601478683126
  0.7992921519257985  0.0006221185369704  0.4005287139807305
  0.8006086794310642  0.9992660551833257  0.5990637775787959
  0.8015486110115028  0.9988745057329003  0.8010936232432362
  0.8009680501292122  0.1969198965766368  0.0003134323163270
  0.7994732635762938  0.2001957025140327  0.1987911126693383
  0.8001056193285712  0.2000492408586187  0.3991374797732083
  0.8003456090339880  0.1994076060963388  0.5989478301651634
  0.8005707316971350  0.1985316055036350  0.7987038909662180
  0.7985319644133571  0.4004944656726029  0.1997876352475866
  0.7990565343468951  0.3992155235454458  0.3983825594534134
  0.8009501300184512  0.4002804441658364  0.5983512964203843
  0.7995024711067498  0.3953949306471923  0.7959011014989371
  0.7989570811802048  0.6033933186767880  0.0047631769828513
  0.7985925323532311  0.5979130668462607  0.3987126958939656
  0.7996821545706582  0.5993303899652803  0.5973499712764831
  0.8012153392654146  0.8019420756145118  0.0003661124195436
  0.7984506049514771  0.7990848918241451  0.1993097915683874
  0.7998788529889319  0.7981805688080691  0.6032574181582921
  0.7996040591720913  0.8009736733375571  0.8016539017907249
  0.9996851119973696  0.9987855876345960  0.6003907873848247
  0.0001119124393210  0.4000276845452973  0.6025231285202464
  0.3985497418233004  0.7995378953181251  0.9999289054428685
  0.4000931662095784  0.7987835375265688  0.8015707483657057
  0.6009523100458680  0.9997798169434353  0.2023214765322455
  0.5996427899566046  0.3993638143204825  0.1971790093910711
  0.6019307509745633  0.5993088947721946  0.3998797132271975
  0.7995401696262006  0.9995100874113608  0.2012672942566574
  0.7991754558782551  0.5998416052677106  0.2005860485747384
  0.1956711288174851  0.8060981926274208  0.0005155105861991
