Zr Ti V  Cr W 
 1.0000000000000000
    12.2882735461728885    0.0000000000000000   -4.3445607757035454
    -6.1441367710433559   10.6419570608175889   -4.3445607757035454
     0.0000000000000000    0.0000000000000000   13.0336823299999995
 Zr  Ti  V   Cr  W  
  30   9  49   9  27
Direct
  0.9890926170653902  0.9888335750741060  0.9681078130983948
  0.9530008779678301  0.1484785835953767  0.1536393159474433
  0.0255413923698166  0.5888066905215199  0.5936859910216352
  0.0295309610885370  0.5803783662307348  0.8049585528928827
  0.0194400780727395  0.7976658721928001  0.0085881824018326
  0.2071731893874043  0.0075437628385214  0.1671267666630444
  0.1952225241476368  0.9899664546615161  0.3769490766982735
  0.1244456515473883  0.1557964820954552  0.7688755215759577
  0.1746020773883719  0.3793475404060365  0.3849292186517159
  0.1468105528942069  0.3958568324545443  0.5970594334747945
  0.0998867069392254  0.3612559711489980  0.8262496651347425
  0.2311023034938065  0.7873580951719840  0.9940863304463970
  0.3948542259980904  0.0066446279576675  0.5889744105281656
  0.3890688451044448  0.2085134896561059  0.9887723520176178
  0.4216336733331861  0.2254304335407416  0.6158117997979655
  0.3361730958842803  0.3817462982360668  0.7979865063211116
  0.3833876371214902  0.5882930310702393  0.9971632406812841
  0.4329613046590113  0.6102753805312801  0.5888917507015891
  0.5452392705649038  0.0028741184549236  0.0161504186708871
  0.6078928665203356  0.2154819931065466  0.3916836536813443
  0.5816486059032824  0.4339894955735735  0.0072096694468853
  0.5849588312341631  0.4527648734228536  0.8185481537600660
  0.5901248179631662  0.6161579462390772  0.2092096349772967
  0.6199556226613961  0.8501945925250446  0.8874447328938808
  0.8134468128467214  0.0057783909132345  0.4212701103465351
  0.7623750786752617  0.1843469255981463  0.1887439189531821
  0.8040958703005088  0.2095780222047757  0.3955420606699708
  0.8249389936600854  0.2286252745498688  0.6187929161582798
  0.8210806763607296  0.8084391771470275  0.4502757405006787
  0.7937520365910256  0.7961116752099965  0.8276519635293210
  0.9635546168212643  0.9393470282552184  0.7531088303166836
  0.9926671707049315  0.1998856999619327  0.9749278654304236
  0.9779948396682077  0.3880038978429646  0.3773885367711021
  0.4056845761402038  0.4013535102764319  0.2067280028024822
  0.6035104573416035  0.9700109214953061  0.2072068992459064
  0.6102465545089752  0.2077675541967899  0.5959602227633080
  0.6245879566381318  0.7566607299318343  0.0213304893557457
  0.8223144967761710  0.0205009768167309  0.6319226432731604
  0.8152064443013766  0.8170319446190824  0.6420986770499650
  0.0015745992336938  0.9924226959885020  0.2073793540883950
  0.0009745188447503  0.9885478769042469  0.3945822205201244
  0.9932746086055002  0.1794169781306711  0.3840164071685490
  0.0054681479289017  0.1850876633201536  0.5874678267961997
  0.0008477461243712  0.5925875746884751  0.0038506314279533
  0.9953845793927677  0.7932562927464998  0.1979492543536499
  0.0117263482850867  0.7904131325509876  0.6030342999347880
  0.0272430970735395  0.7886177930946174  0.7994130499813606
  0.2157867556586577  0.9786884447146719  0.9732939429942414
  0.1918935543516539  0.1868912273290030  0.3745608232178733
  0.1981733486691722  0.5968559343785967  0.0217567977491085
  0.2069548402588864  0.6020011893005833  0.2108546497194037
  0.1952114973615794  0.5953378912022693  0.3904727610070205
  0.2305805641284026  0.6127441939786286  0.5921544041550664
  0.2043911315797356  0.7916307662920091  0.3958862293291442
  0.2038082750813427  0.7947822275676124  0.5892892487464972
  0.2361284308427686  0.8021028189478810  0.7921434209993033
  0.4281889236427237  0.0110671673445032  0.0032596071634623
  0.4059254681273357  0.0047924929520845  0.3857412434166321
  0.3994321411992999  0.0015730724254583  0.7911765124363391
  0.4123539393046203  0.2072918655758466  0.1942689904139872
  0.3762511413040739  0.1832144180122397  0.7852495699323948
  0.3335081162564641  0.3865482878408116  0.0067888267993367
  0.3943524347671378  0.3917299953405773  0.3816102232555773
  0.3917656650014809  0.6022130424350608  0.2107029684344778
  0.3928087168244334  0.5941434372190391  0.3833347307407742
  0.4310963677802772  0.7896572856235511  0.9994927184031298
  0.4043793380093528  0.7960810762700000  0.2021072133001673
  0.4001419894509505  0.8006245912266787  0.3958829565737911
  0.4092278105837661  0.8035513540990065  0.7828830269517383
  0.6071716495219831  0.0070183333425238  0.6022485333198979
  0.5941334339808374  0.2153405551165993  0.8038272521315633
  0.6045909833886327  0.4209886816374999  0.2130809978700829
  0.6075554319782451  0.4167619885788112  0.4043111389747364
  0.6012851684966443  0.4126050331953399  0.6040140126176458
  0.6141823024048569  0.5882844592540222  0.6045538654982354
  0.6083339753889891  0.7989714582209634  0.2198048706073839
  0.6150455986219396  0.8180154702442211  0.6218054908573756
  0.7859786760688224  0.9984314838227211  0.0138106258762540
  0.8002188166584717  0.9713248447825837  0.2123955929719524
  0.7909858663286663  0.0086210597210217  0.8099574742290819
  0.7912562234804994  0.4140276068850787  0.0006402223052595
  0.7968970184801871  0.4146148670329321  0.3907245508752823
  0.8073308452009428  0.6103581279515722  0.0125706763912481
  0.8053486629176506  0.6163680928225060  0.2107483193899414
  0.8112169476775306  0.6012116805205839  0.4099074048621221
  0.8184613136495839  0.6200222989294853  0.6044249240134297
  0.8241288232407673  0.8032151053093344  0.0243968036721402
  0.8194181438571742  0.8000198159186936  0.2284525167599171
  0.0121309012474849  0.9963530711541265  0.5996354517030565
  0.9971539566155310  0.3697703674272628  0.5914148766666596
  0.0060006256903635  0.4220094033283611  0.7955247988819759
  0.0059946630877693  0.5998200140083531  0.3961260392207627
  0.1971472730310017  0.9959698509790800  0.5999399026524845
  0.1978074006260517  0.2059019871232117  0.1938780346638842
  0.1661271164070316  0.3375907324262602  0.9586513236065475
  0.5928563950648958  0.2275123653747378  0.1990256280410333
  0.6147281018629279  0.5980683456089301  0.8051635721264658
  0.0024742985804263  0.4117005770129476  0.9988992618189174
  0.9948153150175713  0.3976061245554219  0.1912864545108400
  0.0006615258651268  0.6041599947826422  0.2017671000915052
  0.0138840777600031  0.7983195135579974  0.4096235011777132
  0.1936266882754328  0.9793290419813302  0.7826201968637116
  0.1962793002781267  0.1796047327713002  0.0152923827623151
  0.1864973365598109  0.1756167768665516  0.5689150072607950
  0.1962182274370462  0.3943120735910163  0.1781347330806487
  0.2383455861836768  0.6057160174224924  0.8037054198637406
  0.2062441409946772  0.7960505981495319  0.2023366417982852
  0.4196449929947715  0.0017384996904148  0.1923724990025635
  0.4026131118284944  0.2102717770651498  0.3895561544200712
  0.3782885530106709  0.3931337048708018  0.5801349475969184
  0.4167832313530463  0.5985933563336905  0.7843283882453993
  0.4020237949425202  0.8034500120491420  0.5855610833382860
  0.5970971762114093  0.0008093988499782  0.4081013722109612
  0.5945723645042335  0.0098076805672439  0.7940718436927052
  0.5933200555649334  0.2188777499380819  0.9899315542759074
  0.6208718684279608  0.6700057935752781  0.0123027807450244
  0.6065636447638375  0.6071232985603591  0.4227747312669726
  0.5972477446607520  0.8014581159750053  0.4182933743999580
  0.7891615463738907  0.2122923430067594  0.9974043770505946
  0.7985857490885180  0.2068219936691822  0.8039797821821832
  0.7967210297555126  0.4189197705566446  0.1985746710234319
  0.8115308568405217  0.4272614762755941  0.5953390261940715
  0.7948404519917521  0.4042749952643639  0.8041923559633283
  0.8062092761081947  0.5992451257853438  0.8004771463800662
