Zr V  Cr W 
 1.0000000000000000
    15.4863295998759050    0.0024137293282322    0.0105674120120943
     0.0024156779473548   15.5040449564505511   -0.0174543962439357
     0.0105707746262879   -0.0174578174046017   15.4782021514271442
 Zr  V   Cr  W  
  10 107   6   1
Direct
  0.0007679116879187  0.9662409607963249  0.7593990156429791
  0.0957087333914512  0.3058191917619489  0.6020417068038448
  0.0000362671778151  0.4328021044099858  0.0392465632082249
  0.0039487822034729  0.5784217658483284  0.2196308791755505
  0.9608761031648388  0.7922509470262596  0.1932976508138007
  0.0034610967142208  0.7972178585933758  0.5981578093138870
  0.2000464635451282  0.6087333872707784  0.5987390744642157
  0.3587164726805366  0.8028549248615923  0.2001260869735151
  0.8365549806841044  0.4301804032166777  0.3973941433644494
  0.7503890634889550  0.7915065181563299  0.1980586736708089
  0.0009530115645763  0.0058212989107627  0.0004893076147070
  0.0040014011723011  0.9977228203424428  0.3934032853865507
  0.0011806693988608  0.0129048425934731  0.5764690813019293
  0.0009712721798147  0.1990009162663022  0.2027841792332310
  0.0014869185342679  0.1990416046329226  0.4009004410597298
  0.0006057148961447  0.2035789956008599  0.8083751601759611
  0.0004047016719870  0.3863307416127743  0.2314023351440693
  0.0262322905795942  0.3947643106837845  0.4149289972139161
  0.9897376487898841  0.4017276101963457  0.6017894367634165
  0.0011231318230338  0.3957639180505388  0.7993430578203072
  0.0006602959408160  0.6227423692253801  0.0121429834793074
  0.0059543625341563  0.6049703694788439  0.4170460324458846
  0.9947641716979940  0.5951505046823974  0.6090192842960777
  0.9988633915329822  0.5913279714869939  0.8098624740705599
  0.0016469492556226  0.8117781841415097  0.9918725523078428
  0.0022905162264621  0.8001176663858125  0.3958286308792349
  0.0004097212089306  0.7807974518126247  0.8034410577320736
  0.1997930476669885  0.0018811980401139  0.9975516260413216
  0.2004778156084094  0.0010860499678090  0.1988344044949710
  0.2021069284367621  0.9985807628669351  0.3972080583965985
  0.2016080402962633  0.0023349963162655  0.5973429858631099
  0.2029059039693974  0.0004687917826984  0.7999490705690070
  0.2016713617881253  0.2005375535764596  0.0008885289090474
  0.2014722099379014  0.1998460917705604  0.1989238656219676
  0.2029353606302882  0.1980336986936519  0.3992752968543791
  0.2002362844136462  0.1999028428585014  0.8003708585621361
  0.2030819318849130  0.4007502165909521  0.0005330765821263
  0.1988513287482456  0.3990189248465076  0.1980881796652890
  0.2066092244678949  0.4019956170445154  0.3948637370562077
  0.1996237822156025  0.3995511711382356  0.8041677824201141
  0.2010035272242332  0.6023240270487654  0.0012922227756235
  0.2069631003392130  0.6006804117698656  0.1988733451276480
  0.2013177447934373  0.6005765193564400  0.3934315122244154
  0.2001472845166468  0.5989958809586378  0.8050586607378512
  0.1995070194905677  0.8024713669254704  0.9996077033884547
  0.1719339379066238  0.7968209723031235  0.1972744153475057
  0.1990305874507158  0.7992581564134950  0.3989919025748332
  0.2075746954123456  0.8072534419910353  0.5987424743015033
  0.1992273240245786  0.7992330203674739  0.7983627812835838
  0.4015138665902659  0.0002484287672120  0.9986034554699718
  0.4024140118519175  0.0037081622395188  0.1982475159263038
  0.4004144953829542  0.9984592886858052  0.3987219376578036
  0.4026105878369742  0.0008763232164581  0.5983265081963073
  0.4002961997055404  0.9988273856596703  0.7973209403413783
  0.4012542292271929  0.1998092332484683  0.9988100671438523
  0.4010238819552320  0.2003886745700669  0.1999400902519149
  0.4008538763706966  0.1986788292896659  0.3998050367184895
  0.4014115360728904  0.2004534120323329  0.5990891125224775
  0.4004692812134202  0.4000017161931032  0.9997284733278051
  0.4002850911094193  0.3975602360012558  0.1992981862126692
  0.4012666541871660  0.3982977676769473  0.4006485235011760
  0.4026936396781153  0.3996690233827640  0.6002540079918670
  0.3997790283150054  0.3994758941794030  0.7986068971892599
  0.4022566107729030  0.6006902580875049  0.9997980052348402
  0.4041788067465747  0.5937385575912464  0.2004522683979123
  0.4013591965269462  0.6007163130120663  0.4004493425450847
  0.4056748311781222  0.5991180994692138  0.5991184289689131
  0.4007545576631578  0.6000083156049175  0.8004289180961947
  0.3991198074077216  0.8006630681813021  0.9947504165913524
  0.4003044089202150  0.7992095561547083  0.4029006683475225
  0.4009691996697634  0.8004400895396403  0.6004962150836846
  0.4002797539709487  0.7987858795835919  0.7987861223286267
  0.6006159714473713  0.9990091253035821  0.9988163112720416
  0.6009463091018151  0.9963282693278794  0.1988492654020056
  0.6008321681404248  0.9976311814807115  0.3977591052731988
  0.6005431379277846  0.9992213500843962  0.5971644423592918
  0.6006442231310313  0.9977637058881939  0.7981519919620791
  0.5993684607460369  0.1984710538333161  0.9998724961905852
  0.6014655073803683  0.2002903342589001  0.1990542107641839
  0.6001550303494048  0.1989031593091796  0.5994015711786363
  0.5999765419593074  0.1993678589928837  0.8000293424379316
  0.6003136771340367  0.3989381667676020  0.9990685411600420
  0.6022992906225650  0.4002396903926952  0.1997082765272625
  0.6025149438288294  0.3988276102759390  0.3980030741046077
  0.6009611056710554  0.3999003640601732  0.5979735655770051
  0.5993552076628781  0.3999346341878005  0.7997308985714039
  0.6023418129990513  0.5999599370201546  0.0039643287568001
  0.6039093001078014  0.5991176780055206  0.3956412841637905
  0.6021122891910184  0.6002945531600546  0.5970136385504634
  0.6018042381569616  0.5994437391015532  0.8018066376926052
  0.6009310615343624  0.8003083818571690  0.9978465943250496
  0.5645105001029056  0.7905423317348426  0.1987386099067565
  0.5992841704649370  0.7995124909359815  0.3985041379178320
  0.6010498697570184  0.7995620330907047  0.5985981187110692
  0.5997895827675560  0.7979215768240541  0.7982064824471675
  0.8014013330433479  0.0010468903744780  0.9974364211197029
  0.8013576225335696  0.9975034607870700  0.1983031457144326
  0.8005586230630377  0.9998166254877280  0.3983077962324778
  0.8022381751582850  0.0010223514980445  0.5989112278181721
  0.7985415487402220  0.9996817301245279  0.7993273497473760
  0.7994180953576729  0.2000951959810830  0.9997150557302551
  0.7994794677384177  0.1993425603677821  0.1990847187077932
  0.8007357760992189  0.1959759889990703  0.3995825474379112
  0.7949877424662437  0.2013415998164353  0.6000393493651098
  0.8013065871563191  0.1991679373536544  0.8007421657691992
  0.8040606464691236  0.3976150233231487  0.1944494914606726
  0.7963176794713029  0.3996300886729051  0.6008217133100771
  0.7990134144580250  0.3999523088965038  0.8009367186567009
  0.8032538590990023  0.6007583060283609  0.0001381025435401
  0.7941368171205705  0.5944289431230695  0.2074394325833365
  0.8024001120984701  0.6172548974532421  0.4035765918491636
  0.7984911025510896  0.6011089114807470  0.6006830663939065
  0.8004911561847541  0.5990220315037068  0.8024005491351517
  0.8024933278671811  0.8021609007823838  0.9968267528950192
  0.8064246294231189  0.8056855398868843  0.4008968690594602
  0.7963394891099905  0.8011127217690692  0.6003694331528148
  0.8008726223110415  0.7987018348786271  0.7985026738690258
  0.0002142742988769  0.0029432632376944  0.1976401403370474
  0.0005279374008640  0.2006628831051396  0.0033613993940098
  0.2026817408392522  0.2026604517781489  0.6004882599095090
  0.4005549366726939  0.1995175956335441  0.7992635279698906
  0.6002824400229576  0.1985071227204850  0.3985305550772929
  0.7976457148783547  0.3994545944021730  0.9983268726117694
  0.6015600781446381  0.5976879079082360  0.1990370211517536
