Zr Ti V  Cr W 
 1.0000000000000000
    15.4244097105604929   -0.0012107223225386   -0.0042394490092486
    -0.0012099076426666   15.4412294863263000   -0.0024734284807045
    -0.0042424892746054   -0.0024736538270091   15.4407019588637713
 Zr  Ti  V   Cr  W  
   1   3 110   3   7
Direct
  0.4028446478873142  0.4043843738322907  0.1973027435433355
  0.9998123645308425  0.3905641070724869  0.9998960562294933
  0.1990844426815955  0.9980862622406067  0.3993673866597292
  0.7995242159656216  0.6005037476294871  0.2106438310386483
  0.9990462536027639  0.0016104990812125  0.0007079225710531
  0.0007953225419178  0.9994211031992487  0.2009385681081775
  0.9971634350247397  0.0000699138742208  0.3995218645674494
  0.9992983085792353  0.0011917037496521  0.6008871105830901
  0.9996327064772865  0.0000377998806973  0.8000400812822152
  0.9996098114036627  0.2005033448161171  0.4000779722219551
  0.9999236767668312  0.1989989947660198  0.6011877437847692
  0.9994703931209736  0.1995953285735324  0.8025907326698211
  0.9992179108667828  0.3979258171537315  0.2016054706857905
  0.9992740318742690  0.3992231928767500  0.4004635068269459
  0.9994356221744410  0.3978033796117439  0.6006552434969636
  0.0001678798594613  0.3990803030944452  0.7973170224682843
  0.9954773751699254  0.6006939067740097  0.0020515832440390
  0.0031567017965051  0.5992032300039420  0.1991771791595074
  0.9985819951626262  0.5997370937901642  0.3990825649108443
  0.9991462010239918  0.5998352243061200  0.6016447482518905
  0.0004422142718779  0.5992170385710001  0.7998881525665785
  0.0006945130903604  0.8007268217960495  0.0009456669392451
  0.0031436599396055  0.8011788286975218  0.4003809724446341
  0.9990103734859874  0.8011835751091952  0.6014653086223483
  0.0005003041860909  0.8008859410625627  0.8000339251115844
  0.1997255305278184  0.9983768699998765  0.0010545579957449
  0.1999082436305518  0.0012300783797041  0.1991926164366795
  0.1997261936304994  0.0001880494808795  0.6020125884513234
  0.2005803662539576  0.0001350429339281  0.7997398844176561
  0.1958793466822108  0.2007396338379366  0.9997563147940179
  0.2009732688127620  0.2004327747642728  0.2005276200830459
  0.1992018435573643  0.2038844725439084  0.3995442304797142
  0.1998846024122671  0.2004065359060898  0.5998042103529294
  0.2021134365719915  0.2006547115680379  0.7992577250708442
  0.2009311698674114  0.4005863007046726  0.9992037197759761
  0.1958868465559792  0.3987764694680077  0.2004486784238195
  0.1983853260451967  0.4044730040453882  0.4012769859497893
  0.1997523582925381  0.4001335795818945  0.6002179190889646
  0.2005190974601888  0.4009171355901864  0.7987692029033054
  0.1974463305836075  0.6005450015649687  0.0017870292844758
  0.2013799176142075  0.5963888947070410  0.2038390055468958
  0.1990464325104966  0.5985896338799640  0.5965795510316000
  0.1996308123042394  0.5997059765885950  0.7998129985464806
  0.1985181781478150  0.7990137184113650  0.9993923020208755
  0.0666489477147969  0.8015801505250241  0.2011327525257726
  0.1999068066578580  0.8000946876624756  0.5968534710842124
  0.2000373859370476  0.7987938010145220  0.7987307440086736
  0.3994195569442527  0.9993392754204530  0.0003516010982290
  0.3999434252093123  0.9987286458857989  0.2000176920011991
  0.4020814017669642  0.9992167329641806  0.3998156613697009
  0.3998007072930637  0.0001384179480841  0.5999532057770771
  0.3992753285906141  0.9992870501874945  0.8005787718583969
  0.3986770502348038  0.1998983355036340  0.0003917843458443
  0.4004980691379643  0.1971715589884115  0.1990607615443573
  0.4000096090317145  0.2004091342528112  0.3998363351601187
  0.3993145154689582  0.1995606640427189  0.5993573404568793
  0.4038120175148258  0.2004316773739118  0.8005169420659654
  0.4001723034478256  0.3999260504036159  0.9934867231899962
  0.4007515585676318  0.4001873362211456  0.4041093966700534
  0.4002740368920671  0.3997177956603293  0.6008448256260077
  0.3998734445237748  0.4006570118257682  0.7987058032558930
  0.4004282432076950  0.5998488297136871  0.0029363723253755
  0.3956044867557069  0.5992619748404168  0.3963683103163744
  0.4003910956927670  0.5999742188101925  0.6000037779427531
  0.3998489093403670  0.5997392620769544  0.8013756873790830
  0.3995512083839908  0.7999164358962123  0.0001130782975447
  0.4014091302955901  0.8001741021270966  0.1995230711727279
  0.3970992219221642  0.8002788535323202  0.4000329232124448
  0.4006138816909466  0.8001500944063856  0.6006075168371419
  0.3997023228754365  0.7996539274128550  0.7998656035198259
  0.6010403551559017  0.9992928774117119  0.0009427655956606
  0.6000842834527528  0.0005347138148850  0.2000225985162154
  0.6004727515623820  0.9999098072761385  0.4002246862361153
  0.6002344329140535  0.9997041197074027  0.5993920750220125
  0.5997032518224191  0.0026114419938836  0.8001346159023008
  0.6018305765172531  0.2008646911114141  0.9960812373778384
  0.6003241643903239  0.1990315945245671  0.1985369367962265
  0.6007468714649150  0.2008939250753801  0.4005506694021539
  0.5998238092894892  0.2000765467122093  0.6041109622898775
  0.6010370143472747  0.3996947898646313  0.0001221688866163
  0.6057198503987908  0.3972870948707569  0.1993325203011029
  0.6003960054527914  0.3999054522890199  0.4002258398703056
  0.6000779896827640  0.3998937239435664  0.5994562345520187
  0.6038013467252873  0.5995796542602824  0.0001457583699831
  0.5948961706243578  0.6002067750307422  0.2001867778886552
  0.6030296240933072  0.6005097866874902  0.4000719449738027
  0.5984422241976822  0.5997398184047732  0.6003209680529196
  0.5984876411717742  0.6008014393893454  0.7990039588697958
  0.6004478738252650  0.8000133570447858  0.9997042326671625
  0.5991805403971037  0.7997710788981053  0.4003769161104540
  0.5993091508358399  0.8006985556236138  0.6000909595063962
  0.5993237466347517  0.8015195748664925  0.7998298425130790
  0.7999871882870251  0.9976463774206751  0.0011252504225261
  0.7996102741331158  0.9994209736751299  0.2006002326810923
  0.7997579149139791  0.9989773988701416  0.3998425533044693
  0.7997936561906170  0.9994669243869810  0.5989969949526744
  0.8002046833739528  0.9985882347494142  0.8003764625035716
  0.8047203656672879  0.2020349103654012  0.0007283083147530
  0.7991577687567065  0.1998818218405228  0.2004068805649660
  0.8000956053835979  0.2016906316469599  0.3997628278248764
  0.8006285187126657  0.2005819166556017  0.5995209020658384
  0.7956164245090215  0.2011357050647676  0.7996672871772414
  0.7984485045990011  0.4052498254658581  0.0002697818639425
  0.8011433532128825  0.3982950604352189  0.1999471699812446
  0.8006538203814357  0.4048825385080120  0.4001894678702776
  0.7996448829023317  0.4000987673976150  0.6000621436163025
  0.8004499094037434  0.4007948783521805  0.7982560497673147
  0.7996661518330286  0.5996885307164147  0.5990290416476061
  0.7990852186194252  0.5997200343683182  0.7999257491877828
  0.8004557379951832  0.7952271074209507  0.0008970734438781
  0.7994521026645133  0.8017287091944709  0.2004804818524490
  0.8011463231467262  0.7957042396879794  0.3996858074228419
  0.7997344247912468  0.7999833138428339  0.5999435133962064
  0.7995551800671395  0.7998580538958562  0.7984694179053160
  0.9996670761023611  0.1986445486771100  0.2000976750375679
  0.5999037485224709  0.4002946994823497  0.7996361007730480
  0.5996538602084591  0.8011830485048983  0.2000175599595723
  0.9997419606657759  0.1958826003705351  0.9974461033293233
  0.1969922354146711  0.6008380384253531  0.3997385937795857
  0.1990118827684005  0.7927839955787921  0.4049836020283429
  0.3981066900074119  0.6058373068947364  0.1997348914926467
  0.6001928702790863  0.1974403604013691  0.8008195670139827
  0.7986761434602643  0.5998589516390646  0.9942960911280055
  0.8006295582553667  0.6006331203347979  0.4047315908507423
