Ti V  Cr W 
 1.0000000000000000
    15.3720038313806135    0.0023998420144863    0.0001449001601191
     0.0024007571799185   15.3633006247875361   -0.0006442210894229
     0.0001450310074229   -0.0006449824026597   15.3697544548857330
 Ti  V   Cr  W  
  15 105   1   3
Direct
  0.0043282080568363  0.3937018039901822  0.6013074339548586
  0.9911629174971258  0.8001025727381194  0.2038418920679422
  0.0088166237895392  0.7981615774552264  0.6022734281764561
  0.2013963698587723  0.2029517227609475  0.3969931347044411
  0.1963107089140835  0.2047638626062978  0.6083096100633931
  0.1979077527858133  0.3961997353577428  0.2007589934625280
  0.2025943084086104  0.7978953262356322  0.2011126867384543
  0.4027567678407888  0.9979294638521397  0.8037366452245539
  0.4023980848289777  0.6005182137719831  0.8008852546299642
  0.5967374521937887  0.9951595280479560  0.9972894405281792
  0.7917828763093065  0.1979108042521327  0.7953127557805256
  0.7994703981228198  0.4042229424460295  0.1930373200574025
  0.8016603960296672  0.5933597522778452  0.0029900636385552
  0.8066182857503641  0.7978829183534542  0.3917836688667703
  0.7981532310246320  0.7966407571905737  0.6043918475232399
  0.9994823844623545  0.0014120112973164  0.0006714431223314
  0.9986219991323079  0.0013961248071024  0.2014557727559328
  0.9980604327439090  0.0000802508354454  0.4005169975275696
  0.9995203252851780  0.0002552612017739  0.5988916075788479
  0.9996724077707789  0.9998373729281658  0.7988765157609349
  0.9986514569305320  0.1995392346795933  0.9992819082123838
  0.9990655129102499  0.1996162704205114  0.2007126833573390
  0.9979137579170914  0.1965383486136268  0.5980477615417004
  0.0053417053020263  0.1990407530723324  0.8001865679887183
  0.9969710392472592  0.3986775616868862  0.0002377969001766
  0.9999969921357538  0.3992060238278371  0.2007108262261337
  0.0000092643635519  0.3982949711181106  0.3974672365356002
  0.0003427908922917  0.3985145596910375  0.8017811629217989
  0.0023017379915331  0.6002875156716660  0.0017720217304407
  0.9994226367468213  0.5975969144740517  0.2014432495467809
  0.9998677178844002  0.5990218814880043  0.4005291303637423
  0.0005058244468193  0.5987956895018260  0.5986728223644168
  0.9990750210451992  0.6003051135409667  0.7992384331146473
  0.9994553481029734  0.7992314698546249  0.9997455959383524
  0.0031447858116771  0.7996812102837665  0.4012965575417500
  0.9990721582479710  0.8002688915121051  0.8026601625516290
  0.1977929435905647  0.9983061534552023  0.9996591356706306
  0.1976486692330541  0.0008690611629951  0.2008377485922110
  0.1992121049038612  0.9990600525576906  0.4008729779047959
  0.1997870924458831  0.9993882598914827  0.5999544950085743
  0.1984977389333206  0.9997318769570326  0.8008417101845164
  0.1993570896025871  0.1977246463556052  0.2005020418024914
  0.2010859328922339  0.1995738634638063  0.8675623492475443
  0.1985511144327153  0.4010936604977812  0.9982573977566130
  0.1991937823093934  0.4028689117051225  0.4052478414205075
  0.2034071637880012  0.4040398226474381  0.6024029089510295
  0.2001830966618862  0.4014074376743972  0.8016403168105742
  0.1990329330367105  0.5996584867167279  0.0007298688248334
  0.1989958604689064  0.6000910069193067  0.2017549888515854
  0.1985622533704632  0.6010083945947713  0.4005851554030413
  0.2001860207368395  0.6020387926581865  0.6008109288552054
  0.1973131944554869  0.6002917494236905  0.7998119878557489
  0.1992067906368410  0.7996139859360616  0.9984377855381682
  0.2005421843426733  0.8005043455377919  0.4037173300786889
  0.2049877340988870  0.8003127291987776  0.6020495295512776
  0.2002788764591731  0.7995798065555925  0.8001692414529370
  0.3949257286754013  0.0009589186598305  0.0039261656571798
  0.3981711688883682  0.0002505556023642  0.2009600985606999
  0.4024946239651477  0.9999768081225903  0.3997824202862431
  0.3993211709781951  0.0002824096491543  0.5977529998264419
  0.4010143607093847  0.1999421477360258  0.9990560113267598
  0.3988777147794695  0.2004257008331879  0.1970433094181182
  0.4019170555184305  0.2009003788464959  0.4001120632981024
  0.3998973487835184  0.2004783488006860  0.6002097544706845
  0.4030398902643835  0.2017225442065697  0.8007213863019957
  0.3982077641899002  0.4000447754718143  0.0007825557003735
  0.4018906203661352  0.3998851757545194  0.2002959315885074
  0.4003202579198107  0.4001908217977184  0.3998154246188663
  0.4012493472760199  0.4013949830220152  0.5999831610640329
  0.4003638626141731  0.3989322255016126  0.8008069628458262
  0.3993262813143822  0.5990572503941956  0.0034241261309473
  0.3995798991533501  0.5998735979002341  0.2011679982622899
  0.3995550256344145  0.6002629736875345  0.3993363596799818
  0.4009947502985892  0.6004034327159594  0.5969075812391437
  0.3992443098961249  0.7994268014223910  0.0003086003335631
  0.4011827201779792  0.7998497013934737  0.1993547616928147
  0.3995575429231808  0.7996973090418832  0.3990626070349442
  0.4007056744781413  0.7995078191660129  0.6012024001196230
  0.4013652556452130  0.8002245662303877  0.8009054892065551
  0.5991407052184506  0.9993713255102050  0.2046238624901414
  0.6007264070177897  0.9999863244670658  0.5943146690127393
  0.6043229935700459  0.0042420152333106  0.7941806951374536
  0.5994471514327570  0.2016118510616326  0.9948580794775284
  0.5991671288712138  0.1994908753348965  0.1978517642975968
  0.6003396415131106  0.1971650703275720  0.4004854164433416
  0.6008661329371039  0.2005004095289266  0.6028825775602773
  0.6043305985793980  0.4012494976638132  0.9995302643830930
  0.5975641252309882  0.4008069938834528  0.1999473730625922
  0.6010812020848328  0.3987503239983732  0.4002003635022268
  0.6007402527033338  0.4008858055455265  0.5997704342986334
  0.6008370859733125  0.3974513943261705  0.7993363566121109
  0.5969565570746069  0.6001730834732388  0.9995751256126416
  0.6001340863470194  0.6015005127222156  0.2017004988915025
  0.6017094069775524  0.6018135646860112  0.4000895609757861
  0.6009426481095762  0.6006079699672442  0.5989029519370853
  0.6034022861144734  0.6008701585536117  0.7988545661911375
  0.5994486451287480  0.7974625180304872  0.9983249339601868
  0.5987810892245262  0.8003833928391514  0.1978694758646515
  0.5988489483906870  0.8043846027549189  0.3999225825135225
  0.5990030014868321  0.8005720602116508  0.6001719878885191
  0.6006211228683502  0.8027329136398554  0.7996601181651840
  0.8017360187120903  0.9994229132164640  0.9994749466045509
  0.7989216102386715  0.0002183127367672  0.1986373126052949
  0.7963715605868702  0.0014571488045596  0.3989541123634322
  0.8018028791679424  0.9998962431685045  0.5979714654129483
  0.8013687200665742  0.9974316863733572  0.7987974828855015
  0.7998580494512253  0.2022355721958386  0.0010177901569037
  0.7982233197786623  0.1987941661872866  0.1983011040692997
  0.7994437763422624  0.2016698715641067  0.3973903732895272
  0.8010484212039060  0.2015122160055066  0.5965500216472079
  0.8003492698129602  0.4001441711770843  0.4004556625654176
  0.8001332641462335  0.3997939933003774  0.6002459926248432
  0.8011233098009897  0.4031978871144239  0.8013723786398277
  0.7990152748160408  0.6039107060265988  0.2031954434177570
  0.8014894982300682  0.5971304995454051  0.4002444303365473
  0.8017158298168564  0.5974126327729584  0.5992986385542131
  0.8009593619639180  0.6009162707881180  0.7975795380553471
  0.7989333172772533  0.8000111953897007  0.9988042849596617
  0.7951304041657264  0.8000069064097621  0.1938441919284714
  0.7998679279730966  0.7990808857344847  0.8027633626113111
  0.9963915708639391  0.1996697635589228  0.3994995061060611
  0.6001189916791629  0.0009479375709998  0.3993416965199457
  0.5977356523015011  0.2004843863975534  0.7975731156392240
  0.8004874503716084  0.3984044260232261  0.9957664237043877
