Zr Ti V  Cr W 
 1.0000000000000000
    15.4771126092992706   -0.0171409429028663   -0.0108832458615090
    -0.0171377985850307   15.4835452709138899    0.0089453070842751
    -0.0108770206815257    0.0089383803551370   15.5150560916889226
 Zr  Ti  V   Cr  W  
  10   1 106   6   1
Direct
  0.0401242492325335  0.0037981039157606  0.9885506250734556
  0.9951612267468454  0.2076858321503453  0.7902303559845707
  0.9904420875780804  0.3867914875713153  0.5985308019741006
  0.9925778255695883  0.7938594586107639  0.5933760655297278
  0.1727983683041433  0.9973818520969545  0.3585802130401225
  0.3969333932565551  0.9962907846371826  0.4031597033895251
  0.3975807785689913  0.1992397647875367  0.0003120830552148
  0.8097660904587305  0.3979063680350520  0.4148500633581894
  0.7713839715242178  0.4036522474887531  0.6328391113006109
  0.8078084094971208  0.6269010668408503  0.4178062906189193
  0.5965581755817202  0.7994106101329516  0.5987770898056993
  0.9839390420310210  0.9981510670537446  0.3994360609707803
  0.9991966154431599  0.9969397540604623  0.5952280078859666
  0.9987003493339794  0.9970445631373834  0.7910770236982724
  0.9983209680147775  0.2043466034281225  0.9999490308668811
  0.9982498088770664  0.2053734100788371  0.2003809670033521
  0.0029202303621951  0.1953951461680857  0.3954936156567430
  0.0019405216228456  0.1877118960172882  0.5884103185151253
  0.0019069920973498  0.4029893176568965  0.0059429137671567
  0.0123611453997799  0.3972906129224074  0.3899412421548462
  0.0012751795421357  0.4086929606733811  0.8082017241978701
  0.0007415826624959  0.6008874426365154  0.9998241738193443
  0.0014769540721539  0.5951297407025812  0.2010855175389323
  0.0084594286132298  0.5966477191574993  0.4003526950286934
  0.9974750510385906  0.5943448825273210  0.5983395081404126
  0.0003884503975666  0.6011736343082409  0.7973848519269612
  0.9996810622728284  0.7970270494672627  0.0007972120053066
  0.9980659418377246  0.7966744935221530  0.1982126383590131
  0.9974613651759724  0.7987748314605924  0.3923949064009050
  0.9973868876135660  0.7987376409219287  0.8002103049205597
  0.2049994492633890  0.9990873154919055  0.1613741811883682
  0.1998750306295666  0.9987702944954702  0.6003266414718946
  0.1997491983244745  0.0001123008191855  0.7946824787398472
  0.1943453101542369  0.2000236742338327  0.9969439927777305
  0.2030145777834549  0.1965037483288052  0.1984701441492292
  0.2022186796788583  0.1982756642551769  0.3984474869078330
  0.2008629348643341  0.1972963903606668  0.5954842541328390
  0.2009208272068644  0.4003807227230072  0.9987709042820085
  0.1986258497842167  0.3996101868490626  0.1982917601099023
  0.2041750985144822  0.3983630848386671  0.3997686224356347
  0.2004015235280468  0.3976979551878958  0.5986665019430857
  0.1993662954968002  0.4006765295453700  0.7986975117982706
  0.2013018064308706  0.6010730905444498  0.9980835204359061
  0.2018248386487049  0.5999542341198647  0.1994404915929378
  0.2024177376961223  0.5992414704391361  0.4004247084796301
  0.1995076120774909  0.6004197410553157  0.7983264299313639
  0.1983125936395352  0.8003608650062479  0.9992174090759396
  0.2009042951712037  0.8003455283220504  0.1995873997052616
  0.1972322827921283  0.7956522848099769  0.3992747351406887
  0.1995874415288503  0.7985966411631176  0.5971029801816741
  0.1995004501978098  0.7998409745380575  0.7995791376181398
  0.4079500384029002  0.9959608389727762  0.9991961801740008
  0.3999842884413476  0.9986030383915522  0.6056303231933636
  0.3979339085135746  0.9990406212246107  0.8027901662872536
  0.4025509158779423  0.2008085066509219  0.2040057293723202
  0.4008951788918579  0.2020596476739727  0.4011931440634556
  0.4001852968601500  0.2004929632889535  0.7960926458390750
  0.4002100991478965  0.4048773720972393  0.0015198538899261
  0.3999952502190948  0.4007542661808358  0.2010736839684943
  0.3995866834660738  0.3999305255740402  0.3998066113648461
  0.3953256339204927  0.3993101627972280  0.6018618655468367
  0.3992970701663430  0.4004749617115362  0.8010413200120610
  0.4009768770805532  0.6015451922161069  0.0004768934609013
  0.4008945137555841  0.5992921167853741  0.2012287982070164
  0.3991505887964636  0.5993890694127060  0.6014080738130736
  0.3998201980743760  0.6000663316430357  0.7991071344268146
  0.3980906490273730  0.8002081804468958  0.0003102607201034
  0.4012256920891050  0.7979524927649166  0.2003474707128340
  0.3999191941609705  0.7933429244397320  0.3996536404231005
  0.3969333049059262  0.7979123685934717  0.6003907295121798
  0.3984259972071475  0.7992588734305042  0.8003672027692583
  0.6047794191857259  0.9999183707549426  0.0018324487811451
  0.6014975943647741  0.0006934684070738  0.2015168065520383
  0.6016499674062816  0.0006264145521002  0.4024985672618891
  0.5993548148870198  0.0028597663350025  0.6026671925217538
  0.5998869391255489  0.0013574594783081  0.8010010584977428
  0.6046566526246197  0.2018516387781845  0.0017705417809666
  0.6021849024849077  0.2000972343597262  0.2028429607960354
  0.6005384994007057  0.2012843964860738  0.4031706162507444
  0.6004015115702933  0.2017802113697092  0.6008047251133061
  0.5991750753816457  0.2010362847168981  0.8004066948714081
  0.6017053316238590  0.4017120286522544  0.0036999717965641
  0.6026611154800909  0.4003582113470013  0.2032783211191896
  0.5984982735665356  0.3997449409915360  0.4005112194590132
  0.5843835196763055  0.3991477766811533  0.5994572994994162
  0.5973404515148778  0.4005714572447369  0.8047628376057001
  0.6009607520064223  0.6006095934298035  0.0021621520161834
  0.6018967544183764  0.5987961110349607  0.2036687001999974
  0.6001327878303626  0.5991153172433031  0.4029829766890922
  0.5992707121248427  0.5961084797286506  0.6014811510147090
  0.5986737261026518  0.5997283081707774  0.8019468667911154
  0.6003201502378075  0.7993822429276819  0.0023258411535826
  0.6006270145990257  0.8000630318051901  0.2009798576429681
  0.5992338045472148  0.7980429707107110  0.3984209453280091
  0.5990991615040753  0.7995506189481503  0.8037835718276213
  0.8076360556542105  0.0007772870970371  0.0027364728162624
  0.8014972621881185  0.0010489301126305  0.2006989233704064
  0.7959102510104397  0.0019857069728706  0.4019883769557016
  0.7985515667581088  0.9998857901956241  0.6040007229855181
  0.8006704191806611  0.0005754248714986  0.8023146456000628
  0.8018528513069805  0.1989708022934193  0.0013265910574583
  0.8007500722377493  0.1994326357198039  0.2037106864757520
  0.7995416162436069  0.1942489809994215  0.4022514289982351
  0.8003400204227037  0.1982975314883341  0.6015025146784206
  0.7950363851554501  0.2009978043016770  0.8017655867219334
  0.7999146116314800  0.4013959019549292  0.0063513515163719
  0.8049842256396190  0.3999687023038259  0.2012348605855962
  0.7999737052766112  0.4017877740226327  0.8194703191618913
  0.8002836491852525  0.6026077850596319  0.0019926414628977
  0.8013264648868970  0.6019469236957211  0.2047091111874374
  0.7979861039197913  0.6057335934135579  0.6147435940770885
  0.7996167542447207  0.6016324105099379  0.8045007173614328
  0.8013765877135708  0.8023535189935685  0.0018503374709313
  0.8001177420161611  0.8016263750224241  0.2017012501570857
  0.7960576638640878  0.8148784940079810  0.3990014659510873
  0.7901990710731716  0.8027125429955531  0.6031450892126778
  0.7978553380833991  0.8015240255254975  0.8038603105941591
  0.9999047124218350  0.0004919174002405  0.1970688209795267
  0.2023876268066304  0.2004730157037471  0.7961762550289188
  0.1983820033998056  0.5965830027824116  0.5994678775208493
  0.4026559104401127  0.9991742985657013  0.1960115916970042
  0.3997804652202525  0.1988269790496540  0.6003876626495900
  0.3999604766757621  0.5979597789810890  0.4018399523706536
  0.0018452813170862  0.3997913210469798  0.1989163218900413
