Zr Ti V  Cr W 
 1.0000000000000000
    14.8324582906796856   -0.0185045700740163   -0.0297129300262830
    -0.0187871626291653   14.8100478764196648    0.0847122307100915
    -0.0298376269047005    0.0845975074211262   14.8356769384795424
 Zr  Ti  V   Cr  W  
   2   2 107   6   7
Selective dynamics
Cartesian
  2.8937031274932066  2.8463198623704598  8.6685170744521152   T   T   T
 11.9932989967218298  6.2056380428490661  8.8606456156700251   T   T   T
  0.9994480075821359  8.0429851579938010 11.9837792400969452   T   T   T
 12.2616160229655904  8.1961471117219435 11.8193872693500506   T   T   T
  0.4798751020350159 -0.5952463890756929  0.1061309478090104   T   T   T
  0.0525378209235734  0.6998468330891792  2.8978257893427668   T   T   T
  0.0860766254393155 -0.7964104063431254  6.5514094345652358   T   T   T
 -0.1428282124889499  0.6553726961537844  8.9361060490542279   T   T   T
 -0.0449957726984908  0.8991561845190407 12.8247145422582136   T   T   T
 -1.3752758256342879  4.2078135725513572 -0.0145964903144037   T   T   T
 -0.5088711923186462  3.3292948931905899  2.3367803227361201   T   T   T
 -0.5446848320895618  4.1173485889272694  8.2890280121421185   T   T   T
  1.0089382883318998  2.9401823082375449 11.9389573793591541   T   T   T
  0.6776152918067797  5.3788597022298985  1.3949950622107463   T   T   T
 -0.6593967778181121  6.5060490989555912  5.9104286129626828   T   T   T
  0.9494293615356919  6.1088941136951478  9.1861865946437824   T   T   T
 -0.3920941050968995  5.7908388528077239 11.8607573886307289   T   T   T
  0.4562179160427396  8.7560220807372904  1.1872819604357732   T   T   T
 -0.9790068895453394  9.0768219442228428  3.3620101211687943   T   T   T
  0.0984163744587235  8.5797948271917885  9.0357837429135657   T   T   T
 -0.4878251235813443  9.7620291065498179 -1.0936474345697191   T   T   T
 -0.1313118974910174 11.3887673074947209  4.2684203086794694   T   T   T
  1.1149665738138599 12.3952853825312967  8.6447083515688057   T   T   T
  0.0003707669978144 11.5388243087628641 11.5762999147309209   T   T   T
  2.8035499272590236  0.7412042446072138  5.4047520141718746   T   T   T
  2.9546175218940913 -0.4079517696914924  8.5702831775447041   T   T   T
  1.8732267150058903 -0.0641584263284760 11.0503003027895925   T   T   T
  3.3238549556641770  2.0291985304709930  0.7552596856663401   T   T   T
  2.8351233336310218  3.4110306760432496  2.7146166351475784   T   T   T
  4.0898211886022438  2.7228053597720998 13.1783898443507326   T   T   T
  2.2051623647028000  5.8066066952740041 -0.6786312304091781   T   T   T
  3.2698509541548422  6.1446525899047177  2.6577656275900683   T   T   T
  2.4293437628226293  5.9113936189870966  5.5797185684577695   T   T   T
  3.4799023924401506  6.4973106535015077  9.6356308403204327   T   T   T
  2.8215506920524529  4.6874641335237612 11.4094318290531866   T   T   T
  3.6386856362698219  8.4946643099985017 -0.8083440260235402   T   T   T
  3.2075974606513951  9.8401396205541261  3.4732216290874769   T   T   T
  2.8856941456462248  8.3578092898752452  6.3669818002638676   T   T   T
  4.4934161860796644  8.6512375120803462  8.4157016534976705   T   T   T
  4.2074922493035753  9.5611265990853465 11.0612096538965350   T   T   T
  3.2707200713546385 12.6025768646405254  0.3295186177364723   T   T   T
  2.8777026239501944 13.5392604975594040  3.6651940020159328   T   T   T
  3.7941492318023782 11.2745094770258625  6.1333157619414127   T   T   T
  3.6915904741441397 11.8361811906862151  9.3566774990950137   T   T   T
  2.4749254197418251 12.3628497329627116 12.5984715101777525   T   T   T
  5.6118869270715326 -0.3913205684262357  0.5345574779069181   T   T   T
  5.3485566696182669  1.4208398043209043  2.8327891559635754   T   T   T
  6.2651876336789494 -0.5602384737953304  5.6577354306004590   T   T   T
  5.5825973726684186  0.1565653796054590  8.2049353479388447   T   T   T
  5.5640911460132889  0.1018772657641713 12.0315053983529339   T   T   T
  7.1513914749776148  3.1363369846186275  2.5178363412779188   T   T   T
  5.6443512136412624  2.6881925407112282  5.6023943185589307   T   T   T
  6.2056190409197303  2.5780596184612881 10.1270356540181030   T   T   T
  6.0670772219644213  6.3044017395344802  0.7946643741232711   T   T   T
  5.2757683950479040  5.1312365263299862  3.1053032143657653   T   T   T
  6.2606096283700907  6.6594527306713198  5.8355654725737800   T   T   T
  5.4046856623669708  6.0927735203093523  8.3600269242353740   T   T   T
  6.4148357179800941  8.7892828535944822 -0.4260110571670452   T   T   T
  5.8942915482632667  8.7420085156195597  2.4768440635978095   T   T   T
  5.4828286898862721  9.0201869739714873  4.9696772935500082   T   T   T
  6.5401024542212092  8.8347882510572937  9.9579154938131609   T   T   T
  5.3032015924469560 11.3068972500762648  1.3285413942636783   T   T   T
  5.9072457162331640 12.3665363813706097  3.6313641087279822   T   T   T
  6.0476573727894953 12.1788697929762115  9.1534088835432339   T   T   T
  5.0222143198485485 12.2097350825244320 12.2662506745660416   T   T   T
  9.8068770360458917  0.2654951001076810 -0.4298329403995653   T   T   T
  8.6719635751641881 -0.4724003245540899  2.7123076477738204   T   T   T
  8.2533109743754558  0.7112277906797072  6.2797308250887180   T   T   T
  8.1556400825876469  0.4778042171057666  8.8595503560314839   T   T   T
  8.4312249892347033  0.7928811740287424 12.5128895235921078   T   T   T
  9.6735147664065089  2.5048094616471177  2.6595245481512793   T   T   T
  9.3865572591973709  2.7013507464592248  5.4455441684652621   T   T   T
  9.1606621337628393  3.6842208514432668  8.6682634957993603   T   T   T
  8.9376297673643030  4.1203153620257904 12.5822588320280868   T   T   T
  8.4795352709027192  5.4546690682765000  0.1031248207187619   T   T   T
  7.7839235720710684  5.4160220781273889  3.5549335698676257   T   T   T
  9.2402496059821448  5.8929080058113961  6.3217305439450753   T   T   T
  7.9711100308281750  5.9872499136627306  9.4673824729652623   T   T   T
  9.6408374871564888  6.5173393496565657 11.7173231963983202   T   T   T
  8.7635566562871929  8.3122131038457496  0.2226741387205968   T   T   T
  9.9671158081573843  8.6876487721919879  2.8889861213507748   T   T   T
  8.1861810186393207  9.4686027518165883  5.4273001923653830   T   T   T
  9.1556171127206181  8.2409883653247284  9.1928137849248746   T   T   T
  8.3668356439158948  8.5079688535471778 12.6486594413024793   T   T   T
  8.1719707463283928 12.6362563518887345  0.3995571471691141   T   T   T
  8.8443791979231445 11.3171196630179338  3.0233301183582628   T   T   T
  8.8998750511728897 12.4070099140273022  5.6645159098860915   T   T   T
  8.4312920327547012 10.6104750086667661  7.9798246879418064   T   T   T
  7.8048838233141975 12.4518219605986324 12.1965659095869903   T   T   T
 12.5069161999017116  0.2995298296255467 -0.8434801157934567   T   T   T
 11.8970115977174213 -0.1647809647495858  1.6972669552402502   T   T   T
 11.9564790463371367  0.0739626159052244  5.3631350472434409   T   T   T
 10.5419575638920335 -0.8924847115501905  8.7360454738563007   T   T   T
 11.3845980409881449  0.3472730031114196 10.8976272786475405   T   T   T
 10.9895927547477701  3.1365197936166784  0.2058000892605503   T   T   T
 12.0542097311974938  2.3797637529032851  3.7311136351623340   T   T   T
 13.1940391778685608  3.5851968389630366  5.7819714923085952   T   T   T
 11.4493091244539649  2.9172878624541649  8.4610317779811304   T   T   T
 11.5866767377329687  3.2656120562726878 11.4340362737355825   T   T   T
 10.2768505114794131  5.7486487731953746  2.4950309143435216   T   T   T
 11.3131074624239396  5.5135653372551330  5.0633279705227450   T   T   T
 11.5977785706535386  5.3561625817837513 13.2211924564321741   T   T   T
 12.6068194712083290  8.8327528576335084  0.7538426052161562   T   T   T
 12.3298208459182952  7.2767290585273141  2.7327249439867289   T   T   T
 11.8125358924336794  8.6658561121163107  6.0697459654072112   T   T   T
 13.1104625362468354  9.8241667301442348  7.8875409348887242   T   T   T
 11.7223170873062710 11.2349950310819544 -0.9593438088542953   T   T   T
 11.2727039345364766 12.1580211657675630  2.6939434788810517   T   T   T
 12.2680603737548921 12.5845776184757003  7.4900721681645575   T   T   T
 10.8506910211039678 11.1849278505730823  9.2015131384916824   T   T   T
 12.3047144808299187 11.7623698109479484 11.1667790857122071   T   T   T
  0.5565418457805833  3.7145880501468462  5.9845625491653704   T   T   T
 -0.2123263966012453 11.7476868431107135  6.6894935235680162   T   T   T
  2.9805409409373902  3.1498881619800319  5.3866250342229467   T   T   T
  5.2995244251489630  5.3866186096153923 12.8728681843016091   T   T   T
  6.3361808356587197  9.8608695359748673 12.2603945020879639   T   T   T
 11.5533679346178637  6.3537033397002904  0.4502081177381824   T   T   T
 -0.8344695061800788  6.8845314318950237 -0.6323298661732990   T   T   T
  0.2534372803406910  9.1392715861090359  5.8521465535655306   T   T   T
  2.8772797073785070  0.1940247596668957 -1.2326322764494353   T   T   T
  5.5342142753509886  3.7229522983785959  0.5871328367673396   T   T   T
  6.7507154717777311  2.7169057410474777 12.9316438291847042   T   T   T
  6.3275614252799848 11.4870176640463626  6.5078323212343356   T   T   T
  8.4502117756909136  2.5405347873506905  0.1854569654174785   T   T   T
