Zr V  Cr
 1.0000000000000000
    15.5364267418827353    0.0141760265446098   -0.0034442262972265
     0.0141671620811882   15.5240745923983035    0.0049821264813726
    -0.0034426786392167    0.0049831204927505   15.5354998368454975
 Zr  V   Cr 
   5 117   2
Direct
  0.9500045860603297  0.4082577442713828  0.3988466670167542
  0.1984286019503887  0.5996999351548736  0.5595138834130174
  0.1733116311596662  0.7955353803291262  0.2038881379588720
  0.8001890866981077  0.1996574067574206  0.4005009060522060
  0.8051077830311529  0.5961014521374984  0.4006929340965610
  0.0021953317505910  0.9979979879233707  0.2010149850274380
  0.0014440372570196  0.0006714382633957  0.4006767513475599
  0.0002413905531986  0.0008057887357380  0.6006709466993516
  0.0012766754782025  0.9997214346379458  0.7997660047254743
  0.0009839144790678  0.1998918450319885  0.9992294306607333
  0.0065411132251234  0.1984127105249711  0.4004551515410004
  0.0010219677794429  0.1991645003000301  0.8013913815414988
  0.0000958869233143  0.3992857798648536  0.9993537028505943
  0.0009805509846417  0.3987006847521751  0.1958207321131646
  0.0004247140153786  0.4002282745338548  0.6045060978844352
  0.9998566514023851  0.3999937137977828  0.7999167469407908
  0.9996543863172047  0.5998077732300769  0.0007262155907803
  0.0017432105729025  0.5966281323341996  0.1994370516455970
  0.0120070143139220  0.6079697921377231  0.4008527893043483
  0.9982960335951635  0.6011942632402484  0.6035683129238766
  0.0024867335780148  0.5999806916636859  0.8011189679598494
  0.0027766061381258  0.7981379326137639  0.0005198267147470
  0.9991574763925453  0.9332084931668577  0.0669765998692532
  0.0004966139166942  0.8026587242261821  0.4031623469299334
  0.9996168251793411  0.8015884548090511  0.6021379477490071
  0.0011339554863727  0.7998382118843904  0.8008530530621073
  0.2031021536864181  0.0005551180129038  0.9995860391824573
  0.2014535669054880  0.0019540178749762  0.2006025437156837
  0.2025273359931577  0.0009089817134056  0.4007237771452506
  0.2010470132874809  0.0018527757760866  0.5996297657095477
  0.2006588819630694  0.0006867216820842  0.8000342390995259
  0.2002034289375647  0.1995685237029135  0.9996713310823887
  0.2004587366363778  0.2002334251196789  0.2000142269598596
  0.1987840276170449  0.2033760671800157  0.3996988042983539
  0.2002930504978088  0.2007652919256435  0.5994117096820600
  0.2006675145657266  0.2002905690972450  0.7993667665083917
  0.2008744782228435  0.3982411192974980  0.9997450902354383
  0.1990302151853653  0.3962594422772944  0.2002391683268863
  0.2061583883085444  0.4044964434020121  0.3994187994022063
  0.1986798167378801  0.3967479136940161  0.5983871617196688
  0.2006107222726094  0.4007797004610241  0.7994425048019801
  0.2027428911274682  0.5982951215719962  0.9993481280459516
  0.2016773771079158  0.5935416876683077  0.1937421728896706
  0.2046321074450932  0.6044020823987610  0.3687320403526232
  0.2014409031963375  0.5992205943673352  0.8038402376657678
  0.2014775098991249  0.8011403466913267  0.9982439881685949
  0.2031024982727983  0.8009618748133813  0.4063646870041021
  0.2013015064957466  0.8042786861819793  0.6027218176167635
  0.2012972160936406  0.7986871058435261  0.7991123500804003
  0.4020822481599374  0.9992245551676785  0.0003272330039414
  0.4011623406735592  0.9990900437725990  0.2001458968927806
  0.4005548089813627  0.9991775724026019  0.4003498342783477
  0.4017742697543519  0.0003006767218989  0.6003950090067165
  0.4012672285762797  0.9992179888731131  0.8003431099491920
  0.4008918700312828  0.1992660503499020  0.0001085125390094
  0.4000323869524977  0.1998421324470075  0.1998711740199897
  0.3976601692587344  0.1990240273652870  0.4000113658415160
  0.3999524540292962  0.1997650366688533  0.6000657780348043
  0.4001527970463678  0.1996246000025240  0.8004203488794158
  0.4003206022727563  0.3998060092101055  0.9995643313507382
  0.4009456564441470  0.3988775091912183  0.1987806376167957
  0.3999635797362356  0.4002520475161599  0.3998248093098793
  0.4005601969885134  0.3992122606761961  0.6023340069656399
  0.3999442722637943  0.4001494225844930  0.7998217634161749
  0.4032128181307535  0.5997952448979010  0.0004010543921321
  0.4019642550546538  0.5985731657904816  0.1986331247360348
  0.3995513819299576  0.6016453369766248  0.3997181537083404
  0.4035835337126978  0.5993005717982038  0.6003313059927374
  0.4000251307857486  0.5999625336713100  0.7994138710766858
  0.4009018314639390  0.7991902368185132  0.0004722853158188
  0.3969674074895661  0.7990454959208657  0.2006057837200702
  0.4012486353482728  0.8005349933937769  0.4007697316461695
  0.4024570021759567  0.8001850488751390  0.6018479465794628
  0.4011998834885774  0.7992553159798691  0.7997112867645312
  0.6013434815808019  0.9990317365572909  0.0005236809418283
  0.6016842804553383  0.9989623003067316  0.2007443592733330
  0.5997676463591931  0.9979810213399810  0.4001663826899626
  0.6015645768847117  0.9996822182212860  0.6002912715013049
  0.6010225238984814  0.9993137068418801  0.7999072517421725
  0.6001901181894871  0.1992125956249425  0.9998222477362377
  0.5996882017448225  0.1986486126949322  0.1999434676146300
  0.5937050309644387  0.1967207549312799  0.4002495073428696
  0.5995167575783235  0.1995387072230782  0.6005199786929619
  0.5999958400470315  0.1994776409919020  0.8003043607016698
  0.6006048680038774  0.3987863436098213  0.9999505198660598
  0.5994824440421301  0.3987172464839892  0.1986719063562918
  0.5915188507561902  0.3999931135663333  0.4002150427177584
  0.5994417149898753  0.3989949398125792  0.6014372120056067
  0.6001790279731511  0.3996068682341241  0.8001697822303334
  0.6008461668953248  0.5993468583127728  0.0000379190426498
  0.6019572420852812  0.5978116087883947  0.2003368312070239
  0.5970092914655377  0.6013697339744483  0.3994940555075573
  0.6015076965098858  0.5987357787722616  0.5996260019337211
  0.6006427338597939  0.5993059034088460  0.8003156761368529
  0.6016052402433597  0.7990131626630095  0.0005398262305686
  0.6005365513063557  0.7984989431524022  0.2007569011709615
  0.6007121363182202  0.7985917150545486  0.4008641392988633
  0.6018777646212359  0.7995716703834964  0.6000843409788189
  0.6012061370979921  0.7988789245918693  0.8006351375324479
  0.8002711997136217  0.9986550836113220  0.0001827929580307
  0.8034209469755241  0.9976452540591300  0.1995872244328962
  0.8003430658710841  0.9956111615251448  0.4004624149410520
  0.8010076636315018  0.0001646302554841  0.6007602489513704
  0.8013272174812754  0.9988807381560367  0.8011102050485522
  0.8013024837510994  0.1987467711037662  0.9997541517401622
  0.8004861674909869  0.1974703116063429  0.1952506008607249
  0.8002044302920106  0.1986698032823730  0.6053232479592985
  0.8009979465564734  0.1998311970540212  0.8004559613730305
  0.7994568888822070  0.3988277970189656  0.9994208137591204
  0.7997069463670040  0.3965307496188037  0.1996686289689027
  0.7642845861048713  0.3983475472716894  0.4001395374432978
  0.7995683302630268  0.3979923171079532  0.6001685647353368
  0.7999070336146652  0.3995448187852100  0.8010436186811739
  0.8010465595150519  0.5983072775477055  0.9998479687145179
  0.8027010727648201  0.5995403535965133  0.1953695832246052
  0.8004368576731722  0.6000085821965703  0.6056519353903475
  0.8004200690239144  0.5987965212191889  0.8014025951872530
  0.8030261457626339  0.7996983897070060  0.0015479758915851
  0.7990354196905662  0.7971303410897312  0.2012816456533761
  0.8023006741692624  0.8008610521023068  0.4001249667750887
  0.8004455137360630  0.7992321802927328  0.6009881928702278
  0.8008613446115134  0.7991224665832620  0.8013010500275340
  0.0013014117176315  0.1989346423145623  0.1987376654420968
  0.0011771796921247  0.2002725009510005  0.6016340627723867
