Zr Ti V  Cr W 
 1.0000000000000000
    15.5633147981762434   -0.0105082892338306    0.0011052113616143
    -0.0105224976463168   15.5390273600018674    0.0056805954645976
     0.0011054290159095    0.0056800010957864   15.5617863503600393
 Zr  Ti  V   Cr  W  
  10   1 106   6   1
Direct
  0.0080800122824539  0.1882792912465199  0.7963242207057381
  0.9988910157141092  0.5982397691377175  0.7991434221001584
  0.1912959116908991  0.0049979668455040  0.8019721872917664
  0.1965754710600302  0.8007241119700103  0.3978356902154334
  0.4000110534068742  0.9978486724074299  0.9981320518266822
  0.4112180938544461  0.7752164615893467  0.0017698137190776
  0.5982060713073080  0.2007711648243422  0.2011187309264691
  0.6104774108851120  0.4095769290569335  0.3991335415998586
  0.6008404578776597  0.8004710078840682  0.6025636166984468
  0.7940171700603904  0.5923982081632769  0.4005206811584094
  0.0008886994245127  0.9952944742944648  0.2030606878366953
  0.9982509235980398  0.0005989411064846  0.9997759577118844
  0.9983892337754227  0.9994097638061825  0.4010830003800630
  0.9987706280836012  0.9979660497172897  0.5974816340931206
  0.9884672233900677  0.9891756808301477  0.7981775617336451
  0.0007866529317787  0.1995837542090444  0.0035073551814013
  0.0015712363219376  0.2015281541293749  0.2006672113885905
  0.0024932333575158  0.1981704920746829  0.3991612078812774
  0.0027746387045777  0.1986290243576725  0.5943011228262005
  0.0011705776642279  0.3989301385344639  0.0000064981788602
  0.0012028527774122  0.4004416909257340  0.2003847741246268
  0.0039356377768027  0.3985677241766931  0.3990384252735323
  0.0020905266119693  0.3988329927113872  0.5994057064872970
  0.0002490151588531  0.3955147614277699  0.7994044843674407
  0.0005229480574285  0.5990460588873593  0.0037005324487199
  0.0004791414790879  0.5996196050303101  0.2008038320525042
  0.0019485102296823  0.5989128321072591  0.3992563682930048
  0.0008422927186242  0.5990656301661189  0.5949433335558720
  0.0001463534872875  0.7984361321437826  0.0003540113068977
  0.9982533034536011  0.7972092709686042  0.1999182215357956
  0.9940429610903661  0.7981344661816594  0.3999335865493922
  0.0000102394407735  0.7985331391314212  0.5996585790754178
  0.9985920637417207  0.7999784341240320  0.7993933677814584
  0.1948204026376899  0.0018519826975110  0.0051584353641654
  0.2011641119653954  0.0022896595271549  0.1987974298063854
  0.1987863824204024  0.0043659446512861  0.3982423277641041
  0.1982486953000897  0.0003125273218618  0.5964412709871588
  0.2006175915401440  0.2020735070016876  0.2004780010531313
  0.2004310592008078  0.2011363530289300  0.3985589176488251
  0.2070858635340563  0.2021530791643191  0.5975474139696525
  0.2093017773947436  0.2087083354174830  0.8009715689273020
  0.1996679474120335  0.4013841432360320  0.9998322907941732
  0.2006931661031397  0.4020251552834669  0.1981824017635325
  0.2005069212828414  0.3999552592057772  0.3987089266593360
  0.1997169651520701  0.4005659823487168  0.6000584877574962
  0.2018827909044755  0.4024247630056223  0.8015312431242588
  0.2008830778038101  0.6001082294318957  0.0003667472961700
  0.2007260975929892  0.6001754738043074  0.1988181684559407
  0.2006339701400586  0.5971478709772918  0.3993020513822099
  0.2019897601554319  0.5990854685470255  0.6002034584601396
  0.1976166270804751  0.8017708010624344  0.9984421925703588
  0.1999732010668880  0.8001876909878491  0.1946634956914313
  0.1978079410187147  0.8008663743906110  0.6034172311973303
  0.2002456791359643  0.7981372527233265  0.8010539842381573
  0.3989927801498170  0.0012080586687879  0.2053052529549486
  0.3997535504191326  0.0008332113310212  0.4015334302998793
  0.3976648640654400  0.0050195830191465  0.5973180948975785
  0.4007445815215441  0.0007815801260955  0.7930883861655896
  0.3999153597492850  0.2048703038982178  0.9995297457410618
  0.3956119185421579  0.2021062283307470  0.2016477074400353
  0.4002821739521820  0.2017679255037700  0.4046119260768613
  0.4024048682362432  0.2012494987543436  0.7957134941930035
  0.3991708781987108  0.4011612907315191  0.9984254218824866
  0.4005580444335036  0.4019065420198489  0.2004973632296267
  0.4002237626260169  0.4010368581503839  0.3995603790166011
  0.4005829659206164  0.3971647231264750  0.5999819845442277
  0.4021449936423241  0.4014629373129647  0.7993034471051679
  0.3990703876438069  0.6011686940384652  0.2008685625403051
  0.3977590151352799  0.6003461607597064  0.4009486167899831
  0.3986207530100431  0.5986348170221907  0.5993656815345529
  0.4012300395140320  0.5996887106981774  0.7983330744737743
  0.3991733726589152  0.8009654717694744  0.2055632488805109
  0.4012856020710812  0.8015393783661362  0.4020851350584111
  0.3979073457115809  0.8011799459524592  0.7963970112224452
  0.5987294924860765  0.9959905604839354  0.2019511750078103
  0.6002148437329272  0.0003839679002841  0.4004566322017435
  0.6003296583769313  0.0036590176010549  0.5997037057260084
  0.5981662387521918  0.9990807409211435  0.7981220674299428
  0.5990023619514113  0.2018183773771383  0.9957845977903365
  0.6019299589947825  0.1993276666364989  0.4047556747004420
  0.5967663502878067  0.2020102855028442  0.6006668774736388
  0.6006467663602655  0.1994388578052643  0.8002988652660290
  0.6020243906984496  0.4001610042922741  0.9982329368211377
  0.6023597186833838  0.4003964752373731  0.6037805145991696
  0.6008085421160918  0.4012824183789063  0.8007202640080727
  0.6003426707904012  0.5976641150392793  0.9990656769656875
  0.5987470179535683  0.6022229806738713  0.1981130135067978
  0.5905112201539171  0.6107504891189414  0.3995370313666049
  0.5972495041132300  0.5970267937449770  0.6016011580696323
  0.5989087699032862  0.5997772331998777  0.8005861580025108
  0.6045506207765037  0.8660098287982781  0.0012442923154150
  0.5987129481689847  0.8005954446444539  0.1978952335286967
  0.5999356584320363  0.8035809264080995  0.3967925441921596
  0.5981139618724938  0.8004214310508839  0.8079407309577612
  0.8009914257101578  0.9996962876767086  0.0008934194443852
  0.7966544029260231  0.9993460591671942  0.1990873754573272
  0.7998620668300013  0.9995354700528376  0.4002849115092619
  0.8001247019737240  0.0010175893518716  0.5996849965943094
  0.7943403529938506  0.9985927177748544  0.8012087438551667
  0.8002846192499320  0.1989732335258837  0.9997054775883434
  0.8019357219912908  0.1964334428955089  0.3999289158500591
  0.8010201497611414  0.1991523664161357  0.6007021293835276
  0.7982317277687869  0.1982720809593173  0.7993699567853672
  0.8023478552412598  0.3985100233404960  0.9989513931651501
  0.8031910909283847  0.3993400459312362  0.1969107139793285
  0.8119571728968621  0.3892809764837095  0.4000862113603964
  0.8026393172897519  0.3967628221015779  0.6020691822122418
  0.8001842407514267  0.3974496238975074  0.8004972933693972
  0.7990556652404732  0.5982648570804804  0.0004591116156993
  0.7991351458022207  0.6004140476629356  0.1965041187036928
  0.8000883074895433  0.5973414461444309  0.6035551889407250
  0.7950374434203664  0.5993871956816654  0.8007347312342430
  0.8023449599513123  0.8001778563287580  0.0003311083742131
  0.7985248433794546  0.7994907587236681  0.1988477659449423
  0.7994548937821063  0.8009777160425678  0.3993227235278322
  0.8034697537846570  0.7987771216462589  0.6006018055527845
  0.7977568408826944  0.7994182474955130  0.8019465359830520
  0.2009546749570657  0.2029755796584941  0.0019022571598901
  0.2044908295068852  0.6005256986080585  0.7999915597230077
  0.4012178572086287  0.5920876692601593  0.0004756326700530
  0.3951731990066819  0.8004184266763678  0.5996061109062955
  0.6009075145774636  0.4052246174171976  0.1938091783459820
  0.8039290632056713  0.1991107393900288  0.1997566310994656
  0.4011351515471066  0.2014626452695721  0.5994205613903238
