Zr V  Cr
 1.0000000000000000
    15.5364267418827353    0.0141760265446098   -0.0034442262972265
     0.0141671620811882   15.5240745923983035    0.0049821264813726
    -0.0034426786392167    0.0049831204927505   15.5354998368454975
 Zr  V   Cr 
   5 117   2
Direct
  0.9510440887181361  0.4087462664262027  0.3999655337198048
  0.1992798534121383  0.5996774919561323  0.5590228399065568
  0.2009453469006467  0.7957631652693714  0.2049608771797471
  0.8000918293890112  0.1989022569641212  0.4001817090993001
  0.8051629853449549  0.5958043462612381  0.3996982428354227
  0.0001322277590994  0.9991986834704527  0.2019653532293209
  0.0013962809550080  0.0007945081683608  0.4004492435449893
  0.9996769372436851  0.0003523118233679  0.6002807419179145
  0.0006883265492876  0.9996739155065594  0.7989588497246719
  0.0016109846669066  0.2010409982422721  0.9994984566743943
  0.0061419000705409  0.1985444843415467  0.4006393072648855
  0.0004302911856202  0.1989152554748832  0.8022317708071696
  0.9993188820375768  0.3995817383620508  0.9996133965689082
  0.0011106991949903  0.3997073738757990  0.1963131625927208
  0.0004668946191382  0.4000610912473897  0.6045522408628007
  0.9997184929235594  0.4005073567872240  0.7996320866920544
  0.0001995237041656  0.6005912257899492  0.0004640090745573
  0.0018227126057426  0.5990591320473267  0.1990449985775137
  0.0128846298130447  0.6078290797140319  0.4004275503030164
  0.9984076314395413  0.6012984084466435  0.6027111304887305
  0.0023273509379722  0.6002831961818954  0.8007461178960158
  0.0010447582083526  0.7981219756628105  0.0007281409350737
  0.9962017466960130  0.8008856449461139  0.2005251554291000
  0.9996088095358283  0.8028143451617029  0.4024112505797068
  0.9995032050829509  0.8010416630231337  0.6020140878009325
  0.0008134169434175  0.8005473107477845  0.8011048185514872
  0.2025157244519069  0.0002682771763585  0.0000966888540815
  0.2000351798617458  0.0019665326543454  0.2000924065591968
  0.2011646928819374  0.0006301417664593  0.4004456610758005
  0.2008300372368458  0.0015546204995248  0.5992687272828816
  0.1997855879501062  0.0007839228628434  0.8005341516106161
  0.1996113563723725  0.1994461256215338  0.9997715672791316
  0.2003292253489964  0.1999006030260325  0.2001302734668179
  0.1986419133561418  0.2032965109060266  0.3997292693617880
  0.2000291929524368  0.2006124403252545  0.5992690079832123
  0.2005996559093033  0.2003976178584484  0.7990689446716984
  0.2010564335780975  0.3989093444031426  0.9997521964505178
  0.1992314611292413  0.3961959799767142  0.2001145259369310
  0.2060942750898823  0.4044517585362414  0.3992117811459130
  0.1986695813073933  0.3966971484758866  0.5983153864761168
  0.2003780228355012  0.4011039762613610  0.7993824026729586
  0.2018865999778133  0.5987320494625945  0.9993592154030030
  0.2018674656708448  0.5930586732280630  0.1941023762271424
  0.2042801246955673  0.6035889066556930  0.3679354810162475
  0.2014616122554959  0.5997360467955356  0.8036481129268689
  0.2001510653187936  0.8017192748362209  0.9986607485814725
  0.2019585449781645  0.8008898405466950  0.4068759397482794
  0.2009907683869379  0.8041852501282591  0.6028634963141246
  0.2009762902587182  0.7988705647637586  0.7995461581855109
  0.4007178398713663  0.9990330965885875  0.0005137945806448
  0.4015031069775689  0.9995873550281504  0.2004278882951211
  0.3991350373542625  0.9987733694873913  0.4004484599161137
  0.4010900401861039  0.0003151780246196  0.6004658603342614
  0.4008057164009200  0.9993634115418909  0.8003328644519949
  0.4003430459951646  0.1994777693746409  0.0000516505879578
  0.3995557836287302  0.1996336479142172  0.2001052698962903
  0.3972824449995157  0.1988869129723103  0.4001453676652452
  0.3998071713185054  0.1997085916814541  0.6000715700193607
  0.3998256908849065  0.1997977182500103  0.8001548139432508
  0.3999171634351174  0.4000549093195918  0.9993913278718507
  0.4009898547793569  0.3989197973072624  0.1989021971992994
  0.3998426008686128  0.4000470692090433  0.3999990210591587
  0.4005352356335888  0.3992106781086672  0.6022154387091863
  0.3999420515127555  0.4003042410380873  0.7997223094612766
  0.4024157961771886  0.6000295234112436  0.0005380299989123
  0.4033516558691818  0.5976483966862827  0.1989317488438017
  0.3988655560406628  0.6016964241569236  0.3998301946839210
  0.4036488713588814  0.5991736059741641  0.6005032175843307
  0.3997972846104212  0.6000236173837592  0.7993562204291441
  0.4012275101355589  0.7991906895868089  0.0001188596736090
  0.4057197175753477  0.7991741949195171  0.2007621177989176
  0.4018234665845517  0.8003573619818234  0.4018343560364144
  0.4020812136978408  0.8000296143020120  0.6018212519861971
  0.4006974470739915  0.7993629054892424  0.7999770969127469
  0.6007511489225175  0.9992228174423287  0.0006561708758459
  0.6008739367951526  0.9987939998651819  0.2010743317175633
  0.5989101709776783  0.9975342350880338  0.4001206277201592
  0.6010267335439339  0.9991887242204652  0.6002574634339574
  0.6004007972332684  0.9990911841236759  0.7999776060175867
  0.5986906108288809  0.1991586200338376  0.9999952612295470
  0.5999062751037675  0.1989044658653933  0.1996952184521978
  0.5932302262062441  0.1961341080002682  0.4004054077605791
  0.5991458034171948  0.1991836845417501  0.6002910647212258
  0.6001140194909033  0.1992875952360420  0.8007223094245087
  0.6007525292688637  0.3985540159578724  0.0001129229306215
  0.5996430163455969  0.3985031218948369  0.1987749761181621
  0.5916930457061936  0.3997233788775006  0.4000146379141872
  0.5993789643922820  0.3988001091085950  0.6013987216289556
  0.6000198097203637  0.3996218474683970  0.8001466903642547
  0.6003626240434097  0.5994413965571910  0.9999522507806837
  0.6021598037699873  0.5976502771886388  0.2004667053535161
  0.5968292102739672  0.6009187542447598  0.3996152092268975
  0.6014565826740651  0.5984777369583905  0.5993736434619521
  0.6004143520015338  0.5991863644869386  0.8003316324156768
  0.6009092024777524  0.7986422621809809  0.0006271412770389
  0.6023905180739628  0.7984616745878067  0.2008996911793018
  0.6004145859258530  0.7979624335319146  0.4010765829303304
  0.6016451842868527  0.7992194136251367  0.6004195019923898
  0.6009174367590515  0.7988094576128569  0.8003231845595510
  0.7986127910829582  0.9975899571013800  0.0005655327647067
  0.8015831241350392  0.9993838783539688  0.1989551574577899
  0.7994621807183422  0.9948847279632215  0.4007054242230674
  0.8004950271080797  0.9996565056685236  0.6005595591858693
  0.8013641227950348  0.9992173711510661  0.8019871382932146
  0.8676689870630144  0.1321600769506359  0.9999461325753489
  0.8003789082387375  0.1975484131663219  0.1955799807705619
  0.7998577684435882  0.1983263614726556  0.6049424633639010
  0.8005584666725015  0.1997490909728153  0.7995523788519749
  0.7991629246414660  0.3999794095762638  0.9994144653788599
  0.7998172159745081  0.3964970113565259  0.1992353874611020
  0.7647895019454563  0.3979159865568009  0.4006378994206445
  0.7995152165199774  0.3977715021777100  0.6001479505396761
  0.7997120826136668  0.3990525945966559  0.8013454664511646
  0.8007375691860130  0.5984679999874877  0.9995977885851616
  0.8018286427014736  0.5990156541506224  0.1950208760174726
  0.8004935879600683  0.5994746797750253  0.6052099184510771
  0.8003295443173656  0.5987528659599126  0.8009039788963279
  0.8011885255447093  0.7998404326498570  0.0000807453924663
  0.7998251854094366  0.7977536145802293  0.2010026958243352
  0.8006512473758031  0.8003726768054032  0.4011133845152703
  0.8003224536851109  0.7987534452999761  0.6009572330570673
  0.8005422317454663  0.7988023048064682  0.8009244394467949
  0.0009326097112301  0.1997843060216148  0.1989938952008559
  0.0009629860967177  0.2000676625993668  0.6016863569308225
