Zr Ti V  Cr W 
 1.0000000000000000
    15.5633147981762434   -0.0105082892338306    0.0011052113616143
    -0.0105224976463168   15.5390273600018674    0.0056805954645976
     0.0011054290159095    0.0056800010957864   15.5617863503600393
 Zr  Ti  V   Cr  W  
  10   1 106   6   1
Direct
  0.0088969935472925  0.1868983738612859  0.7962590337722663
  0.9970742084864047  0.5997780947356438  0.7995599936344276
  0.1918985859780574  0.0054603649437945  0.8025489578920588
  0.1971656054476242  0.8008188629713278  0.3977708735513980
  0.3972378128174006  0.9986011127740816  0.9975478502593113
  0.3979666925912202  0.7734804603910823  0.0021686660847153
  0.5986199627362944  0.2020305057389489  0.2029911974225806
  0.6103492722992567  0.4098140977538378  0.3989269207499784
  0.6042805187101677  0.8009540628212733  0.6048940068151696
  0.7937301708900031  0.5918053484297610  0.3998959657950363
  0.9999516033004652  0.9947058500509850  0.2023997621128123
  0.9970108252109782  0.9999520006191438  0.9997403295097749
  0.9985841355287617  0.9993538461404818  0.4014195318555346
  0.9991774201400518  0.9980136166257884  0.5978216869616793
  0.9862144919075773  0.9864427094051791  0.7983176992762108
  0.0007123011450920  0.1995949549457854  0.0038991805299144
  0.0018999006807119  0.2015795781296386  0.2009429343145364
  0.0028284186048111  0.1980621014372257  0.3989496535227783
  0.0024940373576767  0.1986080520953985  0.5938971082704149
  0.0011457610663688  0.3989334396366555  0.0000156184426516
  0.0012781685272249  0.4003414529786702  0.2003082551390215
  0.0040813689730191  0.3986677107251990  0.3988512260568460
  0.0020431820390905  0.3990499456053935  0.5995479251064312
  0.0003514137241789  0.3950797907509004  0.7995592917240240
  0.0003772610719424  0.5988764496405173  0.0038638037724789
  0.0006836864536399  0.5994609337445524  0.2005162474336951
  0.0018399113142014  0.5990431432394124  0.3994181977653395
  0.0011118815935454  0.5990239639107416  0.5951136197973794
  0.9983241257166111  0.7978640433884717  0.9995200064267885
  0.9988253641592428  0.7970023905830430  0.1998293116705344
  0.9948729556205826  0.7982068727806578  0.3995574804065251
  0.0003088515338565  0.7985952746908067  0.6003380077714044
  0.0023312519986816  0.7995940937540092  0.7997171420678644
  0.1914882999600051  0.0024791583150665  0.0067078197221536
  0.2014987186711131  0.0022191872502328  0.1992969311488792
  0.1990750352644988  0.0045900870747927  0.3981575736275547
  0.1988868315974742  0.0003856797771653  0.5962693647585262
  0.2009635607064044  0.2019986284819557  0.2007183061878273
  0.2006568434664243  0.2011284187901492  0.3986274715273100
  0.2072045240319608  0.2021838646115943  0.5975222813225775
  0.2097570057885696  0.2087879975054346  0.8009951343455691
  0.1996323338971812  0.4009602361146670  0.9998990131378340
  0.2010550311945656  0.4018504214169488  0.1981263915365659
  0.2005528064563901  0.3998870555915806  0.3988457154895380
  0.1996636669719523  0.4004853290964681  0.5999588793600382
  0.2017072533236314  0.4022375670873068  0.8016576230503475
  0.2004701367290116  0.5995400176617717  0.0006675786053349
  0.2008965866079153  0.5996686342769237  0.1993993768837058
  0.2007188194832362  0.5970442794582674  0.3992664191991309
  0.2020631182903123  0.5991687485752969  0.6000365848852285
  0.1939648194203587  0.8013317482339173  0.9991366758493279
  0.2000048698912873  0.8000145848089825  0.1949314465660805
  0.1988931490040565  0.8012052223998415  0.6033858697761874
  0.2012196410986154  0.7983257383278050  0.8012503006616492
  0.3996847101845053  0.0012184374697196  0.2049246723095755
  0.4003631188094187  0.0009208245843941  0.4011048255060531
  0.3984212673427618  0.0049410300623017  0.5975072011493158
  0.4015235529305929  0.0010549276401153  0.7930145124515617
  0.3999402728748374  0.2047083339640204  0.9994431423749032
  0.3960438852304011  0.2017170360941817  0.2012128738031964
  0.4004579355272981  0.2017744327953285  0.4045357727818709
  0.4025708740757923  0.2012757800351465  0.7956374492201637
  0.3998928771902228  0.4005632021121572  0.9985084276646041
  0.4007722427057990  0.4015738707328281  0.2004720301506451
  0.4002821616488867  0.4010492722914871  0.3994611064504417
  0.4007866630213197  0.3970914789303934  0.5999177949887061
  0.4017146843910044  0.4014178529139649  0.7992269198023269
  0.3993743780788442  0.6008818561893042  0.2007014084253460
  0.3977108703622333  0.6004674795831161  0.4009018137479011
  0.3987176804440901  0.5986286105902626  0.5995879736632425
  0.4007137700617376  0.5991840527984061  0.7986354517962048
  0.3999128271612878  0.8012437796018267  0.2057031271020717
  0.4015646100102906  0.8017228531631191  0.4019741510421112
  0.3984026319943588  0.8010955397924575  0.7966278321019535
  0.6047475130808733  0.0003529497879255  0.0001891468036939
  0.5996009149165206  0.9969762870849719  0.1990678673982560
  0.6006176321640871  0.0006967877716566  0.3997218181555636
  0.6001537746859500  0.0038480735484037  0.5997233857152257
  0.6000293774571123  0.9985658274832776  0.8001410588501034
  0.5997317243389279  0.1995016999691906  0.9965364038042787
  0.6017830096372071  0.1991699270269804  0.4052908920872252
  0.5969215556811461  0.2015397971266890  0.6012525741670781
  0.6005155765653315  0.2003927672297302  0.8004229144128241
  0.6020829223771483  0.3999514516603659  0.9984501325500835
  0.6021697198073518  0.4005074875946210  0.6038448900329290
  0.6002408822346442  0.4010171759538380  0.8013952065010082
  0.6000017963528720  0.6003890848663961  0.9990442845094127
  0.5985961397435799  0.6026199757207666  0.1979701694042131
  0.5903771573232647  0.6112756063403888  0.3997206939287457
  0.5969455007365766  0.5972748219616010  0.6016617438205277
  0.5987763417607432  0.6008576828786093  0.8008020540953640
  0.6058161184598717  0.8004096510104625  0.0006984930258194
  0.5998221479540687  0.8005801425484154  0.1990882257262079
  0.5999465953832586  0.8041613805024533  0.3972146165493175
  0.5957694347192386  0.7999141759244678  0.8061554221370985
  0.8009271546730561  0.0000210469971456  0.9993530738364538
  0.7986663992242541  0.0001928358468409  0.2001173645542732
  0.7996853241621911  0.0002032649357446  0.3996218713225608
  0.7996469684365621  0.0002688718185713  0.6004363812456177
  0.7951792956149111  0.0014300937152616  0.7998056284848825
  0.8014556522303764  0.2002541638634119  0.0001758791662698
  0.8018986401994039  0.1966170837807168  0.4001003014442170
  0.8011103316934404  0.1995285406824070  0.5999571443750299
  0.7985884419052433  0.1988340644524293  0.7988601912811459
  0.8017181983015791  0.3982524351867009  0.9991733938660432
  0.8030179872356206  0.3994928117692875  0.1969783731338235
  0.8121189665609883  0.3891998358510190  0.4000965639719863
  0.8023192698200076  0.3966982086155977  0.6014013700067208
  0.8001711093284565  0.3971856736536306  0.8001298217701438
  0.7990666937685976  0.5987062684377900  0.9991509844403421
  0.7992917221760020  0.6001231203164074  0.1959067043542805
  0.7998750771444123  0.5986719996031129  0.6045379456682838
  0.7944317945332969  0.5966892362719588  0.8005979260758620
  0.7998596949075465  0.7992951094330347  0.2003234506709630
  0.7997762380807344  0.8010077125055599  0.3987225732259223
  0.8052463644973290  0.7987878068914377  0.5965653096986266
  0.8014346456939432  0.7992886686268242  0.9677529419066653
  0.2007197003851951  0.2029315131193307  0.0021018219823861
  0.2039703754256972  0.6002890505958915  0.7997904756084745
  0.4011837017478606  0.5905020852173426  0.0005314603434734
  0.3962018594747465  0.8004157690005549  0.5995997101567139
  0.6008642684389891  0.4057870668493372  0.1935870626758236
  0.8039898549450071  0.1996302942271900  0.2000421812480454
  0.4011729019868370  0.2015040146484706  0.5992139808948929
