Zr Ti V  Cr W 
 1.0000000000000000
    15.4219977637485020   -0.0153525296692176    0.0018800521315798
    -0.0153399539639544   15.4042384266248558    0.0149563524432868
     0.0018828811446291    0.0149768248118706   15.4308175709018371
 Zr  Ti  V   Cr  W  
   2   1 100  10  11
Direct
  0.6001491002350477  0.9875596349936296  0.7907605869971961
  0.8063432951187649  0.4056261045029574  0.2021231326394578
  0.5971724161080681  0.4034828438795210  0.1970039947404129
  0.0015176266067078  0.0011079742981954  0.0001722150543801
  0.0004556783601066  0.0000144477323510  0.6007847288508290
  0.0010092992574091  0.9999692264122326  0.8001250968629580
  0.0051360538391902  0.2000391175766877  0.0008550747175871
  0.0010404717943818  0.2026559881964130  0.2006010505570049
  0.9969531010611385  0.1993638423125548  0.3998694572485028
  0.0013820183282403  0.1996032666188734  0.6006323352130282
  0.9985923407137869  0.3982312397745222  0.0041578788709142
  0.0008495135099953  0.3996926847136186  0.3980178849577409
  0.0009205425805309  0.3997536617498839  0.5993933975739668
  0.9993174666220120  0.3993583059894047  0.7993515590932790
  0.0020617134765661  0.6003800400809016  0.0013682157462394
  0.0012113631465381  0.5988591750357699  0.2004232748986849
  0.9997248229502179  0.5993288237429686  0.3995354188425467
  0.9987110314292201  0.5987319416908913  0.5990719692849259
  0.9997229616263610  0.5994344710796357  0.8011402021051888
  0.9982295442059257  0.8014429039568690  0.0005018206274812
  0.0024112213866779  0.7993955466005296  0.1995894376419256
  0.9992444114776116  0.7996323221925252  0.3990229388334651
  0.0026498505730318  0.8003199433613031  0.5994090000354745
  0.9986099818803779  0.8003890919924758  0.8011880326751490
  0.1992273970871289  0.0080714449972771  0.9999497491580579
  0.2019768617138234  0.9989339014467981  0.2000730536539747
  0.2008272564342601  0.0014541590421177  0.4003657498086124
  0.2010164926149245  0.9973143246682011  0.6003173613557448
  0.1991030050562014  0.9986575108919785  0.8002768822078616
  0.2001403583522652  0.1996608672115244  0.4010477244666007
  0.2004628043136721  0.1987634339469964  0.5998598048500241
  0.2006922563194372  0.3970961199511696  0.9994831146641620
  0.1996347993882338  0.4007068956563261  0.2027191730541812
  0.2000639377589737  0.3991923329803995  0.4018206152431174
  0.1997896721037385  0.4053140921409228  0.7979851495617551
  0.2043342478287408  0.6020167686337279  0.1961525365896059
  0.1995415048948072  0.5986739038923818  0.4021289998273695
  0.2010284106242368  0.6022993439797040  0.6043919501302067
  0.3326845965934709  0.9334891320035479  0.9999384395137672
  0.1991968050863563  0.8012526605703689  0.2037157125357128
  0.1997930941939075  0.7997557067011454  0.4040849170235001
  0.2002504551947838  0.7961166388751877  0.7943759897988946
  0.3999281522486310  0.9984398150978115  0.2016778306090027
  0.4015634470132055  0.0017624156064444  0.3978103836995160
  0.4036031919501051  0.0011488239643281  0.5988360416493510
  0.3937119889316483  0.0013219026213490  0.7989101537477452
  0.4006419515548343  0.2027387598517674  0.0006267471605306
  0.4023743686424355  0.2013113085780577  0.2016933607783788
  0.4024459530832114  0.2016671614909379  0.3991198796655395
  0.3997767006131226  0.2008811731228371  0.5990753337011638
  0.4010979693349284  0.2009861884252533  0.7990158459052508
  0.4004294561725258  0.3997068496785688  0.9993646441486723
  0.3970232642792696  0.4062927909557643  0.2022739799773642
  0.4006175330387189  0.3996047371847734  0.4003293789521071
  0.4001094196715412  0.3996127976110130  0.5988279199557137
  0.3996583975709815  0.3999884590386306  0.7975394910254765
  0.3966332931067778  0.6005416347404138  0.0026277199750646
  0.4017612210204542  0.8013463243112137  0.9989621161499560
  0.3995718991892219  0.7972113023566344  0.1986563813025240
  0.4019293832671515  0.8005588457809041  0.3998000143620412
  0.3961962279728799  0.7995575740334349  0.5970038016685949
  0.4008582236003230  0.8016659550467516  0.8006642492249361
  0.6023640803321305  0.0054623055207954  0.0011143803884122
  0.5992269300291769  0.9983037975771172  0.1992991547372361
  0.6011776274961166  0.9998590671811572  0.3998917574985447
  0.6004592851242349  0.1989061505659448  0.1946675532159216
  0.6051939592541071  0.2008878480302160  0.3977774488656489
  0.5999168898518019  0.1955663361434145  0.6038579641958043
  0.6010209931070309  0.2024382430497278  0.8037991019571673
  0.5997932270754441  0.3962275590206209  0.9960931266011758
  0.6005055512587000  0.4004440418599864  0.4032499143770321
  0.5994157807594915  0.3997273234861140  0.6005352665188176
  0.5999540351640930  0.4059618799510986  0.7976102003335225
  0.5991809839527630  0.5973369390905811  0.9958538024808108
  0.5946558373956617  0.6048055055413004  0.1973292915100600
  0.6010821216445156  0.6000796248174450  0.4001789095532034
  0.5994811893820173  0.5997332288508010  0.6023203607526422
  0.5996200836611467  0.8038827281251218  0.9947032044301914
  0.6008479376956525  0.8014921469439549  0.1986568135788389
  0.6016150995399678  0.7997579553994791  0.4005681653215631
  0.5983196339059704  0.8019764684545051  0.6016260702537789
  0.8022431941188347  0.0017650077671689  0.0006994234228459
  0.8022704803270820  0.9988796143720299  0.2008856797163288
  0.8013712251151616  0.0034685502027187  0.3993300237645653
  0.7976704991846704  0.9997600417176667  0.5996161284150555
  0.8068151428499697  0.0002328513348396  0.7993289611868943
  0.7955086186774863  0.2001100395984205  0.0006656261694941
  0.8011213457955042  0.1964662593922949  0.2041803576274741
  0.8007298927894363  0.2000010376590401  0.5966793535250778
  0.8006885217820854  0.2003204784823390  0.7993242579209444
  0.8013582994014306  0.3990117331121304  0.9965866573698060
  0.8000060062981658  0.3954837918313248  0.4065258275796388
  0.8006098612419673  0.3987672620686349  0.6016371658290071
  0.7996292690744187  0.6001405783674751  0.0002067022973968
  0.7977911109950604  0.6073114121942197  0.1995884063942285
  0.7987081604248020  0.5987576178331044  0.3998861622244369
  0.8003171514548102  0.5995519795876457  0.5987696997998617
  0.8003227758772796  0.5992593504459003  0.7999285642161391
  0.8004297213681792  0.8007995845773337  0.0002400521517439
  0.8005137810903696  0.8024233694929387  0.2000605016794266
  0.8007684422732709  0.8002403952924566  0.4003294590343315
  0.8028508078475508  0.7992813508028436  0.5983137585646769
  0.7989526208619264  0.7996018112146254  0.7989831775712645
  0.0022263735275024  0.0003535153344346  0.2004434072681331
  0.0008257356220819  0.0000782099300050  0.3997106534002354
  0.0005705088134376  0.2006731369901506  0.8004766814830517
  0.2015688144644721  0.2004272749301557  0.2014899943213503
  0.2001429540983457  0.2020389404471122  0.7995148011992281
  0.2004347155105531  0.4001287824604333  0.5997972360841011
  0.4004280884640091  0.5999444100352792  0.3993656404384311
  0.4005139933283630  0.6000918169384157  0.5994174532595451
  0.3991992761316892  0.6002913879621610  0.7998766240858605
  0.8014169978574767  0.3998044035186123  0.7988592197665837
  0.0072303451674126  0.4025990397974119  0.2016040376594618
  0.2036501251793572  0.2016523895869227  0.0008812053831788
  0.1998550564139744  0.5932682094731048  0.9970349984724847
  0.1952721676946381  0.6021059559922886  0.8045338261585784
  0.2006788778635658  0.8004688297674112  0.6004167821821410
  0.3988753398300954  0.6021176450686866  0.1970468843111379
  0.5998408555596269  0.9985601665511228  0.5926034680615302
  0.5987731083938552  0.1997540931374818  0.9978188416417022
  0.6028071183895893  0.6027225081713868  0.7999839096974986
  0.6005427742729932  0.7880488358577877  0.7981663736605549
  0.8001150375031399  0.1998211980132849  0.3999768395109423
