Zr Ti V  Cr W 
 1.0000000000000000
    15.4244097105604929   -0.0012107223225386   -0.0042394490092486
    -0.0012099076426666   15.4412294863263000   -0.0024734284807045
    -0.0042424892746054   -0.0024736538270091   15.4407019588637713
 Zr  Ti  V   Cr  W  
   1   3 110   3   7
Direct
  0.4028579851063309  0.4045197292952268  0.1973099537467416
  0.9998099961522590  0.3909145572512314  0.0003763833955035
  0.1991541552662133  0.9981368641519580  0.3993355212599672
  0.7983277949919501  0.5993692229940785  0.2118697395274054
  0.9989118359986680  0.0020431696480232  0.0001572737131035
  0.0008780717643580  0.9993078574500512  0.2008295758345345
  0.9971397699847716  0.0003424100325882  0.3997462084804220
  0.9992847829596957  0.0009932383125135  0.6007335327179186
  0.9995677074956529  0.9999151159181910  0.8000579088214310
  0.9994554139334337  0.2003955654935984  0.3999918922466102
  0.9998683474481128  0.1990115151765094  0.6012584166337085
  0.9993925011239788  0.1996935764435216  0.8026061773098107
  0.9991086845190389  0.3982669661501411  0.2015839276509549
  0.9990100210212299  0.3990755024697688  0.4002197903763520
  0.9994329390186212  0.3978513201605148  0.6005847427222316
  0.0000758523621297  0.3990527510722326  0.7971979243919225
  0.9952535211942624  0.6000922705778884  0.0015627922399372
  0.0032792250965010  0.6011400640199831  0.1994965962531624
  0.9984086343185162  0.5995047895727523  0.3998013381767476
  0.9990885293371072  0.6000638090883534  0.6013779870645266
  0.0004038600313293  0.5993022809227270  0.7998472031251712
  0.0007071175493729  0.8006775778100624  0.0014955535087757
  0.9994778592552644  0.8017379663611767  0.1992166440036851
  0.0015681553595199  0.8010085815282507  0.3991331304632448
  0.9993103828018715  0.8011423670389343  0.6009966659404828
  0.0002693422728972  0.8008648710650053  0.8000921991048734
  0.1996484832172451  0.9983819426426787  0.0010123949923753
  0.2001277115647099  0.0017831813808473  0.1991848000998407
  0.1997537689624865  0.0001701706678738  0.6020283835527444
  0.2005839011079620  0.0004358936017389  0.7997302250999040
  0.1957836832437013  0.2009068829286414  0.9996886550872720
  0.2008849790680531  0.2003155194019329  0.2003903260757697
  0.1991753881776101  0.2038756746141006  0.3995364214033008
  0.1998321087108656  0.2003960371607765  0.5998267041076011
  0.2020590176180783  0.2006197264211551  0.7993967702344918
  0.2009654672551000  0.4004143137669678  0.9990492167819335
  0.1956705510132117  0.3985819332065564  0.2002037204727717
  0.1983963547790775  0.4043591107055527  0.4012393990709995
  0.1996923173458316  0.4000646160005229  0.6003765249391225
  0.2004707901292225  0.4008584829396507  0.7988580970695756
  0.1973563971508036  0.6004230915413444  0.0018775990995930
  0.2016714681250718  0.5956596374525250  0.2036584465194162
  0.1990526517664007  0.5989610274051522  0.5967162915421479
  0.1995599811522867  0.5994527939035783  0.7998753236925488
  0.1991836776237611  0.7989653143385137  0.9981776413109880
  0.1998543149904083  0.7999986480282401  0.5983410456574006
  0.1999555973114236  0.7988310285989001  0.7992986139090362
  0.3996134447448193  0.9994510398335882  0.0003310030581345
  0.3995744120553918  0.9984223940843726  0.2001246435386296
  0.4022095803046610  0.9991832335697759  0.3999206193392163
  0.3998657244109898  0.0001339447251787  0.5999997381419109
  0.3993298257836375  0.9992516254644002  0.8006070627556886
  0.3987121501979592  0.1998596505027508  0.0004333890076806
  0.4005767797304724  0.1972030723407369  0.1990123695372761
  0.4001624841089895  0.2004275262073375  0.3998040667388090
  0.3993971795504291  0.1995945856541807  0.5994194576146260
  0.4038814374567703  0.2004999108503241  0.8005185805212540
  0.4001858147257026  0.3999766113491754  0.9934662934348245
  0.4009842047575334  0.4001410293155191  0.4041423219659677
  0.4002770608287988  0.3997625662271838  0.6008467231900817
  0.3999358670618653  0.4006408934368899  0.7986665711623530
  0.4007485530474908  0.5997602504516052  0.0029123403303943
  0.3958436049658978  0.5998265188101713  0.3966968749954424
  0.4003001120669941  0.6000489159580658  0.5998855359003936
  0.3998510639617805  0.5997834501452720  0.8013698565707286
  0.3998449828038143  0.7999482419356320  0.0001781590111083
  0.4012021819836737  0.8002650297711672  0.1997102635075677
  0.3990352866257467  0.8003985853348569  0.3998748561278059
  0.4004466544308422  0.8001696641653241  0.6002985921363684
  0.4000244769117802  0.7996839713532028  0.7999010697852226
  0.6010621027515272  0.9993451387146068  0.0009874248516704
  0.6001187590878236  0.0004793404335945  0.1999974357926565
  0.6006391091005323  0.0002160346187356  0.4001663507854556
  0.6002919014155359  0.9996464853247364  0.5994076983714755
  0.5998543387221539  0.0026386462799192  0.8002263375998316
  0.6019859909547017  0.2008814902643068  0.9961099304499810
  0.6003250032054246  0.1990728195924767  0.1984777534385059
  0.6009189825596062  0.2009193889500782  0.4004971998646225
  0.5998879481534294  0.2001014924273513  0.6041624320819143
  0.6010615316790523  0.3996814275682588  0.0001660890445448
  0.6057290098535590  0.3972992715179215  0.1991694628594037
  0.6004694156281946  0.3998127607285082  0.4001864613714255
  0.6000901934045881  0.3999134133165337  0.5994863680260416
  0.6037712822441547  0.5995711856274132  0.0001312730967238
  0.5947265321744948  0.6001921419225162  0.2001453511449092
  0.6031774420271988  0.6003044523305842  0.3999731194199761
  0.5984846867399088  0.5997606050115951  0.6002867326113784
  0.5985755037943993  0.6007810465358737  0.7989771017707668
  0.6007349996089715  0.7999880150950136  0.9997759831034604
  0.5999024950912827  0.7998058052891490  0.4002205581151388
  0.5994773396506596  0.8006935478856035  0.6003767446044201
  0.5994003766776254  0.8015102106728250  0.7998974043943189
  0.8000659231733969  0.9975520127141150  0.0012238578128369
  0.7992782869380008  0.9997886189617202  0.2005913465958955
  0.7997053486692162  0.9991186669091072  0.3998445904822043
  0.7998754007502360  0.9994775982511875  0.5990902483991051
  0.8001421098249888  0.9986622948346227  0.8003258743439972
  0.8047307081573174  0.2022698951509829  0.0007597646110166
  0.7992138939876549  0.1997559100377511  0.2003654976498327
  0.8000886480152334  0.2018633365400266  0.3997554866150754
  0.8006556999973354  0.2005666678289694  0.5995343891450284
  0.7956578108409923  0.2010656487079066  0.7997746287020394
  0.7984589470747203  0.4052357096153920  0.0002898387792995
  0.8012010855894239  0.3982825067182303  0.1998777071239931
  0.8005345910555789  0.4047274287955974  0.4001028601463063
  0.7996507708245157  0.4001401488753806  0.5999865617386803
  0.8004553248763345  0.4007406379165844  0.7982266559512443
  0.7996718163638891  0.5996865205755506  0.5991288977334248
  0.7990470976792603  0.5996779374027789  0.7997589402983618
  0.8001117909338550  0.7951288950566533  0.0005551285019274
  0.8000061696269647  0.8016072118525019  0.2003604892507276
  0.8001239820232350  0.7957323014285779  0.4000993839138924
  0.7998054784210483  0.7999847839844195  0.6000825952829389
  0.7997234765263160  0.7999140448164727  0.7985833458092920
  0.9995977988260213  0.1987981007517478  0.2000319343936365
  0.5998965770012686  0.4002646130019413  0.7996458319032368
  0.5998225143042681  0.8011845654931493  0.1997789928005942
  0.9996743606543866  0.1958661516716556  0.9975358869376648
  0.1967011107208522  0.5997645147876061  0.3994101969803839
  0.1994763824335538  0.7938036622009599  0.3718332570955016
  0.3975251134629827  0.6062842544490398  0.1999049964421818
  0.6002207027321136  0.1974319872818208  0.8008615256316132
  0.7986427885349047  0.5997995765503564  0.9942383450268008
  0.8005992687808853  0.6004329143403579  0.4047002731355254
