Zr Ti V  Cr W 
 1.0000000000000000
    15.3161674756862691   -0.0038639056753981   -0.0081742366427040
    -0.0038625530149281   15.3180417040563182   -0.0084288121243241
    -0.0081714294601317   -0.0084252347079361   15.3251398317997438
 Zr  Ti  V   Cr  W  
   1   2 101   1  19
Direct
  0.0006720283636406  0.4064146254653980  0.6041430763268808
  0.4071746482306221  0.9900332883596981  0.3979753452334558
  0.3983230446367035  0.7981850488065281  0.6162645696425855
  0.9998146615295579  0.0014587359781045  0.9989632116106499
  0.0000024647447531  0.0018007528365007  0.2006112284714222
  0.9973018643629746  0.0054973950314402  0.4000489393148264
  0.0018272939332839  0.0018333645782622  0.5994908079218654
  0.9993629467379218  0.0032893265489178  0.7990298164911259
  0.9987152384057451  0.2042649267612369  0.9994314123359180
  0.0036981334217805  0.2024184275225938  0.2034051827250777
  0.9979270315657301  0.1992905311589619  0.5948519957729157
  0.9980148782546853  0.2028703794983217  0.7979907771874978
  0.9974771263639315  0.4024070956800586  0.1951556987286498
  0.9980823489702105  0.3973312102862813  0.3954198817852210
  0.9995186883240110  0.4039233416805806  0.8090885703773952
  0.0006097887602088  0.5989651261784318  0.9965370951751418
  0.0056534148978429  0.5997432850092989  0.2019529875253426
  0.0009332442368328  0.6004953307014236  0.4021098837397753
  0.0028603181697736  0.6080679796943997  0.6011675398504549
  0.9968273905809607  0.8010490168010552  0.9998581952414166
  0.0000405072318792  0.8003236853275825  0.1987039085528716
  0.9982633837567844  0.8023046638826028  0.3989157612713733
  0.1985913817300491  0.0008448679318840  0.9999071543961965
  0.2008563895725523  0.0049512316448770  0.2025517907961662
  0.2001022762860135  0.9994869948412406  0.4032228937521590
  0.1983974556026819  0.0016014262998957  0.7968361330090804
  0.1997298558271957  0.1994541134868407  0.0036464720528897
  0.1980206265830494  0.1998527782681926  0.3961237844413983
  0.2025949318639306  0.1961371652296891  0.5993765412382143
  0.2016477956340126  0.2006620164473172  0.7998065412141199
  0.1966386219171257  0.4002132840031118  0.0010015932610009
  0.2025990757879300  0.4005183082764944  0.1990707744953908
  0.1985661459030481  0.3997077601379531  0.3994641609286569
  0.2062848254812029  0.3970900573239861  0.5998973216157799
  0.2009612580192756  0.3996504580451546  0.8014720296279861
  0.2015603650278459  0.6010449948406513  0.0060887884874943
  0.2041263777567503  0.6000232260441889  0.3977124616626330
  0.2072541660014927  0.6042405684232569  0.5971082748642446
  0.1977648125492288  0.6008111456015077  0.7988588478283879
  0.2007926745632928  0.8022442502242544  0.0006609105641242
  0.2002605510052453  0.7975334502506011  0.1984817197233538
  0.1983444683452123  0.8024128720598004  0.3992860792582772
  0.1983156736796944  0.8047764253710170  0.6011613311273409
  0.2025467186097153  0.8004644355381146  0.8020965933303884
  0.3993784416592475  0.9964638593948679  0.9998327142452078
  0.3997732501727526  0.9990125152942548  0.1971561833277443
  0.3943927443949777  0.0002282106699429  0.6025085198068839
  0.4000907003701895  0.9955955091844368  0.7999429653294040
  0.3992081729471957  0.1985316364752681  0.9989212295245156
  0.3968870245574186  0.2016842012488844  0.1996566975156176
  0.3984799053869607  0.2036486389728782  0.4008184790250689
  0.4017836265581723  0.2008032797784090  0.5996297357575375
  0.4031183615626592  0.2000031056520102  0.8014782407229303
  0.3988841302031217  0.4028337122903051  0.9982815515637964
  0.4040593000685690  0.4017650771434289  0.1983565609638724
  0.3998402134576358  0.4034183726696282  0.4007619308186626
  0.4007858799500546  0.4018855535004453  0.6020594186610451
  0.3995415932907987  0.4020739202650245  0.8028931481325874
  0.4001442675052158  0.6037878583034649  0.9991804405154151
  0.4005730118667040  0.6006587592388531  0.2060632371768507
  0.4001676632339407  0.6025970300862326  0.7978625306903179
  0.4002109482983391  0.7998218602250843  0.1936111741672466
  0.3992768200632345  0.7946422120910024  0.3978959723375889
  0.5988000814797168  0.0018865826118203  0.0023707584550953
  0.5974245650396844  0.0036732363940970  0.2059832706552676
  0.5953856818720960  0.0054032170323239  0.5936577639237401
  0.5987958369821617  0.0041119898106932  0.7971690422717495
  0.5991194066078344  0.1996445119659546  0.9973523893997441
  0.5981919624622237  0.2041624252477272  0.2014858996905640
  0.5982555772330648  0.1971635309970635  0.4037376385384938
  0.6009567244768125  0.3993939547181606  0.0033334622008385
  0.6025206647812186  0.3959616474016243  0.3959814197748246
  0.5989529997677452  0.3979310315113244  0.5983581403002289
  0.6009626530589735  0.3966401955855928  0.8035993601979157
  0.5989041329006470  0.5984949112971477  0.0054761576218962
  0.5956154237117485  0.5991594498539554  0.4005439022375464
  0.6011636879331056  0.5954564108268365  0.7941067359903826
  0.6006442182848053  0.8006045027403833  0.0000438055738472
  0.5996746579178298  0.7945469731455396  0.1984976479808536
  0.6001805073712916  0.8029957382754219  0.3997390639158289
  0.6014667519267161  0.7950792874177046  0.6012201941557912
  0.5997998017840062  0.8014451006972422  0.7998365269228171
  0.7988086225421301  0.9970599929761161  0.0014236918905883
  0.7990718658336929  0.0000425903414789  0.1994567286394462
  0.7980052163995180  0.9976046264758217  0.3990012759530633
  0.8002452664540454  0.9984022141161896  0.5990411091615442
  0.7990916656980223  0.9971422171199424  0.7988715333596760
  0.7998391715767263  0.1974655936491845  0.9991175764299313
  0.7984476823570582  0.1997850635680539  0.1979826170768297
  0.7954580287939753  0.1999521335438036  0.6002237638899558
  0.7960784784352327  0.1989355425448280  0.7996164125597400
  0.8030986971440792  0.4013468393897023  0.0002658812218240
  0.7970758501344940  0.4011384570167694  0.1982419949155786
  0.8016908375705972  0.4014930337951199  0.3982627701951810
  0.7945291717312305  0.4015051080241470  0.5996570472051754
  0.8000523541485256  0.4015356277331918  0.8018952101225754
  0.7983724285271945  0.6047288597303457  0.0011760882949791
  0.7948160728767726  0.6016799212698655  0.2019647475250254
  0.8000407773550334  0.6022296923230244  0.4004798631522117
  0.7924075642621344  0.6014877513250625  0.5980600206870280
  0.8016199650150698  0.6035184560787287  0.7988128948082244
  0.7989428774010261  0.7997868124899538  0.1948516227545450
  0.8022337500429290  0.8005158730327311  0.3999769240785432
  0.7962450305116084  0.8008098954559472  0.6049561804449168
  0.8002587563552125  0.1994993169472550  0.3991860042459636
  0.0016133228839053  0.2028187939130671  0.3995629617207507
  0.9982995676129777  0.4013584619396328  0.0009814440624087
  0.0006031554481343  0.5960002271582026  0.7952474710097061
  0.9979250572073259  0.7996592215808483  0.7004414154009018
  0.1983696322668403  0.0006616160720226  0.5990331610541574
  0.2013218465876107  0.2024495271864076  0.2003124774082743
  0.2030557002770350  0.5989853635953967  0.2031217693393681
  0.3992198386703987  0.6006372229813980  0.4046068019018031
  0.4049437661383390  0.5967342114145678  0.5988983589207779
  0.4016562197513965  0.8004212137627903  0.9960323406403560
  0.4013481987756291  0.7984349424743911  0.8091223866861423
  0.6036504831524768  0.9998456496630143  0.4003826834975797
  0.5977538389700955  0.2022882618915990  0.6026991391331571
  0.5993897368683561  0.2003929085588992  0.7970910530643860
  0.6008638875891981  0.4007378297789835  0.2002717360739749
  0.5971227222620938  0.5955707090564915  0.2047490758427072
  0.5952150930664192  0.5963388342584641  0.5964358242317458
  0.7989989959738422  0.8010524050694610  0.9975353022035763
  0.7965454995980106  0.8007328624657536  0.8049276450937406
