Ti V  Cr W 
 1.0000000000000000
    15.4171836946855763   -0.0006458025225840    0.0021743795697675
    -0.0006464432342440   15.4108214600062574    0.0048957167363750
     0.0021730867805691    0.0048939939426410   15.4267125679285311
 Ti  V   Cr  W  
  13 101   9   1
Direct
  0.0006781117661603  0.4020442673009900  0.4008286622330894
  0.2065452420810299  0.1990052695574863  0.7922521960424008
  0.1990863799163980  0.6068706791925439  0.0049226108769949
  0.1979743906806860  0.5983529797861381  0.7915000787847476
  0.4005852731001200  0.9949332524506462  0.6007345528656235
  0.3953455091776961  0.2041505680501957  0.6095662060286579
  0.4019923878384989  0.6052527779142024  0.4024158566121106
  0.5967120252957787  0.9982597983997634  0.9937473349019379
  0.5956098417314445  0.3991973755467609  0.4052916176967372
  0.5912990256868075  0.7973174942625986  0.4012686011804251
  0.8012355507599946  0.4058833637539571  0.9908908054438035
  0.7982292460288846  0.5931392606425966  0.8052094052927601
  0.8049055133772084  0.8017454486703093  0.4011594366433457
  0.0003816070397730  0.0000013377207332  0.0000087950772956
  0.9994820225581151  0.9988331313402102  0.2004796942198646
  0.9999619807345197  0.9991254910643765  0.4004838476764402
  0.0002954284142435  0.0006023331849618  0.7996330585703227
  0.0015147843400198  0.1996116374456119  0.9983660243698204
  0.9990861189721616  0.2003813615324868  0.1994282619503783
  0.9998479862993980  0.1980883822487807  0.4002357092935059
  0.9990278202049819  0.2006628001726283  0.6001375511614490
  0.9996497726444323  0.1996930211556011  0.7995349227810169
  0.0038961011735816  0.4005821034554195  0.9985202397782994
  0.0001671242154271  0.4007287800239428  0.1961861697303605
  0.0012376750708794  0.3989668375040280  0.8005338665529717
  0.9965852545676276  0.5996791040152368  0.0001553545235219
  0.9979851563661286  0.5986979139812777  0.2013670859796494
  0.9987880500648759  0.6016747860772959  0.4004523481535167
  0.9975179414292764  0.5990086322051313  0.5998745248725782
  0.9990175908905534  0.5989380752782192  0.7997988568977691
  0.0023822824759727  0.7989858674540504  0.9992751369228710
  0.9984079211019659  0.7989143879747678  0.2006604109771898
  0.0028230218867846  0.7993627035333882  0.4013705001584019
  0.0007876258644537  0.7986074280071338  0.6023635415223255
  0.9993789058394298  0.7987366543307063  0.7999916496826003
  0.2000131089362301  0.9974111965454310  0.9999792117940891
  0.2020044460074441  0.0006067175900474  0.2016277053074069
  0.1996118950084467  0.9994794469323619  0.4006643972989552
  0.1973425307800216  0.9984412747294568  0.5996418265969231
  0.2009761735599476  0.9984141760492418  0.7988765634915479
  0.2020958602114351  0.1987392529958973  0.0034244342222745
  0.1971312119763590  0.1997663880046706  0.2000171296591875
  0.2001276302480344  0.1992203502171464  0.3983336849282665
  0.1971990154721987  0.1999285380008716  0.5952676183020434
  0.2004916015462170  0.3990325369842520  0.9996704641049411
  0.2021994686264508  0.3986519367856334  0.2006818951890404
  0.2020623195660884  0.3998158598049542  0.4007169200928457
  0.1978312392956909  0.4007978590271644  0.5994172132821750
  0.2012354366568025  0.4004922223106612  0.7997709571000651
  0.1990716724494494  0.5993430110403297  0.2042648158778314
  0.1977107612582313  0.5999234811085508  0.4003038677626920
  0.1991189845418153  0.5996503113770109  0.5960487359410008
  0.1998488410490258  0.7985204908983272  0.1968934517107519
  0.1995391227355199  0.8006739321478923  0.4002251323155980
  0.1995837214759771  0.7982407527155597  0.6021737954635513
  0.2013770975679739  0.8006424134597915  0.8038553082431613
  0.3989310435325014  0.0004595437340367  0.0023300344515909
  0.4021018626600333  0.9950708521546191  0.1996903900331479
  0.3992490596980001  0.0020744509073916  0.3976412834953549
  0.4023188941663930  0.9979455068593512  0.8029469681123640
  0.4007245072151444  0.1998716250784030  0.0019814192490981
  0.3998743297625890  0.1997209198434853  0.3929310356331828
  0.4045919722778981  0.1996210073849621  0.8052078102128765
  0.3986145393428766  0.3994962567195445  0.0002917463075411
  0.4016875098607636  0.4046055942820255  0.1998583995759195
  0.3979092105564120  0.3975424056761706  0.3994986348941866
  0.3988436370704419  0.4027722543328634  0.6014857620447025
  0.3998101843285840  0.4005748970984194  0.8016550218534297
  0.4012788542830414  0.5997592326144574  0.9993065794210716
  0.4015274662891161  0.5999390047880583  0.1987985103982036
  0.4002187669632042  0.5996145175434119  0.6019981220991676
  0.4024777782251404  0.6003379246387908  0.8002548734131626
  0.4009578996254842  0.7985669053525699  0.2011677295590737
  0.3953196164163351  0.8022042666262048  0.4013628572593284
  0.3990671142868615  0.7969045575188404  0.6023352651457026
  0.5998407337309662  0.0007217000978989  0.4008287754647769
  0.6022248498164853  0.9990584087104906  0.5986222495787865
  0.6009467896718697  0.0003433625071430  0.7957579179647478
  0.5999172807788494  0.2016294470150244  0.0010206999812888
  0.6050394961905311  0.1996544934512891  0.1991464171326998
  0.5976696052613297  0.1982855880928335  0.3987097262330533
  0.6014276590889246  0.2002656471708947  0.5994706113918570
  0.6018347938674184  0.1999832962901536  0.7996157202810759
  0.5977017001150158  0.4010006647400102  0.9989378248318291
  0.5993686094685303  0.4002884866792682  0.6019774632071341
  0.5993552502925320  0.3995666556302775  0.7986868128870566
  0.6003146533693288  0.6004451495468405  0.9998523690726105
  0.6012931633289615  0.5991003164875952  0.2010784768131241
  0.6016183172527508  0.6000621334833394  0.5987175991208520
  0.5989273994762643  0.5992562170752140  0.7993936525022942
  0.5996325231934477  0.7979975818188476  0.9999770780950180
  0.6004894023959511  0.7997403815927182  0.1983317166817011
  0.5995159302769659  0.7990114272280444  0.6027121454873273
  0.5995337559819216  0.7990965572289371  0.8003948290538009
  0.8021568075632791  0.9995240200295611  0.0006284660145635
  0.7997038054830417  0.0004278461226741  0.3999880803788252
  0.8006884606158273  0.9990918269193829  0.5992178184297423
  0.8003070709433104  0.9988084177038015  0.7992967757813553
  0.8008288383588300  0.1982266595116566  0.9993190576017194
  0.8002864430714860  0.2003867717989748  0.1985743149478245
  0.8008401904883847  0.1997376704733935  0.3995970576470333
  0.7999895399062850  0.1993171358123933  0.5988167156345813
  0.8005957194186853  0.1984498955812102  0.7988866804384024
  0.7996038565785378  0.4012897050812895  0.1996237980586705
  0.7995609926362726  0.3991253027178496  0.3984040751213960
  0.8010593266670224  0.4002821336552112  0.5988397067470560
  0.7995450446676526  0.3956724684222510  0.7960235587917318
  0.7990709170075418  0.6031324134402730  0.0049651076000620
  0.7987695719326147  0.5980086269663215  0.3987976326965237
  0.7997804662373666  0.5995317323561570  0.5974286824965067
  0.8010063842171067  0.8008253927437384  0.0002833747923354
  0.7993055523479685  0.7990698495171131  0.1992558023082467
  0.8001711068786949  0.7982001319593063  0.6031643249538733
  0.7998819750896499  0.8011372847347903  0.8017586357447035
  0.9993357752302815  0.9988082185382373  0.6004536440942717
  0.9998875682526963  0.4001091257210692  0.6029581562519116
  0.3991839096320123  0.7994916707782410  0.9998105189783851
  0.4001597836872953  0.7986516416579736  0.8015685806529904
  0.6012534129233270  0.9991359096603210  0.2021927686291537
  0.6003211823213700  0.3992577726252121  0.1971224674399898
  0.6020333970522073  0.5991258488598676  0.3999156259240348
  0.8000276559635225  0.9995764431343062  0.2003775363037964
  0.7996765165691508  0.6001948226119396  0.2007111465817881
  0.1967785714723507  0.8024337324879470  0.0007820120496311
