Zr Ti V  Cr W 
 1.0000000000000000
    12.6210068901576324   -0.0144978582099523   -4.4442367965459733
    -6.3180480965057821   10.9442516908329210   -4.4299116741113780
    -0.0104124025567264   -0.0006299496168695   13.3030158846175190
 Zr  Ti  V   Cr  W  
  11  18  73  14   8
Cartesian
  6.2540213938185030 10.9563555893064102 -8.8128021213433794
 -3.7935246570030414  6.5078670560715972  7.9909719812995625
  7.7585604633917233  9.0540595805693513 -5.3168423987257798
 -3.3987632545614925 11.6326532777122971  0.4128762504892553
 -3.7641851820499381 10.8983119037759160  5.2599966938245339
 -1.3838541522741119  6.4223149061394196  1.7435086252644387
  5.1608867691089229  0.0052282212176831 -1.8646060551449197
  5.9390849621055359  2.1912406566997022  4.5806232001485467
  1.1949081202907004  6.4619228140482310 -1.7940043548560431
  0.0810213471990903  8.6151511701871542  5.4037553762251740
  5.0439536721455651  8.7978268384423650 -4.3614082878245517
 12.5013519319411568  0.0091820501664897  5.9727473356508067
 11.2387124773017621  2.2786581235669519 -5.3680748826909346
  8.7346040085474712  6.5070892021628444  6.3233244900076171
  1.1443214251743277  2.0585431058447843  3.2945125535083428
  1.2141856249858527  2.2519005348004781  8.7901819215350230
 -0.0378924098497321  4.3395156579957783 -0.0141222145059229
 -0.1142958283782551  4.3143122787807391  2.8953069097537321
  2.7542966514220315  4.3676674926283283 -0.9421927049236191
  2.4583060901170817  4.3097759606470483  1.8397324198783722
  1.2137566976338161  6.4855796574607529  8.5606866282220295
 -0.0034690321579001  8.6458199256813195  2.6478106987589327
  7.5644389403027210  0.0659460464711477  8.0930547549678167
  6.2680519280304861  2.1309110935772630  1.6694784938997382
  5.0462443594989468  4.3835869796199063  0.7756767377227473
  4.9578930043397147  4.4218681210419488  6.2280211742066385
  2.3951422881384907  8.7079069967772860 -3.5391791754119182
 10.0443254412155163  0.0912105373480976  1.8283900749084194
  3.6534166257107419 10.8606827995201787  2.5859301211844516
 12.2906801797657117  0.0681396959983127 -1.6578550773399594
  0.0188807335373710  0.2018204306571434  5.5027200851997016
 11.1518178842282971  2.2690603127056734 -2.6401042792591984
 11.2293683720810229  2.2192080454930334  0.0385452825744220
 -1.3422288350700473  2.2709090743685398  7.1004870948537944
 10.0185365946177267  4.3981294535414213 -6.2071356202803694
  9.9328851866548291  4.3120598179813063 -0.8415067975766233
  8.7656015895732100  6.5239007721241808 -4.2991034474388954
  8.8053335088560267  6.3835798447243022  0.7954099217056163
  7.5570119308810275  8.7249054425684811  5.2296271382326962
 -5.0165217821343981  8.7140499106567795  1.9318474712551792
  7.5130960955622443  8.7071263169837927  2.6154493344599716
  2.5551980657681201 -0.0128969098816170 -0.8044319141925839
  2.5808377119700929  0.0743828806488855  1.6353080193274496
  1.2746343859972424  2.3074875170489455 -1.7392372177070836
  1.1325061104233725  2.3501099789174664  6.1760496260489486
 -0.1084216977740719  4.3288262066605947  5.4215624114223715
 -0.1642375082871408  4.3647500026543504  7.9466861865339178
 -1.3284213403556597  6.4343621891893426  9.7356951807649832
 -1.5009320398525410  6.5918843225799213 -1.0234788038483518
 -1.3367235382687837  6.3435896266910694  4.5326451367924561
 -1.2642703613764659  6.4392623113809364  7.0883142566205226
 -2.5120796934528142  8.8053291279231427 -4.4334995953016474
 -2.3918958022688486  8.7418860276824404 -1.8745572952717418
 -2.5380431436067536  8.7746472627044856  0.9417591555670760
 -2.6158521303028581  8.5857454892686231  3.5399781176010130
 -2.5971423589452933  8.4478257894258011  6.1944650661079885
 -1.2948049114985973 10.8938375133869556 -3.5621272784828091
  5.0691347197081340 -0.1412709498208236  3.4223552080157567
  5.0929117358857328 -0.0585816930799826  6.3822557423702992
  5.0351197565043622  0.0396084172327264  8.6388148812459686
  3.8144824699143411  2.1100363226871726 -0.0735711834702145
  3.7780407869007591  2.1537445131261106  2.5316611926637971
  3.7584239689741867  2.1530394015216650  7.7855552549861127
  2.5663614181757577  4.3996812028398136  9.6661545274763032
  2.6539656730535026  4.0825492349743984  4.5406232788544134
  2.4013100924143260  4.4474332594454342  7.0757368679543049
  1.3898385166332816  6.7025835955822295  1.0693763722406950
  1.3460555602029316  6.4391516254128653  3.7032202607845646
  0.0307772872885126  8.7145451512567842 -5.1536004718705541
 -0.1170533996266163  8.7807675514340513 -2.6643404131407702
  7.5502487105006990 -0.0070979590630642  2.7134679497187766
  7.6022301655962847 -0.0196358616897215  5.3636434551330820
  6.3567647120699000  2.2548772322952919 -3.5575286442753922
  6.3053934895778987  2.2548631817608680  7.2959368193518772
  5.0760501000629228  4.4333189196630469 -4.4051214778730561
  4.9623442819310517  4.4533539357825598  3.4156030197600060
  3.8230674247594121  6.5062882901098700  7.8563581469675485
  3.9703096667034337  6.4532643297506400 -2.6625838669904351
  3.8502725928283184  6.6592274823204045 -0.0024488605956117
  3.8036582967736203  6.5283859008752172  2.7102574678950884
  2.5613182359604125  8.7885825628675676  7.0814192446451827
  2.5494349968797789  8.6688082282075207  1.7746429208956911
  2.7398369159453977  8.6466589171576587  4.4922650886897726
  9.8991151387280354  0.0709640814357902 -3.4030223425332355
 10.0219062326650210  0.1215939308974053 -0.8823257848479628
 10.0615455081171401  0.0279782683741384  4.4091157409825605
  8.7724488419565336  2.3638252487081144 -4.3799981213483798
  8.7357717078227157  2.2192729971626584 -1.7423263780770830
  8.8309618625341209  2.2988661556844519  0.9406509780293242
  8.7640568616182044  2.2151813276487498  3.5228908568385249
  7.4701486302291160  4.4489176322093957  7.9559124768303917
  7.5444180857866918  4.4318411419801187 -2.6632331385344905
  7.5554729778124710  4.2822977950678274 -0.0096900664522535
  7.4801182103545276  4.2859701327515358  2.6445053918577428
  6.2237127649017694  6.5756435632600336  7.1589938237938187
  6.3567551474874522  6.5214801986778586 -3.5103482655583855
  6.3372767741102081  6.4831280006730667 -0.9097915498752983
  6.3047072716962482  6.4903797754665389  1.7784086069626601
  4.9862810513993576  8.7326938739710602  6.1661671698704783
  5.0704757796700299  8.7601931391082690 -1.6401146651988820
  5.0135873815332221  8.6551740123491285  0.8646814937880436
  5.0429944224541954  8.5858637483882791  3.5014462111531022
  6.2427291781347201 10.9576523014472009 -1.0161011773405952
  9.9131335032697852  4.2531291220864684 -3.5920149667645629
  9.9938127169659978  4.2930476154787351  1.8207471853079695
  9.9815247880253164  4.2886424825322740  4.4177444753692843
  8.7254520156204123  6.4879125481458892 -1.7284691530240652
 -3.8851052218976720 10.8800205839575828  2.7458405308133691
  1.3111829257230716  2.2397251532997484  0.6902128059501685
 -0.1294424094035005  4.3071654576266454 10.5488841754859184
  1.3647293399154354  6.3667820753074533  6.0754485124090598
  7.7459672995627509  0.1040405599166678 -2.6115152497894596
  6.3565703177536905  2.3120524697871994 -0.9669266386920691
  5.1541934972058785  4.3739800724866926 -1.8711428845866200
  3.7858506517032842  6.5791235859140702  5.3277316920203965
  7.5302035328248529  4.3957039635073309  5.3252108627763803
 11.2379408734957114  2.2770204821503812  5.2600871256962360
  7.4977105645353666  8.6179938063857975  0.0040443356828182
  3.8109406622125404  2.3560720775586379 -2.7640899098821450
 -0.0240311205373404  8.7297894218889951 -0.0009149652814837
  7.5878942249974850  0.0698763971528025  0.0073243041392765
  2.5591668910571110  8.7898309385554594 -0.8446354423410221
  8.6953509420899078  2.2537736787217324  6.1890780451301026
  6.2265918303068410  6.5119070599418558  4.4818170557451849
