Zr Ti V  Cr W 
 1.0000000000000000
    12.6210068901576324   -0.0144978582099523   -4.4442367965459733
    -6.3180480965057821   10.9442516908329210   -4.4299116741113780
    -0.0104124025567264   -0.0006299496168695   13.3030158846175190
 Zr  Ti  V   Cr  W  
  11  18  73  14   8
Cartesian
  6.2716728689862409 10.8970761761882429 -8.7881674693535583
 -3.6831705701098065  6.4869086647590439  7.9395327427659605
  7.6470895821842868  8.6757298194397023 -5.4668871855079857
 -3.8131252978833459 10.8390005146781228  0.2958306090879096
 -3.0721565683894840 10.8431030363795156  4.5850471962236998
 -1.2773804679812661  6.3972275240183469  1.6770839128136077
  5.0936967634481132  0.0474704634572236 -1.9415138863902563
  3.7694439067928833  2.2882300858060445  5.3531777041985631
  1.2036610739898754  6.4842863759673071 -1.7446219480673286
 -0.1097590928887098  8.7893241035933283  5.3101418286951123
  4.9753852904962184  8.7658807155214120 -4.3992849834406673
 12.7358548995921197  0.0027796182304745  5.9661238010495516
 11.2572028597796869  2.2200750951055657 -5.3377716473312224
  8.7943365670329019  6.4365656823800759  6.2494675641011845
  1.2417897954908559  2.1155885059763095  3.3785496209948338
  1.3214634067242459  2.1676303436189333  8.7584318871599791
  0.0012638323503043  4.2931531643553953 -0.0072357330259012
 -0.0660221484002781  4.3008701563764413  2.9126342889208159
  2.7708785337808539  4.3764592186866000 -0.9038578723911076
  2.5174929298089426  4.3565518129741339  1.8713675155702472
  1.2314336423026626  6.4914293190786783  8.6430012334163546
  0.0571911854306187  8.6941420941865992  2.5987732489940139
  7.2341437373617410  0.1776477333355005  8.1567757228755458
  6.3478708514410025  2.1682315089460884  1.7084417125450999
  5.0757497917455714  4.4058521109759541  0.8001295504414174
  5.0857239699362884  4.5168734803019293  6.2270152142598869
  2.3311750574156869  8.7317317206604219 -3.5018462202655511
  9.9796988180467334  0.0910549920435480  1.8318174932137026
  3.6048562308777763 10.8519371902222481  2.6623665293637737
 12.3160924799264428  0.0576813425103859 -1.6049894849983464
 -0.1516842712741859  0.1296188098450368  5.5486807819510329
 11.2272556219288919  2.2098831429438341 -2.6183728100250319
 11.2692548883152632  2.1996330321643423  0.0222257652585507
 -1.2786029093038871  2.2518665668614291  7.1122910843176363
 10.0886611969063757  4.3576033861249943 -6.2154548613305423
  9.9901398550990113  4.2880501522929757 -0.8586083579115630
  8.8165591966916885  6.3566565707233371 -4.3168151004693360
  8.8219501515366314  6.3589902877151641  0.7728524942617621
  7.6242081699148994  8.6698313323322580  5.1076215088172079
 -5.0479196502499919  8.6286518947273496  1.9143289305041329
  7.5846605927977313  8.7060477010148585  2.5673730774300001
  2.5404356066603606  0.0197447365530846 -0.9517789370019871
  2.5398289784859216  0.0815959995582927  1.6497408303002583
  1.2953813997133954  2.2862520038523071 -1.7044257337300417
  1.0964568206404988  2.2093081826182286  6.2032930115449370
 -0.0794600585106631  4.3602980435792809  5.4545424623413865
 -0.0827620367062657  4.3494850401173917  7.9789643784525461
 -1.2818548389975266  6.4369622698116133  9.7457409106866031
 -1.5010337222742194  6.5819598737676994 -1.0697947546577999
 -1.2920525980124546  6.3383220875312505  4.5014003941148069
 -1.1337856234115458  6.4594393663121705  7.0637347246887785
 -2.5135250007196208  8.8554411538150717 -4.4641196861098527
 -2.3819909081248647  8.7932070097605219 -1.8935379568972066
 -2.4891975443511001  8.6820299075003966  0.9701167897485905
 -2.6181083541593750  8.3528384778549256  3.5009731016977059
 -2.6350418314455659  8.4740246495660863  6.2046646443765150
 -1.3228477587711232 10.9475310142171942 -3.5341725779279738
  5.1797414409112710  0.0970933950373485  3.5359919840831799
  5.0763023371128870  0.0215315830984621  6.2790085187943925
  3.8293080352275615  2.1062405607334536 -0.0257085113246752
  3.8798159445514262  2.1562777095487564  2.4723279671485465
  3.9632333573197682  2.3952662598057928  8.0579383425905817
  2.5785925633012341  4.4188442054422028  9.6933121718113888
  2.5311645557315088  4.6046741267063567  4.5058980192615090
  2.4518779375529967  4.4611619480465698  7.1024879372195331
  1.4761676813722084  6.7614966817554301  1.0610081273759819
  1.2944543197025988  6.5434933304207616  3.7199002963207186
 -0.0441861337136362  8.7387554955537823 -5.2175879261908342
 -0.1521894440462743  8.8201002482797826 -2.6454982167675554
  7.5368781550692985  0.0359747078276647  2.7292909658829383
  7.5278137377285805  0.0892115527561283  5.3718495343002468
  6.3614777599951067  2.3013117916270422 -3.5106359061570838
  6.4149154635183736  2.3014089983173438  4.4444683962110556
  6.3341076432584797  2.3476029421239595  7.0835612369831544
  5.1234834978006365  4.4902812222434774 -4.3342137589901686
  5.0637636613925405  4.3509913333872019  3.4783952176045716
  3.7879273543970657  6.5320926591303916  7.8462795779063645
  3.9669511084694160  6.4978983716626102 -2.6145445247750709
  3.8654545269831249  6.6873033067187135  0.0254810574449648
  3.8290083499253247  6.5747724315883271  2.7143261258907718
  2.4243968064498218  8.7215424924884548  7.0502827491158371
  2.5675041414731283  8.7454080077391225  1.7751979045712747
  2.5712558693369378  8.7383711831714965  4.4915756998027225
  9.8631958833125601  0.0253373987811425 -3.4206624662292615
  9.9784025651347115  0.0959159434037688 -0.9203662844902538
 10.1293605768633164  0.0345995446805045  4.4599805757096460
  8.7652117908194498  2.3048719155427486 -4.3832019360127470
  8.7663405629624798  2.2137436665688677 -1.7499870162923026
  8.8735574019379406  2.2943321088683764  0.9057654780678571
  8.8313483936511012  2.2152756990499283  3.5295532125973583
  7.5292335338021328  4.4057277719890395  7.9675761511331649
  7.5701406589436031  4.4056241861690006 -2.6319303342172327
  7.5869486400234276  4.2674990298944033  0.0099900510639358
  7.5651099395932260  4.3025927914251376  2.6192387208903973
  6.2420679191229969  6.5522029658852157  7.0817502522432987
  6.3595952605322070  6.5143478156839532 -3.5071534326185114
  6.3320099883240015  6.4850052578863284 -0.8774320781887439
  6.3231133277659781  6.5126303049535421  1.7801237744507281
  4.8906324813972528  8.6471145394575224  6.0932220802994106
  5.0824950162068969  8.7599315026559701 -1.6127432395527164
  5.0738514059736382  8.7282680461347812  0.8953021365015487
  5.0345810145241536  8.5748975291179992  3.4695513245447471
  6.2935851079670577 10.8989079604303907 -0.9728797198472208
  9.9662997620425227  4.2086620067630331 -3.5968315200493035
 10.0789133910897757  4.2711859094807707  1.7863798060138234
 10.0914635489150424  4.2679424106547712  4.4077912876107694
  8.7691025842019652  6.4296868875394964 -1.7110668756600660
 -3.7898669481913441 10.8962116948985290  2.7031430152790716
  1.3233111639665263  2.1714501596095857  0.7681758985282884
 -0.0574030763541787  4.2803394703507660 10.5554363771939244
  1.2695136832156360  6.5186926441995858  6.1956892829727419
  7.7310589163979557  0.1314127635524110 -2.6222944046748049
  6.3676839381837089  2.3047945237218230 -0.9448140758412713
  5.1702475980720077  4.4153305972250418 -1.8192807339713470
  3.7351330408890631  6.6154120323070611  5.3259061987309222
  7.5890060805932453  4.3103287015721943  5.2295481366403473
 11.3225430752637681  2.2496970182970557  5.2819179389148321
  7.5638808205545871  8.6575557223751005 -0.0294252528025310
  3.7724196610447396  2.3927575922711521 -2.6832923615537845
 -0.0321883317694701  8.8241385821376763 -0.0209482909841110
  7.5417364356006624  0.0735164081411991 -0.0123142136452732
  2.5629296456393096  8.8428276879912939 -0.8096445686292004
  8.7664119152153059  2.2327434530477306  6.2200265903541592
  6.2632330768674924  6.4948030361067550  4.4161618070221653
