Zr Ti V  Cr W 
 1.0000000000000000
    14.5755797471673052   -0.1044528878681187   -0.0034288150445631
    -0.1035417273907724   14.7229025292827522   -0.0707101821056147
    -0.0035783386909209   -0.0710702022591171   14.6738648128793621
 Zr  Ti  V   Cr  W  
   1   3 110   3   7
Selective dynamics
Cartesian
  2.2838718706834360  6.0501097119890623  2.4445362493891123   F   F   F
  3.0778368895260222  8.6523809505084106  8.8895613265383933   F   F   F
  5.0669931946921620  6.5519329825577444 15.0917197002489321   F   F   F
  9.0235722532167149  0.0452128175778763 12.4681647727707414   F   F   F
 14.5358901396588625 -0.4801417085720452 14.5205284519458075   F   F   F
 -0.0702585022765471 14.9284457364603451  3.3395858888722145   F   F   F
  0.6781510021553857 15.2018895451183429  5.6676915924329325   F   F   F
  0.0740957644220866  0.2718125439657503  7.9467582110996897   F   F   F
 -0.2414231355281069 -0.1886683529924845 11.7092443082272695   F   F   F
  0.1912177136865151  2.0367729189368573  0.1455044055607960   F   F   F
 -0.5495596894861760  3.9462048290258700  3.3317262077869638   F   F   F
 14.3147808919748805  2.8345322880438881  5.7811597419017708   F   F   F
 14.2744949906493250  2.7243906001069762  9.6150636483311871   F   F   F
 14.8395538479596727  2.1423518824284926 11.7845519541759156   F   F   F
 14.1121465827555124  5.7732539986288662 14.6539276376088967   F   F   F
 -1.4584300844073190  6.7656117899535815  2.7401447796267400   F   F   F
 14.2089843088574561  5.5442009695525680  5.0958191234956844   F   F   F
 14.5715688593972388  6.5553335695877193  9.4335325957224150   F   F   F
  0.0186725784389234  5.0494316917021065 12.7834611348968661   F   F   F
 14.2337371620899553  8.4773263211454513  2.6706037778105398   F   F   F
  0.4042091263708752  8.3795755201912989  6.2186966665656707   F   F   F
 -0.7416049305020085  8.8034198677507813  8.2887274252620244   F   F   F
 15.2202283774028686  9.4431694802173922 11.6323813491382921   F   F   F
  0.6462945032766994 11.9419478866794613  1.2755842012821788   F   F   F
  1.0830992002183208 11.5662007674487839  4.3024273996400924   F   F   F
 14.3754826048108058 12.3783438133146699  6.1009561600056879   F   F   F
  0.7104638987479265 11.5281181943716433  8.2698261540653650   F   F   F
 14.3970212854222321 11.4045178174540744 11.7643137682537109   F   F   F
  3.4785927316177223 15.1693096513033865  0.2100112018305694   F   F   F
  1.8822195278659049 14.7226033011848294  1.9660894263212310   F   F   F
  2.8835791949817118 14.6165508722773634  5.5736667359480947   F   F   F
  2.4317743610216080 -0.5876219906726837  9.3059131638340258   F   F   F
  2.7393792590860362 14.0544757843174306 11.6556767485435540   F   F   F
  2.5228990111490179  3.8331961793687430 15.2992424263849820   F   F   F
  2.7978951276453201  2.4580113233491536  3.0741347001280626   F   F   F
  2.6637026404771311  3.5846887745748841  5.1306147205156947   F   F   F
  3.1448161702071804  2.2994453837724209  8.4534784481750727   F   F   F
  2.5882455668891136  2.3482247141306107 12.1023220525557669   F   F   F
  2.9470895517797722  5.3352131366632669 -1.2317041653158505   F   F   F
  2.0284299090467521  5.8811428007791475  6.4274716934545761   F   F   F
  3.0112544185107586  4.8314867193081561  8.8346790074941932   F   F   F
  3.2128569684869306  5.9447559279571403 11.3214867001109294   F   F   F
  1.7900035487865043  8.0434799761936233 14.0005964290965732   F   F   F
  3.3721690069925527  9.4368841197237447  2.4651796095713201   F   F   F
  2.8828979030093196  8.1871287436072944  5.1362543498791355   F   F   F
  3.5942794138026146  9.0535192443513619 11.7666757496504886   F   F   F
  2.2299985227546801 11.6843362611156767 -0.2086248328034762   F   F   F
  2.4057444460096749 10.7584570935019688  5.7776140367447013   F   F   F
  3.4569524544622992 11.8883305405578685 10.7606609153851238   F   F   F
  5.1178820834264211 14.7455397287719840 -1.4706189494905428   F   F   F
  5.4586310895106660 14.4943475612519990  3.1200299920928636   F   F   F
  5.3783441042540394 -0.7704021773441190  8.3932175538663003   F   F   F
  5.5038991962789545  0.4121189926069662 10.9488664556088118   F   F   F
  5.8180903880950456  3.1709920882847138 -1.0885104362903637   F   F   F
  5.2785496962764693  3.5246822805519327  2.5838516008231087   F   F   F
  6.0509572011159865  2.0330372937000578  4.9807660496178068   F   F   F
  6.6873181249215650  2.8876774148446027  8.5904794474411990   F   F   F
  5.3854091708893259  3.2395477323436297 11.2650915459489518   F   F   F
  5.5140976639132466  5.5553969075238445  3.9020858424592451   F   F   F
  5.7855290346698016  5.4943435701685566  6.3830119222836119   F   F   F
  6.1757132275766429  5.3569441672425775  9.6014861467663852   F   F   F
  5.9641020581991624  6.6735198331122119 12.4871500840524128   F   F   F
  5.3109507926279083  9.6207606139291943 13.7836350901189277   F   F   F
  5.6234875935761668  8.4002130924199321  6.1311354354513172   F   F   F
  5.7023650967170321  8.0146142721132492  9.1405372157685889   F   F   F
  5.3013684531868659 11.9086011256252302 15.0590349420424978   F   F   F
  5.7750570466837061 12.1585704434761546  6.0717297375382628   F   F   F
  5.7835775199923098 11.2650887484624445  8.5164766328113917   F   F   F
  4.5969159451007320 11.9792829882939795 12.7444008024071884   F   F   F
  7.4698188820832865 14.9464569199817348  0.0262994884607939   F   F   F
  9.1483905024396339  0.8157873377265106  3.3425681213064520   F   F   F
  7.9366305145909966 15.2503925972826160  5.7949733404355133   F   F   F
  9.0086794619202113 14.8903643216650199  8.5706257936429235   F   F   F
  9.2412691101308155  2.8615955189209683  0.3104663363875998   F   F   F
  7.8320355989528689  2.8178533414425759  2.8968084257546844   F   F   F
  9.5062049542215021  3.0587788462134995  6.2236910268299761   F   F   F
  9.0231457363413963  3.0515791093809774 10.3969973503859752   F   F   F
  9.3941235926399589  2.8809417991423971 12.6208941990744083   F   F   F
  7.7881659805432761  6.0307713642586886 15.6282618329510683   F   F   F
  9.0096255676473422  5.2234496548655827  3.3259782018520081   F   F   F
  8.5055313480786587  5.8855961601789968  5.9055815130997180   F   F   F
  8.8409885546190896  6.0633915879866205  8.3439383983328224   F   F   F
  7.8913037128169421  5.5236817467191335 12.8673741627661702   F   F   F
  7.8768724211029282  9.0752388498555572  0.0216606306221937   F   F   F
  8.8326646474898407  8.1463776954924949  2.6357834529457986   F   F   F
  9.9718593312265504  8.1389612579342980  5.5398800312052190   F   F   F
  8.9656215222238007  9.8087542579265570  7.4016518137749987   F   F   F
  8.8784430755553956  8.5530110034176658 11.0745219243302948   F   F   F
  8.5271891929014991 11.2804786912974002 -1.0940892904910782   F   F   F
  8.0921301495614983 11.9059345777516388  2.6794286052678409   F   F   F
  8.9155864749555871 10.2410964781964875  4.6302278566030539   F   F   F
  9.3621052879233737 12.4406715727655257  7.5847363996867045   F   F   F
  7.3014813091706676 11.8744113097054296 11.5828325160228314   F   F   F
 11.5853076891216293 -0.0906335735210201 15.2111691383759400   F   F   F
 11.4364590024720627 13.6008538982032636  3.4680397934323883   F   F   F
 11.5920342453666780 14.6358909920206841  5.7470550587525278   F   F   F
 11.8546721818740242  1.7777821248633476  8.9892516061060750   F   F   F
 12.1185796497289751 13.1861343328044001 11.7468743329607950   F   F   F
 12.8065714006039588  2.6693019676382095  1.3178325230482983   F   F   F
 11.5701727267991572  2.4452756530874367  3.2486813725865127   F   F   F
 11.8968195370298453  2.4401966379360496 12.4575650016181765   F   F   F
 11.3296309926126728  5.9732387825930857 13.7961989390748183   F   F   F
 10.8184114842553605  5.9678552673184502  1.7575156278991078   F   F   F
 12.0766794988932276  5.7370116953963555  6.8020334240053417   F   F   F
 11.5595641964601779  4.8083863731607819  8.6921965579115561   F   F   F
 11.3917864182816650  5.8834684225312825 11.2444526679714336   F   F   F
 11.3076074772620014  8.9368043054640243 15.0155040707542877   F   F   F
 11.7323322412374544  8.7903381976439885  8.8272554990712155   F   F   F
 12.5817225390597400  8.3128175050017283 12.4298310469746163   F   F   F
 12.2742672367248868 11.1661534988384474 13.9882301339064501   F   F   F
 12.9516630338285150 11.7937825036545636  2.2315224323102592   F   F   F
 12.3948523901354992 10.9948919516153865  5.8694673935338768   F   F   F
 13.3606476696172969 12.0789734452289341  9.0877790687705389   F   F   F
 10.7577431040360025 11.6587581870929853 10.7671321167313785   F   F   F
  5.3419400739801288 14.8083670123760633  6.0997448744153457   F   F   F
  5.1408600547248540  8.4802221929880517  3.8457836076510672   F   F   F
  5.6565102312222155 12.2463051224435695  2.8609714329167160   F   F   F
 14.1423086968789207  9.4750758976500720 -0.2524465328072283   F   F   F
  3.1794706326255175 12.5195899021384918  2.5849814497551900   F   F   F
  3.3363630831904083 11.9852714368030178  7.9659845832665539   F   F   F
  5.9448687260146960  9.7891431778470519 11.1157978632867529   F   F   F
 11.9065022205356890  3.5244568535362366  5.7284623655676317   F   F   F
 11.2912294701835627  8.8703858858432927  3.1340162200261319   F   F   F
 12.6128885084459892  8.0498520285424053  5.3702204101323234   F   F   F
