Zr Ti V  Cr W 
 1.0000000000000000
    15.5050440400828347    0.0206650371517037    0.0304858292680132
     0.0207229526236000   15.4632172535306704   -0.0191964718441436
     0.0305150008632079   -0.0191743023753052   15.4329039499575007
 Zr  Ti  V   Cr  W  
   8   6 107   1   2
Direct
  0.0516410786657538  0.5864885673118353  0.0032561305997054
  0.1989943581023839  0.2099379823390587  0.8052326802581679
  0.2020932268379375  0.6010831755955061  0.3843122181243031
  0.1973380282388799  0.5961625119137116  0.8167881673019035
  0.1817502283504436  0.7562046072440858  0.2019154239141250
  0.6007017451975871  0.0024822324349902  0.5986262795343350
  0.5931540456488850  0.7947549659247604  0.2022987558541689
  0.8023197067331066  0.4202819547535744  0.1788225241440569
  0.0047152896247447  0.4027496094482377  0.5984863329951570
  0.1970402564670350  0.4002930828790208  0.9582628289159426
  0.3736719629024751  0.6109509003152099  0.2136932241034350
  0.7940077234629267  0.3992036335631328  0.5948270303097808
  0.8263922037191561  0.5933548263249034  0.0058094466702693
  0.7937957749951520  0.7984200166090134  0.8030269202095577
  0.0026819905247293  0.9939320819204351  0.2018251863566518
  0.0006134490035503  0.9928586516987195  0.3988638863208495
  0.0009848176438958  0.9985325852506135  0.6005677114141692
  0.9990879158803537  0.9988822192070023  0.7976353658943823
  0.0001762119325995  0.1961115120031882  0.0000380315491939
  0.9984060357123945  0.1947490970692174  0.1999732390468794
  0.9986459942925315  0.1981563597648801  0.3995098299567184
  0.9998730494041710  0.1993038966903985  0.5979559147745506
  0.9939357268615808  0.1974977304679332  0.7996558570332174
  0.9869845449268392  0.3903040233892450  0.0002116488697110
  0.0039212317785157  0.3920512628294670  0.1984653361099460
  0.0000026085275204  0.4013536385859596  0.3956117279368329
  0.9969854532238601  0.3991767496411411  0.7999287468351011
  0.9915282581580254  0.5917892422382046  0.2045081463884570
  0.9935121487447843  0.6026816289421303  0.4016190595862834
  0.0005921619408036  0.6012359933651388  0.6008400506737115
  0.9883185966121106  0.6023097243534905  0.7998077243910929
  0.0024201342800846  0.8088177028531868  0.0076727207772682
  0.9885387674888328  0.7967760322243735  0.2068114041243817
  0.9998594636575681  0.7982956048107108  0.5967229413969770
  0.9998733155850549  0.7994146957061712  0.8044757106953062
  0.2061496947442975  0.0023605987809612  0.0008175772497274
  0.1998227458399191  0.9941016770729113  0.1969686965665746
  0.2008522102035015  0.9999932766666682  0.3988652464153357
  0.1990419512788867  0.0031534513356664  0.6010269847485536
  0.1973569143336335  0.0011901634795680  0.8016120571567432
  0.1975360013000134  0.1957831425812600  0.0075233171103637
  0.1991685925179806  0.1947397816969314  0.2008100024399610
  0.1989668829149885  0.1988793743468579  0.3992434887805029
  0.1993183017608192  0.1999332758412924  0.5960027310761578
  0.1995572146626074  0.3876880407136251  0.1963779497704070
  0.2000112247745452  0.3956272783933958  0.3947656014062252
  0.2024591761808265  0.4021971472433037  0.5910316301422315
  0.1976075539471005  0.4029730766024891  0.7796120671994833
  0.2342705724750347  0.6245968261626308  0.0281235316708817
  0.1800085340700399  0.5668984388219380  0.1751903551184967
  0.1990347535717502  0.5991836923160642  0.5985180783168313
  0.1969835997570864  0.8094334801385440  0.9974541233187606
  0.1938373051332167  0.8075306721746722  0.4095339801867460
  0.1986561834920565  0.7979741800112908  0.6036294963659823
  0.2015630986796578  0.8042934314850910  0.8007202567743226
  0.4023119659379769  0.0032953182177136  0.0003568224685933
  0.3991001950004368  0.0026704348931849  0.2010881154138071
  0.3997220702138947  0.0008661239187044  0.4007407671352043
  0.3955818930485547  0.0005619733971300  0.5999225947497060
  0.3993382883175608  0.9970003024432526  0.8005398418475590
  0.4013302099575972  0.2024425603642078  0.0013729886759216
  0.3994947874513819  0.2020198065489560  0.2012786131333449
  0.4004436821754888  0.2003020414607967  0.4003042914375685
  0.3987211703414784  0.2023961338657569  0.6007001059720704
  0.4036769569023527  0.1991757210693318  0.7999144482719727
  0.4025253322317006  0.4025640694441536  0.9986977138937826
  0.3969651167987551  0.4000418714820219  0.1978337970502955
  0.4006034399078422  0.4020857561101533  0.3996867661403896
  0.3990294889742739  0.4014031228337578  0.5990026616093588
  0.3966020816964617  0.4032288481513217  0.7987157927147507
  0.4045747993233451  0.6021790451293535  0.0018316516759758
  0.4071941481548682  0.6009507632847133  0.4057186548685893
  0.3977335209796008  0.6008339229278236  0.6023516667624726
  0.4038717709089234  0.6050180949515090  0.8014452732801411
  0.4043017644335175  0.8073631113840986  0.9948699235647974
  0.3950614566351959  0.8084906126550894  0.2018833841165888
  0.3991636345867658  0.8009096867521740  0.4035453425145705
  0.3979621106049286  0.7999459947579709  0.6066812164964556
  0.6010395891927315  0.0012937029264311  0.0008135799089282
  0.6003655284352175  0.0030411914074908  0.1987836613549647
  0.6007798241675127  0.0004858411658066  0.3952227844002965
  0.5988489675082966  0.0006125711946099  0.8030332551342342
  0.6009288677995291  0.2016890695274225  0.0001749117395458
  0.6004232743400845  0.2028153968335301  0.2002823212632400
  0.6005700010785664  0.2024167694931040  0.3997946919941354
  0.5996266067985858  0.2066787165889279  0.5991510503896763
  0.5993690891610111  0.2028618276055543  0.8002064374647401
  0.6001078038049891  0.4012890848436300  0.9981818024159086
  0.5943194740940455  0.4007687024215028  0.1993489138389211
  0.5990186354786642  0.4010225404820725  0.3983098946883470
  0.5947185181665865  0.4028956529554103  0.5997953078462983
  0.5972579132463448  0.4022107256920583  0.7988563117646282
  0.5932656364386104  0.6007985498850927  0.0035255566536316
  0.6104799764629113  0.5922984873668323  0.2004988036593046
  0.6024569341614944  0.5991486924874756  0.4015084826621965
  0.6009126193103549  0.5991197410423534  0.8024934645782856
  0.6044688456785797  0.7976403491289905  0.9975137151731334
  0.6007446383205102  0.7988559267600118  0.4060122660267234
  0.5992008522911559  0.7964140414827307  0.6017073897489673
  0.5922336349213805  0.7990016137050132  0.8006188705161817
  0.7975908382714506  0.9988027487392643  0.9975422972659516
  0.8014571526237246  0.0027540041802756  0.1970222200901912
  0.8006418411181333  0.0001561036663440  0.3995170814300871
  0.8039203054538329  0.0006064085635291  0.5997881687582284
  0.8001143015748183  0.0009601597468394  0.8004470211210200
  0.7998370917782393  0.1961558743889363  0.9990235946706493
  0.8000434361112406  0.2027344283903864  0.1995322444153469
  0.8002208435673168  0.2005169203573229  0.3986058940910958
  0.7998006704316919  0.1992644623674928  0.5986446575094037
  0.7985816007445974  0.1995034795637425  0.7973560961626313
  0.7954067321273193  0.3922190625594760  0.9845810119939420
  0.7999421595170852  0.4006680023096269  0.3958322016200351
  0.7962528210729773  0.3991921568271711  0.7946805129068139
  0.8013772407244528  0.6113310372815924  0.2061574614836901
  0.7985077040001474  0.6002645317457993  0.4039347477217677
  0.7980670005691188  0.6019136327909861  0.6015143862482198
  0.7963121590065858  0.5971569583248012  0.7984452246363465
  0.8043262224335578  0.8017054895613376  0.0024288864593913
  0.7978518609987911  0.8035879361357291  0.2019099171185197
  0.8050570105744201  0.8010827968698178  0.4023777923180276
  0.7990946306779304  0.8003444247461817  0.6006532267963206
  0.5989775396230439  0.6002799685671533  0.6014352547345204
  0.0031009273384383  0.7958964437230175  0.3996343182538062
  0.3961106517686184  0.7984829112424329  0.8008801674192001
