Zr Ti V  Cr W 
 1.0000000000000000
    12.2882735461728885    0.0000000000000000   -4.3445607757035454
    -6.1441367710433559   10.6419570608175889   -4.3445607757035454
     0.0000000000000000    0.0000000000000000   13.0336823299999995
 Zr  Ti  V   Cr  W  
   9  17  87   2   9
Direct
  0.9757398407646900  0.9747246251163983  0.1801626350179910
  0.0026507929798141  0.6016358482600781  0.6013319453479383
  0.1977340762432412  0.3942048099908282  0.5994484204815780
  0.2070407628949320  0.6014885088434946  0.0006583121647925
  0.5990549041824613  0.2089218220747857  0.6101066064858603
  0.6060458635169189  0.4097902709674136  0.0100084851720675
  0.8022187960974448  0.1984866716920207  0.0021551963630223
  0.7979477874557568  0.4051495645183951  0.9838701807009244
  0.7935877189446174  0.6457357650816171  0.9944679300952766
  0.9974437365442674  0.2005273324740097  0.1983719520284844
  0.9991610770083891  0.1927796792897097  0.6052507374052556
  0.0051092725995452  0.4158775983196755  0.2078007868725827
  0.9971524212512968  0.3827889642058827  0.7877792052691059
  0.0047389849819955  0.6054798425670019  0.8069939210454975
  0.0106901487358035  0.8010352770582633  0.9969832198440419
  0.1958561176869758  0.7932405197339568  0.6006965454032064
  0.2106317010734542  0.8126573006076319  0.8185329892051829
  0.4034418763765036  0.9996898968945096  0.8064656320306581
  0.4034891046385105  0.2031452607535627  0.8001932930656369
  0.4064424279569679  0.6090472886501938  0.8133916659248894
  0.6017151719960878  0.9994960646775427  0.6081441702082726
  0.5960706280556350  0.1974077833628423  0.3958387890441045
  0.5921514325721485  0.4031249406971716  0.7888598221720551
  0.6017697169777791  0.7923628510684735  0.5998362498431851
  0.8000981938727634  0.9960420560670254  0.6003762711849632
  0.7920605028548885  0.3954909364793501  0.3975456673598730
  0.9971984377492022  0.0002973427754353  0.4058555985805111
  0.0005310384384251  0.9958524819114626  0.6038604384857218
  0.0074670489203813  0.2052088822121598  0.9984980119060815
  0.9925391679391499  0.1874931023473808  0.3920762759667168
  0.0055383176858927  0.1863427045611697  0.8117983286487450
  0.0125003041496516  0.4053494753834260  0.0009550811674777
  0.0024623452272254  0.3932574351728967  0.3977144858034691
  0.9973061481343238  0.3985464915962955  0.5984242145736008
  0.9999382598487107  0.6005669535952094  0.0112763840677376
  0.0029832194845383  0.6099823052545097  0.2055730095038683
  0.9963020995410938  0.5907690360215431  0.3881390185786521
  0.0094179504698243  0.7999191178845496  0.2110775754922267
  0.9946758141617876  0.8075111387246987  0.6065837633841430
  0.9960998000260932  0.8073905551326612  0.7969232348642167
  0.2069141536489643  0.0031371018472411  0.0031440410424580
  0.2076720556399371  0.0035452263154279  0.2054899980590927
  0.1990964712081045  0.0024030990714163  0.3980144123725572
  0.1996137697971984  0.0113930131691732  0.8084459774236106
  0.2067419853421305  0.2047992698619670  0.0049630399958915
  0.2039215472630039  0.2043623959277501  0.2034924576509171
  0.2007905026905409  0.2024503382939996  0.3986810564469189
  0.2015503126106535  0.1935076995124969  0.6016555954113569
  0.2025634873396185  0.2032304897566690  0.8067275810129176
  0.2066953106293886  0.3963908218985528  0.0063986587441618
  0.2039146896485696  0.4008532509260019  0.2009753017999514
  0.1993810817147324  0.3998158799300356  0.3916246782225036
  0.2148781514783810  0.4034454216210785  0.8156752371485912
  0.2034324002610329  0.5999378791041979  0.2068300342849010
  0.2065148067314438  0.6010478172509549  0.4067927932618074
  0.2071155448906623  0.5971017800258893  0.5952999983766656
  0.2049045870452553  0.5975575195172003  0.7921878488666380
  0.2168847173646901  0.8157683260772087  0.0165298278365508
  0.2039068134123990  0.8038468122641521  0.2017286751329947
  0.4075173084490008  0.0071899291035037  0.0114767923080363
  0.4006680627346662  0.9967949330569389  0.1996376004806579
  0.3958752275645285  0.9989198747179912  0.3952658504983798
  0.3966586164124692  0.9991709648236312  0.5995204655479605
  0.4025476694204786  0.2031130853849011  0.0055000752398334
  0.3925600591260761  0.1993082314523038  0.3982169995402496
  0.3839866254195030  0.1989676005598214  0.5885374202113577
  0.3964485588117282  0.4025550353369105  0.0060883544273869
  0.4017844737633094  0.4041609257599753  0.2037540340639968
  0.3944688004990763  0.3995969441064796  0.3995072887922634
  0.3934442558022211  0.3984380296370015  0.7975983129834071
  0.4029799672016343  0.5993174239482549  0.2013919504417001
  0.3969914098393801  0.5926600234298367  0.3957630749432599
  0.4012440218434004  0.5966726752649962  0.5964882114936142
  0.4055286660903568  0.8025695904785889  0.0050113391891759
  0.4097514054266180  0.8080130232283591  0.2087807692960081
  0.4014663241557082  0.7982925453093010  0.6047769872213156
  0.4009124034580746  0.7955976317648541  0.7996818540628137
  0.5992089276126429  0.9970389151768938  0.2037029250704122
  0.5997311994504831  0.9933324217790285  0.3968345795626749
  0.5995399022078142  0.9853066527683435  0.7994986785834652
  0.5998879960085008  0.2012599435482388  0.0099118280079934
  0.5975472208151180  0.1976554736964722  0.1953049648335578
  0.5922850352650383  0.1760987645863894  0.7978740632942702
  0.6001642597718636  0.4043578718411328  0.2129282060256862
  0.5957668701730854  0.4055273430262044  0.4036979501130557
  0.5872934176613330  0.4042010727793741  0.5884394988157925
  0.5799161263598454  0.6021363211706311  0.0006640098962917
  0.5992992154008845  0.6020826992657475  0.2090975355180722
  0.5951044106397017  0.5990390695654058  0.4004426692837056
  0.5961597766846366  0.5953185877392734  0.5955421217393561
  0.5835792497268787  0.5948167066170944  0.7837716881756764
  0.6145177850148101  0.8020187153990999  0.0115448640467770
  0.5951572594573771  0.7960416031038391  0.2002006705470060
  0.5970668935364956  0.7932504486755023  0.3936810936777501
  0.5958248409122916  0.7945391399185160  0.7990619490408927
  0.7924435381871185  0.9853046717312063  0.9952710353942417
  0.7927341125233192  0.9976179559203171  0.2072609131740822
  0.7961962836079477  0.9913526882705497  0.3973135370078716
  0.8014809233236969  0.9964574263407552  0.8030083453052368
  0.7967413929465060  0.2006996469431234  0.2079642020883098
  0.7901833644873614  0.1900561867527488  0.5924087807670926
  0.8134920146480189  0.2023948666581679  0.7996512375689657
  0.7946029049461238  0.4057231171582787  0.2068751551325909
  0.7984835451636944  0.4006759695337949  0.6003811642429669
  0.8183173176513511  0.4165285069491180  0.7949568099831398
  0.8010425412799839  0.6077969068155138  0.2136351870746114
  0.7937551836772073  0.6020939039418527  0.4026498890158650
  0.7926329571400980  0.6010045848802111  0.5973510839517073
  0.7890704737454509  0.5898206118095686  0.7791219894932988
  0.7918961546905038  0.7972244631590273  0.2091960266590462
  0.7930673704867219  0.7991787587778098  0.4036212383835602
  0.8022707606447538  0.7964990458319475  0.6004072625741429
  0.9648244654426567  0.9663549691607486  0.7976930250317361
  0.3991353168223643  0.4000173703414735  0.5965057381470581
  0.4086465799542167  0.6035335076776795  0.0096024268569479
  0.0081563182451722  0.0088130962702459  0.9945531162602361
  0.9945339899595272  0.7987602112769201  0.4032954078736808
  0.1991273722226072  0.0009312333083623  0.6035906486826574
  0.2034309882472395  0.8006034323869486  0.4018601936032226
  0.4022922477260159  0.2032363955155136  0.2046117886438934
  0.4030694636797439  0.7976257140601046  0.4006756603150012
  0.5985822608523897  0.9939511819644410  0.0032860202522474
  0.8044573435131165  0.1969342046528273  0.4058865286748038
  0.7976198393789190  0.7967031761599845  0.8394856470178722
