Ti V  Cr W 
 1.0000000000000000
    15.3901465190355609   -0.0011250204104957   -0.0011259532101999
    -0.0011247543542261   15.3962745551000300   -0.0010074302771283
    -0.0011269524369024   -0.0010081141208892   15.3968520262370543
 Ti  V   Cr  W  
  15 104   2   3
Direct
  0.9987770196760292  0.0008482265295842  0.9949254219529486
  0.9978725605476261  0.9995050624358248  0.2097888682169945
  0.9967785698379488  0.6024286286523695  0.5995122203326259
  0.2047118341890324  0.1962230372448438  0.7946111412150808
  0.2068513283282196  0.5971567143198527  0.5983449972740584
  0.4128388579384650  0.5975503058694750  0.6042321662809035
  0.5685950493818415  0.0040198218183884  0.5985148769299838
  0.5959852996036772  0.3963433618841158  0.2062755444802889
  0.5990462539534352  0.3958956649771400  0.7978295637457272
  0.5964312611713768  0.6048263571249576  0.7931145608527552
  0.6083947849915478  0.7940628021477788  0.5952928372730260
  0.7922465471191344  0.9998872504447949  0.4068330627659333
  0.7992990329256598  0.2012395935447197  0.4012783697739285
  0.7988225260672108  0.4080319268149279  0.4065799013872740
  0.7923231178957234  0.7970435833480672  0.4078169768171380
  0.0024432542765875  0.0001010515958926  0.4023517080700820
  0.0022990513005229  0.9985227535020468  0.6002794955247098
  0.0009642414856725  0.0001157479939888  0.7987414627372178
  0.9972855152916340  0.2009305735200266  0.1958946476717344
  0.0008168794356276  0.1995828554422565  0.3994265938596466
  0.0007914568471485  0.1990011533918582  0.6015317838846435
  0.9981621759239648  0.1986500180169676  0.8027925186957094
  0.0008807391829794  0.3980501431382050  0.9992028947860153
  0.9991976410666309  0.3996134814354466  0.2023753631880918
  0.0029659103205824  0.3993097930707835  0.4021470886029571
  0.0003810773318718  0.3967450274032306  0.6011050292390235
  0.0016721285765385  0.3997112355143808  0.7993979300070992
  0.0001284887881599  0.5982348306115648  0.0004151750117141
  0.9954739494768670  0.5997155991786178  0.2009873595713080
  0.0003507804122649  0.5997572107422066  0.3983970141897384
  0.0007287360752759  0.5987603108113283  0.8024804239979816
  0.0006636183928859  0.7983336231677053  0.9984863707389176
  0.9985502576780113  0.7988641167111153  0.2028132877338553
  0.0029244514054942  0.7996541144214473  0.4063971877013189
  0.0012727724353272  0.7985784068245196  0.7963201275162021
  0.2015744898960466  0.9998594686204290  0.0010626575600508
  0.2009644938343955  0.9990793755255000  0.2007941937224580
  0.2019273898955196  0.0008085112541711  0.6013477712035803
  0.2037993633379526  0.9962315604386083  0.7987696503717927
  0.1964867507008030  0.1996829184046805  0.0020801361157815
  0.1991416540720869  0.1992466615104172  0.2007318470505854
  0.1998255507847919  0.2001233773431838  0.3987572706163362
  0.2013209879378177  0.1978096745593137  0.5970387568427507
  0.2001514465310003  0.4000000192308393  0.0002392421095629
  0.1993848445148217  0.4006124608117385  0.2013908947128334
  0.2003916520102297  0.3997835594611490  0.4008508522934684
  0.2005821784931711  0.3987893869784721  0.6006251853326519
  0.2001075574263999  0.4026377091385280  0.7994815721077484
  0.1996653947536119  0.5994000202540464  0.0026143123932908
  0.1982506250700114  0.5996581020798488  0.1997080667694437
  0.2019921295935534  0.5995746681144604  0.3972329155257726
  0.1995052762357458  0.7995677270581297  0.0003618069961258
  0.1988347841682801  0.7994641834737434  0.2008081439302032
  0.2003335862484482  0.7985737203499365  0.4003330340634680
  0.1992099708928350  0.8016894369092956  0.6002741049726095
  0.2002644351625954  0.7979385550864785  0.8005062035019048
  0.4004488683783897  0.0005544273457043  0.9994076394009342
  0.4002622695614305  0.9994212812710656  0.1997708848385561
  0.4002458242628822  0.9998421776378429  0.3973303968959033
  0.2372784816706825  0.9997459718004297  0.4355293689319125
  0.4005278982394128  0.9993476064371188  0.8029364451585554
  0.3999735536153232  0.2008057217705883  0.9999351107090656
  0.4010696174737213  0.2002824898799356  0.1989709822133272
  0.3995453693147270  0.1991552149234470  0.4000664383844560
  0.4007084371695734  0.2033920486704609  0.5998345671062508
  0.4025487576365824  0.1987505057735213  0.7995450886045934
  0.3990745429094568  0.3997443686020729  0.9986947924465316
  0.3977431816242216  0.3996380037791425  0.1999570417590975
  0.3985177201838956  0.4005303892835956  0.4013547149687328
  0.4014276258178447  0.3978412662549227  0.6013255326826753
  0.3971358026708711  0.3995778023021697  0.7997496083973329
  0.4009106574021784  0.5988367835893535  0.0009067212431255
  0.4026444285057940  0.5997317795606555  0.1994715494933319
  0.4023541012291279  0.6001707605113146  0.3978780974099103
  0.3974070215721098  0.6007769509154315  0.8026066647796612
  0.4000437480182633  0.7987836343719404  0.9986593764072670
  0.4003473801917063  0.7991477327948510  0.1990999659268140
  0.3982108476077901  0.7999291071408128  0.4013478751407468
  0.3993019745015947  0.8064198164009093  0.6001573040546511
  0.3995020826314480  0.8002394883395444  0.7979190905560738
  0.5997564053646316  0.0005372497827358  0.0000121530379782
  0.6004654727036931  0.9994682809537904  0.1990894861103138
  0.5950350498205809  0.9998529312086418  0.3974850662153649
  0.5985439373137490  0.9984020510688437  0.7992548257233681
  0.6015281199925394  0.1998782139409401  0.9991337283969451
  0.6023286224811722  0.1978694155080642  0.1989505453057297
  0.6002512263718713  0.2015978781602581  0.3980178806321392
  0.6002280403649715  0.2022530524562432  0.5992175849430019
  0.6023967397470211  0.1969190270920360  0.7991301047538002
  0.5992910586527477  0.3988364650358507  0.9982322040427255
  0.5959484970805479  0.4002298838257925  0.4026659377647875
  0.6017600472933843  0.3996017975856454  0.5972139776814641
  0.5998435343434663  0.5992462082701397  0.9999976648589286
  0.6054429926561848  0.6018013083775805  0.1990424692158629
  0.5999141645007062  0.5993145106196984  0.3965488659632889
  0.6064933166377935  0.5969068758707562  0.5947995580751846
  0.5993948697942451  0.8005326495507306  0.9981107671117383
  0.6002850723631059  0.8009897001638842  0.1992509904600151
  0.5961428394666496  0.7994503052137942  0.3975860858003033
  0.6021522311458433  0.8017460673047534  0.7986944673965789
  0.7973701527486170  0.9993029227833502  0.9993964435758717
  0.7980998386105455  0.9994015126097421  0.1995389457934897
  0.8039797699229053  0.9983196661133845  0.6021478645343032
  0.7970745400481835  0.9983687034219472  0.7985751045364559
  0.8035570230704639  0.1999919752611622  0.9994043255134820
  0.8005289602208598  0.1984216122506606  0.6026108905787564
  0.7994807739488784  0.1992117737824473  0.8003031015350004
  0.7986920069189981  0.4006078117902211  0.9991536341805585
  0.8002983903680728  0.4033779255876742  0.1991831569573946
  0.8007430978146189  0.3995046814754679  0.6041554135289101
  0.8016025625187719  0.4011050082128079  0.7999853121700491
  0.7995668855175077  0.5992239829705891  0.0028498057784225
  0.7994754989771032  0.6004374583927464  0.3950001157840332
  0.7998709747193621  0.5987348990912954  0.5993072222793276
  0.8009812715249389  0.5991613833666640  0.8015424961713595
  0.8005348069522962  0.7996022019251618  0.9992844518935440
  0.8001342250048274  0.7962641929821590  0.1984760485321978
  0.8092148558921579  0.7993486726612854  0.6048500064483953
  0.8011581601793195  0.7983921039333375  0.8019666438868122
  0.2000976788345702  0.6002032859348593  0.8048303777990704
  0.7997656704159679  0.2012885005093423  0.1960393477228568
  0.0002289539165219  0.2050262206782053  0.9989450686561547
  0.0037204070786482  0.8026143949811627  0.6022795054664106
  0.8003627701522011  0.5998222916386363  0.1983500310695769
