Zr Ti V  Cr W 
 1.0000000000000000
    14.8007396088834540    0.0414252188973534   -0.0452460725158825
     0.0418665211296974   14.8676622968959009   -0.1767383387453889
    -0.0449461178620543   -0.1755394722984882   14.8761730284836649
 Zr  Ti  V   Cr  W  
   2   3 100  12   7
Selective dynamics
Cartesian
  5.9438560691634255  0.0042798590835523  5.3847676915385199   F   F   F
  5.7499361424627580 11.7196282824457221  2.7535464273797063   F   F   F
 15.6281568599705967 15.0581415367547873  0.0016741042762255   F   F   F
 14.8208645868983755 15.5519840695575624  3.3266548983207742   F   F   F
  8.4127505247316847  3.1135363416992816 11.5295643506686520   F   F   F
 14.3672709495918003 14.4156511172661830  6.5136507581053316   F   F   F
 -0.1938025002339593 15.3445123425393479  8.6932454239087011   F   F   F
 14.4433258726204734 -0.6692169957706745 11.5567382633247018   F   F   F
  0.0953404780144057  3.2709300864954116  6.2479841469509605   F   F   F
 -0.2969299494030784  3.2907541279534027 11.6094390402586534   F   F   F
 14.6055669637721781  5.8390501448135792 -1.0228397874590427   F   F   F
 -0.5930634855145047  5.6272349489326263  3.0375943142898687   F   F   F
 15.1076903501933906  6.9477822909703573  6.1387809405544216   F   F   F
 14.6525383389838737  5.7573239921413135  8.9093926984553118   F   F   F
 15.5484733249389890  7.8233498130533352 13.9087113894567409   F   F   F
 15.1542800631846415  8.4757980903140311  2.7113068322882259   F   F   F
 14.2932442880767283  9.1858183714583870  6.1941664452284613   F   F   F
 -1.1320339681947802  8.3535941622667949 11.5593224895801612   F   F   F
  0.4777647153441192 10.9823602584407780 15.1456077067583532   F   F   F
  0.6751492747500620 12.0688706050026209  2.2534476172000115   F   F   F
 14.3084863408315837 11.4009425203133095  8.9976606454669898   F   F   F
  0.3889320331641886 11.8557579844374530 12.5734651861589555   F   F   F
  2.7742725903673389 -0.1152344333641635 -1.2069872775198567   F   F   F
  3.6315491687872208 14.7800371494207941  2.4065738620505464   F   F   F
  3.5107403104027495 -0.2570396942272955  8.0208434905899750   F   F   F
  3.6418980553492712  2.8201723155102028  0.4141490362661985   F   F   F
  2.3370945865730954  3.3020742802365146  3.3417991862438439   F   F   F
  3.4928204842073822  2.5398619697483542  5.3491284051266126   F   F   F
  2.7022606092564638  3.2508608178250724  8.8059876554835235   F   F   F
  1.6548067170464320  2.1468827117581055 12.0621679285182104   F   F   F
  2.3120586741487941  5.9626344539482554  0.6639431090431417   F   F   F
  4.2467323973259248  5.7368374582811459  2.5905618687098264   F   F   F
  2.4733272786454736  5.7115494029996716 11.4661558900262062   F   F   F
  3.8120113553381669  7.8509644798949250 -0.5295681382949340   F   F   F
  3.1716410667126103  9.2981652567052890  2.0084958122996364   F   F   F
  2.7854345644203780  7.9094035234731912  5.4954236544156378   F   F   F
  2.3840252749329176  8.8755506226990821  8.9989006712455843   F   F   F
  2.2084916157108290  9.1275024991379361 12.6997345083099749   F   F   F
  3.2816870448093862 12.0383158255300859 14.7439183661578088   F   F   F
  2.7481699759057157 11.0924513973499526  7.3150436156523888   F   F   F
  2.6691702038526386 11.8592380260794101 11.0684361234827549   F   F   F
  6.0822729674116296 -0.8009924179201267 14.9145737927440507   F   F   F
  6.0386832065502567  0.2713348681697512  2.4154392778978635   F   F   F
  6.5943748832957052 14.5130582282832528  8.7111625633895464   F   F   F
  5.3668673290028854 14.6754754104952010 11.0232140802342684   F   F   F
  6.0929098924911704  2.6080429815951680  2.8435423006787137   F   F   F
  5.0998669239464389  4.2767945169858352  5.9065256970943425   F   F   F
  6.3629095626768102  2.1300520755991741  8.4689680072626636   F   F   F
  4.6776816919961055  3.2040043578401836 11.9115540419258394   F   F   F
  6.5581471434654253  4.9063075482783471 -0.2441785009057244   F   F   F
  6.3597149648181421  4.9275511526885030  3.5368138871694361   F   F   F
  7.0754502843287845  6.0455129100709106  5.8383286532294560   F   F   F
  5.5564212883735129  5.6173684939793516  9.3589186265858348   F   F   F
  5.9317158163859220  5.5197369588293839 11.8341775638098898   F   F   F
  6.7956646531828602  8.3522236731645378  1.4865951024741730   F   F   F
  5.8358248188867989  8.4007351799251051  4.4269561585173607   F   F   F
  5.0456360274752381  9.1497796826846507  9.6062695491216274   F   F   F
  5.0171139846885797  8.5914451977191764 11.6569750308258726   F   F   F
  5.4639327808537193 11.9362972467256618 -1.0885769860927357   F   F   F
  6.0476909458915573 11.6195950990150632  6.5271636761499838   F   F   F
  6.1038376953275248 11.5196441268032821  9.2759884171995495   F   F   F
  6.4521324460944820 12.0013882229802711 11.6187194202673147   F   F   F
  8.4092953702085769 -0.4556619400615484  2.8326671975203173   F   F   F
  9.3021278006695631 14.5007196850419877  6.1986057256447760   F   F   F
  9.1538690515708776  1.0970576280518285  8.3069482830444148   F   F   F
  9.1527743493745781 -0.4321554896816940 11.8508187992913339   F   F   F
  8.6665851500044333  1.9033111806559992  0.0696251790067137   F   F   F
  9.9673448659017758  2.7897284207254875  3.7159140419297501   F   F   F
  8.6152467042272765  2.4437288490027145  5.5600143504753072   F   F   F
  8.9601113894100948  5.5721135219213709 -0.2699362678438811   F   F   F
  8.9216385599577741  4.8745444373454765  2.6510368083985454   F   F   F
 10.1446397731091977  5.8859356945865358  6.3728026322267128   F   F   F
  9.2808014338633935  5.7290564904320993  8.9173297603009480   F   F   F
  8.2218212957685530  6.7734488218940836 12.2694150444663101   F   F   F
  8.7680976853749417  9.2903235263523385 15.0833340150960797   F   F   F
  8.2291794986802813  9.1233421762095297  3.9767844332897520   F   F   F
  8.9413553716566607  9.4150101931594090  6.1235105428684449   F   F   F
  7.8797695457768668  8.4044822241279746  9.1080609069052603   F   F   F
  8.7804360168586371  9.1894588617697490 11.1821005183811284   F   F   F
  7.9778123729846460 11.9022082876132700 -0.0936109250916676   F   F   F
  9.5330983185710725 11.6025844806478737  3.1603980143516819   F   F   F
  9.0169732631273565 11.9409618840317293  8.8636728733992065   F   F   F
  9.4124016829939485 12.0494951992471790 12.5861973833117311   F   F   F
 11.8144073396126874 15.2591060667256997  1.0475814108415138   F   F   F
 12.2908237539921554 14.1586773151203342  3.2768381732064724   F   F   F
 12.2208353986255371 15.5593098989820753  5.9264352447880269   F   F   F
 11.7344399404435311 14.4586475405887320  8.9280318116406612   F   F   F
 12.0402133911934204 15.3982209066915168 11.1433645846288076   F   F   F
 12.2463616203806289  2.6984357910477090 14.5253483061650321   F   F   F
 12.3651924734455196  3.4160878297164969  3.5134533186684851   F   F   F
 12.0542523555651435  3.2760102644332307  8.6883834635611006   F   F   F
 11.3140906733153734  2.7887694086630379 11.5875989536834290   F   F   F
 11.3232063323958432  6.5041841507168927  0.5670170133181709   F   F   F
 11.9162664510551153  7.0752716429277873  3.2769179122953731   F   F   F
 12.6409543643801499  5.9504675453628773  6.1773970591691949   F   F   F
 11.6397058074469779  7.0194493780948051  8.6039570486208117   F   F   F
 11.4779988035636595  5.2039563139204432 11.8590312870327956   F   F   F
 12.5141997051969991  8.4352912416316812 14.8343890689448372   F   F   F
 13.1802938454531517  9.4868719552011029  3.6942613856243378   F   F   F
 11.5409096726125213  9.0554597241244839  8.5416979388985492   F   F   F
 11.3405227137916000  8.9104859064697290 12.3136626664813598   F   F   F
 11.5101289870424051 12.1547775094301365 15.0681773450552488   F   F   F
 12.1628414597871828 11.6262848225722824  2.4113824671036017   F   F   F
 11.7839534894979607 11.8822316538403072  6.2576671311528633   F   F   F
 11.5896282876972698 11.5676273488910368 11.3831487495010517   F   F   F
 -0.0921715004885237  2.9561294940461997  0.3179142376814274   F   F   F
 14.7548060552674514  3.6479693635186683  4.0302851726328681   F   F   F
  0.2117109684339253  6.4405571787130400 11.4058633145515600   F   F   F
 15.9880966705933769 13.5579504908499953  5.7345372029095705   F   F   F
  3.1793626432134499 15.0485293566270908 10.6063941257916579   F   F   F
  3.0537742804324051  5.4847419253961220  6.1181499541664612   F   F   F
  2.3373906295397613  6.7385256503481648  7.9148698989637891   F   F   F
  3.1952553420159751 11.2970169019131639  3.5764326585823816   F   F   F
  5.6578446896205543  2.2201331976757386 -0.7708915379851978   F   F   F
  5.9741116136419787  9.7476797040538070 -0.5060443498615228   F   F   F
  8.3795666706455147  3.3592662773848914  8.8924615646696257   F   F   F
 11.2902603981209797 12.0724260705764905  8.5996674694036148   F   F   F
 15.0996231214803327  3.0995680468572737  9.1538234548886734   F   F   F
 14.5230596197989712  8.2699559006772461  8.8604114365082332   F   F   F
  3.6982856880437782 12.9415547181654897  5.6135137117222564   F   F   F
  9.3118367429766895 -0.6059191399764010 -0.0985743620970780   F   F   F
  8.2362378289618654 11.9308176515244959  5.2600268616705703   F   F   F
 11.1953252383831998  3.4400468414409553  6.3696137851648418   F   F   F
 11.3809110122557122  8.2370238752908964  5.6431800989354191   F   F   F
