Ti V  Cr W 
 1.0000000000000000
    15.3720038313806135    0.0023998420144863    0.0001449001601191
     0.0024007571799185   15.3633006247875361   -0.0006442210894229
     0.0001450310074229   -0.0006449824026597   15.3697544548857330
 Ti  V   Cr  W  
  15 105   1   3
Direct
  0.0054049432230885  0.3917284918898573  0.6018215925208725
  0.9910374099842689  0.8034909685310042  0.2045674996124739
  0.0089592166472923  0.7981977034154255  0.6037914463842300
  0.2010547242980846  0.1980364362390234  0.3935018401849820
  0.1958562552229843  0.2050213091747820  0.6011625600434337
  0.1995350726327026  0.3581277619252874  0.1957608809443021
  0.2011985113650334  0.7972523768926896  0.2003946986063986
  0.4069518663432544  0.9977936030002890  0.8071404166506665
  0.4008900060788613  0.6002126402517428  0.8006449190575733
  0.5929512428405257  0.9967614738863334  0.9948190910763488
  0.7924540166773353  0.1977580868094115  0.7964114454863102
  0.7990677382468629  0.4033560273064259  0.1921389213711554
  0.8018829506516483  0.5939483187704536  0.0027034508198043
  0.8063951577735120  0.7977987951221510  0.3927080734060146
  0.7984852850246975  0.7971576903757185  0.6054783268415652
  0.9991080057038061  0.0004901931264931  0.0015649879907114
  0.9996458524987529  0.0054717861092930  0.2016611029159623
  0.9982909349632862  0.9989442187656001  0.4010893581134438
  0.0003527827273001  0.0002615340879271  0.5995166944447193
  0.9997550364686776  0.0001712332546999  0.7995747584541604
  0.9996462055982213  0.1997491084427436  0.0004813548990651
  0.9935212296196407  0.2016372906088086  0.2018226401797216
  0.9976425633652999  0.1961330519306728  0.5978526474268816
  0.9995179127133723  0.1996338468268513  0.7987445084413916
  0.9958481790531664  0.4021743836818321  0.0001943766287260
  0.0014911178983663  0.3989665029316851  0.2003242645110494
  0.0002929859499421  0.3997800881629232  0.3971598831409512
  0.9998484358525001  0.3987404830923071  0.8015070219560230
  0.0028146988513955  0.6010593042818606  0.0011775405755210
  0.0007333523511031  0.5969574426430465  0.2016767027756873
  0.0001720924523931  0.5990954743193245  0.4013064908081420
  0.0008980223049960  0.5986515662046639  0.5991659975569510
  0.9995768045257900  0.6009927481383101  0.7990349720047069
  0.9994643353807380  0.8001642276032365  0.0004402151808903
  0.0031089491390333  0.7996604196887436  0.4015670020439118
  0.9992254345410075  0.8004813840334293  0.8034757921547133
  0.1974053044895793  0.0026728915500640  0.0021017445119694
  0.1986350363042628  0.0209037849491872  0.2026516720522108
  0.1998270693031349  0.9999962132027747  0.4013683566364609
  0.2005917233452083  0.9982312358707059  0.6014771443231579
  0.1992867576014928  0.9997893676021521  0.8002886846978265
  0.1984800877594008  0.2002734888599933  0.9943913283946547
  0.2004821083275973  0.1994585604078514  0.8002217643073360
  0.1987056659118676  0.3977037144298544  0.9977984561603647
  0.1998517730143053  0.3980615133911637  0.4018025923155100
  0.2038923974843620  0.4036302547334527  0.6007945850314278
  0.2001903293979880  0.4012054006499329  0.7996061778960655
  0.1989551179986020  0.5984330658027438  0.0015712887111881
  0.1989768523924676  0.5995016745092222  0.2013730019095172
  0.1989844807311417  0.5984254993833805  0.3992600521985539
  0.2004124929619437  0.6012415048144367  0.5999126296329576
  0.1974302749612686  0.6001354326273203  0.8001788762365899
  0.1989429394134959  0.8023758169662694  0.9998726263024935
  0.2005767447734444  0.8014105261581091  0.4024726874361761
  0.2049486331550107  0.7996649503234405  0.6018303572188384
  0.2004271781296176  0.7999724440586609  0.8015125493423813
  0.3948141229173787  0.9999243391275711  0.0058410213546520
  0.3981693007717559  0.0031428585734030  0.2020536646680700
  0.4035104455330480  0.9980260221112910  0.4012009683700803
  0.3998820731787334  0.0000742264297411  0.5992034343937646
  0.3980754074860531  0.2008061935909427  0.0012362592623607
  0.4029410645319310  0.2013998049525371  0.1991957737102542
  0.4018469511615415  0.2000598296372289  0.3998300015471409
  0.3992668546080128  0.2004436845289773  0.5990963439976764
  0.4028183494206175  0.2021986287963104  0.8000738315364752
  0.3996829384336614  0.4038327886408635  0.0003606578081459
  0.4023573316554006  0.3988726340264468  0.1999809956431417
  0.4011500224132732  0.4019888369665874  0.3997365190259395
  0.4017041332966942  0.4012427352992518  0.5998925345335512
  0.4007818863025509  0.3991151067501211  0.8007980702454071
  0.3990179829698187  0.6005119554876676  0.0034858681778391
  0.3982009294264652  0.5989445210629192  0.2014419235721634
  0.4001063417592516  0.6007894585502568  0.3997828356205133
  0.4010324705625952  0.6003043925650463  0.5973372757864754
  0.3987812479611082  0.8000332359547261  0.0009610743097346
  0.3998779723345804  0.8021748210858716  0.1997843921714595
  0.3998879466493843  0.7992577456107176  0.3996061723325798
  0.4005464151333837  0.7992256488096304  0.6022863293426618
  0.4013828846717864  0.7999878480981384  0.8016165181438641
  0.5997875504329804  0.9997685231279460  0.2045625934610692
  0.6008700133065450  0.0002251730294526  0.5948391584234233
  0.6053274515985242  0.0046394956117743  0.7938896910440181
  0.5985655950871057  0.2021099449740065  0.9940019126861046
  0.5994628546980748  0.1998584943555773  0.1973382336119890
  0.6003484050397981  0.1970562547524628  0.4011926524544680
  0.6005041949661101  0.2005769685912729  0.6030388727009975
  0.6036763752123854  0.4011706003538551  0.9992186108298285
  0.5982148966357583  0.4009882991002434  0.1997766067692374
  0.6014624767885655  0.3986461066755832  0.4003015847114765
  0.6010434773464303  0.4009426994180987  0.5999861886319932
  0.6012442434627496  0.3976291375239271  0.7990331752827895
  0.5970172578380365  0.6007731699895281  0.9997666568838250
  0.5998833479382431  0.6017625903446487  0.2016797683834572
  0.6021222779349210  0.6022193978173552  0.4001593325933222
  0.6012173975246219  0.6006426059249382  0.5992041993777379
  0.6033172737811159  0.6010080827543323  0.7991802069083105
  0.5994046960952379  0.7978529056077099  0.9987145719421475
  0.5980517547461884  0.8008878526819029  0.1981392519462994
  0.5991753204134824  0.8041760644542250  0.4005621439553480
  0.5992037398109030  0.8007647825292938  0.6007589938643388
  0.6006459005760275  0.8029423242484226  0.8000740276994562
  0.8013351298899631  0.0001879146548422  0.9995124290721967
  0.7983756347383542  0.0001939691756214  0.1985963900494771
  0.7967230576999820  0.0013400965909323  0.3993787166186800
  0.8022275887767658  0.0003586704507464  0.5985029429875126
  0.8014065313202163  0.9972899297133301  0.7993693527171297
  0.7987458121308364  0.2020911888707560  0.0007564655312883
  0.7977549637189278  0.1988846755349518  0.1980761074940265
  0.7989443984671135  0.2016603847579158  0.3980105857502626
  0.8006488986132358  0.2014295910415013  0.5967461517842079
  0.8004707739013280  0.4001429235087341  0.4003544972547083
  0.8006113255955076  0.3993758555802202  0.6004299305779027
  0.8006523180491206  0.4040978476214070  0.8016811644767633
  0.7998278902647836  0.6038042034966815  0.2028571678823560
  0.8015348570139688  0.5973052692425890  0.4002029131637327
  0.8021727091937553  0.5972370405461676  0.5994939453769134
  0.8010657277996346  0.6012634547657792  0.7976464754861663
  0.7985171780233383  0.8005110437544606  0.9993003033807102
  0.7952208047082152  0.8002199122264626  0.1941424216723964
  0.7999262445042731  0.7994512427726774  0.8034283293669851
  0.9956908141945490  0.1994544267837803  0.3998727418953563
  0.6004522115631820  0.0010278861531448  0.3997389262048303
  0.5975937971324617  0.2009867575119555  0.7970745876179081
  0.8005071436381338  0.3978564007924024  0.9956976481368989
