Zr Ti V  Cr W 
 1.0000000000000000
    15.4784941647390344   -0.0079236740217215   -0.0009191182658338
    -0.0079251379727764   15.4698410550827550   -0.0021700748410725
    -0.0009188735928934   -0.0021700052242540   15.4804947945978846
 Zr  Ti  V   Cr  W  
   1   5 104  12   2
Direct
  0.6002540174898525  0.5978021385826642  0.6008882549365019
  0.1958291408087517  0.9989504177968203  0.5927729451426422
  0.4151607821138043  0.0075479786769543  0.3942452651334534
  0.4054384416899706  0.0016605854592641  0.6025365753487036
  0.5937097034839460  0.1937012136427588  0.4013977672964483
  0.7981241295013149  0.8012361574204996  0.7935579510031154
  0.9999399611760088  0.9994850426943426  0.0011171078378050
  0.9986799978831332  0.0000340075281855  0.1994858998419260
  0.0013483710549573  0.0003731627982146  0.3999996972890111
  0.9969887352539474  0.0005977210197701  0.6006175051393339
  0.9999983706152525  0.0007711128166958  0.8014951974415436
  0.9982549397300479  0.2010482995456176  0.0001245660313036
  0.9992930330154153  0.2000981642841534  0.2000881439467297
  0.0000336707199957  0.1991645780722232  0.8000725845325912
  0.0011070576532660  0.3999442991292947  0.0012579002704909
  0.9991040977853213  0.3995681609832960  0.2003723479731111
  0.0006982002323825  0.3999636648981962  0.4006581550401588
  0.9993407595876943  0.4006194655339323  0.5990861158112405
  0.9993339351649377  0.5989891804115602  0.0000186598833915
  0.9994872404839086  0.6003472126632000  0.1998351964907054
  0.0022166605512299  0.5998704920061949  0.3996087594299917
  0.0016279712118041  0.5994830905213223  0.6005370297779457
  0.0011931083815482  0.6006876741305751  0.8014523926255512
  0.9994021502362935  0.8006520456849724  0.0003496888054380
  0.9998786835117194  0.8001408684619521  0.2012631812849713
  0.0003900897162434  0.7991720392934131  0.4005034642832641
  0.9957771968999876  0.7992316583420158  0.6007373658378207
  0.0027128901967504  0.8006469166822365  0.7998346603743713
  0.1998957580056498  0.9995069530792544  0.0013161199026361
  0.2011260419891186  0.9997285910160240  0.2034292238022639
  0.2000512252283528  0.9999502943347147  0.8006097670393210
  0.1996030146732824  0.1990010563876056  0.0005972972659523
  0.1997497963173512  0.1998326601547296  0.2005311696266034
  0.1991684388697931  0.1969630958125298  0.4011163579678332
  0.1991917182794804  0.2018468869492637  0.5997859619088921
  0.1988750668223268  0.1997211094897933  0.7993974254798971
  0.1997614014836167  0.4002253348315258  0.0002443573581105
  0.2012904250513686  0.4000848762909540  0.2016642409333719
  0.1997843280573213  0.3998101228424965  0.4002984310528379
  0.1986028769198636  0.3998821681997368  0.5998818179922139
  0.2008902690465008  0.3999679264939117  0.7995140130963493
  0.2000764614890771  0.6009076098367147  0.0008126204244958
  0.2003022456138514  0.6012542546129296  0.2003219643154337
  0.2009098585107450  0.6014456372414880  0.3996247767009717
  0.1997753753649777  0.5996870102345483  0.8003608471320508
  0.2010347244753924  0.8002309943765683  0.0008053250487431
  0.2007974277618526  0.8002033773073645  0.2000710650118870
  0.2022829940283228  0.8038133214791348  0.4010998742364298
  0.2004843809906502  0.7992147258002874  0.6003074583772416
  0.2010281450090922  0.8006904953278361  0.7994345847620705
  0.4004836437636712  0.9995154348427482  0.0007826222588434
  0.4004520914430858  0.9999844279232381  0.1974064492574374
  0.3992509890599188  0.9996257317364228  0.8009725454329996
  0.3990948979324654  0.1996152168900892  0.9996819484053978
  0.3991310972408453  0.2008652778811600  0.1996666811196187
  0.3958017128231027  0.2041933603476885  0.4005390672352924
  0.3985368646527043  0.2026258689482200  0.6008894593404385
  0.3989832140594834  0.2002504713760402  0.8006665094910778
  0.3998468147342172  0.4000773349947308  0.0008773071300159
  0.4004541749944073  0.4005224416269771  0.2005084169942635
  0.3993699103034546  0.4016766630491638  0.4001771399948180
  0.3998901765017598  0.3998341899772931  0.5999100337314711
  0.3997113559854172  0.4007029326190311  0.7997928384823759
  0.3988522107147795  0.6016721970116199  0.4005179946203022
  0.3961569863538200  0.5995125415853858  0.6004925207342330
  0.3986040726305011  0.5998553869523016  0.8002122896607552
  0.4004395971898562  0.7996356460584142  0.0001918209833298
  0.4017865716679828  0.7989835585535119  0.4012845969381825
  0.3997297587376284  0.7989506718076973  0.7996157159954572
  0.6003714965583978  0.9989534421628425  0.0002188465300978
  0.6009349013714668  0.9989883540152714  0.1985123473244356
  0.6058388122195441  0.9964139879933804  0.3989472564041219
  0.6015883765930710  0.9997441246692403  0.6008539034530346
  0.5997392546532995  0.9999683586373430  0.8020513550053241
  0.6009107694825235  0.1997473621846861  0.0002728031609203
  0.5993761354128297  0.1993189143044536  0.1983950840427908
  0.6001717613287040  0.1980894433205906  0.6026061182233198
  0.5985704155894499  0.1987351305896581  0.7999749108042224
  0.5980288366581261  0.3998463520095034  0.0008497223105715
  0.6000648091990867  0.3994191984828942  0.2000515826671626
  0.5997619981346003  0.4002630112002934  0.3993161459231169
  0.6006588186949281  0.3943778088914814  0.5991320952864607
  0.5998400346495023  0.3978475301698538  0.8023792766005117
  0.6008512709213347  0.5995414533616985  0.0020276466850895
  0.6013262430521470  0.6006402791064737  0.1991190658731190
  0.5995986352182626  0.5994168040134539  0.3957276034577958
  0.5990589591103828  0.5999049975061065  0.8057611735289250
  0.5997610690439923  0.8002494815694751  0.0006672213389528
  0.6003577349052071  0.7994495750935136  0.3995892449863298
  0.6033894077236100  0.8034719199335435  0.5994710593607357
  0.5968322285967901  0.8006107889246074  0.7999860211930357
  0.7997461748072867  0.9991137978258400  0.0007100766424255
  0.8021092000390213  0.0004648921891123  0.3985341666830919
  0.8003948179293677  0.9967015683126343  0.5995624117580540
  0.7996772717286112  0.0022852418756400  0.8000932162003821
  0.7997060069315671  0.1991443949155629  0.0005875870712932
  0.7988596659552263  0.1997688984828090  0.2010152643892937
  0.8010549548814742  0.1983133907252464  0.4005778917286416
  0.7996933496881277  0.1986908565088738  0.5989440374820562
  0.8002716457753777  0.2008383509314374  0.8000113476366911
  0.9327351729511841  0.3995122871389168  0.8669664485235914
  0.7997102478906201  0.3987018729632824  0.4002047091283891
  0.8006754228940032  0.4001522500609146  0.5993609793443311
  0.7984116672290034  0.3996733940451568  0.7970745610225234
  0.8006040576812891  0.6009438815087895  0.0007149311603605
  0.8002904534762689  0.6000101686429566  0.1997076294294354
  0.8053715271624213  0.6038518867984072  0.5993906893236685
  0.8016897057092554  0.5973156530519161  0.8022818883059788
  0.8000299527192392  0.7999615802309208  0.2017508634125627
  0.8004966592842748  0.7998654710541773  0.4018926689601101
  0.9990906618776321  0.2005518798313691  0.4004280515067788
  0.9992857509995549  0.2002912345027865  0.6003285856029645
  0.1992822938357238  0.6007162140578530  0.5998439350420098
  0.3997347595137724  0.6004111097782069  0.0008256993743354
  0.4005635540125533  0.6009181801102640  0.1999151254328971
  0.4007805429825459  0.7998683971834273  0.2002122952648933
  0.4006661827831611  0.7974458477426559  0.6007588539859307
  0.6000016831936533  0.7999909304148610  0.2003959751350634
  0.8001058494941339  0.9991990763546107  0.2002850446600448
  0.7994698418021163  0.4002463633642301  0.2005088912141390
  0.8017497419053387  0.5991038599595276  0.3981588499211214
  0.7997289140228484  0.8000581657290921  0.0018387942450027
  0.1958075174047503  0.9993248959970857  0.3979835344532872
  0.7990855806154233  0.8004062830982790  0.5948631567599206
