Zr Ti V  Cr W 
 1.0000000000000000
    15.4426403378846846   -0.0320005039046650   -0.0557208927597321
    -0.0320601671519035   15.4795610846132128    0.0067732802617652
    -0.0556571551947803    0.0068453986319217   15.4616290361641866
 Zr  Ti  V   Cr  W  
  16   2 101   1   4
Direct
  0.0041373121952639  0.7773605539106240  0.7998891384763284
  0.2311602355371225  0.2004850920055569  0.0071894610191112
  0.2029893971085343  0.2028267092913159  0.2331975663755021
  0.2038118018020456  0.2031680964548503  0.4469565395735581
  0.1667640630313423  0.1053978197031420  0.8120333104403218
  0.2064795629945859  0.7974276605974315  0.4037923766899899
  0.3785807919000586  0.1994623844755725  0.7986896398178941
  0.4045303578267467  0.6000148039268829  0.2033171297126143
  0.4087790526287029  0.5980718568832378  0.4273125954147926
  0.5799867190682997  0.0260281336990036  0.5843653496617617
  0.6033470245463444  0.2391036317069261  0.6115556122319504
  0.5990194682387404  0.3996171499022766  0.0012012567014625
  0.5909589613069970  0.4520768383378846  0.5966303327602678
  0.5965286027192456  0.6234246061987069  0.9891822235022490
  0.7813233065717456  0.0117520074604777  0.4079268486088498
  0.8026952145660391  0.3546603233645284  0.5631353575796798
  0.5878143048105506  0.6416581468361748  0.5920145351357721
  0.8059704348134826  0.9813423116368946  0.6154461417312740
  0.9995958872761889  0.9984213860866724  0.9994610953480180
  0.0003260772867913  0.0004834950337961  0.1991617650397263
  0.9971814546070131  0.0001762624029047  0.3978217488889553
  0.0033995701231202  0.9960601055623263  0.5994105730885879
  0.9900777107087074  0.9910954019783047  0.7991810323672153
  0.9906750804440687  0.1995120510368991  0.9989196742017954
  0.9984808475651021  0.2006860737620604  0.1978394629993282
  0.0007337051377160  0.1985922326754111  0.3993015699256838
  0.0013930531286012  0.1980958685332281  0.6008010068572386
  0.9912918809594440  0.2067776219246917  0.8001737823226545
  0.0039261126631756  0.3978082113326269  0.9959637138016596
  0.0041860439139202  0.4000442486999046  0.1958957941206906
  0.0002724137128515  0.4017397156010215  0.3981570014003998
  0.0023095058411029  0.3984972595833124  0.5984876044125802
  0.9995715789790353  0.6017664468850469  0.9932951409654693
  0.9995361084583759  0.5991918372763919  0.1982275015711901
  0.0002887574011003  0.5991660295538543  0.4011754242477668
  0.9972145678921560  0.5989905460053790  0.6005500810205157
  0.0004011114360973  0.7999645408996928  0.0032899255717719
  0.0011333238464824  0.7987946877211776  0.1995308803469773
  0.9976866253391664  0.8011688015535080  0.3987543168784706
  0.0008911211992377  0.7984097770505040  0.5946764480736798
  0.2000937442787932  0.9943377900215025  0.9989998672801592
  0.1998523697480600  0.9975896654482999  0.1978076191076978
  0.1982640527972316  0.0038790989067481  0.3967686155704631
  0.1978180285549991  0.9981060955897167  0.5943908118761208
  0.2032707084871316  0.2056923441054107  0.6363535357107394
  0.1978017374740536  0.4046282331867596  0.9975610019212467
  0.2025780939987465  0.4059890968037718  0.1976484928236506
  0.2042035930673931  0.4008967780657444  0.3969099187797442
  0.1994870517931403  0.4012942683485989  0.5981473875839610
  0.1980830158522693  0.4047796749307377  0.7974150108442332
  0.1996371527972055  0.6024226537058968  0.0001010331641768
  0.1964118377118477  0.6024140590519536  0.1995877119075569
  0.1970032794416005  0.5952615135249001  0.4012206849634008
  0.1997301683056443  0.6014974624133161  0.5977014873540394
  0.1937239471500133  0.6014788227887710  0.7979172685308306
  0.2027670162893327  0.8006157201249990  0.9979781220197708
  0.2022157025185015  0.7991924048798700  0.1974311445302332
  0.1996736977806277  0.8018522828807039  0.6069323304259713
  0.2083336015470267  0.7953888486747002  0.8005529904085711
  0.4001467882910145  0.0013256477100798  0.9954523537530902
  0.3992215339607488  0.0036651539054997  0.1970431492916796
  0.3974912757805559  0.0022574487852196  0.4000610031230030
  0.3571386330340008  0.9996620695570450  0.6332777202283593
  0.4076800587238897  0.9920035962961515  0.7942453791896955
  0.4292057292738517  0.2047270808910779  0.0037411747260097
  0.4082109172258477  0.1993489736390427  0.2008187600220689
  0.4037709626685079  0.2005577613366491  0.3982416918479812
  0.3988689255925562  0.2006445844797813  0.5934372762841760
  0.3933520096844588  0.4001315803590140  0.9988216344614691
  0.4007908134541386  0.3955588168766219  0.1997246218015596
  0.4060629358716422  0.3958523297310567  0.4010460434635686
  0.3955836166755540  0.4006887869300946  0.5997015189190286
  0.3939965469249352  0.6006286731610365  0.9976209543457281
  0.3919906635324300  0.6034503994423535  0.6152963162854846
  0.4043770613291972  0.5998914904705317  0.8038788670608913
  0.4040954917941024  0.7998717553733439  0.0005439022927715
  0.4030475601368039  0.8064203595287653  0.1994014343481659
  0.4083516599815991  0.8056691436096530  0.3990812953254876
  0.3986123311157875  0.8036480027243827  0.5979260225328147
  0.4022182456936907  0.7982822845957946  0.8003013186923045
  0.6006276391090187  0.0021501316351734  0.9984220067066901
  0.6013427470561150  0.0000467507784438  0.1957366663443940
  0.5868930058767233  0.0016856710845587  0.3847928955347121
  0.5982790417986467  0.0016512791775571  0.7991417696007649
  0.6050089336549501  0.1969961875831058  0.0028608237593324
  0.6049613497417902  0.2019766708476705  0.2015091063497446
  0.6045264713963806  0.1946407980213530  0.3982856543871429
  0.5941877730750423  0.2044341475211633  0.8068190445760430
  0.6006936188606924  0.4016449957728219  0.2054963905155926
  0.6060884980507321  0.3974020993469410  0.4016908894904933
  0.5985015598638599  0.4044494992886917  0.7965114883090150
  0.6085581566855476  0.6020283882101624  0.2025221374039841
  0.6116529057981346  0.6036926023209117  0.4019664582938808
  0.6004257545902203  0.8143147994742576  0.0006409165448940
  0.6017230996146000  0.7988118410150881  0.1976173727053451
  0.6073583425811100  0.8093867384764336  0.3975753011198739
  0.6012490713574651  0.8225034860520952  0.5991885286799044
  0.6015834804326056  0.7960503288988460  0.7978294445491817
  0.7999275229372111  0.9979002156818316  0.9996104400391901
  0.8021108033479871  0.0002754339713840  0.1961112676031219
  0.7950179407489681  0.9968901466456862  0.8058185419705621
  0.7975210686905079  0.1964344373300414  0.9979203336187045
  0.8000362304530992  0.2013427163476753  0.1988189639392710
  0.8031415407665521  0.2145537341587852  0.3951887528746262
  0.7923764272603729  0.1982235473461433  0.7959365160636969
  0.8055418629950594  0.3988029058076784  0.9966477934139627
  0.8011384164479519  0.4005375987957172  0.1880878895239299
  0.8036311783660273  0.4059640168664757  0.3753792372149444
  0.7998384955423747  0.3960891023966148  0.8033494918211196
  0.8015365175236266  0.6001448977169892  0.9985091604424369
  0.8035421626230933  0.6005198739411273  0.1952255523362307
  0.8042666146703006  0.5994220840594254  0.3973324424920687
  0.7959522262578342  0.5949625113212604  0.5957033382286409
  0.7954016439158645  0.5932232350729076  0.7954932452384907
  0.7983473011758724  0.7987291488479522  0.9986888293737942
  0.8014998787692776  0.8007239947978835  0.2001063739842782
  0.8010639704616727  0.7981922661024470  0.3985247667389412
  0.8001371291196565  0.7905795669413255  0.5982312867359112
  0.7969679185957006  0.7958959985566686  0.7980533145792316
  0.3972576148649067  0.4051710793753515  0.7992800013671563
  0.9994638030364761  0.3986629885383997  0.7956063533244797
  0.9949481879272862  0.5805084728132738  0.7961566841870725
  0.6025596087951859  0.5938933824195302  0.7887503510856636
  0.7900231385578619  0.1576639338394061  0.6009017824294677
