Ti3 V58 Cr3                             
    1.000000000000000     
     9.9485606755693592    1.9895013699946835    2.0495963894025424
     1.9845016569138507    9.9374261795412231   -2.0446296714423897
     1.8715644706207086   -1.8716286164762892   10.0044175408853580
   Ti   V    Cr
     3    58     3
Direct
  0.0044600732284548 -0.0049041013533952  0.2442873745017047
  0.2482538177743831  0.5052202404632574  0.0007015068710369
  0.7512828934957795  0.2497639920167923  0.7498061482773275
 -0.0001264663430278 -0.0004909579744585 -0.0071303751981723
  0.0085257060299677 -0.0087034356493732  0.5010529015631066
  0.0016055478730969 -0.0055120299160145  0.7498340918418871
  0.0013042562048104  0.2485525685148753 -0.0010428290149992
  0.0011965964223645  0.2555142513634349  0.2494770470166036
  0.0004647173255722  0.2518241025026636  0.5009283345663811
  0.0070234281456645  0.2501497182755131  0.7492634157146657
 -0.0070042725849827  0.5030115265772861 -0.0003560050714445
 -0.0003456672985032  0.5009355760979164  0.2511574736214468
 -0.0031694419327135  0.5036222032190045  0.5039230875681555
  0.0000425634614410  0.5055350688484146  0.7498315062500039
  0.0014789562139079  0.7500696258954591 -0.0046483336001247
 -0.0100221759498271  0.7492960996231804  0.2579574090216527
  0.0003267312244927  0.7479543622436565  0.5062349460241021
  0.2511440406086506 -0.0057030931747966 -0.0015517511565452
  0.2568338176295109  0.0014389947193185  0.2506073631275008
  0.2528872972004725 -0.0018969608430100  0.5002002811831343
  0.2519011016099904 -0.0033651921192546  0.7489143232388021
  0.2512348859893587  0.2439946817404430 -0.0000269579545075
  0.2511929419604746  0.2496993755876361  0.2500358652356476
  0.2498813115294748  0.2515062425001068  0.4991184691012331
  0.2494316352064123  0.2505345589996997  0.7500606088443825
  0.2494537228740902  0.4998950417529106  0.2573141755485352
  0.2465163138921771  0.5041105908863003  0.5039812021596075
  0.2488744809996081  0.5002684728870102  0.7432476736449332
  0.2500352700242176  0.7501171936442002  0.2490689606690009
  0.2519275271518672  0.7486000939386985  0.5013831778474613
  0.2488993297034640  0.7499999829874541  0.7506629627793524
  0.5038437629365633 -0.0046169128234175 -0.0036477697452579
  0.5009940194833585 -0.0009908434280859  0.2477543053620073
  0.4997784478615885 -0.0031568391586108  0.4987170207573824
  0.4989312415069358 -0.0031382024956442  0.7501990152860183
  0.5006680462124835  0.2486694517722260  0.0002134344154741
  0.4987918389940166  0.2494833653873511  0.2501425246914658
  0.4975181627546469  0.2510071021351212  0.4980470321047976
  0.4982933563100753  0.2421137644419357  0.7436539166911844
  0.5024021441027399  0.5070046808481576  0.0083629381537097
  0.4989251112156283  0.5017728640555551  0.2538906664429409
  0.4975401613844578  0.5037639036634549  0.5013410176059807
  0.4952476381758159  0.5063277912228427  0.7535128761478704
  0.4987929811428350  0.7519766585883753 -0.0004848310096722
  0.5009061216186266  0.7513468893098394  0.2517225635198320
  0.4992799490517469  0.7500340343722784  0.5013430495498894
  0.5033550480303736  0.7505821426014023  0.7477650516932666
  0.7528363420510448 -0.0046535317660620 -0.0033858117313647
  0.7452361188043921 -0.0023966491341372  0.2461749091095431
  0.7501578906049857 -0.0020263240931991  0.5000113488962832
  0.7492358022585376 -0.0097430958275748  0.7508778135277283
  0.7497818607219849  0.2484874985565175  0.0057708688864865
  0.7500914242976745  0.2497527329104273  0.2495313442467331
  0.7440028939420199  0.2586439014342987  0.4981992516583069
  0.7503040037620931  0.5017207916330604 -0.0005204412143455
  0.7482508399296881  0.5025877561436165  0.2523680485601386
  0.7482075844438216  0.5030378929754884  0.5007701304927611
  0.7503037700920674  0.5109094958035425  0.7500484447459242
  0.7497048645986265  0.7509344169645239 -0.0038271673632017
  0.7474851454904108  0.7500686229105709  0.2501652691495260
  0.7484241029598762  0.7492815307605243  0.5045638677043991
 -0.0014994188668378  0.7492074619791990  0.7495886029656318
  0.2552721926226369  0.7510504537023468 -0.0077186871670250
  0.7514256118344350  0.7499184002991449  0.7505553416437117
 
  0.00000000E+00  0.00000000E+00  0.00000000E+00
  0.00000000E+00  0.00000000E+00  0.00000000E+00
  0.00000000E+00  0.00000000E+00  0.00000000E+00
  0.00000000E+00  0.00000000E+00  0.00000000E+00
  0.00000000E+00  0.00000000E+00  0.00000000E+00
  0.00000000E+00  0.00000000E+00  0.00000000E+00
  0.00000000E+00  0.00000000E+00  0.00000000E+00
  0.00000000E+00  0.00000000E+00  0.00000000E+00
  0.00000000E+00  0.00000000E+00  0.00000000E+00
  0.00000000E+00  0.00000000E+00  0.00000000E+00
  0.00000000E+00  0.00000000E+00  0.00000000E+00
  0.00000000E+00  0.00000000E+00  0.00000000E+00
  0.00000000E+00  0.00000000E+00  0.00000000E+00
  0.00000000E+00  0.00000000E+00  0.00000000E+00
  0.00000000E+00  0.00000000E+00  0.00000000E+00
  0.00000000E+00  0.00000000E+00  0.00000000E+00
  0.00000000E+00  0.00000000E+00  0.00000000E+00
  0.00000000E+00  0.00000000E+00  0.00000000E+00
  0.00000000E+00  0.00000000E+00  0.00000000E+00
  0.00000000E+00  0.00000000E+00  0.00000000E+00
  0.00000000E+00  0.00000000E+00  0.00000000E+00
  0.00000000E+00  0.00000000E+00  0.00000000E+00
  0.00000000E+00  0.00000000E+00  0.00000000E+00
  0.00000000E+00  0.00000000E+00  0.00000000E+00
  0.00000000E+00  0.00000000E+00  0.00000000E+00
  0.00000000E+00  0.00000000E+00  0.00000000E+00
  0.00000000E+00  0.00000000E+00  0.00000000E+00
  0.00000000E+00  0.00000000E+00  0.00000000E+00
  0.00000000E+00  0.00000000E+00  0.00000000E+00
  0.00000000E+00  0.00000000E+00  0.00000000E+00
  0.00000000E+00  0.00000000E+00  0.00000000E+00
  0.00000000E+00  0.00000000E+00  0.00000000E+00
  0.00000000E+00  0.00000000E+00  0.00000000E+00
  0.00000000E+00  0.00000000E+00  0.00000000E+00
  0.00000000E+00  0.00000000E+00  0.00000000E+00
  0.00000000E+00  0.00000000E+00  0.00000000E+00
  0.00000000E+00  0.00000000E+00  0.00000000E+00
  0.00000000E+00  0.00000000E+00  0.00000000E+00
  0.00000000E+00  0.00000000E+00  0.00000000E+00
  0.00000000E+00  0.00000000E+00  0.00000000E+00
  0.00000000E+00  0.00000000E+00  0.00000000E+00
  0.00000000E+00  0.00000000E+00  0.00000000E+00
  0.00000000E+00  0.00000000E+00  0.00000000E+00
  0.00000000E+00  0.00000000E+00  0.00000000E+00
  0.00000000E+00  0.00000000E+00  0.00000000E+00
  0.00000000E+00  0.00000000E+00  0.00000000E+00
  0.00000000E+00  0.00000000E+00  0.00000000E+00
  0.00000000E+00  0.00000000E+00  0.00000000E+00
  0.00000000E+00  0.00000000E+00  0.00000000E+00
  0.00000000E+00  0.00000000E+00  0.00000000E+00
  0.00000000E+00  0.00000000E+00  0.00000000E+00
  0.00000000E+00  0.00000000E+00  0.00000000E+00
  0.00000000E+00  0.00000000E+00  0.00000000E+00
  0.00000000E+00  0.00000000E+00  0.00000000E+00
  0.00000000E+00  0.00000000E+00  0.00000000E+00
  0.00000000E+00  0.00000000E+00  0.00000000E+00
  0.00000000E+00  0.00000000E+00  0.00000000E+00
  0.00000000E+00  0.00000000E+00  0.00000000E+00
  0.00000000E+00  0.00000000E+00  0.00000000E+00
  0.00000000E+00  0.00000000E+00  0.00000000E+00
  0.00000000E+00  0.00000000E+00  0.00000000E+00
  0.00000000E+00  0.00000000E+00  0.00000000E+00
  0.00000000E+00  0.00000000E+00  0.00000000E+00
  0.00000000E+00  0.00000000E+00  0.00000000E+00
