ALGO = Fast
EDIFF = 1e-06
EDIFFG = -0.01
ENCUT = 360
IBRION = 3
SMASS = 1
POTIM = 0.25
ISIF = 3
ISMEAR = 1
LCHARG = .FALSE.
LORBIT = 11
LREAL = AUTO
LWAVE = .FALSE.
NELM = 100
NELMIN = 5
NSW = 300
PREC = Accurate 
SIGMA = 0.2
