Zr2 Ta1 Ti3 V111 Cr3 W5
1.0
  -7.5249999999999995    7.5249999999999995    7.5249999999999995
   7.5249999999999995   -7.5249999999999995    7.5249999999999995
   7.5249999999999995    7.5249999999999995   -7.5249999999999995
Zr Ta Ti V Cr W
2 1 3 111 3 5
direct
   0.9999791677456165    0.6050858105201917    0.0023861143199839 Zr
   0.5977857142976816    0.5979589572741831    0.5983087340849568 Zr
   0.3998351835273979    0.4023182987403153    0.2002655720392700 Ta
   0.7978528585202929    0.3998730592936985    0.1971787007360133 Ti
   0.5938479628990290    0.3958770650037884    0.4012845316893132 Ti
   0.9994215718957397    0.0023411653002011    0.8031462347832534 Ti
   0.8063516155563308    0.0024287611175904    0.0065204066976866 V
   0.5991932991450208    0.9993188834100133    0.0029298802017833 V
   0.7998017787531762    0.2030691730774059    0.0053284348087661 V
   0.7973249898886499    0.0036758241317094    0.2025583164250400 V
   0.4035542739933542    0.0021660867476100    0.9972694879558081 V
   0.5967298626081280    0.1966354858824880    0.9976278285728137 V
   0.7959806714934223    0.3965970362780692    0.0022299025086618 V
   0.6026521907201626    0.0038617019691278    0.1962190365281966 V
   0.7999052012427836    0.2004690656903466    0.2075162529237605 V
   0.7977256994875056    0.0046954998687917    0.3996294560506801 V
   0.2005365725089395    0.0003300471054679    0.0017130128058957 V
   0.4015139804296011    0.1996048146097467    0.0056614326597338 V
   0.5920161417985473    0.3945949261616855    0.9933844515387389 V
   0.8020092697244169    0.6007846849307380    0.0015157329009754 V
   0.3954626961008089    0.9969713708584838    0.1970208181076667 V
   0.6016497027767871    0.2085462650524963    0.2019164063390279 V
   0.5996261687731448    0.0027033841840380    0.3965004790286705 V
   0.8050919589829846    0.2093047117465321    0.4044293481379678 V
   0.7977737604077580    0.0008122867451186    0.6038755457612799 V
   0.1989948639452759    0.2025313959503527    0.9988534619609424 V
   0.4008284822535790    0.4007630725406723    0.0008202469314491 V
   0.5930828196748883    0.5998183999361685    0.9985765756448298 V
   0.8044521616318939    0.8007582122317798    0.0018049819920845 V
   0.4036270961881869    0.2005310357735961    0.2028391766260220 V
   0.6020372693216571    0.4044919925696516    0.2008926135521375 V
   0.7981065147435504    0.5987102522007530    0.1972588253642728 V
   0.4012330779567985    0.0012368351900244    0.3999408862459400 V
   0.5994485894080036    0.2032754856793048    0.4070099985227619 V
   0.8012524303979696    0.3981446506052693    0.3980102827774031 V
   0.5978655675486432    0.0019150773543613    0.6029866472862856 V
   0.7990898168510414    0.1996633206056976    0.5998240835437901 V
   0.7935027734807888    0.9925243883523949    0.7936856822476798 V
   0.9991037645462510    0.2026706677816946    0.0033391223281105 V
   0.1985757959552661    0.3954214442300376    0.0035094886903870 V
   0.3994312926229557    0.6038391835618709    0.0061672659370198 V
   0.5966420257189219    0.7966811278231029    0.0019180708626209 V
   0.9952726978022832    0.0021335071381162    0.1996881762301543 V
   0.2070360017323798    0.2070821580084698    0.2024753823210719 V
   0.8043870169164329    0.8029882995611024    0.2019704187238853 V
   0.2016402484706710    0.9997234230566724    0.4048647283597893 V
   0.4009459506117409    0.2023062350094723    0.3999521583719207 V
   0.7990849674030087    0.6003724618448357    0.4008468731608879 V
   0.3998786067031705    0.0012415298939811    0.5997424556063116 V
   0.5933975136362508    0.1951597322148808    0.5953881108525793 V
   0.7983500234201666    0.3936436890790576    0.5983153898892666 V
   0.7960319641100106    0.2038147221392291    0.7970147991686638 V
   0.0034533366771158    0.4030912212374508    0.0059823303006123 V
   0.2016557943311398    0.6027613197926821    0.0026437893869367 V
   0.4006338753510946    0.7998400148074641    0.0007916854605720 V
   0.0020443580458818    0.1970327635680911    0.1976231669066461 V
   0.2003027591446429    0.4002265212283209    0.1991604888171795 V
   0.3996818579457924    0.5978261332948419    0.1918139474398783 V
   0.6034073705529516    0.8023281026245696    0.2045445027586987 V
   0.9994663278967475    0.9992324637376694    0.3981278217243145 V
   0.1966669203123694    0.2014130033032457    0.4017995249833807 V
   0.4000719905821019    0.3947582822251918    0.3965862987868364 V
   0.6011099688558225    0.5984658587867331    0.3981203453206429 V
   0.7962613514826018    0.8013848349667418    0.4011238597626609 V
   0.4027945358713039    0.1968617568797953    0.5973549950776729 V
   0.5954705660430315    0.3941643041995287    0.5978240682081930 V
   0.8002711460608228    0.6028636970797299    0.5993580259888502 V
   0.4045566287953871    0.0035631037542267    0.7970274627679675 V
   0.5993700676200422    0.1992403363831664    0.8001790236474283 V
   0.8013869762770913    0.4013576423040789    0.7990293238068027 V
   0.1983124704085448    0.8009037610975862    0.0015653449550800 V
   0.0039266153038945    0.4027779520464590    0.2014603649440661 V
   0.1984515301355101    0.6001918676767287    0.2047830892261334 V
   0.4027018150185359    0.7999056862451314    0.2026779274456529 V
   0.9997207722355482    0.2008200191188107    0.4011412562108810 V
   0.2038274217261541    0.4031239002545070    0.4021810110924356 V
   0.3940453879633875    0.5947935231746144    0.3925649093360173 V
   0.5983377304945973    0.7940911386366840    0.3923300282223349 V
   0.9954323677161490    0.9997617840036707    0.5985733546332104 V
   0.1956234253273266    0.1972446940898711    0.5950931121056624 V
   0.4003234210629986    0.3998924004145294    0.6041180733818489 V
   0.7997206518743545    0.8002243583544035    0.6075597954723788 V
   0.2012937746879862    0.9963025901943143    0.7966237552677737 V
   0.3963821866276744    0.2000472049579195    0.7966979626203439 V
   0.6018000909407678    0.4028525858943480    0.7981191188524506 V
   0.8059244534596421    0.6062617955128045    0.7990866581654259 V
   0.9945583362762225    0.7952801639347906    0.9920777022082332 V
   0.0072336560069714    0.6053856279074444    0.2001971282196031 V
   0.1927931027956349    0.8008878076870560    0.1987592705885845 V
   0.9987290283073504    0.3985108756094643    0.4039519647928870 V
   0.4083888178989885    0.8020959261809888    0.4024106294338919 V
   0.3981441287899410    0.6056541467299745    0.6019505813268058 V
   0.6022157108533495    0.7991750518362299    0.6044764177336925 V
   0.2049013472829408    0.2047101883538109    0.8011685955038951 V
   0.4010575573652875    0.3953494629831776    0.7995336383991032 V
   0.5992067567672997    0.5992612363420703    0.7990826633923411 V
   0.8012715268793480    0.8044783370376523    0.8007134992886874 V
   0.9991366374151186    0.7999738875259710    0.1988966794508977 V
   0.9970121173275068    0.6009117386537994    0.4000215278926555 V
   0.2024282969623751    0.8018003314024782    0.4041435712894574 V
   0.9944751528211846    0.3920722538078082    0.5917824804785879 V
   0.1963330083830689    0.5955287502066180    0.5944633579302404 V
   0.3969792079758860    0.8019617306893722    0.5959256561472126 V
   0.9950069815904151    0.2024127700453131    0.7997028619944355 V
   0.2026759866032781    0.4013918405951670    0.8033760664490556 V
   0.3967927614802670    0.5941747823644782    0.7967994755035880 V
   0.6069303782851683    0.7991643090529978    0.8032574238071126 V
   0.0006581470899499    0.7975522146981728    0.3953539972921288 V
   0.0056975703499654    0.6038242535840660    0.5996541895016454 V
   0.1975624949581925    0.7949443720361780    0.6035514519036020 V
   0.9969100786360100    0.3949180562029131    0.8026920008127920 V
   0.1974356244506775    0.5960324790325762    0.8024437877708320 V
   0.3966477726719444    0.7975286641624482    0.7934810516823259 V
   0.0013612913623609    0.8007012402291340    0.6019434430088895 V
   0.0001684385098555    0.5970276619867568    0.7994714807756028 V
   0.2024907194148841    0.7959756474567323    0.7961390047052124 V
   0.9972188854446993    0.7978503342142966    0.7947346016382141 V
   0.6055818872638722    0.6013435639009225    0.2000601017315899 Cr
   0.9998585193421141    0.1943735223289894    0.5995728516719412 Cr
   0.2013767591360485    0.4065564459122726    0.6017580202141738 Cr
   0.0059239431080573    0.9979601623423813    0.0015529813249620 W
   0.2009532630220986    0.0034904438892898    0.2017443383541527 W
   0.6023550338257739    0.0004454208374283    0.8034096266656536 W
   0.2029641722254982    0.0027310246334082    0.6035930208994820 W
   0.1934452596384159    0.5936364633608546    0.3934140765039276 W
