Zr Ti V  Cr W 
 1.0000000000000000
    15.4529206753737594   -0.0089219929548298    0.0139355642811389
    -0.0089343212131673   15.4627799901828133    0.0191221628419376
     0.0139437596884260    0.0191164033920139   15.4587375740632638
 Zr  Ti  V   Cr  W  
   8   6 108   1   1
Direct
  0.9943503161014282  0.3846246585751435  0.3656917162351472
  0.9979195401486459  0.3875927433083828  0.8087377624294723
  0.0326738028254657  0.5958005094226496  0.0015110860669263
  0.2448061954813675  0.5990334444452264  0.0008155271534330
  0.1982761095726440  0.7975927325704840  0.6034194513000057
  0.3994784175069684  0.2011086678138407  0.4023384371727017
  0.8134361037945250  0.0211045863430972  0.0140352326739897
  0.8113228767572076  0.4012572978330853  0.5956032021294915
  0.9876586868355468  0.1971263686291986  0.9689445140591548
  0.9591285936873438  0.2088421989080560  0.2021397683203659
  0.9980072457090367  0.1800156185049617  0.7810424254637752
  0.1949215048823448  0.1969108069493102  0.0027621777918803
  0.5923453469175421  0.3988522020734994  0.6005537854244090
  0.6127271522116442  0.6019533595589087  0.0004686890185697
  0.0131876103112714  0.9989815071579841  0.9993411998783955
  0.0002609716170303  0.9992983015832663  0.1994270801725201
  0.0003094617075562  0.9966019525752974  0.3991727787902594
  0.0005411524816000  0.9971411815788213  0.5998014146079829
  0.9999307656449458  0.9895877514368816  0.7996142961360241
  0.9967379427054366  0.1895111701034852  0.4013926770912497
  0.9990602979066203  0.1999801206140032  0.5931005534674845
  0.0009512800473070  0.3928563119485319  0.0067647983014161
  0.9983368161729764  0.4120934239268789  0.1722514540332174
  0.0100593801562169  0.3981483219965992  0.6004424880770041
  0.9992562590208240  0.6044078460512897  0.2069257548548816
  0.9979412188651083  0.5991267726947556  0.4026569437672763
  0.9987312685006918  0.5953710106763961  0.5993787516179808
  0.9963277793577417  0.5996539313808884  0.7972999168453690
  0.9984996237483272  0.8029629574264404  0.0017441487112546
  0.9979167554535355  0.8009983879009137  0.1996509252220943
  0.9981110290922284  0.7984776405138645  0.4004982816611679
  0.9942858944488746  0.7985161452183468  0.6011718037298667
  0.9968844204070799  0.7959765368578317  0.8018752370169104
  0.2040157724933327  0.9987877969204482  0.0022121433013125
  0.1987581296740278  0.0020820064617737  0.2014973966112107
  0.1996354299337583  0.9992915358181730  0.4006225551998729
  0.1999452941919139  0.0036322322211029  0.6007075334575784
  0.1988110202971821  0.9992547578048194  0.8023837730816387
  0.1984254028882363  0.1988834689590076  0.2011800529372021
  0.1928015334299191  0.1999977050206167  0.4001412161526843
  0.1983886831793434  0.2000179495516007  0.6010807049972301
  0.1978297255904179  0.1978357277092344  0.7987701337215387
  0.2017037726188943  0.3971714966121889  0.0012192396804620
  0.1959940883399310  0.3983217615054500  0.2028592599374419
  0.2014837645147310  0.3984218944587303  0.4008016685566778
  0.2018129901858528  0.3971610135735014  0.6018013884901332
  0.2024832230540808  0.3970189951969070  0.8026160253055095
  0.1975655557499119  0.6009735718692982  0.2037400606652228
  0.1987505210384777  0.5972673754972102  0.4028708581950551
  0.2002224816102342  0.5931768022051209  0.6012839701275593
  0.1931560273997411  0.5968504665324113  0.8003339913125197
  0.1971441691109543  0.7990016792967923  0.0031504415519921
  0.1993077726800495  0.8003688735142331  0.2016306307506702
  0.1994887310391522  0.7993583979734022  0.3974464803738910
  0.1987249176108732  0.7986810036161189  0.8071527014189052
  0.4000321629338714  0.0005101091187043  0.0007221528270407
  0.4002627950741096  0.9998028638438563  0.1992892522306037
  0.3990321234242914  0.9962318914459295  0.4006428000222951
  0.3993217455822285  0.9993767180717344  0.6029448873727721
  0.3982646554786017  0.9988239008844686  0.8023568825635128
  0.4004946570354138  0.2048433733643806  0.9992445914620403
  0.3990638414626438  0.2010994957076491  0.1968112920822051
  0.3982147249367464  0.2005353690533387  0.6058523872756413
  0.3990019687567067  0.1991131757616977  0.8022350122231430
  0.3971956105291394  0.4019899813980474  0.1951639002309156
  0.3981630925433277  0.4049972590309689  0.3968799014614604
  0.3972026494166848  0.4006957374183973  0.6045589756272995
  0.3972712670232909  0.4004413085898704  0.8065705058820718
  0.4312416517428295  0.5952086205350214  0.0006977792721632
  0.3992080876468114  0.6006179836233856  0.2016573858518627
  0.3993290164474227  0.6005999875424441  0.4022739940151746
  0.3993024714703348  0.5986350253603623  0.6024144648550194
  0.3993537558339809  0.6000052279140882  0.8015520414043833
  0.3997918618173746  0.7965297723928650  0.0017402572720358
  0.3992768971032767  0.8006283800516515  0.2000330587231600
  0.3998729806176045  0.7978795355114421  0.4005553341541400
  0.4034533410978210  0.7987587398086754  0.6025460162478171
  0.3986180157014366  0.7987791792952040  0.8028584586460029
  0.5999295089438321  0.0026979844750734  0.0005895352044417
  0.6022676432208522  0.0032764526812705  0.2002934391951160
  0.6005808682867507  0.0001188288099740  0.4004677461798334
  0.5993254900448279  0.9999562201943889  0.6004742289929417
  0.5994507902203255  0.0005035486520658  0.8013137806541067
  0.5998179004100705  0.2003335061661029  0.0005483204577155
  0.6010716523460512  0.2015285443507196  0.2010278913933117
  0.6052604577141484  0.2000987746828882  0.3992253575647849
  0.5999987219119769  0.1980466201060903  0.6013053890900617
  0.5976905289860087  0.1991834315156973  0.7987263287387482
  0.5947211017206664  0.3972328451519259  0.0015466730321405
  0.5989234462569096  0.4010816765595061  0.1981484657134003
  0.5965907564146551  0.4002162990602435  0.3961265973633276
  0.5961952090242226  0.4004093089220394  0.8038287969916369
  0.6002547572202914  0.6026891870421612  0.2046545149509988
  0.5993149839044587  0.6011132205732104  0.4017082617844149
  0.5997888229958555  0.6020845009103205  0.5998168234637118
  0.5996053438363557  0.6013879071974286  0.7960333043152191
  0.6005935892015759  0.8054795227946165  0.0009664856553069
  0.5990091991125752  0.8016086995297099  0.2006730824275114
  0.5993992762264194  0.8014074022750733  0.4005447081441795
  0.5999878082069695  0.8015222551365178  0.6005749798737963
  0.5985879763370484  0.8005906960165460  0.8017659312844637
  0.8000630062829628  0.0019017816339334  0.4020300054453059
  0.8008050537988781  0.9995096470825137  0.6010174200803439
  0.8001303027086915  0.9996496290311919  0.8014421842964339
  0.7940814406256962  0.2132288498505643  0.9971315088544414
  0.7998102523733625  0.0336375361122871  0.2058152954488129
  0.8004873810301977  0.2023445749731609  0.4057290375506574
  0.7998961980921419  0.1974117546873530  0.6017134284660868
  0.7941392804235904  0.2016134198265665  0.7990208016977963
  0.7961007303158003  0.4064146124513735  0.0011177493072112
  0.7982983087107414  0.4075359699052859  0.1979038425196623
  0.7904991471605008  0.4004204801080746  0.3920788679857069
  0.7910714037871808  0.4032708511206701  0.8031393532673691
  0.8089359550774327  0.6037713309158553  0.9995251974361848
  0.7994452660074453  0.6039284390687530  0.2012813337170085
  0.7988536873310349  0.5997303496001664  0.4024871830291361
  0.7994368847032056  0.6050828794098351  0.6001820165697115
  0.7987824532743564  0.6008915176550957  0.7994659958296735
  0.8009326488007020  0.8042561600220396  0.9999820760142555
  0.7986145043555385  0.8015119729207744  0.2001279408124605
  0.7983893504844040  0.8008572325663933  0.6012539106135713
  0.7969868849909281  0.8014176858387484  0.8023105482868970
  0.7984412121865424  0.8009354832102269  0.4008757582825511
  0.3971998958187931  0.4025755570782980  0.0016184274069877
