Zr Ti V  W 
 1.0000000000000000
    15.3704372863088707    0.0041087699184726    0.0045828320708022
     0.0041071823098185   15.3593176205705255    0.0049868964281650
     0.0045832368054306    0.0049883200619353   15.3853693029952101
 Zr  Ti  V   W  
   1   2 107  14
Direct
  0.7917468759023076  0.4017601322428578  0.8100921570167769
  0.4085228693969665  0.7984893590977730  0.8043139128026053
  0.6131254209244018  0.4003681509898258  0.9888368314086661
  0.9967385423487881  0.9979295602735950  0.0018466550242453
  0.9953201297686152  0.0015880901455871  0.2004606335742082
  0.9996687291059621  0.9966096031661380  0.4002776476132445
  0.9942460222719675  0.0002153871044865  0.6018370679432069
  0.0024505815501632  0.9988636820848334  0.8024724338056445
  0.0012449470487398  0.1980938849171535  0.0002940986099742
  0.0010714876101790  0.2024662245590427  0.2021042881984623
  0.0007283485831169  0.1996482596511476  0.4005627723471040
  0.0027328454221056  0.2007042960527798  0.5993842707866043
  0.9995458773027033  0.2010981453902527  0.8012562550660197
  0.0038103269359184  0.3995606338213253  0.0059607904997396
  0.9985512090683303  0.4009587057870317  0.3969628874644702
  0.9974799366657430  0.4000151865633680  0.5998382228067524
  0.9994330913285320  0.4009505764690972  0.8028591060340410
  0.9981679205468874  0.6050234023525931  0.0002813857292134
  0.0028991371957265  0.5960952572946437  0.2009614460410906
  0.9994578634060755  0.6026787224243942  0.4025290313167529
  0.9994325440968944  0.5994978876674998  0.6013546370574260
  0.0025724811554235  0.6007530333913099  0.8000089381224235
  0.0037510158710186  0.7992128003009075  0.2020375046015492
  0.9993541224743503  0.7997801494361223  0.5956120033853834
  0.9998875844204254  0.7993403998519497  0.8058112623791875
  0.1985244556812241  0.9972695135382382  0.1321516676804844
  0.1978779486591071  0.9990048231464836  0.4033792357596421
  0.1982157506704563  0.0029648206417656  0.6063001999605407
  0.2005381034937082  0.2050644474982241  0.9991501818363412
  0.2004429360792984  0.1978300608793936  0.1995099410295987
  0.2024991291587094  0.1991346683510875  0.4035670360721240
  0.2009152217532599  0.1973082253207185  0.7962049964697734
  0.1963192041862560  0.4054850056305040  0.1957837286528846
  0.1994005637323037  0.4012836621612152  0.3992392350029713
  0.1977925579005926  0.3968841528998716  0.6007742213440929
  0.1979058201052863  0.4052526257299178  0.8043086220001582
  0.2006142243147403  0.5965105573009295  0.9962369221014709
  0.2009208243554318  0.5996838872522571  0.3995238605425038
  0.1996241848940371  0.5989925559781845  0.6045670087067874
  0.1961173924161328  0.7962213607584794  0.0032267214768795
  0.1962227779571825  0.8005611155765152  0.3990079041112964
  0.1996095730734897  0.8002241214194282  0.5996681980737981
  0.1988896523269497  0.7987812413899765  0.8015553525131707
  0.4016751264023863  0.0009736292385685  0.9998347158402153
  0.4007059570243653  0.9963072025678450  0.1984189798520842
  0.4003810382999442  0.0024872355991068  0.3996502305419719
  0.4006917663120779  0.9986522070145821  0.5997839374516610
  0.3974364999130874  0.0007883569446141  0.8007500926651849
  0.3999643928428439  0.1995831322266930  0.0014992915288013
  0.3983036894191794  0.1977855461153190  0.2035715389954396
  0.3960920633295709  0.2001410865741989  0.5950081383728226
  0.3996984733002159  0.2002914415537669  0.7985041162977181
  0.3963832146018387  0.3983959852406765  0.0001304546397443
  0.4020800492754907  0.4005407993097089  0.1980241916625997
  0.4000608121521283  0.3967656423223107  0.3975911237948792
  0.3992479516947574  0.3998052442718720  0.5980184366465511
  0.3967122861075790  0.3992611732115123  0.7994788933370688
  0.4021398003860555  0.5991032968028113  0.9992486028779239
  0.3985481647047096  0.6028586104974103  0.2004505220426727
  0.4004446485030304  0.5987081722733981  0.4007835195538266
  0.3985289322538205  0.5998157559914421  0.5986553897400984
  0.3959569442882475  0.5993839147763160  0.7997055222363625
  0.4002192248517831  0.8020873351618822  0.0068896309909121
  0.4014233258582314  0.8015674470175236  0.3964983837149919
  0.4001045837764108  0.8008528028776596  0.5943215047477023
  0.6007071647003517  0.0003085854661902  0.9977291038460238
  0.6027332197749848  0.9997820677079619  0.1986849151228176
  0.5992456968697303  0.0001274578737829  0.4011982077761705
  0.6019822078092385  0.0006765087370304  0.6022309891630847
  0.5982505866889023  0.9992298494396886  0.8005771532766227
  0.5993554929081771  0.1995395420077848  0.9987668087731790
  0.5981767486999080  0.2020683949278340  0.1986638687803008
  0.5947986744765095  0.2012387703823284  0.4009353223041746
  0.5979054371964243  0.2008635029524480  0.6007901084229624
  0.5965236570322955  0.2012980220416679  0.7996446233222665
  0.6025547884773713  0.4010783142104001  0.1992364400220994
  0.6011144435443215  0.4010314054517431  0.3984673660744260
  0.5998070453480696  0.4004681976150009  0.5990575961211687
  0.5899478511136984  0.4011270937054052  0.7943198848904399
  0.6006443496935090  0.6013707141176056  0.9982815587709858
  0.5983361318705540  0.5985200577326769  0.1980217075411797
  0.5993843245001786  0.5990116969976174  0.4018833553035683
  0.5984230768359494  0.5999146415570269  0.6020344717105390
  0.5957756601599031  0.6007778474541338  0.7999443995992188
  0.6018808553944297  0.7990760347678767  0.9998715821214589
  0.5957202325117844  0.7990330349968818  0.1998559472775844
  0.6033734178379756  0.7980858881415652  0.3994090655536713
  0.5996250241901357  0.7993687407367722  0.6001054467303887
  0.6026739559210020  0.7994420526386783  0.8009107291737165
  0.7989576517111778  0.0004197622226547  0.0048647216882878
  0.7982945259718938  0.9970940343398960  0.4013034465824090
  0.7989303457156628  0.9994792090794572  0.7968100896026845
  0.7995678950272109  0.2001057994529009  0.0009242748788822
  0.7985967966706295  0.1965758768522924  0.2025209897542213
  0.7979580512693192  0.1988416384999763  0.4015148934596653
  0.7991939574186542  0.1965128433596648  0.6000802461877065
  0.7997692648813342  0.1956597893723688  0.8006109091960557
  0.8081792347259761  0.4001375113659372  0.0107876855380900
  0.8042252380129630  0.4001126405508829  0.2046908196979829
  0.7997961552373068  0.4001161497078875  0.4017452193221510
  0.7993007994631752  0.3986642965399662  0.5992667764288642
  0.7999964896038063  0.6016814324110636  0.0013514800749344
  0.7978984956898240  0.6008351848944484  0.2012345435183715
  0.7983087511652316  0.6047874244099620  0.4017661014006879
  0.7986093046150404  0.6000139538515659  0.6028666492909348
  0.7992617069188946  0.6065832799252221  0.7994545167902530
  0.8040455047082723  0.8012746332281349  0.0033750000213292
  0.7985659757514081  0.8037637810060324  0.2054265609502400
  0.7998827983681269  0.8048111697627484  0.5963215792769193
  0.8008682049835070  0.8016363404976984  0.8001606034487668
  0.0009446793306547  0.4006553028201789  0.2017306418003755
  0.9999019252928175  0.8011318831564587  0.0042080443448841
  0.9981607400950734  0.7988462272748079  0.3988168782284386
  0.2000580862630733  0.9980631288566648  0.7976598540929253
  0.1992669811107006  0.2007699906102427  0.6004591400968811
  0.1999378530483345  0.4007749728642327  0.9999226143871406
  0.2023251104539432  0.6023414207118152  0.1991477490770247
  0.2006721660350100  0.6008153207247907  0.7994854331313064
  0.2024656107889331  0.7914019275271227  0.1998464722693855
  0.3986982128802273  0.1993446805678439  0.3984674036056771
  0.3972027371475634  0.8003454802945272  0.2017962035908035
  0.7977470975075591  0.0014621051370943  0.2022717588366065
  0.7983014155221022  0.0008206912836286  0.6004498931979532
  0.8032911692201947  0.8007536027854315  0.4000278382419659
