Zr Ti V  Cr W 
 1.0000000000000000
    15.4774007178547244   -0.0057270445464663    0.0060485456842571
    -0.0057275938548885   15.4869400142696509   -0.0016006725836938
     0.0060484205712483   -0.0016004018593464   15.4828342852602923
 Zr  Ti  V   Cr  W  
   2   1 107  10   4
Direct
  0.0024600588267465  0.4002978427882747  0.0001228758099747
  0.4010728614689648  0.5969295568141605  0.8027661318760381
  0.8020148889266983  0.1947957158102557  0.6010350187096356
  0.9997237670662794  0.9997891624873213  0.2028388457437350
  0.9998675931690815  0.9995949840930565  0.3994898012304119
  0.9969944568977004  0.0002667197431623  0.6002977968180681
  0.0008822331142015  0.9990582480469656  0.7983298884429750
  0.0007115342209371  0.1941627994275331  0.0032238755251672
  0.0002681819349490  0.1987295620808275  0.1999174398433366
  0.0002819344446895  0.1999536864421171  0.3989488714671838
  0.0032511277849161  0.2002437753454661  0.5964736776597750
  0.0003515789854239  0.0634925158489538  0.9328906115835236
  0.9994996584129791  0.3995508532936583  0.2050322243062113
  0.9999455406948136  0.4002813756375297  0.4014090708628233
  0.0019794837595868  0.4001845384030434  0.5985231875775679
  0.9949410390763012  0.4034439147069674  0.7943396196044246
  0.9999681612843342  0.6078212024279028  0.0005392206320680
  0.0001040849340863  0.5998875128377837  0.2009340317918022
  0.9992743665892625  0.6004987543628533  0.3996824986932819
  0.0004416469706519  0.6017321373321779  0.5987032072573139
  0.0003547181581791  0.6013427221272336  0.7981652419781275
  0.0002736950220645  0.8007921767064970  0.1968035888558360
  0.0002575238292923  0.8003690112240458  0.3988783061870140
  0.0015695616544611  0.7987302053622637  0.6004001873486917
  0.9995393340512303  0.8009139981932901  0.8026396366293993
  0.2020253300332795  0.9994912573601153  0.9991555440494885
  0.2002157059021942  0.0002978112113470  0.1996126295420281
  0.1997787287998671  0.0000438324293996  0.4010182735921154
  0.1987066052370844  0.0013931425352518  0.7990031114891160
  0.2000465859765068  0.1988963225963183  0.9994106250182795
  0.2010510694387587  0.2005243290141174  0.2000504463232239
  0.2003479983683696  0.1996468660541604  0.3994792197930123
  0.1990227909222356  0.1987511977330535  0.6010304184240238
  0.2000756702497821  0.1997833109862212  0.8006540096492968
  0.2059351302642811  0.4007283049976651  0.9995946275846281
  0.2020390415438038  0.4001609519044707  0.2014893674442678
  0.2001101394990481  0.4004006134845068  0.4008662670979227
  0.2048855472384710  0.4004026506817158  0.6003955607375542
  0.1965921775951854  0.3980138526317349  0.7990588208610873
  0.2008144908636231  0.6011046438711668  0.9998623336136863
  0.2002089830013144  0.5990135659275960  0.2002320265325855
  0.1990963853154499  0.6005172747610201  0.3992769913809751
  0.1966729948880800  0.5997536319082575  0.7996751141015244
  0.1980075797535608  0.8008223137593409  0.9990311862036774
  0.2010004616529127  0.7997282293600864  0.1999798088568545
  0.2002150468653161  0.8003206317103777  0.4003262968158335
  0.2000939417681445  0.8003920888594273  0.5997916848717162
  0.4007430116029002  0.0005830960870788  0.0002450354911780
  0.4007972993510416  0.0002599888692627  0.2008123850036542
  0.4007230983191076  0.0004956484789147  0.4011357541399222
  0.4006207116201664  0.0005858404615398  0.5995272527178837
  0.4004758684097023  0.0004026499983738  0.7981819261542428
  0.4006921907554672  0.2001857191193344  0.0007160864483252
  0.4008879238001943  0.2004774680105428  0.2000814573706575
  0.3998109005416498  0.1997984140376459  0.3991816762306138
  0.4000999240082451  0.2025602231338869  0.5992900716338974
  0.3998914285273783  0.1986940963231105  0.8010313219327005
  0.4017633763652916  0.3984818861934964  0.9998779581572792
  0.4009058349945313  0.3999207229680720  0.4040158545024587
  0.4029563370952627  0.3940356760062882  0.7952469731999783
  0.4001805756332015  0.6010559189649951  0.0055977147788529
  0.4001875724508457  0.5994941256623479  0.2019100787880200
  0.3997717909192753  0.6008438231839288  0.3995773296730055
  0.3999289047853275  0.5967440318119103  0.5964569357662463
  0.3994974746087534  0.8016474622920643  0.0010410694297348
  0.4000073358138183  0.8005548367843623  0.2000956394336624
  0.3996898128487577  0.8003806627472321  0.3999626482357815
  0.6008289255649369  0.9993550487762087  0.9993358258130669
  0.6009803064773797  0.0007128392945977  0.2002253024462343
  0.6006007406878728  0.0003589338005601  0.3994035214593557
  0.6032383723077245  0.9991851157619595  0.5997256214691350
  0.5998657054840147  0.0004670802372158  0.8000854512145147
  0.6005141313717188  0.2001902500445595  0.1994102375902681
  0.6009910358408026  0.2002602275218883  0.3982904523452288
  0.5984175412215916  0.1986767311958668  0.5988715920271979
  0.5990639396886586  0.1986238431274375  0.8011024120451009
  0.5983803022564357  0.4009599771429843  0.0001213926178394
  0.6005195349174458  0.3995032379324946  0.2001543467313023
  0.6011734516687285  0.3997840822979507  0.3996965224958741
  0.5963292632412180  0.4006298364213983  0.5995638350288428
  0.6065872976703857  0.3992305627231686  0.8003904055135017
  0.6005170573742236  0.6015506585617078  0.0015164267272038
  0.6004938943836310  0.5995956663335740  0.2002580413726118
  0.6010546255049104  0.6003381146417217  0.3992043054053791
  0.6004711552508459  0.6022923051363254  0.5990315518589909
  0.6048426139370798  0.6016475340321799  0.8001688185505005
  0.6004573241548741  0.8000742009362479  0.9998389067574841
  0.5999104978359983  0.8004015562726191  0.1993594003398212
  0.5994857006262553  0.8006160412860467  0.3997661485393372
  0.5986200475521893  0.7988046403949985  0.6004419251230965
  0.6011378033021043  0.8011773174228413  0.8004717494561772
  0.7981959757058916  0.0008285090132114  0.9989329631292309
  0.8001615895134084  0.0004923513379135  0.4032054537151249
  0.8016025625510588  0.0032805966121550  0.7962602398526561
  0.8011291517653246  0.1968534052868307  0.0008791628769098
  0.7998282500844291  0.2005174001017425  0.1993063926509624
  0.7976453385075569  0.2023614355135711  0.8030203522319158
  0.7955011159920690  0.4003763608745182  0.9949702176725471
  0.7996806878227807  0.3997438687296225  0.1988045752370812
  0.7997030105251796  0.3991581859913891  0.4019343433956667
  0.7988972595567965  0.4013223118334818  0.6036846870683522
  0.7995945557125994  0.6003141732929310  0.0004714379189872
  0.8000799372255498  0.5986853622165399  0.2004014238258707
  0.8003140630393982  0.5997829884713044  0.4000477614532446
  0.8000135148672741  0.6005504142582722  0.5986744481810263
  0.8020711349235312  0.8017841254124399  0.9991290246717170
  0.7993937515912040  0.8000020555707305  0.2007769549363506
  0.8000344324778597  0.7994041832289456  0.3988800350826573
  0.8004243199600708  0.8013044413010221  0.6004617400004996
  0.7997977306821380  0.8006682085314069  0.7999409917272723
  0.2002007349450053  0.9993759873551937  0.6000418514764271
  0.1997474667630308  0.6007773162093387  0.5995941603448218
  0.2002464246586883  0.8007149324292198  0.7989251136810194
  0.4012879118930774  0.3998968480677005  0.2017736055193474
  0.3993653854419060  0.7997893345561560  0.6000547811989445
  0.3999486520817149  0.8030137902826557  0.7999070189196491
  0.5996559607710834  0.1998367432895087  0.0007685077726569
  0.8001695971778321  0.0001321581676317  0.2002481402665058
  0.8005592741428411  0.2000408693280815  0.3974205320320678
  0.8011580637435470  0.6011941790758679  0.7991842777122996
  0.9986532352035609  0.7998820443598238  0.0003675143860107
  0.4006967480718575  0.3993141756299561  0.6005217705311924
  0.7999625330203773  0.9950710278071273  0.6004428273973861
  0.8010999107768710  0.3940923488150933  0.7996168316411327
