Zr Ti V  Cr W 
 1.0000000000000000
    14.8385448070357313    0.0301642263320556    0.1123691949596347
     0.0299823086812924   14.8925316429723367    0.1064115595984128
     0.1121930269678924    0.1061585076952559   14.9340831239349328
 Zr  Ti  V   Cr  W  
   7   2 104   8   3
Selective dynamics
Cartesian
 -0.1772786727927642  6.1799029655854918  3.1384856747931114   F   F   F
 14.6400580781345262 11.7718111844414040  9.7653712876467775   F   F   F
  5.8154174671798105  5.7257284762653677  6.2217869763764213   F   F   F
  6.1657843999717157 11.6151371481937264 11.9413125609928432   F   F   F
  8.7669849765514307  2.4859322197529488  2.5760517110976182   F   F   F
 11.4283541315516892  0.0316398886188165  2.7373584494171346   F   F   F
 11.7362822633577508  6.1576189419115774  5.7160808582404004   F   F   F
  2.5808344839220982 12.4779096756344003 11.9349741536525471   F   F   F
 12.1186951873257076  3.6728437397257183  3.1135869944221142   F   F   F
 14.2491691339692785 15.2106267069831489 15.3892394668535122   F   F   F
  0.3277624989348865 -0.2377139741950627  2.9292810176697137   F   F   F
  0.5683726427789607  0.4732313013921304  6.6475945829143352   F   F   F
 14.9463062933825217 15.5874007667241887 10.4573450444798262   F   F   F
 -0.6526203502302913 -0.5011854922059206 12.3573298063558408   F   F   F
 -0.1566503666273441  4.1061764017254374  0.1292388678154925   F   F   F
 14.3543028513949285  2.3179415738858773  3.6603653158987330   F   F   F
 -0.5779828827161888  3.8390855305410168  6.0816822069821672   F   F   F
 -0.1342669529627413  2.9311132122047057  8.8911305127758755   F   F   F
 14.2944182924465863  3.6352896770881067 11.5137914367993126   F   F   F
 -0.0574571908283982  6.4822144601712166 14.2929705993583323   F   F   F
 15.4022537673328763  5.9630033564303320  6.8594689711200960   F   F   F
  0.2787373753109464  9.2228429141393988  1.1548033817249803   F   F   F
  0.7795794365030256  9.6842976601503974  4.1229824356094182   F   F   F
 14.6359927957830678  8.3983887599664442  6.2891650725254697   F   F   F
  0.9015357150784935  8.2796880217908431  8.9160484730565113   F   F   F
 15.2775789493851253  9.4043807159298414 12.5945662697840426   F   F   F
  0.7722034654164458 11.8442059332397651  0.0924264689679917   F   F   F
 14.1043397181925183 12.0670585398284871  2.7236457966895595   F   F   F
 14.1955425815293435 11.9510584892055132  5.9945282812544987   F   F   F
 -0.7303375423363111 11.1540586439101794 12.4673277815989145   F   F   F
  3.2207255389012683 14.7186074469922321  0.1955830842364609   F   F   F
  2.9135143482712325  0.4452182372031191  3.7520031491796488   F   F   F
  2.6771110007794245  0.1066671423518927  6.5376633014504435   F   F   F
  2.7454827677942921 14.2530334074318112  9.5346794749083834   F   F   F
  3.0922885762429311 15.7266296721489685 12.6788932202941993   F   F   F
  2.7830463766515821  4.0316824147284525  2.5530705179896231   F   F   F
  2.9939651427211280  3.1671734064411576  6.3053303867277144   F   F   F
  2.7005371753973337  2.1339745236068941  9.1922843176265943   F   F   F
  3.3750608575740357  3.5689129428408064 11.0337833743036082   F   F   F
  2.7706957665172629  6.4050363951897795 15.5078784810979649   F   F   F
  3.6278837188803124  6.3578662116343772  3.3601057999968100   F   F   F
  2.5105391707407194  5.1205431675845414  5.2059097031693717   F   F   F
  3.5716774245027247  5.7201827640621214  8.9063041720064309   F   F   F
  2.6701722524269464  6.3228861013350857 11.6730720554607288   F   F   F
  2.8181924645158465  8.5526012745129449  2.6675300315337069   F   F   F
  3.5248155259889238  8.5575678110634517  6.2951923506110274   F   F   F
  2.7758968573410505  9.5946661748824731  9.7118701760038544   F   F   F
  4.5297750542338138  8.3567766115336735 12.8653493027956038   F   F   F
  3.1818060950834548 12.2220562877137500  3.0677446241573483   F   F   F
  2.1337129008762856 11.9321610790026824  6.8154021748869358   F   F   F
  8.6182384435021291  0.2171445296875833 15.0425585966535067   F   F   F
  5.7001230159740164 15.0983533341811231  3.0394120543090271   F   F   F
  5.1000445712861904 15.2939009122281853  6.7452577150585666   F   F   F
  6.4856584087125881 -0.6822543226374261  8.9359174346073154   F   F   F
  5.7644010755952406  0.6268183679411041 11.3713413344443630   F   F   F
  6.7409872042167285  3.8985489496318859 -0.3650348675245781   F   F   F
  5.3895779441618208  3.2213680520549683  3.3979658032356603   F   F   F
  6.2810402795607745  2.0746738952530617  5.3200294786656332   F   F   F
  6.0972008362000052  2.8712145611405444  8.2916804349187991   F   F   F
  5.8038294106384694  3.1119160776407822 12.1835343275811354   F   F   F
  6.5552360517621935  6.6384809228169157  0.5569087069633272   F   F   F
  7.1601368663569573  5.6331897040301264  2.9929516980080431   F   F   F
  7.2901327710039174  6.3190330897311275  9.4174908652882063   F   F   F
  5.7826548142977341  5.4777528500445154 11.1547608336322721   F   F   F
  6.3480591966457940  9.6646504463996354 15.0169062742594477   F   F   F
  7.1381065056982536  9.1433007431640601  6.0586240949621848   F   F   F
  5.6403355339416663  8.7792984819641475  9.4128672084915781   F   F   F
  7.2396253654682230  7.9276336960960068 11.8267840181779373   F   F   F
  6.8775418175700258 11.9110717308984650 15.7468946552103350   F   F   F
  5.6702280998272050 11.1472701993586476  3.3788714976289338   F   F   F
  5.6754379474939336 12.5220523949498723  5.7147934401005482   F   F   F
  5.7801335183341376 10.7971539527205209  8.0846775014020160   F   F   F
  8.0460119876745502 -1.2509645959971940  2.8986528049569138   F   F   F
  8.5475523898100594 14.7289776884336217  5.2562385733507755   F   F   F
  8.8014614603956982  0.4448398593375910  8.9565490703388182   F   F   F
  8.5516613955966054 -0.5289645009779965 11.2681783938300217   F   F   F
  9.3302704212656078  3.8830778531330736 14.1093661022121299   F   F   F
  8.8900480183437409  3.7053253045374164  5.9128026413802584   F   F   F
  8.0808162987783092  3.4616025635966809  8.6312236953725012   F   F   F
  8.6085704067750175  3.2053265792859387 11.3208199207581810   F   F   F
  9.1471336863401085  6.7713642178703051 14.8374153222833876   F   F   F
  9.7333485422498356  6.2082989831589765  2.7672403010800513   F   F   F
  8.0835862592258945  7.2175923160259794  5.0303115672178089   F   F   F
  9.0744063283387035  6.2128899865888156  7.9465191392284105   F   F   F
  9.4094237235238456  6.6773260187467898 10.9750716613664281   F   F   F
  9.7596105472415875  9.4281534769079425  0.8391421675182426   F   F   F
  8.5553236873772533  9.0152434786616258  2.8609841646859770   F   F   F
  9.5905714143152796  9.2184018544331465  5.8144856286692335   F   F   F
  9.2890075437026240  9.2037998348640784  9.2169599382949450   F   F   F
  9.1971833714939439  9.4316614826555671 12.1268058719493723   F   F   F
  8.9625122365166305 12.1746000854349248 14.5620618410518752   F   F   F
  9.5852606337625161 11.7858242884858910  3.2991358615896362   F   F   F
  9.1336448620350978 12.2181600212649890  6.9123083306600490   F   F   F
  8.4880285277444631 11.0685229317959397  8.8911901577711863   F   F   F
 11.3569053023325122 -0.0374253415238481 -1.0582546584549728   F   F   F
 11.7928215130207246 14.6794747406950226  6.5510338877941034   F   F   F
 12.6352240188642497 -0.1121707412288066  9.2422321843787998   F   F   F
 12.0181421814783338 16.0521138552557936 11.3487047919677853   F   F   F
 11.2748428600968200  2.5194517763767097 -0.0706584595953997   F   F   F
 12.2107472943222923  2.3183431589036809  5.7311640294989070   F   F   F
 11.0287470990016967  3.1588506800521796  7.9325760488820247   F   F   F
 11.0620342054163494  3.9610983080326534 11.6469216093506898   F   F   F
 12.5942649617094364  6.3656379605037445  9.1677659501509101   F   F   F
 12.2599427791168303  5.6836030996398001 12.7863595101108896   F   F   F
 12.0051364243546690  8.8915507617198699 -0.4216432485172659   F   F   F
 12.1427275750533017  8.9708499340108894  3.4703418087031999   F   F   F
 12.7324869583049338  9.4682355793920205  7.2374303497890438   F   F   F
 12.3267191174096187  8.7108765033192022 10.2620577932763606   F   F   F
 11.8840584378042067  8.0220321784601261 12.3958407726495654   F   F   F
 12.5655254312996103 11.9071336380963562 15.8482006598077554   F   F   F
 11.7073731910546659 11.6979250959559575  4.5273249276235328   F   F   F
 11.1973151221305027 12.2794785012400975  9.2055600844162644   F   F   F
 11.7524209423090298 11.7450898340939904 12.1171078860209693   F   F   F
 15.0254939189097954  5.8858095485952742 11.8775588337619684   F   F   F
  2.9989818676915205  3.8257600704221097 14.9794078000828286   F   F   F
  2.7853752468445507  8.8201228687087863 15.1810464098325060   F   F   F
  3.0393319557128926 11.1764926725769538 14.4083544571384881   F   F   F
  3.4502716212474702 11.8404748418938617  9.2998366428770094   F   F   F
 11.9155270761393410  6.5279796593424617  0.7211973833320183   F   F   F
 12.1240555738514413  6.6865635617491375  3.1539254839818538   F   F   F
 11.8165796866899999 11.6583920243067993  6.9964393815480266   F   F   F
 16.0858071210731950  4.9582557230153528  9.5862401223343205   F   F   F
  5.7583477897079538  8.1944086894688866  3.3844369876602585   F   F   F
  9.2522750871538229 11.8393874263026788 11.4432859650723984   F   F   F
