Zr Ti V  Cr W 
 1.0000000000000000
    14.9137648058014189   -0.0380344690812818    0.0106833392427911
    -0.0376694697948715   15.0422790407743960    0.0345477692832103
     0.0103419285353073    0.0349907567863943   14.8014378166485869
 Zr  Ti  V   Cr  W  
   2   8 105   3   6
Selective dynamics
Cartesian
  2.7667892281215098  3.0082470596240682  2.8885677199389259   T   T   T
  3.1303706688112416  9.0161864322920859  8.8047224891343134   T   T   T
 -0.3361807080676254  8.5326483076797679  9.1207656414815119   T   T   T
  5.0922818877337122  0.2507751559546055  2.7678975421049548   T   T   T
  5.3640203574297320  2.8696097912354968  0.2408442777723130   T   T   T
  9.3970770404908972  8.7136673050882738  8.0117916133897129   T   T   T
 11.6766984179310835  0.1883776897604019  0.4697525701595608   T   T   T
 11.4638605295772393 -0.3275626056038018  4.3436207577034898   T   T   T
 11.3235438248412734  4.7174955870196777  6.1190572780565349   T   T   T
 12.6100395727291357  9.0783326903584918  6.0078258883105642   T   T   T
 -0.7184935107591732 -0.2771278566720835 -0.9540471236003407   T   T   T
 -0.1510195393922382  0.5399974515232288  2.5629668962344145   T   T   T
 -0.2405530072564395  0.1942299093846807  6.0871115920649208   T   T   T
 -1.0081677854415465 -0.6060929601256105  9.4478207779308772   T   T   T
 -0.4272205852915034  0.5839678296880301 11.4256237718722069   T   T   T
 -0.4457435911888044  2.9280067456987839  1.0145601874253600   T   T   T
 -1.9074003533762003  2.2782392593117828  3.5509633478145157   T   T   T
 -0.2789854803400582  3.4398869372431524  4.9383060789491928   T   T   T
 -0.9281144858648807  3.0089329934272335  8.6971426275819468   T   T   T
  0.2771331339343234  3.0794199537093765 12.2336482744939126   T   T   T
  1.1554447492271147  6.6563656396723490 -0.1956754320279993   T   T   T
  0.7292667770413295  6.0319344677389131  2.5980012097403029   T   T   T
 -0.0711477102338275  5.8709460058854734  6.4126461090405824   T   T   T
  1.0440743288800316  5.9227376306084949  8.9762792709825234   T   T   T
 -0.1639717070233759  5.8126871251043921 11.0435421903629649   T   T   T
  0.0802873234355658 10.0947708477724269  0.3254189346319575   T   T   T
  0.8061752795865601 11.0338873977998020  2.7336849089193906   T   T   T
  1.0893985352962914  8.4084847736777313  5.7325050604031160   T   T   T
  1.0035666927695148  9.2991950794597393 11.9289342089313219   T   T   T
 -1.5267229392092210 12.9704018451732868  2.7533461388286864   T   T   T
  0.4050775857772048 11.3740091114767417  7.4463647984396983   T   T   T
  0.4546834836045682 11.3189978889069369 10.1089833056800416   T   T   T
 -0.5875250424477991 12.0005632136353775 12.4359703875056233   T   T   T
  2.5967789278591771  0.5557786183341918  0.1486891178524823   T   T   T
  1.6564296090368769 -1.2825577115280100  3.2661895244325700   T   T   T
  3.2522782852513821  0.0229094542908505  5.1206727076097387   T   T   T
  2.9238313257628308 -0.3318718245526031  7.9517542978739195   T   T   T
  2.3353764716410921 -0.3743610391588731 11.4400004857675484   T   T   T
  2.1163840543621433  3.9915476977680906 -0.7670974645463922   T   T   T
  2.1794412960384077  3.1226703478251316  6.5382308308241850   T   T   T
  2.0382739826640410  1.6363365742902212  9.8216906562478403   T   T   T
  3.1692074455589490  2.4484702900642508 12.0474842343963768   T   T   T
  3.1498386528429538  6.7983656070450058  2.9742235740394940   T   T   T
  3.9875646820491797  6.0929647529113664  6.5486443003901140   T   T   T
  3.0909463290612078  4.1202808147790329 10.0607532394026418   T   T   T
  3.6766492064835798  6.7489222431080611 11.7937426753892041   T   T   T
  3.5600890112861072  8.9702984232904175 -0.0553588092838406   T   T   T
  2.6670285566525567  9.4373064750547240  3.1607253458158189   T   T   T
  3.7940145305270718  8.1645222400626452  5.2111623109799110   T   T   T
  3.5224170968950026  9.1235923419176181 11.8773074131833205   T   T   T
  2.5488257692393739 12.8326844505483457 -0.7314296735998251   T   T   T
  2.9967224714427889 12.1869527539012044  1.9228080116768314   T   T   T
  2.9908398868552997 11.7084934989182496  6.0876790818641311   T   T   T
  2.8841701677579810 12.7531109015585038  9.5876602803375448   T   T   T
  2.4764957581662239 11.5642576287747474 11.7842510669631242   T   T   T
  6.0777753693697001 -0.5829687974599210 -0.7912694482373606   T   T   T
  6.8504317284039686 -0.1151664426807029  6.3204605051793168   T   T   T
  5.4021920804348609  1.0038535194313500  7.9872881319846600   T   T   T
  5.6665517957992364  0.3429950779289728 10.6406570591961032   T   T   T
  7.0827944163800431  3.1541086359857089  3.5545058605424371   T   T   T
  5.4550161723675892  3.2446445367625727  5.4011904040698662   T   T   T
  5.6933669045405182  3.4220581579287046  8.6368445559585290   T   T   T
  5.4913016367292267  3.7874537295142487 11.3646781112222346   T   T   T
  6.1770373444766440  6.6710872860723569 -0.0268968623277649   T   T   T
  5.6675095014976851  5.4340687020372211  2.5240780509798983   T   T   T
  7.2580715321309217  5.7415995628418690  5.9754175858735188   T   T   T
  6.2304493894024562  6.8303107774097507  9.1280366576992034   T   T   T
  6.9402921911654278  5.3529376277278411 12.7628462554524642   T   T   T
  7.3541075651452372  9.3117570918126535 -0.8607809905515729   T   T   T
  6.3440600052188634  9.1748319503078299  2.4112675831106816   T   T   T
  5.8812807959081903  9.3343902636123488  6.3032171346921260   T   T   T
  6.8214963813260994  9.8058025303042111  8.9118717525376265   T   T   T
  5.8894777633390278  9.9953242810169129 11.5057848276739296   T   T   T
  5.3671391872658738 12.4940158593491457  0.6411951155532897   T   T   T
  6.8793941673189822 12.8878424828223128  3.0042874050700665   T   T   T
  5.1724769624467859 12.0388139798786593  4.9870971989201234   T   T   T
  5.5928098619102187 11.9598699672324180  8.5695323762353244   T   T   T
  4.8218518293796064 12.4439744033464699 12.8345769100480958   T   T   T
  8.2650568306358121  0.7200710339785169 -1.4848309286145540   T   T   T
  8.5563813124352173 -0.1405107798538541  3.8734169921836843   T   T   T
  8.6973158486409385 -0.7046649649683823  8.8618723141616673   T   T   T
  9.3135624300583686  1.2295421488192562 10.7806528833729658   T   T   T
  9.2517337832137105  2.6354419848285273  1.4255838547528388   T   T   T
  8.7730192528443460  3.2550873039253077  6.2495067529039989   T   T   T
  8.1689649948762035  3.7040003701357302 10.5855361690177219   T   T   T
  9.7489721593903180  5.6893607237363151 -0.6930202004496365   T   T   T
  9.2178722533510768  6.0644373835044298  3.0449484200878114   T   T   T
  8.9580431627718990  5.0082735896872643  7.9728513842727811   T   T   T
  9.5667956871512523  5.9477480119759019 10.4906598985184143   T   T   T
  9.4867432854213902  8.9187675341579258  0.6901357999187020   T   T   T
  8.4368040351457037 10.5867877523387985  2.9111453215720511   T   T   T
  9.0155991270158147  8.8540099299282407  4.4672270797835871   T   T   T
  8.2666868523010280  8.3064799150394979 12.1045471532703814   T   T   T
  9.3599485198303558 12.7999861019056063 -0.0023795770173115   T   T   T
  8.5864953797484471 11.6886589936202281  6.3606308401706944   T   T   T
  9.6804235443939177 11.5203989644121521  9.8017216375793730   T   T   T
  7.7795444560091731 12.2644141345343254 11.3404518271308543   T   T   T
 10.9830572909655739  0.8725920902009854  8.7432997819561979   T   T   T
 11.0832206641277278 -0.9345266079840666 11.7606343864420211   T   T   T
 11.7157537470340056  2.5125189517275062 -1.2122721070425349   T   T   T
 11.4168630222892187  3.4678527728389557  1.8799503055522575   T   T   T
 11.4097290759726882  2.0214489084135097  6.1924648778451798   T   T   T
 11.7928446627149182  1.6531432733352798 11.1809333913288249   T   T   T
 13.5765882631160686  5.5129205243009336 -0.1461433137099168   T   T   T
 12.9788969641523320  6.6289034180810971  3.2887194467680358   T   T   T
 11.9505795320071275  6.2064751929242874  8.8467345010858338   T   T   T
 11.7405262585361410  4.3754022235965797 11.2718658344250002   T   T   T
 12.1140494985876899  8.5352468749966306  0.4771387775722028   T   T   T
 13.1394734501034200  9.9429141597888968  2.6240102975675521   T   T   T
 11.4174689683635933  8.4399959259271977  9.9403684714223175   T   T   T
 13.6116731168398548  8.7549963262656103 12.8219054081307586   T   T   T
 12.5565232030125156 11.6553723713502322  0.4321910524153068   T   T   T
 11.0242421084579334 11.2523152627777971  3.7070679187533817   T   T   T
 11.7238922635901535 12.6059343236744184  7.0326738976060534   T   T   T
 11.2062776538995141 10.9707890460016717 12.6789956104463020   T   T   T
  9.3899057312395193  6.5979973136755170  5.8730895368913378   T   T   T
  9.5809257919347335 12.9311831835661799  2.9047210445014615   T   T   T
 12.4543160866482978 -0.1535608472824494  7.0030344667859072   T   T   T
  0.3160659994753475 12.8590943822299373  0.7706418379688258   T   T   T
  3.6304016196182163  5.7293752195352816  0.5875126858568824   T   T   T
  9.5538647781548178  0.2286078764989961  6.3747794191678775   T   T   T
  9.8507939174576897  2.3095760062393977  4.0170914925521464   T   T   T
  8.1163514827757233  1.8209023023020339  8.4823836192914364   T   T   T
 10.5938881428741727  3.4626264004032752  9.0433150324914209   T   T   T
