Zr Ti V  Cr W 
 1.0000000000000000
    15.4244097105604929   -0.0012107223225386   -0.0042394490092486
    -0.0012099076426666   15.4412294863263000   -0.0024734284807045
    -0.0042424892746054   -0.0024736538270091   15.4407019588637713
 Zr  Ti  V   Cr  W  
   1   3 110   3   7
Direct
  0.4033282598575255  0.4051757524967532  0.1980534190360058
  0.9993665482945256  0.3916982561422043  0.0001830622508201
  0.2010647652721918  0.0062557085104571  0.3580476653738808
  0.7994887730103083  0.6007238113941852  0.2114589128578502
  0.0004896853593915  0.0022558739096774  0.0024501572086710
  0.9952168203885259  0.0007411484097937  0.2010304373010897
  0.9982377561189081  0.0000045072456591  0.3984224788036421
  0.0012320635459644  0.0006538236450619  0.5992549955107997
  0.9988655967819207  0.0002325891658048  0.8006489809892262
  0.9991376980645543  0.2008358951636052  0.4015482326315579
  0.9998831182759428  0.1991266403318998  0.6013509747059544
  0.9995818551116299  0.1996920546081702  0.8028631817929114
  0.9989213263495668  0.3995760220856369  0.2017791970900352
  0.9989565708885362  0.3994648235121499  0.4002740076099545
  0.9996802877107944  0.3981429732089588  0.6010626889509436
  0.9999443754690621  0.3996165891308995  0.7976609350677215
  0.9955387927872267  0.6011694006004357  0.0017662872311978
  0.0015352730816409  0.6004863554577244  0.1994425264566957
  0.9968514998040293  0.5987812512870205  0.3995520062212344
  0.9994854750936989  0.6001627051344709  0.6021439918776498
  0.0002800960857945  0.5995227651188554  0.8002724128533467
  0.0006118734810545  0.8009580516666054  0.0018058245915982
  0.0016190133223184  0.8038943184830707  0.1996919441067723
  0.0024589312805126  0.8006768058106378  0.4017933742148351
  0.9991383227315163  0.8013480090021869  0.6018659698330449
  0.0009294150464072  0.8010791201743883  0.8010105409880860
  0.1997099821378379  0.9995725614575683  0.0000997337370563
  0.3977927460460854  0.9991356641900248  0.0023837341963033
  0.1996604624402497  0.9991453784253596  0.6036179932033181
  0.2005926243355055  0.9997889512217711  0.8002440077549788
  0.1963190516567120  0.1994303227708084  0.0016196027617670
  0.2008907438780913  0.2066214734171409  0.1997647418856424
  0.1992355942559768  0.2029805452542542  0.3975257651100275
  0.1997838044232913  0.1986481403118203  0.5989481138606070
  0.2020075612325635  0.2018111938273860  0.7998357704838271
  0.2006341085869102  0.4017262080005086  0.9991709331649390
  0.1959532850397790  0.4016716098361731  0.2001121698830275
  0.1982910627609919  0.4039409447600246  0.4014740375353188
  0.1997225772109275  0.3997936336636982  0.6003842918277764
  0.2005812654905607  0.4009067657584827  0.7990197535612080
  0.1975183545664936  0.6002249518384459  0.0012243750303988
  0.2020003100195059  0.6007126413629205  0.2035129606412112
  0.1992916724898037  0.5989084502705658  0.5986242692073681
  0.1997907454158385  0.6005156674816685  0.8008547135821749
  0.1991827631481224  0.8010376653302437  0.0042849589089032
  0.1999270439399401  0.7999055640828197  0.2053372359394772
  0.1998124700251672  0.8011719307603967  0.5970615973773078
  0.2001256079190818  0.7982167924147107  0.8009311680784987
  0.4044975512776818  0.9987984208569282  0.1997555291204144
  0.4015390667198762  0.9981020178267881  0.3982908262989446
  0.3979211146652616  0.9992815086963963  0.5985019692973949
  0.3999817460157715  0.9988857224012598  0.8013133352875376
  0.3988065072579093  0.1995957797449792  0.0008053471902942
  0.3991254164661072  0.1964023615053803  0.1990172650244719
  0.4005520815505082  0.2002685322771504  0.4018936348615872
  0.3993099304097291  0.1992491862227157  0.5998222770158159
  0.4037171541863364  0.1999518644591442  0.8009987822324942
  0.4000035967403687  0.3993613779642050  0.9941579931725950
  0.4008849560042696  0.3995185688725104  0.4043201894093267
  0.3999844056236764  0.3996032245061834  0.6014578261481095
  0.4000923527094096  0.4007777662039629  0.7992671386842728
  0.4007598991541295  0.5998102698160166  0.0034908463713032
  0.3979581561850933  0.5979026736285220  0.3957031630085748
  0.4003140213754136  0.5996651473511269  0.6010773048176943
  0.4004150025406673  0.5994186714308756  0.8021244963946853
  0.4000232205549818  0.7994395433217909  0.0009639584138108
  0.4001051696407131  0.8009237232707194  0.2001794642461606
  0.3976585685653962  0.7988495909997267  0.4020882584482833
  0.4004258288488997  0.7998333642099387  0.6010248582887484
  0.3994680485007525  0.7994029277555429  0.8010315578295247
  0.6017828212256119  0.9986712308398259  0.0005131663217115
  0.6003675458647192  0.0000152330699028  0.1997429541825101
  0.6006785502249141  0.9991655169449088  0.4003032855815059
  0.5999191521874448  0.9993219072648135  0.5991752440335510
  0.5993767819817230  0.0020940760719441  0.8000398576681925
  0.6012746521770505  0.2003165615597371  0.9964536147892297
  0.6001213308595478  0.1991842879731834  0.1987834802812889
  0.6006121581321080  0.2005194522473208  0.4002841439727648
  0.5998457362921183  0.1994643263427004  0.6047212706266086
  0.6009694625936203  0.3994273783666999  0.0003884619848798
  0.6055145160221762  0.3972977485161925  0.1994575247676368
  0.6005276067259027  0.3995236296705620  0.4007296354430179
  0.6000354469795728  0.3995920835570574  0.5997316728131949
  0.6041712493897627  0.5993314044561907  0.0007447135007728
  0.5954102873186754  0.6000739335577867  0.2002921606610233
  0.6031175417907096  0.5997243822949897  0.4003679992400566
  0.5984933724966657  0.5996311038968708  0.6006120177551013
  0.5987876360381857  0.6006030994447646  0.7996205463061375
  0.6000039384450221  0.7998599128826445  0.0004685871965664
  0.5990127331969775  0.7990936978469506  0.4004211272648818
  0.5992433879209080  0.8003814053262984  0.6007071054284455
  0.5994932192649889  0.8009934177356665  0.8002655840753767
  0.7999509822244248  0.9973474424998869  0.0006339280855349
  0.7985055098295804  0.9993820102868692  0.2003512603635675
  0.7994527847774650  0.9985506111881445  0.3998944311239064
  0.8000941001179839  0.9993354219679358  0.5988177537199693
  0.8005185051327155  0.9984772582519573  0.7999298146559407
  0.8048414158995579  0.2018558213723651  0.0005233166164467
  0.7984075469512416  0.2004709787000674  0.2003170001327092
  0.7998227035724563  0.2016575090263593  0.3996584117146746
  0.8006256311718870  0.2003480392553484  0.6000216877323166
  0.7955029513139997  0.2014145337000643  0.8000185222363295
  0.7984872034598357  0.4053917071971708  0.0006695564910943
  0.8004236967177607  0.3990919996939527  0.2001752898461064
  0.8003653079799274  0.4045871651915775  0.4002134769292522
  0.7998369390832882  0.4001605161841930  0.6001244830225981
  0.8004789887572847  0.4010298994431500  0.7985199065573519
  0.7996231867929341  0.5998038220472164  0.5994624050131852
  0.7991869878916743  0.5998560687881680  0.8003446717679843
  0.8007115879453065  0.7955234476577530  0.0012168568826011
  0.7995755303639241  0.8008516702311669  0.2010694454762570
  0.8004046583970617  0.7954338448107038  0.3997969058736264
  0.7999914911760632  0.7999045572860496  0.6004613276136502
  0.7995160517125750  0.7997986029580939  0.7989973659355606
  0.9989010503968215  0.2003907994139920  0.1998889914960043
  0.6000222112566405  0.4002031000513008  0.7999419096825158
  0.5995841345061206  0.8004732643755764  0.2005009621146273
  0.0002338599856114  0.1958935222719480  0.9979033635008971
  0.1969601515825375  0.5980961900639600  0.4015254719239696
  0.1989413349698650  0.7834591911590290  0.4027390023402412
  0.3993404417320934  0.6055011327974481  0.1998904851317276
  0.6003444244423598  0.1973420756222883  0.8010933963516681
  0.7986346613624047  0.6001153577410695  0.9946898265192035
  0.7998967367992825  0.6002761515962044  0.4051781528968131
