Zr Ti V  W 
 1.0000000000000000
    15.3687751858679373   -0.0034047973547748   -0.0004629384474201
    -0.0034058626285429   15.3762737440467472   -0.0028872120149207
    -0.0004620936853672   -0.0028876454386987   15.3933118945991367
 Zr  Ti  V   W  
   2   2 106  14
Direct
  0.8026717939926703  0.9910492297979405  0.7966826442889724
  0.8183428361844415  0.3893407708223277  0.0148603312857005
  0.1952159058175678  0.4029818267823046  0.4009540480032396
  0.1991063781234581  0.7943810183120280  0.4069943472988881
  0.9995495993690922  0.0032683402808493  0.0014860128968688
  0.9996561718741012  0.9993833582470492  0.2006129865271090
  0.9987123349125017  0.0001856227145750  0.3988372177534599
  0.0012318652302754  0.0017790136971128  0.5969846287817229
  0.0051340352641138  0.0013642337271977  0.7991543295009972
  0.9954658733544244  0.2027773531362898  0.9993749499883893
  0.0011364145383415  0.1998586380526430  0.2000470366170366
  0.9981779048025339  0.1990985114007551  0.3991362524692804
  0.9998282473132448  0.2002723105998128  0.5994288838209533
  0.9985250040585132  0.1996455443475655  0.7994654410262614
  0.0149636041636479  0.4002285801528846  0.9990194362339362
  0.9947048868715203  0.4005148694843599  0.1993640354372303
  0.9965077988292298  0.3990648861046399  0.4003205695323693
  0.0031411919618002  0.3995742272897587  0.6009322343070356
  0.9970861814735364  0.4016669032229693  0.8015004157847001
  0.9992408690169624  0.5992367731541502  0.0002380909848341
  0.0040040019963427  0.6015476630783945  0.2006469524300529
  0.0017159015797862  0.6013562731105337  0.3991857002434830
  0.9982560194238346  0.5997352984686630  0.5980934648464937
  0.9992297378380497  0.6009401367988900  0.7982004652063061
  0.9993014582441880  0.8017223343787163  0.9999797604045716
  0.9979796643446536  0.8004526866579063  0.1982128079959494
  0.9958470505770716  0.8018512766309611  0.3999212680003418
  0.9998160896088164  0.8006531871385349  0.5991074675854712
  0.9996963092410941  0.8007787950257064  0.8002680733586096
  0.1986424795147602  0.0020361150220141  0.9994641384936650
  0.1997071480845384  0.9968604647052762  0.2006649805892560
  0.1986747554479980  0.9996204002097906  0.4007028928449305
  0.1997298974622166  0.0009360288824322  0.5988606355895337
  0.2004855365031217  0.9956501828819841  0.7992881622713343
  0.2006311814037280  0.2021892999141916  0.9994371475154160
  0.1996711609950405  0.1990437209666356  0.1996089412633743
  0.1990337217452343  0.1986678041480558  0.3983955761528433
  0.2026632251858490  0.2048913007866336  0.6000837176706010
  0.1984218805645350  0.1986781581523148  0.8007385865186917
  0.2990048187183489  0.4021886773141579  0.0981419454025913
  0.2003707981366442  0.4032880474695684  0.7988037815787653
  0.2002750825247268  0.5963730147376349  0.0031256168447288
  0.2010675730957572  0.5957442896846046  0.5950728096521117
  0.1991195831879997  0.6045515172801481  0.7981078330034200
  0.1987530381185656  0.8001559963482952  0.9953037192746815
  0.2037753955966341  0.7952485979488487  0.1947888750034742
  0.1995456341408200  0.7988766714415142  0.6063148072620271
  0.3988899579784229  0.0019102266705358  0.0001623714591288
  0.3977034242518360  0.9948942606893332  0.2010128406422018
  0.4030564294352248  0.0000937074969918  0.3991775141884158
  0.3987378096841466  0.0035161574807519  0.5979372824228035
  0.3997232017274766  0.9980676521352893  0.7984170002563428
  0.4019378085334723  0.1960952371821651  0.9999867420096414
  0.3973464867397010  0.2017303402921863  0.2008632705289695
  0.3997496541966996  0.1989911916250679  0.4026503749091568
  0.3979607797125090  0.1982345625261196  0.7963833473586357
  0.4038835667685278  0.4014280627405202  0.2032819444837059
  0.4025717541150717  0.3992448023760113  0.3985245520491881
  0.3953199074530803  0.3955117934936237  0.5999745741889936
  0.4024649465102463  0.4015091097261613  0.7979335783297588
  0.4007012846479328  0.6016345055207368  0.9988290776191346
  0.3967164722811122  0.6025467432581789  0.1997787937629280
  0.3959108757446462  0.6017206153731294  0.3995399282714495
  0.4024721347256290  0.6008643132859592  0.5967444521011815
  0.3993941427452775  0.6018134584268497  0.7996684290808729
  0.4010440982017261  0.8014253418193402  0.0016462232597421
  0.4014555770210795  0.8019672594573758  0.3953915440136636
  0.3991177334617628  0.8017410103244331  0.5989320834692053
  0.3963262611128985  0.8008697525742654  0.8009808594762504
  0.5997683873854678  0.0060431089329878  0.9997301778999579
  0.6000413727295748  0.9967340756091989  0.2041355211346235
  0.5985692120266316  0.9993935776793756  0.5953166699201374
  0.5965748520292600  0.9989491602891295  0.7981871271643937
  0.5973620483482992  0.1987435652921059  0.1959996077205303
  0.5998853623406932  0.1966827946087338  0.3984368267403333
  0.5948676545757855  0.2012654649824714  0.6009095363777286
  0.5988365692841564  0.2049998624086239  0.8038415135113930
  0.6008179668796394  0.3963856025742839  0.9961720980526486
  0.6023682933963674  0.4030755983351165  0.1988528751487157
  0.6002599683433429  0.3995849422564672  0.4012967299945204
  0.5990792331127358  0.4031814974189911  0.6043382668582885
  0.5989825456665056  0.5967676138920422  0.9993207501608947
  0.5987022350835834  0.6038564771930982  0.2015114202756370
  0.5991435023349282  0.6000586548304263  0.4035271531990408
  0.5990681024964457  0.5979107953757727  0.7950271450116724
  0.5998806057687704  0.8014463757420967  0.0025984260188960
  0.6011289179694976  0.8037171952901494  0.3962939344031798
  0.5981381460865554  0.7963819693336899  0.5995922120241721
  0.6020616353299648  0.7993712629215981  0.8018718253043247
  0.8002869451514498  0.9976009938729372  0.0042720164082488
  0.8007840854543453  0.9980161977082475  0.2009511091572205
  0.7968254431218976  0.0000880869581390  0.3985070588361168
  0.7995464164039690  0.9999245187784771  0.5941100491508797
  0.7934523421257320  0.1900267757163396  0.9990148563322215
  0.7989258423624418  0.2036917472745728  0.1985970234305229
  0.7986473228788440  0.1992040817442173  0.4000233672027448
  0.7986730482187100  0.2002810737700162  0.5999649015983085
  0.7989498460804015  0.2002724305876206  0.7997268539997420
  0.7994079857572414  0.3990364488823110  0.4025353112918241
  0.8010549482898522  0.3992559406331158  0.6005446526471679
  0.7972626544942762  0.4010477378273726  0.8011708073580825
  0.8008560735836615  0.5990140317254160  0.9999671073799510
  0.7997393697216422  0.5968155217613105  0.2001229041870124
  0.8015409435994630  0.6008787558412950  0.4000619113672908
  0.7965047959408086  0.5991117800210224  0.5970746651765765
  0.8002896160140458  0.6003603486939147  0.7996272309900246
  0.7992424898758672  0.7986873369985362  0.9973877055699151
  0.7955241907230610  0.7966094466418708  0.1978106204059055
  0.8001690476022688  0.7991881105756350  0.3991460121445936
  0.7995287911106067  0.7993019090506263  0.6036090058565614
  0.2033715564994178  0.3991866462569820  0.9946541261615913
  0.1998080664047240  0.4006569314256477  0.6033334765316317
  0.2002930652698600  0.6033808138909349  0.2030976974641330
  0.1988451148953386  0.6001036299563813  0.3977260914535943
  0.1987670224346973  0.7987850557508711  0.8004892279603545
  0.3987042598132167  0.1990764339360199  0.5995629478088962
  0.4025706430699863  0.7998260831075598  0.1980623068684728
  0.6010232037492347  0.0001016531457749  0.3996968698591267
  0.5977662780423799  0.2023231425398505  0.0003036645506762
  0.5999377988612400  0.4024781058727320  0.8017914207516164
  0.5978311872901489  0.5997436760531213  0.5979389784733078
  0.5973874549010865  0.7991525484356301  0.1983888505771338
  0.7988922662653390  0.4013857525939407  0.2118982486467783
  0.8006343066888010  0.7923284845481229  0.8008649709353763
