Zr Ti V  Cr W 
 1.0000000000000000
    12.5418789698945599    0.0480652054988747   -4.4557759185112511
    -6.2079442305085726   10.7977698671721498   -4.3954937987276477
    -0.0256764456498564    0.0294842192000052   13.2948820674557737
 Zr  Ti  V   Cr  W  
   8  15  93   5   3
Direct
  0.9944154990289572  0.1948630287028250  0.1564094612021140
  0.1979279883011788  0.3867694764868888  0.3927861603591627
  0.6021248092851000  0.9956987840232399  0.8012468723979258
  0.5987025436900193  0.3987271859183248  0.3982989717142691
  0.6031022821062736  0.8110578739368051  0.0139582986673983
  0.7940713055955021  0.9965198091837751  0.3939435784380702
  0.8167393296962592  0.2153398203393607  0.6135576012453907
  0.8042559067922620  0.4045715702077985  0.0019453534209364
  0.9980233786678896  0.9912633205882958  0.7878693092586759
  0.0075960392583507  0.3111994435775917  0.9968342172519257
  0.9923118923684556  0.3996777318882230  0.3980352612651737
  0.0036325163381879  0.5991306398243776  0.0050344783949204
  0.0022605832941965  0.5776314104230098  0.7940087260127143
  0.2029257485302230  0.9978205946532896  0.8003811183807542
  0.1856081899841502  0.2052903841428195  0.9974773142712199
  0.2207754676139909  0.1967011918584507  0.2052419409669894
  0.2018070530047326  0.1980639497716901  0.5986275144901334
  0.3979213833267057  0.1966438453545958  0.3987341140211215
  0.3998069652078004  0.7979578915266256  0.4000013162496303
  0.6084136236916596  0.0071102449242325  0.5945131540146867
  0.5953409924217882  0.5946128624373243  0.0022139303660302
  0.6065574886144591  0.7808985965356768  0.7938125674042676
  0.7992901298292987  0.6005684328496587  0.8015647177420637
  0.0028831978571497  0.9863292387972465  0.9969086981172164
  0.0034508310725399  0.9904070628867848  0.1992079239616756
  0.0021007193706079  0.9917689675106571  0.4007778497388426
  0.0010804795840754  0.1932585066395327  0.4033187126495364
  0.0135063854462847  0.1995127216001593  0.6055711016097152
  0.0090866322092714  0.2065188728968909  0.8010745994557307
  0.0025124074660696  0.4203672097464602  0.2022323780059870
  0.0064750591125200  0.4043178216315287  0.6051430136868496
  0.0075556934226168  0.6197789108151045  0.2178459731046249
  0.9994523060894225  0.6077121605865897  0.4040720077759618
  0.0017128219419856  0.6009930313800387  0.5977813671188508
  0.0065179160434909  0.8012192967503421  0.0031906195144741
  0.0013668835615051  0.7989106834611679  0.2033019022333002
  0.9981164458975849  0.7984952083817212  0.4020562277011433
  0.9992146432240691  0.7981613191496354  0.5975392225602361
  0.0033285097436130  0.7938325850050889  0.7997400790262229
  0.1962526540517835  0.9908627036714659  0.9998616953832766
  0.1946294371687951  0.9843503002222792  0.1943809796127457
  0.1997796590352286  0.9962660740616227  0.4009343885085344
  0.1944049172333177  0.9933620597542320  0.5985431457253076
  0.1914330852037725  0.1755292522041800  0.3945407874646338
  0.1959247209579221  0.1968284535828126  0.7955087060962061
  0.2161312949290358  0.4141212487021438  0.1928164511655299
  0.1973235526015211  0.4028147500195764  0.6091557318446618
  0.1919666837555676  0.3986745058391078  0.8016720119067934
  0.1995059696041253  0.5923161044505639  0.9952725901321594
  0.1973600311436583  0.5991202540950739  0.1955221938085218
  0.1995198814118763  0.6027530253669852  0.6051341746468205
  0.2080787457055489  0.6026000393162936  0.7995519575991458
  0.1981108676045294  0.7940054138150527  0.9992269507240650
  0.2057705985872302  0.7986619598711063  0.2045021835595741
  0.1991695576333093  0.8044041955234029  0.4050990719994787
  0.1981020830914033  0.8014764137212631  0.6046134911271617
  0.1961090962158959  0.7929146994204188  0.7974159816821226
  0.3910515808218241  0.9959534833064807  0.9951881825557107
  0.3942353198011248  0.9957698092899876  0.1973088294668758
  0.4006221233064056  0.9989312092895859  0.4012243506778473
  0.3945945854270317  0.9976956950140400  0.5991581200808772
  0.3936706182485987  0.9975803631066547  0.7965513001275234
  0.4012020064281837  0.2029719009576922  0.9964867332121253
  0.4040264441442064  0.1861506522425176  0.1794863706033653
  0.3997885906388972  0.1971664631314441  0.6024971968321795
  0.3934306504870057  0.1947305254243322  0.7989369776251654
  0.3945567290402838  0.3979927876660921  0.9977033416222024
  0.4046286075267312  0.4027955852719421  0.1977127417535376
  0.4126129186908836  0.4179946092215487  0.4078312688562359
  0.4004644394566067  0.4004980644245416  0.6055308061717370
  0.3940700670837291  0.3979037039829997  0.8019303345589311
  0.3920713030275021  0.5966682109213228  0.9977457401604332
  0.3986161120134306  0.5986026526690419  0.1969013519790830
  0.4032534447656083  0.5983991260687160  0.3984920447193249
  0.3965756047748877  0.5926434002461809  0.7981205042528752
  0.3868776611030407  0.7995123621030672  0.9985995041260319
  0.3931741748590751  0.7957581726655750  0.1919357649187938
  0.3884664550863783  0.7905704686630223  0.5977962804414905
  0.3899262218073485  0.7992083299500327  0.8017040342675132
  0.5893431333172641  0.0099632447610123  0.0080426850679687
  0.5893017547018811  0.0034785347104885  0.1967509570577612
  0.5779723819131933  0.9909627435264343  0.3803912758571186
  0.5926696525945803  0.1988361964281688  0.0009049396358889
  0.6002980063549146  0.1899606369883487  0.3930193993887607
  0.5884997928513140  0.2032340914333245  0.5973921846107926
  0.5879390300029970  0.1975183704175435  0.7929840104226987
  0.5886131095292096  0.3926851289973360  0.9995262179291180
  0.5959087065618582  0.3966340311227387  0.1897797021824789
  0.5948255041141690  0.3979614403357875  0.6070295491378708
  0.5975491145400671  0.5965845275823212  0.2028049437711947
  0.6013480553625238  0.6079649259758088  0.3991017289320042
  0.6026870217953940  0.6022448404887061  0.6046119622478844
  0.5821965041757436  0.7828840287660270  0.2018538700564295
  0.6041298436883994  0.7999589297008388  0.4013252059931997
  0.5984039990830814  0.7903214413501740  0.5863248451581764
  0.8001888431136641  0.9874601449598990  0.9988533025001944
  0.8161177530855434  0.0126277281135692  0.2044504345028952
  0.8189386685283571  0.9945078707896371  0.6131346091838823
  0.8261294958463139  0.0190402315262432  0.8184608417277410
  0.7936005434473793  0.2019086360820363  0.0104871007764430
  0.7820543894268235  0.1972082210690179  0.1949226576332218
  0.8031363675000682  0.2119725037638677  0.3912410831921964
  0.7976078869213472  0.2022138929853180  0.8086477710838137
  0.7967592907448401  0.4049855779184369  0.2082618503178158
  0.8001865401014183  0.4012920105318129  0.3986073781031157
  0.7936224252170504  0.4055967844750117  0.5946115024969847
  0.7895401845658317  0.3894254491106029  0.7845120049386463
  0.8027889195266399  0.6169243218021300  0.0128239366484578
  0.7967026842262925  0.6028075105275981  0.2033680540061122
  0.8015735434567318  0.6007003750827028  0.3984644946804922
  0.8131577587551784  0.6108630690630705  0.6052218901473798
  0.8088210948402416  0.7972389908637405  0.0011926143236456
  0.8040116401313769  0.7987746845778722  0.2058465837128864
  0.8037944533625265  0.7946374393454156  0.4030744929310724
  0.7991457653726841  0.7917285078791828  0.5916663262616320
  0.8128350813458624  0.8064376538742383  0.7987731409768453
  0.0055731071643034  0.9984638333164852  0.5979551085142384
  0.0108123873263238  0.3970534246695313  0.8581854198953477
  0.2105413677000187  0.4062946107781810  0.0009027346918465
  0.5934385741014520  0.1976814341144603  0.1954951936948555
  0.5944265883657411  0.5916130641742232  0.7996851297756358
  0.1991078958321481  0.6051304197751248  0.4004718061952381
  0.4004539317551261  0.5991560442860431  0.6032966855329077
  0.5949516502938376  0.4025432390064110  0.8018164522934991
