Zr Ti V  W 
 1.0000000000000000
    15.4529206753737594   -0.0089219929548298    0.0139355642811389
    -0.0089343212131673   15.4627799901828133    0.0191221628419376
     0.0139437596884260    0.0191164033920139   15.4587375740632638
 Zr  Ti  V   W  
   8   6 108   2
Direct
  0.9906687809452493  0.3873206738625404  0.3662631833337705
  0.9975926003544213  0.3860226920930580  0.8093939232632568
  0.0317687510472879  0.5962449416672497  0.0030636356348888
  0.2438285966783973  0.5991690733395525  0.0014300378374121
  0.1989369337765565  0.7980313918859385  0.6037119104808717
  0.3997408248115091  0.2015934568137228  0.4022564783039574
  0.8154691576680814  0.0208639510320345  0.0142463962133721
  0.8077147799603588  0.3988799247239788  0.5961645045273838
  0.9843261093643924  0.1977106636474731  0.9754672311037436
  0.0064948776736479  0.2125415273167292  0.1916240876161747
  0.9996762794841586  0.1802533213771295  0.7837976574584182
  0.1916898305503746  0.1975363707870716  0.0068093104197291
  0.5907077027417522  0.3995066948292527  0.6010616548862235
  0.6119783110724571  0.5991897916716681  0.0016724343375385
  0.0130014795286248  0.9978141051788162  0.9977206308327464
  0.9976201199433231  0.9996053990062073  0.1965503881601395
  0.9992272302341699  0.9968590138209791  0.3985289372398896
  0.0007100345518755  0.9988929014890787  0.5987209643456113
  0.9996153839903998  0.9901267804633733  0.7986948528399461
  0.9986755846925794  0.1911019464942835  0.3972466128562994
  0.9993517114974335  0.1998203741859590  0.5914986369050437
  0.9978508912923535  0.3934823345367053  0.0061252281489212
  0.9979133496504963  0.4115257211414785  0.1727090843558771
  0.0094311505541726  0.3981361116452483  0.5998425867396069
  0.9979701932319972  0.6034023561902118  0.2077553484201549
  0.9978768455316501  0.6002410131142764  0.4024319745537296
  0.9987928667236455  0.5960239518473193  0.5991965728806551
  0.9962089976410567  0.5989514910259961  0.7974087179569557
  0.9987725431339084  0.8024870784188950  0.0008535389077315
  0.9981437660830094  0.8001100018879158  0.1993199817403752
  0.0010052545479091  0.7987710428553213  0.3995233518065668
  0.9930098745612508  0.7999340130882130  0.5989989681684429
  0.9972194270735549  0.7959730675010269  0.8013457251516664
  0.2030051882320320  0.9990951039719739  0.0024802560493999
  0.1990827401939332  0.0006131937444820  0.2011344497918039
  0.1987239967002966  0.0004431028261625  0.3991611833132687
  0.1993730211107444  0.0034287716579127  0.6000625317614604
  0.1984231758013832  0.9999420565557167  0.8028900491468460
  0.2014284747460982  0.1983041468884046  0.2031790279037219
  0.1944617789218498  0.1997943720922694  0.4024463851766871
  0.1987975569771439  0.2000159855142407  0.6012591419157479
  0.1983179118791357  0.1979298883511736  0.7983380947468499
  0.1996538110068767  0.3977523585538609  0.0017847056948079
  0.1949717511089416  0.3990571863628952  0.2043732346503617
  0.1998236909462305  0.3984942737899523  0.4017255698990805
  0.2011529730901182  0.3974802792608340  0.6026136591113972
  0.2020178478542352  0.3966010068418339  0.8034701269255055
  0.1969115703851466  0.6008129753052301  0.2036980314273847
  0.1990265329277292  0.5973186700890072  0.4030916659981735
  0.1999729688679035  0.5936683234273489  0.6016442421340581
  0.1930913439379763  0.5964550669005140  0.8009287247479280
  0.1969285650306671  0.7990958533209721  0.0028285718400123
  0.1992597294247920  0.8006807795896229  0.2009618453831693
  0.1994545676649177  0.7995827743235756  0.3973338553373371
  0.1986892974994671  0.7986299044090275  0.8069955353099074
  0.3989945066360420  0.0009958713626295  0.0008950963579439
  0.4005028726559816  0.9999560146121221  0.1995085984342133
  0.3987259490282611  0.9967513374569472  0.4003922117735886
  0.3993000137148483  0.9998021482438892  0.6028856240611210
  0.3978441594339365  0.9988638323562535  0.8029680997821774
  0.3981324835359139  0.2047375572085360  0.0001447607304490
  0.3994339168516413  0.2006110035485553  0.1966690398493620
  0.3989180869474964  0.2007868458034867  0.6065232674797270
  0.3987139297691477  0.1987904881515411  0.8029119192061820
  0.3954012072276320  0.4012717992208646  0.1955053628447434
  0.3969081497531798  0.4052441219046036  0.3969682433747028
  0.3964094451545030  0.4003011178270891  0.6052876889506014
  0.3968961645182628  0.3999918099149146  0.8075889027518354
  0.4302501396803635  0.5945291933604232  0.0013049592292042
  0.3994596780744584  0.6008247898805990  0.2018133402741051
  0.3989484214361823  0.6002093315965982  0.4023476081794360
  0.3995435541397406  0.5983510903680639  0.6026848880520330
  0.3990140048929785  0.5996381968178254  0.8022054886782921
  0.3991709743884632  0.7965498156167495  0.0019313576081410
  0.3993016907721672  0.8005883023674748  0.1996172368617201
  0.3998271506990261  0.7982766599046711  0.4003498138178788
  0.4035402269208292  0.7988059435057336  0.6031648899212227
  0.3984923194318858  0.7987841354485861  0.8032256431283163
  0.5986316231241435  0.0021406587394939  0.0008905635173755
  0.6032919686766156  0.0019373135285834  0.2003938884597773
  0.6010601462465759  0.9991614979422595  0.4018905524761419
  0.5989400734253858  0.9999577996491683  0.6008164167668070
  0.5999732147952516  0.0001734737400532  0.8012291604711339
  0.5964816866055161  0.2000193981541912  0.9987315021335972
  0.5988923627107521  0.2014646713866526  0.2013705014940620
  0.6039696257419466  0.2010914560749878  0.4005499062564762
  0.6009364988806463  0.1975603706170721  0.6010541659050481
  0.5984375519099804  0.1989003315098783  0.7990177693653576
  0.5932670766395827  0.3966093761713808  0.0021677065709786
  0.5973315746311790  0.4015323410459106  0.1992209566454771
  0.5948478922990625  0.4003049260050254  0.3970730926913139
  0.5955903022877297  0.3998745775610265  0.8039922582439732
  0.6011683615937249  0.6024160528007938  0.2056379308847133
  0.6003302561810159  0.6018092807495619  0.4022047270898521
  0.5997712756392889  0.6020362188964236  0.6004406693643529
  0.5997549556717454  0.6007606828956045  0.7967679954859356
  0.5995074845734875  0.8046094049632903  0.0004478395875991
  0.5995100633126627  0.8014584265269649  0.2008549638664701
  0.5979167232566831  0.8003436599853820  0.4008093647836335
  0.6006739172266795  0.8016999043196905  0.6000150306869851
  0.5980310734368625  0.8002522403984318  0.8023610116797680
  0.8010733063128186  0.0048759739985475  0.4001995880491655
  0.7998791524230646  0.9667195661641863  0.5663425324219362
  0.8000836766578484  0.0008322153615441  0.8020930005042498
  0.7896955769228022  0.2151254696328683  0.9967389422881149
  0.7970251535379520  0.1989834592729335  0.1944837535421129
  0.8026636321745074  0.2036647384533118  0.3985383023639671
  0.8006308514455794  0.1969893228846116  0.5990132020375729
  0.7954306252550407  0.2008517685113660  0.7980373606244074
  0.7955374999690629  0.4064547562670184  0.0012221031651651
  0.7987082637536296  0.4022882654378652  0.1972715244725236
  0.7887507260301092  0.4000498498971951  0.3921845602803095
  0.7908592595816381  0.4020269792240586  0.8035140975887661
  0.8079066547854814  0.6026992118642313  0.0004853196762100
  0.7991680070866528  0.6063069777236241  0.2023257129159070
  0.7994102026302484  0.5951428293610833  0.4019155289126466
  0.7995000726217781  0.6049822896818988  0.5995661037639803
  0.7988442007811681  0.5997402089110914  0.7999820551026258
  0.8001649149849241  0.8027218936038929  0.9992461506090453
  0.7988642030188561  0.8067902631265499  0.1962059878630646
  0.7981535601827433  0.8009224899374016  0.6027716744165078
  0.7970288132060050  0.8018011233267307  0.8018562250053852
  0.3949530739465013  0.4017080524902406  0.0023517386415114
  0.8008043474634924  0.0023330098285478  0.2124885081717185
