Zr V  Cr
 1.0000000000000000
    15.5277836321495606   -0.0011014415353407   -0.0036444284316418
    -0.0011015311309700   15.5268057001839015    0.0012045176117796
    -0.0036459540422085    0.0012051907892001   15.5242636607114743
 Zr  V   Cr 
   5 117   2
Direct
  0.9992266363613900  0.1993814565507711  0.3995842259346942
  0.9905777479060680  0.3989117044341038  0.9939023468484774
  0.5997583363419612  0.0002751205468630  0.9995569581321604
  0.6006465634869552  0.0002702929616611  0.7748083147597646
  0.8059422699085388  0.3981468703781302  0.8094273850489198
  0.0010045186370524  0.9976230406181665  0.9987777918110161
  0.9999655736261428  0.9989086725647824  0.2001081608654155
  0.9997726843617016  0.9951448073649269  0.3995607678028951
  0.9998652644719125  0.9978554608292636  0.6005727723506438
  0.0018089550388221  0.0003367417031421  0.7991097303583587
  0.9989979269279373  0.1945824704679265  0.9989561163110890
  0.9992340956814036  0.1996409743980019  0.1956657680767366
  0.9990705582152545  0.1981890481770438  0.6028490626972421
  0.0024703111187494  0.1982561680163110  0.7990813813413328
  0.9996197243950398  0.3996141482946064  0.2015792812554120
  0.9997730932187295  0.4043224902264971  0.4004448676163824
  0.0007175087078288  0.3983998439099712  0.5979673646675454
  0.9989153608127463  0.6048340505039284  0.9991803267974384
  0.9993627674955422  0.5993949437965415  0.2000570020488132
  0.9994136037843184  0.6003014564380119  0.3995994857698422
  0.9999993925192129  0.6668990600829819  0.6662982996374253
  0.0019651352961400  0.5995036656344574  0.7990340046134226
  0.9991166600731449  0.8000640518594965  0.0015672595831431
  0.9994194024826509  0.7996720763807743  0.2003468834834484
  0.9997493368811319  0.7979770851085061  0.4003629349132472
  0.9991390505261071  0.8004798247778745  0.5989049200998031
  0.1981837230718606  0.9992915928445142  0.0006371712744193
  0.1989456339067467  0.9999129891153490  0.2004274879874473
  0.2005427912849276  0.9987497735260407  0.4002666952401889
  0.1997116924385883  0.9997124815182988  0.5989567368301965
  0.1984308537007336  0.9985978805606895  0.7991953201396834
  0.1991039017139258  0.1999291009988838  0.9997458063814468
  0.2002138563433860  0.1995107926384174  0.1992697274097965
  0.2041447420086843  0.1996735162812228  0.3995790754778190
  0.2012767857301956  0.1990944268551329  0.6009355584590625
  0.2016181936046807  0.1991337750647978  0.8007456313709667
  0.2008274282471436  0.3994512026848928  0.0008327239182079
  0.1989235502574655  0.3991331670804186  0.2004295608228280
  0.2009173826750058  0.4000738858927782  0.4000204652091877
  0.2006197965581289  0.3994042776786020  0.5988117983642476
  0.2027329749819882  0.3993047208587510  0.7989977913409472
  0.1990802999356429  0.5990672992243187  0.0003686825173718
  0.1993070808344784  0.5993198085962675  0.2002316608111977
  0.1997106061225282  0.5998266125235213  0.4006583589906025
  0.2004793767179430  0.5987302478630955  0.6004512444618381
  0.2002698586062417  0.6007622051612569  0.7999052834829057
  0.1988260344858173  0.7994098095847375  0.9996984932998700
  0.1998682384943902  0.7994780786432932  0.2004193607150329
  0.2003971173181088  0.7988216595721102  0.4000471216384469
  0.1991881627516792  0.7995582928620987  0.6009600242223354
  0.2018896256236299  0.7993932667458397  0.8005266055970085
  0.3941621784835995  0.9994771937624027  0.0010358816682714
  0.3986428448061883  0.9997695035854904  0.2006854248795705
  0.3990336048193772  0.9992685166472774  0.3996279557810674
  0.3997351718649128  0.9996518125888917  0.5996306895042077
  0.3956452580947106  0.9997472793304721  0.7999923188514821
  0.3997102959921297  0.1994163231554648  0.0002581150792764
  0.3996485595917922  0.1993519355469165  0.1994619244483436
  0.4010286565867374  0.1991334605727746  0.4004346123987231
  0.4008308463845133  0.1993072887365554  0.6008421862664749
  0.4001150374614325  0.1995027167512312  0.8015172414282670
  0.3983893663785639  0.3996176660810753  0.0008845430844067
  0.3992923596330474  0.3993843625744070  0.2013352628524246
  0.3999121895204447  0.4000601512650816  0.4004277934195143
  0.4007052265967732  0.3988113184289048  0.5998414956704261
  0.3997560884365281  0.3995957378499005  0.8001909763688357
  0.3992964458737747  0.5997892529975819  0.0006570004875757
  0.3992786647427765  0.5995318616285024  0.2006517275447947
  0.3998291579022052  0.5996431875697189  0.4003265233501523
  0.4006788026533949  0.5999038434982141  0.6004070870330314
  0.3999989646565537  0.5992501409071126  0.8008096539538803
  0.3993522004284706  0.7995358653608383  0.0007971631302370
  0.3998912649881862  0.7996590240337221  0.2001958822950269
  0.4002790795267414  0.7995266930666993  0.4004706533600880
  0.4003370696522819  0.7995367600661031  0.6000867372477633
  0.4001370480988865  0.7997329529971892  0.8011062907356908
  0.5994722145689235  0.9998957355437180  0.2040366743790987
  0.5991557038841825  0.9993672852132488  0.3972008503078024
  0.6001358839522755  0.9995798665506075  0.5845028739018042
  0.5988626656136025  0.2050145274406647  0.0007400461085615
  0.5991461440692954  0.2006010292903294  0.2005850863358890
  0.5985920348215170  0.2007306969385630  0.4002565920498358
  0.5998292567676290  0.1992679178727865  0.6005983759056961
  0.6001869026987114  0.2048988126686225  0.8005431785857666
  0.5951576837716602  0.4014566850802235  0.0018100262176252
  0.5982216520632512  0.3999242130744584  0.2022822038141700
  0.5987783954819829  0.4000082347809194  0.4009396213001113
  0.5999029897592082  0.3996856523027081  0.5999845416060139
  0.5980362703429226  0.4009913263395075  0.7993927752538699
  0.5988754430715394  0.5985615010999811  0.0005194031083938
  0.5992503012985709  0.5990146512855975  0.2012854809664179
  0.6000404031022910  0.5991843349123502  0.6000634890355986
  0.5997990399626283  0.5981674047921715  0.7998920467820981
  0.5991118569332083  0.7945283779355478  0.0013582574291566
  0.5993794102263931  0.7987431046747485  0.2008641241442440
  0.5993751888269495  0.7982256341214076  0.3997781715637868
  0.5996053433824509  0.7993515850394831  0.5993458485781902
  0.5993593986444385  0.7952116585627360  0.8001057660458838
  0.8048677354267937  0.9986461526479432  0.0016639927473461
  0.8005486404360344  0.9998552971068260  0.2007840640768982
  0.7998394668173705  0.9986411810523758  0.4001845222989810
  0.7993822437493862  0.9994916157749302  0.5998944704948986
  0.8067297020991090  0.9975229019655751  0.8005833202268284
  0.7980435527135522  0.1978991525178417  0.0014000210466856
  0.7988149027822741  0.1989917265592032  0.1999983706165717
  0.7945766156213500  0.1988504661042594  0.4003144779617930
  0.7990226995628347  0.1992984250911637  0.6017671564474399
  0.7999114297779605  0.1944273569331307  0.8021176892743920
  0.7882542102274003  0.3997351120323515  0.0121174493284650
  0.7984903811130774  0.3990963613484229  0.2049537687981343
  0.7984686686721781  0.4004040846966643  0.4013585841876873
  0.7994171657553506  0.3993293728786823  0.5990663695005546
  0.7980697820333901  0.6008790937431262  0.0020014875464109
  0.7993735876714495  0.5998512248909122  0.2013506550631421
  0.7995028428300801  0.6001349241889227  0.4009954265081438
  0.7987621593400718  0.5993292481458099  0.6013612448607831
  0.8014025924629301  0.6046268779314411  0.8008216981944533
  0.7996511578041796  0.7997456272716540  0.0006496161230822
  0.7988948539504191  0.7997656791161452  0.2009846049318975
  0.7983032680810426  0.7994161525207342  0.4005265354871259
  0.8003961307436439  0.7992470871984407  0.6008172523223885
  0.7979458646771245  0.8003289119436759  0.8017184760905927
  0.0080250770212422  0.3993342587574911  0.7922357202414387
  0.5993799010636046  0.5994804422932886  0.4009073505321794
