Ti V  Cr W 
 1.0000000000000000
    15.3720038313806135    0.0023998420144863    0.0001449001601191
     0.0024007571799185   15.3633006247875361   -0.0006442210894229
     0.0001450310074229   -0.0006449824026597   15.3697544548857330
 Ti  V   Cr  W  
  15 105   1   3
Direct
  0.0054892227728287  0.3935878969685779  0.6012485097788051
  0.9909645231618912  0.8010004329830942  0.2040535483119627
  0.0091523130485202  0.7984228168925064  0.6027552422760789
  0.2008727184519021  0.2025114991913227  0.3935939014870899
  0.1968704603544843  0.2046526398900354  0.6051943522925868
  0.1983912399163508  0.3888181362299425  0.1988917103243961
  0.2021769861384193  0.7971874682018140  0.2012511786472863
  0.4067627115698492  0.9963958179550719  0.8061166367560013
  0.4021292220154474  0.5991033298941919  0.8011074854724893
  0.5940245106338089  0.9953770371779319  0.9945243692855784
  0.7916441266371629  0.1979619814685400  0.7952153513769458
  0.7992982647047584  0.4043224626270734  0.1930959170800606
  0.8018020651536436  0.5933723796121045  0.0028936411212989
  0.8067657514302676  0.7978980821114977  0.3919875440848197
  0.7986393642464507  0.7968970099754261  0.6046228539311698
  0.9996733667636368  0.0015929127271979  0.0007914957278277
  0.9985796395338619  0.0021563061007972  0.2016216369238238
  0.9981496564377071  0.0000535311339764  0.4008570194210766
  0.0003678057273485  0.0006376173422000  0.5993111983513367
  0.9997383945382066  0.9996616747266367  0.7989994000604586
  0.9975747995475382  0.1995704351366374  0.9999373584960199
  0.9979729865005104  0.1999360962058174  0.2004104186326933
  0.9976506563329032  0.1966613405795526  0.5980995995364075
  0.0018197982523383  0.1991048580631750  0.8007395600100742
  0.9972604995381110  0.3989902484187550  0.0003883822601791
  0.9999206123577282  0.3992529153487292  0.2009597172068291
  0.0000731115866051  0.3985879959402013  0.3977997071393145
  0.0000836733627504  0.3985888157607087  0.8018504213713535
  0.0021776490964933  0.6006158454121997  0.0017659417663414
  0.9995888875141420  0.5976098076448106  0.2016121919210468
  0.0000062237132912  0.5991141795037536  0.4007644391154626
  0.0007977096235389  0.5989587593742286  0.5988213621433022
  0.9993248135220704  0.6001042198595485  0.7992765194288715
  0.9993184088931129  0.7993585902621519  0.9998644230965722
  0.0032251575904252  0.7997992601398183  0.4015158491016459
  0.9992112139604751  0.8003295430552912  0.8028300978606453
  0.1975444964998058  0.9978367332709572  0.0006717044331241
  0.1976851030657797  0.0043662417160880  0.2005689080924166
  0.1992812269469063  0.9992081313417389  0.4006191830126898
  0.2005465523499161  0.9990572028159304  0.6000577557505886
  0.1993582097342037  0.0007262848667694  0.8015018401920044
  0.1988422280875227  0.1981654858244523  0.1664986757051755
  0.2015678547620087  0.1991098857032529  0.8002138306635304
  0.1982540019149586  0.4018170083452539  0.9994714397772100
  0.1992842872911097  0.4021779996546455  0.4045709306156876
  0.2037674111043518  0.4043764150238979  0.6023272803156883
  0.2002844754593341  0.4000071233930156  0.8024980570151415
  0.1989409441072837  0.5996909755536073  0.0008246845220583
  0.1989606020064761  0.6000711924767139  0.2017800781588330
  0.1987136497966379  0.6005941378473018  0.4004407527822104
  0.2005122691888002  0.6020139405694268  0.6009281782847651
  0.1974481548498336  0.6001626769367624  0.7999257165605373
  0.1991469044944716  0.8001225264961941  0.9983224838887119
  0.2006008723298656  0.8007490566901705  0.4036063394056253
  0.2052927345819734  0.8003987899883357  0.6020730962160082
  0.2004164042273099  0.7995882790877424  0.8000570171644072
  0.3939804847041699  0.0012454493232305  0.0046059970034513
  0.3980107640913049  0.0006986142493728  0.2013282225184067
  0.4025792649144880  0.9997554521990438  0.4002511039759186
  0.3998538134107512  0.0001342956911707  0.5985025253429740
  0.4013566033231623  0.2001255462625673  0.9996570007205731
  0.3990696730938578  0.2005869065660652  0.1966483186711771
  0.4019160289469574  0.2007845930873513  0.3998583164485990
  0.4004249698942445  0.2002690632061490  0.5996632599711489
  0.4020985542145655  0.2018186531737821  0.8009806552905075
  0.3977058384772024  0.4003784755564704  0.0009822948822116
  0.4020692335667844  0.3998025414299037  0.2005397605261177
  0.4003692247259634  0.4004041529724401  0.4001186545146489
  0.4013330959060641  0.4012035836248466  0.6003521019674005
  0.4009378652118264  0.3992433728732319  0.8010519405260217
  0.3993908068171055  0.5994079265745111  0.0035768346975393
  0.3993563618879818  0.5997104954139046  0.2013631755895909
  0.3996944275842186  0.6002898568190356  0.3995655236849555
  0.4012363364877741  0.6004129925937011  0.5969879135593962
  0.3991198883028780  0.7995564808582457  0.0005596558933914
  0.4009451993251977  0.8002918842427567  0.1994855420730112
  0.3996881297801206  0.7996311251163140  0.3992344476629424
  0.4008576712713144  0.7994274975556255  0.6014988077220412
  0.4014280047302522  0.7996511450457977  0.8011104633220572
  0.5988574116684476  0.9994293314581086  0.2042223890881515
  0.6010483038019381  0.0000037827174736  0.5940791578276114
  0.6050026026366983  0.0044471178214308  0.7935550194017635
  0.5989705726045866  0.2019509159991743  0.9942765669216141
  0.5990485642216192  0.1994432635303041  0.1976015295606661
  0.6001936803612696  0.1971739179350387  0.4004135623565782
  0.6007783558957717  0.2005097619780274  0.6028169899755607
  0.6043699847389823  0.4014078229654294  0.9995387261031438
  0.5975084918201432  0.4008927063632070  0.1999235889815329
  0.6011572353803192  0.3987421964327729  0.4003290307699658
  0.6009571799998084  0.4009679442568675  0.5998329813076206
  0.6008020816182486  0.3974291574061867  0.7994239244192356
  0.5969183994885682  0.6003608964884112  0.9996035822888778
  0.6000139658757238  0.6016566018559286  0.2017578696148172
  0.6018363941887039  0.6018815211660851  0.4001249627338055
  0.6011664575450670  0.6006147385761776  0.5989590890841142
  0.6034937511343972  0.6009975114465386  0.7988873077515954
  0.5993981690304664  0.7975090193061241  0.9983711091559883
  0.5986862016273964  0.8005109585061495  0.1979885983812025
  0.5989083715721547  0.8043892634646382  0.4001107635732439
  0.5992733360646947  0.8006426594152232  0.6003025399345638
  0.6007697423299824  0.8027010394228300  0.7996046363125304
  0.8012849248935121  0.9995055254864775  0.9992162488027170
  0.7985010261498644  0.0002669598840988  0.1984181122101195
  0.7964829411210753  0.0013846144125589  0.3991124185787954
  0.8021970235079857  0.0000563244179162  0.5981555274355627
  0.8014988670072880  0.9971775172795726  0.7988943561390143
  0.7991205683537314  0.2021422716412472  0.0011387546057906
  0.7976455146113276  0.1988641273123172  0.1983705157064540
  0.7992131315423987  0.2016734145066778  0.3974211119665089
  0.8009262869637623  0.2015527016900057  0.5963393013804189
  0.8003718805106083  0.4002126765830992  0.4006719520856879
  0.8004450639898768  0.3997028928154147  0.6004552400367940
  0.8010227508155185  0.4034690385740881  0.8015684456527641
  0.7990372649028402  0.6039940876647323  0.2031790656073360
  0.8015744802591781  0.5972387691316567  0.4002860992735538
  0.8020823895850628  0.5973895372039382  0.5993876406684192
  0.8009996887056888  0.6009851729831034  0.7975861765787048
  0.7988798365711625  0.8001927284988842  0.9989421642045330
  0.7949670652936139  0.8001157474764836  0.1938262401259110
  0.7998688868328464  0.7990315042722551  0.8028900059580980
  0.9959487000945889  0.1997137172785121  0.3993314453363431
  0.6002030716830282  0.0009437814330258  0.3991776498733796
  0.5977414010852089  0.2007335117423776  0.7970176779994703
  0.8004903631659637  0.3983385883169067  0.9957849794274323
