Ti V  Cr W 
 1.0000000000000000
    15.4533176427851515   -0.0008865403605514   -0.0001136557864103
    -0.0008863085543239   15.4597859856343174    0.0001179633137350
    -0.0001136322034286    0.0001178166101631   15.4536212137375468
 Ti  V   Cr  W  
   3 114   3   4
Direct
  0.2015594859834438  0.7992920439536441  0.8031732441682577
  0.5929712271018268  0.8001204580676248  0.8013323983098664
  0.7980652127007462  0.7967396679964698  0.3997302682277727
  0.1647985493403401  0.1665906982092336  0.9999677641952284
  0.9999851895313873  0.9988333129163178  0.2027574812804666
  0.9992089153653690  0.0000535391445087  0.4002846386723125
  0.9999280865974938  0.0001148248596597  0.5987928925751019
  0.0017000841222174  0.9998142122092828  0.7958058056946652
  0.9992305676750959  0.1984479540745503  0.1968736930441229
  0.9993644253371481  0.2005033632287520  0.3994614129893556
  0.9996028026901976  0.2000104521898494  0.5994815041542173
  0.9992989987305138  0.1988427295648250  0.8027075708080512
  0.9997737995638931  0.3963415518318190  0.9998371597649330
  0.0000321263540760  0.4008938829431635  0.2006324813671513
  0.0001321769381103  0.3999538303270170  0.5997340649694475
  0.9997298047973296  0.4005660808732380  0.7990294078993110
  0.9999814396281568  0.5988965125619081  0.0000924519025959
  0.0001476965154506  0.6002756009121845  0.1999595919715501
  0.9999768530738241  0.5999893978099424  0.4000013218019264
  0.0002298320364285  0.5998571020628303  0.5995589908573044
  0.0012507350872455  0.5990533545741311  0.7992052560553798
  0.0016522045762719  0.7977849924974983  0.0005192202542830
  0.0002880924213691  0.8010165245556983  0.1985029534037091
  0.0003616311731724  0.7999568389180306  0.4001772944584129
  0.9984664940841752  0.8004038337025142  0.8002413864051829
  0.2028031371547679  0.0002205282909680  0.9991172818327496
  0.1987185200474393  0.0001989103919109  0.1989629170759850
  0.1996896349614362  0.0007839936539091  0.4007966694660435
  0.2004320616033225  0.9994461292929966  0.5997188600603718
  0.1993819908994972  0.0019011704339802  0.8004420999582431
  0.2004766911710846  0.2000693192539086  0.1999787698208295
  0.1994992745837448  0.2001766826233959  0.3994265212694084
  0.1999415056937926  0.2004109797686491  0.6002707236630257
  0.2006628253119951  0.2003774874389536  0.7998381886259083
  0.2010413124654836  0.3998690790527453  0.0000443011584288
  0.2004420315066359  0.4004640068383912  0.2002166947835498
  0.1998925622010878  0.3998627920556949  0.4002513596016217
  0.2000675156151220  0.3998949208368213  0.5994682373748929
  0.2004630047443844  0.3997023174678387  0.7996101675948136
  0.1999738883203470  0.5983716948561918  0.9994319430515156
  0.1994993053281003  0.5997181754308752  0.2004001902329371
  0.1995373201395412  0.5991368498884959  0.4005914776443361
  0.2000768384295989  0.6003260905526093  0.6000204204224111
  0.2002870935160884  0.5982625201502715  0.7999492486635573
  0.1987991067545632  0.8007880307223834  0.0020344476641236
  0.2038308937261884  0.7993611766699784  0.2004814152054258
  0.1989725594813367  0.8001343998778494  0.4002700549101110
  0.2000581832201789  0.7998847549615371  0.5984909950543034
  0.3998692771706803  0.0000684944082273  0.9992066217107129
  0.4000473814588067  0.9953658385364303  0.2008615587707273
  0.3997800616723312  0.0003695473348204  0.4006177269168963
  0.4003380934231563  0.9988750286159349  0.5995874658389165
  0.4002472838167542  0.9994285036873664  0.7988486283606633
  0.4043500876130967  0.1997658424661074  0.9999934053084525
  0.3991202303182750  0.1990505006208666  0.1993208494028322
  0.4004204338207003  0.1997797074796028  0.3992113170346165
  0.4006155580599428  0.1994623813722954  0.6003840374925302
  0.3995349287667550  0.2002482389683168  0.8001467489179479
  0.3994531268872076  0.4004421723634585  0.0000415721120426
  0.3996980940186703  0.4019090230510505  0.2004628021637567
  0.4000478183525656  0.4002827332892944  0.3997693955239918
  0.4002003425521776  0.4006498696589006  0.5996255538226292
  0.3999440945988723  0.4006081954957687  0.7992316352564925
  0.4004347317946749  0.5997904222019592  0.9992057283669211
  0.4003688172522974  0.6042238216159510  0.1996126763280692
  0.3999489066439585  0.5997974357407134  0.4006159219379462
  0.4004473882222416  0.6014350129890587  0.6000002743782228
  0.4005075050836526  0.6001209269012224  0.7999215650750718
  0.4010159070019154  0.7998970472739383  0.0039141516136443
  0.4001104900339656  0.7999852448323546  0.3963504537894060
  0.3998433935030665  0.7997983135423032  0.5981529602425156
  0.4002834581889126  0.7998999490595371  0.8006593039824422
  0.6007550929652473  0.0050948343141298  0.0003498218742410
  0.5999580551444842  0.9999468131752249  0.2012976319198730
  0.6006486577046839  0.0016918406156741  0.3998152940462510
  0.6004207969088242  0.0006895145593582  0.5990023842267130
  0.6003758479540747  0.0019733873704344  0.7986699600802490
  0.6002388994235884  0.1995778032885332  0.1963754549005431
  0.6000306017529186  0.2006732465875211  0.3987218730390041
  0.6001943930306883  0.1998749322345726  0.6004936960335653
  0.6008588246969853  0.2003315011351125  0.8033030286965983
  0.6001386645368129  0.3958878269351687  0.0001509116940550
  0.5993602977705893  0.4009271861550617  0.2004648534838530
  0.5998024062498514  0.3990711525547848  0.3996981847804131
  0.5998675097890173  0.3994188255821220  0.5996739107757478
  0.6001549958189247  0.4002413423002055  0.7992186267621749
  0.6007019035909902  0.5974876933713090  0.0002329048356955
  0.6000618848752522  0.5997182715783090  0.1998264476087589
  0.6000821829714306  0.5984322807295254  0.3999343867013817
  0.6001887528710260  0.5998014254461667  0.5996031447415653
  0.6003118733475455  0.5974801163980397  0.7999933554937351
  0.6002762899298114  0.8003735337781644  0.0018044301532424
  0.5970732967405926  0.8004494505269729  0.1997272845959844
  0.5993564577790655  0.8002117546371381  0.4004520585422557
  0.5999710552952365  0.8003651505464897  0.5975021900111059
  0.7974208350421078  0.9996490394887446  0.0000028910726781
  0.8007555723644536  0.9982401706301119  0.1994710789960363
  0.7997828099259404  0.9994110260053035  0.5986691661026353
  0.8012303664720971  0.9950444167590675  0.7999878030936071
  0.7991495770145138  0.1985640792593842  0.9991805149521602
  0.7999788296734798  0.2003949319897650  0.2001780210096983
  0.7998538935828595  0.2008758507952388  0.3992016967506907
  0.7999442721287934  0.1997892402974655  0.6006958155725969
  0.8000865395999045  0.1991530591180117  0.7991404795679384
  0.7996197913759914  0.4015765511901816  0.9992197419800041
  0.7999698790356526  0.4014558789495720  0.2006588475234966
  0.7999194425764701  0.4000480914465779  0.4001856582405870
  0.8000916335645388  0.4006854504623057  0.5998346568782816
  0.8002237436055759  0.4021110068578670  0.7986909726472332
  0.7995279218117516  0.5992650029472534  0.9994385792133693
  0.7998015774156313  0.6012016087242877  0.1993138428036423
  0.8000190275579677  0.5980803399283710  0.4005053374889470
  0.8003171158460588  0.6004251748858089  0.5995913754109178
  0.7996213428178156  0.6045588547968835  0.7996718950759419
  0.8003488062395555  0.8013364112024431  0.9963323989756144
  0.7989367784752821  0.7999563068099069  0.1972800529673962
  0.7998918005788934  0.8002391674824925  0.6049149546624690
  0.9998690158803250  0.3997416873752397  0.3999172184658303
  0.0006837489529794  0.7998408774987824  0.5992395193030375
  0.7997013458511593  0.0021939075616533  0.4000887082288296
  0.9975992803716531  0.2045522812298107  0.9996624603488594
  0.3999078188059361  0.7998128589272087  0.2003187230287158
  0.6002358551577089  0.2009885020127030  0.9999648698283425
  0.8048378787343097  0.7999500728184462  0.8010781418815638
