Zr Ti V  Cr W 
 1.0000000000000000
    15.4486336428758069    0.0121581116209415   -0.0069918741920984
     0.0121590392488944   15.4505015656762907   -0.0015177914306970
    -0.0069892847668974   -0.0015156966616515   15.4491826341844032
 Zr  Ti  V   Cr  W  
   5   8 106   4   1
Direct
  0.0016213265641500  0.9654332367350168  0.9965016548337666
  0.0022283645667133  0.1828924751193274  0.9625088217770668
  0.0113565953602453  0.3833220846472505  0.6028954894572464
  0.6050428733817453  0.4203356442135799  0.3907020887693171
  0.7852190428362065  0.7816652017648150  0.2033803747607552
  0.1913654824206657  0.2087495435722370  0.5912235418517682
  0.1933366910618763  0.2029637570592290  0.8051180344304530
  0.4066496059634093  0.6036348170227546  0.5951401235902036
  0.6010193176624252  0.0046331933431171  0.4031786122367909
  0.6131503637267617  0.6010777995945460  0.2171445224397558
  0.5881380309261652  0.6228977205598416  0.4197846026675314
  0.6030245198829042  0.8058690414886942  0.8052815398194818
  0.8087256639529924  0.1992078077707110  0.8043574719905430
  0.9993555831163159  0.9990053350429963  0.2012336393841804
  0.0007408606061532  0.9979705129459527  0.4006450677996060
  0.9985117328840815  0.9935966191713959  0.5981109193291826
  0.0002729877496501  0.0051632905016512  0.7927063602239388
  0.0002401301685131  0.1984202683723893  0.2010013457383641
  0.0004279376629996  0.1989980354664785  0.3984994911210616
  0.9908078585005713  0.1859097022819543  0.5919390122926554
  0.0005004680664605  0.2058103017513072  0.7658208476105045
  0.0018168478928590  0.3958304574821629  0.0001801433920203
  0.0034034758242924  0.3951760102827364  0.1977073141351977
  0.0033771536743940  0.4011261484165077  0.3961461661550088
  0.0022321835429129  0.4014205116527096  0.8047489490972928
  0.0015744020921027  0.5921737447065256  0.9990587292890527
  0.0019961410942655  0.5972602435488845  0.2018882047784063
  0.0009743978819927  0.5987535186995567  0.4015673071397255
  0.0011904971075889  0.5990056004003095  0.6008451099958003
  0.0024612917010237  0.5995707304803237  0.7984785644408441
  0.9992592616539775  0.7784628769781100  0.0018247773363915
  0.9992424536010545  0.7980578675998325  0.1992814546165546
  0.0004346171518709  0.7987829353380387  0.4003587057765038
  0.9998289972271700  0.7983925710538197  0.6008866935322908
  0.0018382997298909  0.8002930018314994  0.8024710598402685
  0.2017842756675217  0.0025513893207552  0.9997521246174694
  0.1998921383333908  0.0008429892601181  0.1999105043899704
  0.1995242696162772  0.0014723876902044  0.4013438917388288
  0.1987505825956317  0.9990100790923930  0.5995860919151467
  0.2016621532861117  0.9996023016735678  0.7972153385081716
  0.2080585539767153  0.2014840629384426  0.0026232886562294
  0.2000022752002568  0.2010259022343297  0.1993964995384115
  0.2010350853157887  0.2015963992732211  0.3970929130383018
  0.2032272636816952  0.4008262572875517  0.0012990604068250
  0.2017324931078730  0.4008891862867746  0.2007008145774619
  0.2017422080427394  0.4022717574634449  0.4005934466232038
  0.2116477176990491  0.4078008947374936  0.5994260946639564
  0.2022412520391030  0.4050789292181693  0.7983837391216846
  0.2002755629387394  0.6006863254148733  0.0016557535571762
  0.2003623416587752  0.5995922682729381  0.2006137154249414
  0.2045466154612685  0.6024365517374853  0.8004977063634171
  0.1995787166196845  0.8008696047772971  0.0009436399171796
  0.1995164872920261  0.8008119081745886  0.2011913184115028
  0.2001052748195128  0.8004828171838686  0.4004399120134490
  0.1996266180073789  0.8010487792884295  0.8008015327229784
  0.5004247700413650  0.9989960324794684  0.9984301953128626
  0.3991120200718250  0.0022080576949053  0.2017071189768382
  0.3973115955118039  0.0023538356166655  0.4018486454623921
  0.3988238502048946  0.0022933554912408  0.6015383989923409
  0.3993482010969221  0.0009347525900431  0.7999126845042152
  0.4032770382324266  0.2019359095189337  0.9992847574105982
  0.4011174088419628  0.2003845771158699  0.1998507222134168
  0.4013312756561920  0.2024895219404125  0.4000621337421023
  0.4010894902859110  0.2022667063904250  0.6003029339365413
  0.4006611867100720  0.2021458296255966  0.7987040691551296
  0.4024599234777462  0.4002500005547424  0.9999780948073727
  0.4025574251105489  0.4013514383763458  0.1997142482598181
  0.3984328516346794  0.4014036304921741  0.3991320981541754
  0.4050759286571772  0.4006592224054093  0.5989260073542115
  0.4009293610524330  0.4064759955608176  0.7995627922301277
  0.4024878233870996  0.6009155706475426  0.0011188744611767
  0.3992303752196882  0.6004489011387300  0.1999026406040304
  0.3970227601333682  0.6025105905866148  0.3976143622163008
  0.4017395773961699  0.8006427081635764  0.0016763038529852
  0.3971741443436498  0.8002524488818724  0.1998437021155251
  0.3992069897733675  0.8022495220058173  0.4003323555606906
  0.4009544667632056  0.8040085433036278  0.6011677545890239
  0.3987461340636243  0.7973974545623432  0.8011437128276626
  0.5987472718155219  0.0018321065369386  0.1951039667845020
  0.5999564631885965  0.0040609370963731  0.8020488012006215
  0.6000085468841365  0.1996321192197558  0.9985787173592561
  0.5994350904318266  0.1989999348052739  0.1990312622572979
  0.6012215137930336  0.2048802122393085  0.3993077503343299
  0.6000162218439542  0.2009006065699747  0.6003973754666238
  0.5979581013904215  0.2016506527674314  0.8009225816464105
  0.6021259958976275  0.4008162824587295  0.9987083931378381
  0.6023758682480659  0.3960283592483618  0.1921423513438259
  0.6036448183100230  0.4001406839164856  0.6016568950980596
  0.6024871614829097  0.3997046249523507  0.7991656948110381
  0.6030070143719599  0.5998099061990004  0.0020943287142539
  0.6054045835745103  0.6032428658197114  0.6090543493061175
  0.5967747813041484  0.6005225519321183  0.8030161686601269
  0.6009423155182448  0.7985245507826896  0.0055107026390397
  0.5889084420602841  0.8074379319032893  0.2020409737808160
  0.5994352053398895  0.8124835578080402  0.4023784351318810
  0.6023720990204298  0.8054266489904410  0.6019798823309438
  0.8003646173305758  0.9989575516827626  0.9990536733236628
  0.7985279618471536  0.9968920316506562  0.1993608246437943
  0.8022249258413071  0.9993814586985662  0.3996957244904293
  0.7974776551191349  0.9989078041763416  0.6000368171520741
  0.7993832127818062  0.9970910496778799  0.7988211397777528
  0.7949944507556661  0.1988585679407729  0.0030078275276677
  0.8014056192014694  0.1967929031474713  0.2001162012574251
  0.7991078423775755  0.2001380867951922  0.3993289423308847
  0.7962808063888566  0.1984755039663055  0.5958866793106180
  0.8011922377826307  0.3982245407634485  0.0008181067795097
  0.8023716559938269  0.3932634053127556  0.1997478461877462
  0.8092774976628264  0.3983733835147131  0.4009267690198182
  0.7990451938614747  0.3989361852283109  0.5985347588879378
  0.8016967484360017  0.4033545830584940  0.8007905204687112
  0.8001927856343871  0.5975971811517414  0.0008018045522945
  0.8081370038245748  0.5861837930749657  0.2005301693843395
  0.7997780627249208  0.5996675225493354  0.4011537604769452
  0.8019322769349657  0.5985621765225784  0.6011479715477328
  0.8018824400699539  0.5994877231451252  0.8003108362129839
  0.8016137778459498  0.7982800350003191  0.9977519243019636
  0.8014726121306427  0.8001714075180968  0.4057714098505952
  0.8001032427065524  0.7989813195969414  0.6019106598706545
  0.8027929240626651  0.7984595258122948  0.8003560411736669
  0.1997483328024448  0.6020032409250194  0.4008636011312883
  0.2005918978527028  0.6029824124585076  0.5998551608591801
  0.2004313327146698  0.8000830935509429  0.6004390140214598
  0.5990925516496000  0.0031062540391609  0.6045401858476712
  0.4004897310358068  0.6012790007867980  0.8057833960246298
