Zr Ti V  Cr W 
 1.0000000000000000
    12.5179340813293241    0.0125890007873158   -4.4244394758852508
    -6.2457743738360572   10.7720259210307834   -4.4181022700226027
    -0.0103369653194006   -0.0101469049431575   13.2440474577854825
 Zr  Ti  V   Cr  W  
   3  14  93   2  12
Direct
  0.9905998010199383  0.1907355325613572  0.9935774986099067
  0.9970147859469850  0.6067743583603376  0.1984064315272517
  0.1964848907864619  0.3836572993000917  0.9892778224355201
  0.9987644942539688  0.9968493599978727  0.5908955423370512
  0.9963782751031287  0.9981617061692680  0.8014857881591156
  0.9924627858300935  0.3953298705226956  0.1999036477698320
  0.0013053746647297  0.4004603757496255  0.6092666578586055
  0.0018449153432002  0.6068796592690365  0.6060435523828313
  0.1942886701054010  0.9851016541969733  0.7864420806425064
  0.2051261770002367  0.1985500074143465  0.4041557690087736
  0.2162238098093586  0.4051393384701295  0.2183011284409615
  0.4008976310973902  0.2000570269699533  0.9971416774227443
  0.4001254551591809  0.8007479141061867  0.0021415069182069
  0.5946390936239199  0.0050252105621540  0.2267933770724201
  0.5967380719632844  0.3996955061168356  0.5995277707907278
  0.6018935122670429  0.7958462536359062  0.2069217091524828
  0.7953543320339652  0.6066438802921765  0.2057049473793779
  0.9965691125346530  0.9847249192380676  0.0008644062822876
  0.9970456958218407  0.9946788504494678  0.1969448304395166
  0.0018271486865607  0.9990826705057703  0.3945780628636072
  0.9974140715517263  0.1998635856407532  0.4021119633532484
  0.0022517749314038  0.1980328648492325  0.5968746710754014
  0.9802024509818441  0.1951412991796482  0.7718359329156724
  0.9870133915742390  0.4043125766845808  0.9809985027962163
  0.9998467154471187  0.4074275553059071  0.4050831459930417
  0.9943081516683507  0.6028740440353214  0.9882829132362008
  0.9997146541721238  0.5983975340952932  0.4048560026654837
  0.9955341849247440  0.5967576229768532  0.8007610153094089
  0.9976489129558735  0.7981004893016431  0.9974254300695533
  0.9993689416595944  0.8117473487818599  0.2012425486609323
  0.0056003711346973  0.8079980414886928  0.4073455683853111
  0.9868055265706992  0.7918225799937187  0.5887459177240402
  0.9983773801430234  0.7952628463206410  0.7983447950845052
  0.1984405558341437  0.9942574073352503  0.0004041448034475
  0.2019526213093354  0.9990266711416477  0.2023847036905650
  0.2035095424470054  0.9948733917241217  0.3999415892406078
  0.2065761967411908  0.0000084318539152  0.5923523155232920
  0.2129741745472363  0.1887890818584972  0.0183568304501855
  0.2039204226840436  0.1921697704417178  0.2013413290615537
  0.2025877568314035  0.1978489661652656  0.6030838280468186
  0.2063245472081425  0.2028632130449503  0.7950634138270777
  0.2068393851965533  0.4036120590776181  0.6027589822258534
  0.2002743580097754  0.3984153959270568  0.7889102336571511
  0.2053148593774212  0.6075863786453728  0.4073497993294545
  0.2071921697994690  0.6083343121228315  0.6055468277758612
  0.2035419227345843  0.6034040879644419  0.8003267215975935
  0.1958699536340295  0.8002302083214909  0.9984384334569893
  0.2056875617182835  0.8063864724494793  0.2023220711438152
  0.2112203283751615  0.8109041991711080  0.4088764709895972
  0.2020204780497251  0.8006431788298699  0.6001994656662931
  0.2106340038732187  0.8010876718220166  0.8090668169677852
  0.4055590407125794  0.0026672492810654  0.0039697639856023
  0.3905708019801602  0.0015017638916067  0.1965286204381509
  0.4104240232986073  0.0016146896405536  0.3986973951354799
  0.4006061460390143  0.9996122341540706  0.5956661125760647
  0.4024044607274515  0.9977048034097109  0.7996881731330751
  0.4039079582989657  0.1983180519210861  0.2028266936409858
  0.4009499408179459  0.1925300269791711  0.3964222350851970
  0.3999821596861738  0.1984812868243678  0.5963514075281069
  0.3967105026696097  0.1952501297143723  0.7898949101282001
  0.4097773323164562  0.4047147215922661  0.9956820852469360
  0.4096672629045349  0.4005228732350635  0.2041134305747616
  0.4031779160668009  0.4023223398190705  0.4055400027210713
  0.4026059002385696  0.4056176575146501  0.6071696333535924
  0.3985805274357132  0.3985376086673522  0.7958103743994669
  0.3986155807357076  0.5933783566548331  0.9942870053210928
  0.4109728959648451  0.6087721888235611  0.4119228733998897
  0.4038674440854900  0.6070896915733188  0.6053294465476516
  0.4015847307014753  0.6035022438002944  0.8019295739630544
  0.4000386325622023  0.8106412498670582  0.2091106191145685
  0.4014547432461739  0.8020007391678506  0.4018724306579001
  0.4001259583835960  0.8012816374937994  0.5992139344387789
  0.3993991844912644  0.8000152410017055  0.7987823594648572
  0.5930964571338484  0.9935325825977680  0.9995266209428859
  0.6017955557198397  0.8753008911772934  0.4060078221231174
  0.5945401798315991  0.0004460803407362  0.5895675574896999
  0.6000115969311599  0.1950893132217158  0.0031638200984614
  0.5970482432597388  0.2015070567533572  0.4002409742191533
  0.5950046964051168  0.1997463853416589  0.5960415796507565
  0.5932345739101260  0.1968011716655727  0.7934638761681559
  0.6054093295542744  0.4010822298994185  0.2046672340891139
  0.5974976042255264  0.3992467122252493  0.7997431477043906
  0.6007435517471462  0.6030464647353211  0.9998228746069163
  0.5970674005520761  0.5962444643129219  0.1997089976814045
  0.6036171178515798  0.6057901007282763  0.4038369017952475
  0.6012206732464729  0.6075856218501348  0.6022328931520404
  0.6013050664636385  0.8000396507329200  0.9970497922516769
  0.5985712717293162  0.8003768900893941  0.5931632022977223
  0.5981039164123244  0.7998870781534032  0.8004792579185970
  0.7907187970744535  0.9923142193199040  0.9975745845365500
  0.8047430337763002  0.0061070216880235  0.4054720503902309
  0.7916787709152798  0.9933825433812498  0.5916658590375717
  0.7804755941182273  0.9866074913889560  0.7839210881880128
  0.7817168675649194  0.1927374032552839  0.9946721139936299
  0.7912004494404939  0.1978803582026992  0.2003945283207321
  0.7893921851988448  0.1967772808643614  0.5911741673761849
  0.7862141114502449  0.3915116715305267  0.9883704109789508
  0.7941813768156754  0.3952989409053046  0.2049546603929896
  0.7952154352666193  0.3976763091121954  0.3987929024125027
  0.7974559162467858  0.4028858407401131  0.6021263889214827
  0.7938672276879398  0.3996634294686680  0.7928649979333904
  0.7970714942274716  0.6016469765286229  0.9941907630791885
  0.8033227712131348  0.6029226587336967  0.4077657082516314
  0.7955269567419968  0.6018218699125961  0.6025637676213055
  0.8009044102565347  0.6032990557512941  0.7995906378422557
  0.7970643805003972  0.7982336690314036  0.9975930660469128
  0.8038356614273844  0.8063566883182871  0.2023840386032143
  0.7949255439849402  0.7977495331176758  0.3968843351742456
  0.7954066646207518  0.7946112815674664  0.5948230907163654
  0.7992907877917026  0.8009432483558825  0.7976233134354048
  0.9934517255501539  0.4000458314990740  0.7987050666174864
  0.5952268022853080  0.1984985415420589  0.1983142039327222
  0.9985411510162963  0.1953267074645843  0.2074771059146989
  0.2027067137684825  0.4063393642365928  0.4100597378721419
  0.1982526676796473  0.6019456899544845  0.9950275472575852
  0.2049861365064417  0.6043986464826269  0.2008966805801625
  0.4096028684267980  0.6075908556497374  0.2079305116851420
  0.5938368928112125  0.9960935528695858  0.7964875737475440
  0.5975303676988803  0.3964366655080933  0.9960640094143803
  0.6003433805545653  0.4028377257822707  0.4004607986668395
  0.6001748567719999  0.6011796881797343  0.7998406386014668
  0.7945713879680433  0.9960276990648813  0.2002500550566676
  0.8010608237211875  0.2057129544486958  0.4035690546322586
  0.7893207100658526  0.1966382134311513  0.7897151556055387
