Zr Ti V  Cr W 
 1.0000000000000000
    15.4119853477336850    0.0092002105036784    0.0075686985216924
     0.0091978282521091   15.4168317070722267    0.0033033723005877
     0.0075647771218920    0.0033039266611125   15.4231482065347798
 Zr  Ti  V   Cr  W  
   1   3 110   3   7
Direct
  0.3989920927148475  0.2010993655111398  0.5985254623137013
  0.0001390399229912  0.1992709764021105  0.0018570123733595
  0.1969936306905394  0.3964279495227304  0.1929253777327991
  0.3987805417797199  0.0000600434360668  0.0085056344096332
  0.0001056204627168  0.9984609284295090  0.0005674986751529
  0.9990210599461162  0.9988579033291416  0.1993292910480668
  0.0004772549755376  0.9986739487792848  0.3998660141268227
  0.9985068871992909  0.9995728895319056  0.5993687894415636
  0.9984044717409248  0.9985853612630262  0.8002061734486752
  0.0005521485536659  0.1996782165273961  0.2018293291800259
  0.0045953924381914  0.1991157925562702  0.3988100197758950
  0.9971992140814859  0.1999749943317947  0.5998595215078549
  0.0007365420297469  0.1992012406941980  0.7995947615893220
  0.0007213623151769  0.4017078379500352  0.9991589026971843
  0.9984237583408596  0.4001478782636306  0.1990515816373021
  0.0007930026329168  0.4008677780672610  0.3991100466375127
  0.0023492375009099  0.4013924940762859  0.6010431831433161
  0.0002215007929212  0.3998983169559622  0.8005779344634590
  0.0000601112463583  0.5989738033323880  0.0007631052972111
  0.0006457275983184  0.6002560946079210  0.2004859176386311
  0.0014578894382988  0.6004113257756795  0.3989628708255811
  0.9983032730800462  0.5994955328933379  0.5985335292653731
  0.9981551919034805  0.6009818813104979  0.8003275173661974
  0.9993039758115672  0.7989371628036711  0.9992059801456197
  0.0014554051093147  0.7995888350918166  0.1998724273300412
  0.0031168184395349  0.7996129114507364  0.3993697981666324
  0.9989156197847432  0.7988180497030378  0.5998081314040627
  0.0065927660378453  0.7994973233109265  0.7998213828733369
  0.1981750102073249  0.0013300434627774  0.9996313408854850
  0.1993069883178635  0.9999110449760052  0.1986705536225583
  0.2006064993910290  0.0045903748413851  0.4004616193539415
  0.1979837817946461  0.0016083172519576  0.6001329159766542
  0.2003477512256569  0.9980308644897686  0.7990588200673570
  0.2048480248357876  0.2002231659995293  0.0006759476726184
  0.2009011259369961  0.1977628676408091  0.2033449726072160
  0.1943201415820097  0.2034632699618878  0.5962342165758683
  0.1997525351022275  0.1978375397941005  0.8011492832338589
  0.2004738918371666  0.3990011538060360  0.9942001238731041
  0.2002808817309752  0.3949651596160515  0.4059751142685364
  0.1997500796481562  0.3991245500480015  0.7955391269836877
  0.2010066221458718  0.5985204454504631  0.0001115076449432
  0.1998553325213629  0.6006021165548544  0.1992537458245793
  0.2041784277668422  0.5985323061205665  0.3995660574058945
  0.1993814393801338  0.5946984558389542  0.5996916277001393
  0.2012582704864456  0.6029015824233378  0.7991662769232001
  0.2013700532459038  0.7999039802143345  0.9956614938825239
  0.1993221332051194  0.8008183883476414  0.1977925756154132
  0.2030128640178984  0.8021196523364829  0.4009725754907565
  0.1997747996082641  0.7988561351340628  0.6030239703444999
  0.4001615200247656  0.9988021191915918  0.2023251920679709
  0.4005302359937434  0.9952572965703774  0.3991611210316328
  0.4018693541133787  0.9954806988150872  0.5990260435395234
  0.3998039429832799  0.9993988277712310  0.7982551919322926
  0.4040401607131386  0.2033732024481150  0.0022999644068987
  0.4006335599017146  0.2006416567794772  0.1991407485606070
  0.3968705024049240  0.1994583847013824  0.3930340271929719
  0.3999954010785097  0.1988169136933574  0.8047247601095171
  0.3994041842003898  0.4021896570312070  0.0007469114334979
  0.4011000375899578  0.4018850643751748  0.1998432503534119
  0.3994962725931406  0.4054187724248399  0.3977226562718161
  0.3955296264221389  0.4058387794910475  0.6009544804486632
  0.3985349456100417  0.4018580747679985  0.8009137457244251
  0.4014135575972377  0.5996297769740970  0.0023876409059886
  0.4005794170049640  0.5999734527824127  0.2042360010724954
  0.4052866577312057  0.6012192470005280  0.5955173173709893
  0.4003384776060241  0.6008884838897870  0.8006023759357769
  0.4001687062703873  0.7974282070374322  0.0028049717523031
  0.3994960887872070  0.8000700990894724  0.2024885125945687
  0.3990374951087472  0.7989303917734397  0.5952328380478401
  0.3954270510808208  0.8002164417233321  0.8000168066385684
  0.6020690826842465  0.0052755690440298  0.9999820365623319
  0.6017296823448538  0.0010494467707690  0.1997322964177713
  0.5995787404664417  0.0009112379881202  0.4010705900884873
  0.6022742469870241  0.9994733124117678  0.6004383504073755
  0.6005491402115906  0.9993319147791311  0.7999067324467294
  0.6004271714113676  0.2003329923673173  0.1969049801215682
  0.5988157120455480  0.2000604868344067  0.3983805621155782
  0.6006115956269912  0.2004353455010919  0.8040200146434462
  0.6002333077554174  0.3973659825708815  0.9987818815987076
  0.6012298249464595  0.3997026982231182  0.2002925303715445
  0.5991672392361408  0.3983962579309603  0.4005855626986296
  0.6009934501959939  0.4027614065681822  0.6012541489120770
  0.5988091903054855  0.3994044221767996  0.7994137443058775
  0.5998253057323873  0.5980166446858347  0.9996759913813125
  0.6011699173827444  0.5996058381184366  0.1995371245962531
  0.5967884845186215  0.5994528587014901  0.4041768254659629
  0.6000971329770627  0.6016616667645935  0.7972638317671618
  0.6002530820221025  0.8014286693124031  0.9978859772653952
  0.6003093704522456  0.8007781620152454  0.1991596010822714
  0.5956401398583948  0.8018530638275676  0.3993073694963750
  0.6020389745659577  0.7966056115296635  0.6032070722450298
  0.5943613679590208  0.8015358790926681  0.8009805552675571
  0.8012956335091662  0.9999024128162050  0.2008913749728894
  0.7999889367686954  0.9985822208326417  0.6012024205215348
  0.8004386674541284  0.0004738952843212  0.7991537473071093
  0.7954634526092343  0.2014418868416947  0.0009511844510905
  0.8012582168358066  0.1992559266787651  0.2007664244287573
  0.8006792773131960  0.1999979936442446  0.3998536027296591
  0.8008428209372651  0.2009745560806506  0.5990756655445589
  0.8012513841623957  0.1991021663465642  0.8002654479790411
  0.8007345056978243  0.4000278733346035  0.9998007605814581
  0.8011495462783731  0.4002883358241575  0.2004897379039871
  0.8009274343418923  0.3990548336191300  0.3999385504958005
  0.8019364069475475  0.3992979004095235  0.5995692204186779
  0.7990292754616044  0.6004348071431946  0.9989313785170433
  0.7994165473809622  0.5995693234198270  0.2011054619822027
  0.7990471082829866  0.5998215462119955  0.3992747867577651
  0.7966718856078274  0.6002542466011616  0.6003321590296119
  0.8004257831932133  0.6003236844169275  0.8003650540910179
  0.7997267510898567  0.7994180095477214  0.0011419083015483
  0.8001128741468240  0.8003114253760766  0.1998388467459523
  0.7994770237111202  0.7999931317537767  0.3991639966773740
  0.8005939766093390  0.7997821087362936  0.5968996472375206
  0.8008366973395044  0.9657307697853643  0.9656555050279531
  0.6037794059703587  0.2008326810354226  0.6011476409580155
  0.7998322685503014  0.0001382871061675  0.4001777126154952
  0.8004233240449727  0.3997521621375618  0.7995597387152377
  0.2019602421237389  0.1997838202627935  0.4005880339471122
  0.1992881739620052  0.3985350453214028  0.6014215286387919
  0.2001719327428286  0.8000950875768359  0.7987639645590134
  0.4009420294236002  0.6042275645760121  0.3992637380734837
  0.3978902392704146  0.7978975242956907  0.3985867874599702
  0.6006603837703163  0.2017983153125746  0.9999325786118675
  0.6013895659666940  0.5986444936106817  0.6013199208694846
