Zr Ti V  Cr W 
 1.0000000000000000
    15.3990340272275770   -0.0170018773457157   -0.0022529018582575
    -0.0170107766548915   15.3787801482628375    0.0165544931564424
    -0.0022517709109467    0.0165430754876648   15.4057927644380346
 Zr  Ti  V   Cr  W  
   3  13 106   1   1
Direct
  0.1872755716069867  0.2014141587559107  0.3731472846234223
  0.2048216186806371  0.6162705947337532  0.3823813226201149
  0.3856213804793531  0.7957986457305923  0.3894633263259872
  0.0025910205750803  0.0017846039961604  0.0060501193279410
  0.9999408470077106  0.1981231095516145  0.8006322644885864
  0.2042283917765878  0.1994791891865354  0.1753082529946349
  0.2038981037982857  0.5893078527868280  0.1830244425713190
  0.2115036525663534  0.7987670417276866  0.2121711682144452
  0.3886384582018177  0.2015950346906855  0.6031311471913439
  0.6090250519851271  0.0149282709351717  0.5933646946159828
  0.6019503542478255  0.1928490039344343  0.4124298144199056
  0.5892710015149243  0.2018889457049753  0.8132679619597863
  0.7933298111024478  0.1996920709784603  0.1948871116065662
  0.7820397047906611  0.1967514932483289  0.5949512775713885
  0.7965381570424903  0.2023534076858643  0.8031627693325183
  0.7998019606503973  0.7984688304386355  0.1956176044333447
  0.0025156695646169  0.9996487659263231  0.2065827441862647
  0.0019730041559877  0.0019157322355787  0.5966680411088791
  0.0012526161947514  0.9997348632039955  0.7981730034609336
  0.0007160973024480  0.2015418535415111  0.0050082693814109
  0.0007994833913646  0.2001194168068326  0.2010924888010458
  0.9881448114629005  0.1973352981377351  0.4011843875814853
  0.9985398720380873  0.2006735766387856  0.5966644250213367
  0.0005978851820878  0.3992234468237552  0.0016804944491107
  0.0002947413386789  0.3987456089966157  0.2029419196359472
  0.0023686639238314  0.3984076333523197  0.4015102831533821
  0.9987295209318491  0.3989715046159290  0.6011181332556537
  0.0024131644732834  0.4005755261104862  0.8012157610901911
  0.0016069604373559  0.5999669387276680  0.0018533218237138
  0.0014971023134118  0.5995780430274467  0.2009065463020165
  0.9972298889874120  0.6009774711433196  0.3993927922534455
  0.0018462366984559  0.6005309859193323  0.5980807577510695
  0.9998835202822594  0.5994815877251854  0.8010452863283635
  0.0031546992765704  0.7993461631433443  0.0032673635729841
  0.0025063041684478  0.8002933281343296  0.2019275740834087
  0.9944938364319397  0.8072473576811398  0.4012539305788698
  0.0003029300533475  0.8005345362548564  0.6014287389976942
  0.0010043336050529  0.8010441380842139  0.8003591564841080
  0.2022533908358409  0.9998929894008374  0.0004857935209748
  0.2033191284605097  0.0037916032971355  0.2014115839331200
  0.1974076385009139  0.0010408115270908  0.4014006417522843
  0.2031202597887423  0.0035356507200547  0.6000137697863552
  0.2007338272180670  0.0005744695891490  0.7987130488089236
  0.1990539267683578  0.1992265927740190  0.9874239487124531
  0.1955006380908308  0.2011971776990127  0.5955490695206318
  0.2012847183900268  0.1996322368124383  0.7953088203286397
  0.2001634367990637  0.3981266452702599  0.0000468882642726
  0.2017487647112452  0.3945249257540767  0.2014982960595820
  0.2002537229439988  0.4040642711657834  0.4016562499041684
  0.2004824956222814  0.4012879805460807  0.5986034140339924
  0.2005640025334209  0.3999276754364503  0.8001887762941122
  0.2009754359317332  0.5996468858021923  0.9935195888729210
  0.2011355517850774  0.6008984274506347  0.5990746072885668
  0.2014587673478872  0.6000883431094370  0.7979175047619449
  0.2016257699507909  0.8000678911923368  0.9990913865968932
  0.1872015563407651  0.8131026495006528  0.4093408289227626
  0.2007929219363924  0.8010205476090276  0.6030949624909097
  0.2009150494017767  0.8024584204991595  0.8011771716989089
  0.4007354965511229  0.9994109803904538  0.0020733878143379
  0.4015788760056693  0.9969420168038559  0.2019356768613305
  0.3992269099731820  0.0045151364037762  0.4009245635763532
  0.4019454021944119  0.0003121623589240  0.7983775031745399
  0.3989899489425268  0.1982501616789248  0.0023342068623844
  0.4001495281637352  0.1980925562575898  0.2018486062388518
  0.3968550581540148  0.1981472567431108  0.4000897856582141
  0.3954425141619197  0.1992698233191967  0.8055498123910392
  0.4006406786502765  0.3987684476581426  0.0026027624983096
  0.4017143001767530  0.3974695325034880  0.2026865000028627
  0.4010302051322882  0.3946905705036372  0.4020269059774191
  0.4001191816111170  0.4008613416526612  0.6010657868481744
  0.4005560846782569  0.3996627784554868  0.8006268708066602
  0.4011137978099527  0.5991938046449999  0.0009470489900807
  0.4047418270094059  0.5967409073990384  0.2001726194754896
  0.4099474437021454  0.5903229902634660  0.4002132537378736
  0.4016038333357546  0.5988684177887490  0.5991406476266439
  0.4016203423134497  0.6004125422570795  0.8013309906372708
  0.4004024454367099  0.7999761670895880  0.9976578742329832
  0.4065605400946347  0.7988003628482404  0.1908365993326674
  0.4009752575982963  0.8005450622862265  0.6011902397994728
  0.4011671899171540  0.8003556950242202  0.7994729356916511
  0.6012880128625336  0.0003129658006147  0.0012631266680885
  0.6012945331742987  0.9997575367423439  0.2024857211945435
  0.5987948249805036  0.9955935169930412  0.3985883661439411
  0.6006684698746009  0.0006465931088867  0.8018787523645575
  0.5997093020226262  0.1997025381475738  0.0085027583255028
  0.5964122025303159  0.1980789507699511  0.2026753535087314
  0.5891409581048961  0.2062293059379345  0.6087662831048405
  0.6015322838513169  0.3991839413900264  0.0014958075873026
  0.6008616120587774  0.3977965055130843  0.2034132140565102
  0.6014010538871593  0.3994826107714707  0.4027082845968604
  0.6006482492561224  0.4019427422309198  0.6036416422112563
  0.5994995284688330  0.4015408717981932  0.8031517815809319
  0.6021125033969970  0.5993584895786195  0.0015394427304975
  0.6033140228643610  0.5995995035784831  0.2007529321475363
  0.6037454773661424  0.5993624119367138  0.4006315476892093
  0.6012711846784726  0.6024220775069017  0.6010897050843960
  0.6019258711071216  0.5997802443029416  0.8011476850011772
  0.6018751341710300  0.8005927519725491  0.0008466447557647
  0.6001404618944315  0.7993491846524247  0.2003997171592065
  0.5995199304637833  0.8004270025034564  0.4004155982373119
  0.5996387941558198  0.8020231627982903  0.5996769803085311
  0.6005260237001433  0.8025823129813829  0.8005175580367124
  0.8008068036047810  0.0008139031936025  0.0013804788327628
  0.8008738125312489  0.9997860337954371  0.1995620047603003
  0.8101941940321887  0.9970917616287230  0.3961343839928360
  0.8043793561794511  0.9973967492820637  0.5996411530460707
  0.8015176209698510  0.0002577160033901  0.7990271110688159
  0.8006217734845612  0.1996035028393487  0.9960888745067329
  0.7977855897653838  0.1986583652586051  0.3967238934534504
  0.8015606595681587  0.3979043485336208  0.9345287784655030
  0.8013517627215998  0.3993447009272791  0.2021480866799002
  0.8013933886715571  0.3984533037821365  0.4006499164997721
  0.8000689697721718  0.3997205475066538  0.5986076145267077
  0.8025760283581731  0.5982600749795267  0.9992609355792238
  0.8014517580865348  0.5963667209467955  0.1990240227764829
  0.8015003033613110  0.6010727392745082  0.3996073725807445
  0.8005188430598549  0.5980399979230318  0.6012384968745533
  0.8013832071927609  0.6012783175239300  0.8011389160105081
  0.8021239103509619  0.8005462924985046  0.9967887971728926
  0.7981293432273557  0.8001491274022762  0.4024765473808212
  0.7998931918319627  0.7993506191089585  0.6019837127070535
  0.8008946979668040  0.8013636665709027  0.8002883482204386
  0.3991769434937580  0.9976978850307033  0.5985915956696997
  0.0050416508555350  0.0049728911315706  0.4016207976069114
