Ti V  Cr W 
 1.0000000000000000
    15.3720038313806135    0.0023998420144863    0.0001449001601191
     0.0024007571799185   15.3633006247875361   -0.0006442210894229
     0.0001450310074229   -0.0006449824026597   15.3697544548857330
 Ti  V   Cr  W  
  15 104   2   3
Direct
  0.9844948434679212  0.3960181990187933  0.6012373230819654
  0.9916273432554601  0.8002307870172914  0.2036239856118739
  0.0095522998213210  0.7995199108039577  0.6024034469857675
  0.2009567312696006  0.2034692829600687  0.3918732933648486
  0.1982121546259520  0.2044195245503383  0.6038705410440535
  0.1981553060480181  0.3963036799334851  0.2052857988778294
  0.2027884423132135  0.7993115812832667  0.1995082431947384
  0.4055111617082719  0.9957805852078644  0.8073454563346132
  0.4007661828910897  0.5989474898705744  0.8021327104930421
  0.5932178237412197  0.9965954835270434  0.9946565534146127
  0.7937875374163929  0.1980932935212720  0.7953689685615345
  0.7993742336636287  0.4041648007310538  0.1924859359010036
  0.8023580534353760  0.5943784779440288  0.0041685553005427
  0.8076657212099316  0.7989434624605201  0.3910849735478794
  0.7993392320776239  0.7961771333490494  0.6039041928810125
  0.9989838403546344  0.0006501376616412  0.0007084419173298
  0.9991079972151903  0.0015833194859269  0.2009934386900046
  0.9986818100333115  0.0001575760583594  0.4004122672726956
  0.0003353377865836  0.0002025107148196  0.5986982969824716
  0.0001073661404112  0.9993456680381178  0.7989689115253050
  0.9994294910021144  0.1996865122167876  0.0000522309710808
  0.9988925690867851  0.1998593874436835  0.2009660526964057
  0.9983142856689108  0.1971469455039093  0.5981075388460890
  0.0021203240700748  0.1991587672343554  0.7997346621737834
  0.9969600795030872  0.3995046002229355  0.0012194834872474
  0.0001659593369330  0.3993970570426269  0.2010740203684307
  0.9992865965969465  0.3987231671936260  0.3985999473207673
  0.9992927697279803  0.3988647109924958  0.8018360457890185
  0.0027336964867710  0.6003094181396967  0.0020196331748290
  0.9998819459190079  0.5979254640817174  0.2014783515650322
  0.0009412460747962  0.5989120322717266  0.4004792229571246
  0.0002957091508957  0.5986766616364725  0.5990745867732162
  0.0002278364039821  0.6001921957762946  0.7997096587761939
  0.0000790255524743  0.7995294281403248  0.9995780871213130
  0.0036901165197503  0.7995553197780328  0.4010074181593678
  0.9991842140812391  0.7998616973204986  0.8028001630442422
  0.1976499597692848  0.9996617123982257  0.9998641901227786
  0.1978735066204575  0.0003119076348941  0.2009092668392180
  0.1997564741794087  0.9991896013775775  0.4001380869036982
  0.2008722564552422  0.9994406846907268  0.5997973733652155
  0.1991910626950853  0.9995686454257360  0.8002111574681154
  0.1992695471943874  0.1973601794944401  0.1968267468985317
  0.2009428970835099  0.1987630531285542  0.8024434163772542
  0.1988158363317486  0.3998720655247688  0.9991633401662345
  0.1990567484477804  0.4022491268692758  0.4058528842511296
  0.2045831575285020  0.4029671197445568  0.6026019204983487
  0.1994032204516444  0.4007450177579377  0.8008893755669110
  0.1992241158563131  0.5993132253061255  0.0010663307800827
  0.1991066645858415  0.6004622009905601  0.2015275501747621
  0.1987550413510736  0.6006537558079790  0.4001580784842387
  0.2001548957221579  0.6007592759791548  0.6008279134979430
  0.1973039588756910  0.6003458232887331  0.8005185911062653
  0.1993805313385195  0.8000190934591291  0.9981074147567495
  0.2006888955773591  0.8002901397982553  0.4033169600353987
  0.2052104445742831  0.8002036436173348  0.6020275148258334
  0.2006553369462704  0.7997614338993411  0.8003031276874987
  0.3954937124122687  0.0001828719131255  0.0045591395451712
  0.3981832424207173  0.0002430597823220  0.2010872139071979
  0.4026145455050280  0.9995491497645729  0.4002532147911256
  0.4009563123809698  0.0006942774103351  0.5986063338858202
  0.3991139394507071  0.2004419970148262  0.0002518096773159
  0.3991880437068614  0.2002975350384061  0.1973828147091179
  0.4025301130761166  0.2007837950966229  0.4000083548252549
  0.3988038859180858  0.1993627857060026  0.6002452674714961
  0.4027512960122424  0.2016973779018433  0.8002833110932115
  0.3989194428707480  0.4012559221243999  0.0010291019970945
  0.4014032069073222  0.3997266944874950  0.2006193593531413
  0.4009035219460879  0.4000721953287900  0.3997954836212896
  0.4027267717372062  0.4003251584442303  0.6002898826626316
  0.4006724639856323  0.3987838869071206  0.8017307806852096
  0.3987886181393803  0.5993057204038283  0.0040883591625278
  0.3992321295855655  0.6000829644988570  0.2012349231225472
  0.3996126443145721  0.5999023708354716  0.3995860077725352
  0.4011089439927705  0.6003771621043167  0.5972868407086659
  0.3987709070241847  0.7993810100061024  0.0003573934981214
  0.4012142025055649  0.7998351170087242  0.1990423081580016
  0.3992795578941786  0.7996021736761897  0.3986818396649106
  0.4003546034506263  0.7991960907865656  0.6013795937729011
  0.4013653080229277  0.7993302920886799  0.8011004895351285
  0.5992983642800053  0.9992242889860877  0.2040008930623715
  0.6009524312974192  0.9982784739409226  0.5944046637278267
  0.6046082830194892  0.0043086758679617  0.7928273309076448
  0.5987277712402161  0.2019981087762695  0.9945702059978935
  0.5993161247182834  0.1993735051452239  0.1970485059505389
  0.6004761090421012  0.1969288773160630  0.3977343285751168
  0.7011799982976890  0.3002213988164354  0.6015186561540210
  0.6036002104030402  0.4012292771457800  0.9998967927667088
  0.5974104064931202  0.4010271018763097  0.1997769727307888
  0.6022084386241463  0.3980703920574049  0.4014022816867184
  0.6008585005379415  0.4023974745266305  0.5998162822398044
  0.6018873602098933  0.3979627090360188  0.7982636184013497
  0.5970019445032400  0.6003623986652835  0.9995633814761573
  0.5999234148870531  0.6014855327658036  0.2016506014585195
  0.6018047816144633  0.6022074116275395  0.3994850582002685
  0.6019785764453180  0.6000277391796843  0.5988695934079126
  0.6032538602669426  0.6013477625918527  0.7993818157050824
  0.5993416492966992  0.7976594579589908  0.9983313830974201
  0.5988313812567099  0.8005199881994453  0.1975194859983368
  0.5988486803877010  0.8040919062651709  0.3996538885503709
  0.5987562996460400  0.8004446456173594  0.5999726822347022
  0.6008349914364103  0.8023091561576636  0.7996418225110928
  0.8012556372671151  0.9998010254453380  0.9992408695039859
  0.7989833321142310  0.0002720156142329  0.1980005649699660
  0.7971371659173718  0.0017975816005973  0.3984467840134153
  0.8011750669150675  0.0004180920025642  0.5979617268671082
  0.8013462156696315  0.9972124037787773  0.7989796483300741
  0.7995363828398033  0.2019867203741231  0.0012898660182456
  0.7990204902436085  0.1987144283839805  0.1976147926978903
  0.7993672969762626  0.2020888064362036  0.3976496152757153
  0.8028698067155470  0.1988736211233320  0.5963221563925476
  0.8004139057801597  0.4000570336696953  0.4005266600043628
  0.8006727792602952  0.4033646206682805  0.8040681745342392
  0.7992850701822745  0.6040779070026231  0.2037232191119583
  0.8014254076134850  0.5966468671636262  0.4009107361997638
  0.8019492244293824  0.6001015959254838  0.5995523848583442
  0.8009042039113329  0.6005158625516467  0.7976592237445795
  0.7990207733215250  0.8004612187102318  0.9991171624628220
  0.7951910367837798  0.8002248900978949  0.1935366267375537
  0.8001701813362198  0.7993264542354048  0.8032931951640979
  0.9974080339823439  0.1999926741146381  0.3989347951459029
  0.1990121201813989  0.2003420200117139  0.9995692714610549
  0.6005352231709292  0.0011770640364039  0.3992981796326300
  0.5979957386837170  0.2001953697066237  0.7995295867486107
  0.8003314945539522  0.3984109982325522  0.9970268212874034
