Zr V  Cr
 1.0000000000000000
    15.5277836321495606   -0.0011014415353407   -0.0036444284316418
    -0.0011015311309700   15.5268057001839015    0.0012045176117796
    -0.0036459540422085    0.0012051907892001   15.5242636607114743
 Zr  V   Cr 
   5 117   2
Direct
  0.9969247808169269  0.1995096512185476  0.4020622918508317
  0.9923420776105301  0.3999362091748821  0.9954453374441904
  0.5995398423691077  0.9997251535701815  0.9997737838591308
  0.6004374070971372  0.9992577599202216  0.7747099975255506
  0.8053630528682133  0.3984252192270196  0.8080709087785710
  0.0010645882687412  0.9983047325408603  0.9993529520914470
  0.9998408407558269  0.9984262903325328  0.2000226647875060
  0.0001969815878384  0.9947133180211343  0.3996956473053161
  0.9987327374835919  0.9993875568980232  0.5997718864129494
  0.0013785751353321  0.9986540012411600  0.7987747751405038
  0.9996166243061375  0.1951154546994901  0.9990364541180188
  0.9994041461926358  0.1995322078074151  0.1960319724010201
  0.0027695543887951  0.1987245539140266  0.6040026049389344
  0.0014873853730637  0.1981271639300942  0.7987379883435204
  0.9996602480301309  0.3999097372864020  0.2023612894403842
  0.0000185796793118  0.4041053450913014  0.4000489061894785
  0.9996818368450681  0.3991743573771608  0.5985297644721843
  0.9987037492833762  0.6039224166294170  0.9995431982698102
  0.9994780260948783  0.6000088039901817  0.2000709214255935
  0.9994284505256072  0.6006365137134941  0.4004690029612089
  0.0001046081334279  0.6006274389402708  0.5994188012502280
  0.0021427086059392  0.6006140002296796  0.7980496118207371
  0.9995811445545698  0.7996569112434971  0.9995916093723217
  0.9996136365567633  0.7993118669821804  0.1998222906916860
  0.9998556985975728  0.7984671272290040  0.4000106267424636
  0.9998104757767103  0.7993218804893019  0.6004530454838141
  0.0009442778358769  0.7994756933952518  0.7998572637323514
  0.1982128207261806  0.9989275392934442  0.0006789248962797
  0.1987698304993873  0.9997057761558350  0.2005074386888263
  0.2002595461575480  0.9986458494745336  0.4002670327263764
  0.1996719780243218  0.9989619092655830  0.5991032818162020
  0.1987104477432151  0.9992174857644341  0.7992579863639280
  0.1993503988844349  0.1998579384045682  0.9996666667582079
  0.2000408180277991  0.1994468556998105  0.1992813391070874
  0.2036284338132541  0.1995851745190405  0.3995354432236498
  0.2017808416290028  0.1993444604297168  0.6010904091859847
  0.2014572376483393  0.1991242399878465  0.8012078560010421
  0.2014717315566989  0.3996918525137312  0.0010913794595765
  0.1990026705316947  0.3992774562708244  0.2006000550486287
  0.2006914073110327  0.4002927032600084  0.4002765985031708
  0.2010010102804824  0.3996288022238988  0.5990938580649577
  0.2023458454200736  0.3996109682964220  0.7991249425616178
  0.1990429725165450  0.5992994427335718  0.0002304772430328
  0.1990362447298680  0.5993831285109882  0.2003367092035983
  0.2001963029457745  0.6000094113274537  0.3999508242761169
  0.1997835369519449  0.5990484618702278  0.6002244412334712
  0.2010786010081001  0.6000719605293817  0.8005826519470184
  0.1996770708986167  0.7992449499075133  0.0005099154722347
  0.1995138128013741  0.7994193111545030  0.2000997543497404
  0.2001777160188163  0.7986279692223438  0.4000924584615131
  0.2004273980724695  0.7998586254051496  0.6002401417884240
  0.2003136679454863  0.7991706073668163  0.8005929062302637
  0.3941752397132439  0.9991732237070684  0.0009336831039450
  0.3984038570654181  0.9994315489708117  0.2004821626381258
  0.3987867025780225  0.9990065752193980  0.3994215945464052
  0.3995360494382471  0.9992916903913992  0.5997473781661986
  0.3953079626572732  0.9996764198963664  0.8001604321327681
  0.3995333189026274  0.1993465442460602  0.0001079156221675
  0.3994807576534039  0.1993418690953737  0.1992845161384359
  0.4003478543227584  0.1991779613758485  0.3999693020658723
  0.4004675862181732  0.1994913414709535  0.6009361527635543
  0.3997382292263191  0.1996027396261636  0.8018657325209835
  0.3983547577961040  0.3999601897189080  0.0008572465476964
  0.3990995518468707  0.3996688758552056  0.2013290330022171
  0.4000572410662537  0.4003709938984424  0.4004758342407712
  0.4003323095466170  0.3996686913331735  0.5999748047093171
  0.3997731700408626  0.3999116170807936  0.8001604684013326
  0.3994032714111151  0.5999255868947313  0.0006165755472908
  0.3991168528604788  0.5997458213569365  0.2004525568024436
  0.3996835668207312  0.5999100520874340  0.4003403510422692
  0.4006340530206024  0.6000204327512303  0.6004742747605412
  0.3995034209383562  0.5998454880669712  0.8008086419309205
  0.3991490026117424  0.7994103708856372  0.0003683392017737
  0.3997903428961518  0.7995776353696834  0.2000922854206420
  0.4002869765646998  0.7993888584670426  0.4003414751416958
  0.4001281413618636  0.7993992611592026  0.6004843801802239
  0.3998933585886573  0.7997915231788477  0.8011735047622408
  0.5995149061617754  0.9994582052694200  0.2043030620180203
  0.5991121013587191  0.9990241554017605  0.3976677430525020
  0.6007926415173199  0.0001795952489629  0.5851571404785675
  0.5983309445720293  0.2047362541137586  0.0009720433490661
  0.5984592496926344  0.2004635956157147  0.2001315926302453
  0.5984230182422614  0.2008446902026979  0.4009652539640022
  0.5982416806010384  0.1990087134069666  0.6005647451515639
  0.6007513300599913  0.2043847653013035  0.7994181052045800
  0.5952697374832235  0.4013479116696598  0.0016008217100232
  0.5982362765902712  0.4001600249679233  0.2022989252571816
  0.5988762209886532  0.3999933457944708  0.4010673998274969
  0.6015100030065552  0.3985878745787527  0.6001277343077367
  0.5977174485587301  0.4008685312190883  0.7994753728247758
  0.5987638143005029  0.5983948853493953  0.0004856105096249
  0.5991859470602218  0.5991482307755394  0.2010688234344313
  0.5995182818697876  0.5994019137337828  0.6001291502787524
  0.5996396625446275  0.5983629769214401  0.7995923195788956
  0.5993068070505914  0.7942472495903857  0.0009186842363105
  0.5992614811636073  0.7984474974486638  0.2006813158398848
  0.5995014179956708  0.7980063291415357  0.3995363924351361
  0.5997050290489234  0.7988916493346800  0.5997891109839536
  0.6000086322553408  0.7946421415141361  0.8003558724855626
  0.8046857483649782  0.9981239576731576  0.0020940128637315
  0.8005677297363955  0.9989899373924179  0.2007347065542960
  0.8000511155767559  0.9992868485207663  0.4010129374311868
  0.7996065361171595  0.9970799378677585  0.5998633480624355
  0.8054602017720850  0.9984202500675388  0.7996422564085444
  0.7981101808440445  0.1978968946262938  0.0015635305558921
  0.7987828058075955  0.1988207126721429  0.1990227145126025
  0.7938157443035706  0.1986580908425679  0.3960414736056556
  0.7999478363816149  0.1940645842902000  0.8048450727389203
  0.7891260143655785  0.3996058392939217  0.0116560037131578
  0.7985137733231389  0.3999047842400499  0.2045301392539730
  0.7985903230125729  0.3995800514360338  0.4017339035245759
  0.7997233144688773  0.4027932946294914  0.5980820157464053
  0.7982050473469848  0.6009564601339878  0.0017283346156446
  0.7996621583234726  0.5999926324385734  0.2013053103922989
  0.7992079794244840  0.6003606142553715  0.3999301684838074
  0.7996375837716708  0.6004951154752916  0.6009712686247070
  0.8004686335295840  0.6039151589951856  0.8015596374103396
  0.7991981727414558  0.7999076013802762  0.0011795570713324
  0.7993393015284037  0.7995582940024093  0.2005637601457037
  0.7987958158678742  0.7990676937145170  0.4001502363626687
  0.7997076065797127  0.7993528559943437  0.6000645348902105
  0.8006381029963638  0.7996574645480369  0.8021373279372528
  0.0076319971050018  0.3997456885457258  0.7931438931184753
  0.5994447066129458  0.5992076122414828  0.4009690858404470
