Zr Ti V  Cr W 
 1.0000000000000000
    15.3904450603896628    0.0026184067791538   -0.0182378713251041
     0.0026124996044923   15.3940554216993455    0.0121662293810218
    -0.0182403817796753    0.0121741196639447   15.3895487302281460
 Zr  Ti  V   Cr  W  
   3   8 100   6   7
Direct
  0.2018033845554782  0.2071351049204220  0.7926880588269988
  0.2054245123771464  0.3888913224386086  0.6084451424607776
  0.6150113174383699  0.5835153672163065  0.4118969709530617
  0.4002074595076566  0.2055253699133374  0.1923770968841889
  0.3910844940027722  0.3904469831377344  0.0043491457434577
  0.4071904680694491  0.5941800663445224  0.7995493044729173
  0.6066187503978206  0.0028148944828621  0.8014154396743555
  0.6017559803405852  0.2119090205358804  0.8043797030943088
  0.6009617383771408  0.3936720489751492  0.9987300865966733
  0.5936818991246828  0.4140429625452028  0.7937833823883569
  0.7995463976909931  0.8014703593243893  0.9923167225417817
  0.0001590713865075  0.0052617811572239  0.0003320215157117
  0.9986595929998048  0.0001048762793062  0.1985517501568154
  0.9978851637690873  0.0010433406024620  0.4650389289082867
  0.0005880162227296  0.2006579461858513  0.1954913007144482
  0.9990568137870722  0.2020719506615483  0.3993656716726490
  0.0009526423741426  0.2031448771717978  0.6018426984409375
  0.9960644233002065  0.2029613950159835  0.8037242217205001
  0.9976187132843495  0.3970461742528240  0.0007377185934887
  0.9980814241650081  0.4001228779204900  0.1998095030038759
  0.9947937822048505  0.4005054415073218  0.4006121937445685
  0.9958714705533713  0.4000168169437294  0.6024475973520355
  0.9982018157611333  0.5988215402579730  0.0018032777907011
  0.0005905220189144  0.6001210368172197  0.2026980824880973
  0.0014264270495275  0.5991960360641709  0.5969879335444630
  0.9975012396518178  0.6010091282138698  0.8001224608862972
  0.0047724175131472  0.8009718235429304  0.9987381605519011
  0.9999664619590298  0.8013168927451818  0.1981407820827903
  0.0013139227400966  0.7971260031232010  0.6008910255726867
  0.9945955902782168  0.8002760813201293  0.7997531606647375
  0.2003209003674394  0.9978701525345276  0.9976087181178258
  0.2003390219872620  0.9977749332028630  0.3985008529256434
  0.2012307696370296  0.9944431865761982  0.5979887946889216
  0.2000410564866983  0.9980286487921500  0.7976700794949114
  0.1974097144508615  0.1986671037620336  0.0015717942072183
  0.1990591306810030  0.1993889899200607  0.1990536751368923
  0.1990325997350812  0.1978148017812366  0.3951086272349927
  0.1978572162784144  0.1857423375033763  0.5906988994375812
  0.1952710905377358  0.4010906774359640  0.0037541378145505
  0.2001599736404483  0.4019038611013726  0.2012340598193646
  0.2000503740443250  0.3978215182421574  0.3993971861924692
  0.1983548410583565  0.4131694546274335  0.8118285307581010
  0.1995779250836195  0.6038959463437907  0.0015551810691596
  0.2009089828215531  0.6006581866994907  0.2000778913880381
  0.1974661914555375  0.5992952501334168  0.4000912607385363
  0.2017429163053843  0.5999880516022618  0.6021712284277511
  0.1976843861380260  0.6032289491382222  0.8010306207073562
  0.2011782439140060  0.7996288297806831  0.1953386685137819
  0.2009854327584039  0.8004450104201917  0.3984858062493849
  0.2004118388468954  0.7989474080056564  0.6016721768298640
  0.1986144401785823  0.8012089563076205  0.8033987624659669
  0.4000740910061288  0.9997041615136365  0.9982301133769145
  0.4016896948418895  0.9987322558072317  0.1989537084280429
  0.4016763734665741  0.0003529006671370  0.3984340468178080
  0.4013775367001286  0.9991246137458428  0.5995341347225820
  0.4017100440661698  0.0011177428291448  0.7985128701067508
  0.3980164767611881  0.1944733983597815  0.9945792641125777
  0.4005068878919469  0.1999698924646516  0.3998611752732663
  0.4011992673950832  0.1983936998105482  0.5987454477551649
  0.4056414940830692  0.1995787274147799  0.7986221520525094
  0.3999951833079896  0.4034276329801111  0.2033682052863725
  0.4008013647034470  0.3989882498470703  0.4018694562494167
  0.4064628429858468  0.3975210092613539  0.6009264709580614
  0.3975198910052150  0.3969932222689525  0.7994289558519075
  0.3998737437179929  0.5984382877530836  0.0020177684557341
  0.4017099998862114  0.5997782177163777  0.2013915164387596
  0.4009154763654838  0.5978047204778563  0.4011279498540717
  0.4002225726927899  0.5981371956964902  0.5982831303639692
  0.3954966035681943  0.7992824513783713  0.9977648825273676
  0.4005896930897124  0.7998210542461334  0.1993190543231008
  0.4014260024749043  0.7974563961405327  0.3992523171776063
  0.4001042117521357  0.7992398155756522  0.6015024924495406
  0.4022433757866383  0.8014180793777832  0.7994390886084414
  0.5994957539290610  0.9987678965373832  0.0034570821148241
  0.6003298301213034  0.9993196999559293  0.1991687193610808
  0.6050048578436203  0.9985581108176147  0.3984939732821980
  0.5979968794219421  0.0014430277906905  0.5978576551064954
  0.5999829145783593  0.1964887804597588  0.0015516383428216
  0.6010118249989741  0.1996166641591796  0.1962299547709762
  0.5990598353560845  0.1967866307919126  0.3973965191321763
  0.5976625096086559  0.2020848948948676  0.5989067345783284
  0.5976944635735663  0.3990905061530354  0.1997319880936821
  0.6016201856107056  0.3881214848668834  0.3970133836492013
  0.5989448513796257  0.4024755328594075  0.5941916944003940
  0.5990019034582544  0.6002785402589589  0.0018138008925781
  0.5977636106688973  0.6009560281195482  0.6117198117782451
  0.6044433222643606  0.6044395125367457  0.8047283664783957
  0.5948644202457808  0.7994791070013827  0.0000239656760235
  0.5991131031450764  0.7980122923997324  0.1987941926128459
  0.6009308683474288  0.7967094687636986  0.4015548318126225
  0.5972672193583681  0.7982717172184471  0.6009282944040423
  0.6035253634265256  0.7983428501943317  0.8019145411575686
  0.7991906551091588  0.0031679634697045  0.9950395347157928
  0.7992041024281095  0.9992370161271464  0.2041417271769990
  0.7968530278342013  0.0017101338714982  0.5996486929912184
  0.8039898578849042  0.1999426658892000  0.9998253809098789
  0.7992645096820165  0.2006992947241460  0.1981170675058010
  0.8004961256123382  0.2028285928725175  0.3997819930258245
  0.7992342981504179  0.2005631314335864  0.6004412616578881
  0.8016009101097098  0.1976278149655573  0.7990419673405896
  0.7987112439806077  0.3997437582989377  0.9991915350322406
  0.7975705895285182  0.4007617523134117  0.2041831758479165
  0.7970598247492017  0.4002515482548778  0.5977114889076104
  0.7953096282125172  0.4020643183688014  0.7969884090037389
  0.7994816748311796  0.5971862219268614  0.0008093800227562
  0.7999846403697319  0.6019587988951538  0.1992440370055172
  0.8128667202823417  0.5993527481348364  0.4000275341808410
  0.7968454187925094  0.6019840318348134  0.5991401925071103
  0.7992168028970659  0.7998327905484789  0.1995306952454570
  0.8002303924644874  0.8035209524258218  0.4009431031481561
  0.8001845192489706  0.8010737032382812  0.6023201291747046
  0.9984256654988818  0.0017973492335518  0.7968047193889920
  0.9952611907679537  0.4033880870013284  0.8016654109436352
  0.0011683521110535  0.8039786832039288  0.3997361363044682
  0.2001495621148676  0.9993321330483489  0.1995349942531825
  0.6008981221105479  0.5989406277804566  0.1993663306200373
  0.8007379444905598  0.6030996567660435  0.8000036483796077
  0.0023757689730148  0.2011032159994687  0.9998034565801706
  0.0025823817365704  0.5950709685846660  0.3995144296115187
  0.1992181344090463  0.8014980181200712  0.9982402960637290
  0.7988101730755858  0.0033793469504499  0.4029995306874578
  0.7967678709428593  0.9986026145287878  0.7980314967127867
  0.7942816248047291  0.4035819818893038  0.3992769716295206
  0.7993673775862083  0.8059643212786951  0.7961555480706890
