Zr Ti V  Cr W 
 1.0000000000000000
    15.3904450603896628    0.0026184067791538   -0.0182378713251041
     0.0026124996044923   15.3940554216993455    0.0121662293810218
    -0.0182403817796753    0.0121741196639447   15.3895487302281460
 Zr  Ti  V   Cr  W  
   3   8 100   6   7
Direct
  0.2018851050920779  0.2072313279211549  0.7925148933963724
  0.2053214667488229  0.3892985653386410  0.6084473782197003
  0.6149316124557600  0.5834994686993468  0.4119887940204593
  0.4000190113361755  0.2053985652779260  0.1922786665707585
  0.3911518293027820  0.3904252760133901  0.0043080208214710
  0.4071941806854832  0.5942600368208020  0.7995427752866555
  0.6066814988525876  0.0027338286135954  0.8014572802178087
  0.6015722203841810  0.2118150598655172  0.8044818268511975
  0.6010055991188432  0.3936632832886939  0.9986944791053202
  0.5938702928285993  0.4139671008332897  0.7937364481679906
  0.7994089175821708  0.8012266034227965  0.9923076656834635
  0.0002550083871605  0.0053546771751733  0.0003556954166644
  0.9987834979899474  0.0002637200975247  0.1978662040337748
  0.9985131393972664  0.0009279364145413  0.4991641717720708
  0.0004320422380051  0.2003408039399474  0.1957438825265382
  0.9989337738110339  0.2025325355907079  0.3990105356859052
  0.0006120296038612  0.2020481170125127  0.6013279388507924
  0.9960687577984397  0.2029959157736275  0.8037603538576907
  0.9976486770964859  0.3970605596146299  0.0007013755902172
  0.9980522345898901  0.4001739610554036  0.1996058999986838
  0.9947453726915830  0.3999268691809639  0.4006139956121094
  0.9958708849341147  0.3997972665884307  0.6026042215289907
  0.9982143034934170  0.5988941423680099  0.0018415428897663
  0.0005834257281545  0.6003091542862133  0.2028246559258186
  0.0012877558508955  0.5993216620435312  0.5969258845316104
  0.9975311319378412  0.6010161269385688  0.7999413938445196
  0.0048196037354884  0.8008715488726992  0.9986940471974177
  0.9999260750417522  0.8016612561797222  0.1984214958378070
  0.0010680733153938  0.7980248159995115  0.6007417219737361
  0.9944039480764038  0.8001202008721805  0.8000074514615405
  0.2005205811165182  0.9978400665948366  0.9975215552036460
  0.2015845080349466  0.9978876175149907  0.3982966132706902
  0.2006757525177167  0.9944012581963474  0.5977481760054421
  0.2003608701782912  0.9980244892164509  0.7978125086493721
  0.1973640099393421  0.1987349738946396  0.0014983752407001
  0.1989351886340072  0.1993671786644838  0.1990372342154771
  0.1988957106236992  0.1976790376137019  0.3950339404255601
  0.1981781015444562  0.1861705942449121  0.5905248112091754
  0.1953002014089722  0.4011012301408937  0.0037330016206645
  0.2000504888562441  0.4019571688345611  0.2012353850007704
  0.2002903444735390  0.3978458551341367  0.3994088543499235
  0.1984668253496235  0.4131732621322303  0.8118241756306528
  0.1995614917762745  0.6038327498802879  0.0015370620352470
  0.2009299183828999  0.6007349763697416  0.2000729988673139
  0.1973364668661191  0.5993976397491297  0.4000784424126731
  0.2015669588278986  0.6002520598566876  0.6021295499088716
  0.1976162175506218  0.6031854845839099  0.8010000286119506
  0.2011697510049842  0.7995314753271109  0.1953328034394916
  0.2009242208032600  0.8005128086211298  0.3985015308673718
  0.2005438588539232  0.7987472388557270  0.6016375388763673
  0.1987007682734464  0.8010237651226219  0.8033124970873069
  0.4002195201355879  0.9996768278081897  0.9981912730338106
  0.4019061381632639  0.9986574275809990  0.1989317426760819
  0.4018087938455744  0.0004335539857296  0.3985602697622826
  0.4014787623611653  0.9991092437522388  0.5996894015395955
  0.4016761504043109  0.0011188950105581  0.7984780423657445
  0.3979785174211274  0.1944142366210590  0.9946268392192407
  0.4005859201677468  0.2001366948647805  0.3999494515612687
  0.4012693625940455  0.1983180789070387  0.5987787997414757
  0.4056364769254872  0.1996590117573926  0.7986817776984239
  0.3999809585263711  0.4033758806847047  0.2033079637078088
  0.4007643779832968  0.3990231389381352  0.4018845883372387
  0.4064381245019681  0.3975739895205823  0.6010685589301690
  0.3976768849862351  0.3970397510813762  0.7994834841950470
  0.3998730686634299  0.5984226007473528  0.0020349378655141
  0.4017238789155620  0.5997166132686480  0.2014319307450833
  0.4008504662103862  0.5978218751468466  0.4011787360125600
  0.4002015028204083  0.5981524424143075  0.5983094816585238
  0.3954945931769764  0.7992820680992007  0.9978288286528011
  0.4006456970972495  0.7998083550493141  0.1993544997996855
  0.4015915200341355  0.7973698127270155  0.3992984364382596
  0.4001146570881656  0.7993211735891216  0.6015301693546937
  0.4022463318149003  0.8013632654708503  0.7994847186895668
  0.5995290031322493  0.9987283163052130  0.0034080631571034
  0.6004563916210240  0.9992593739698753  0.1991196608198367
  0.6049936150021031  0.9986437919881541  0.3985977296017598
  0.5980677525614791  0.0013962341130124  0.5981015140546538
  0.5999498155354210  0.1964457335901848  0.0016353369607580
  0.6010154965234634  0.1995401256731525  0.1962733670371121
  0.5988548474143898  0.1968138136678567  0.3973848553545901
  0.5977633904901971  0.2019216858655958  0.5988931404933557
  0.5976684703426819  0.3990454840298660  0.1996801081462447
  0.6014666308386886  0.3881242928270921  0.3969930925692757
  0.5989064407161681  0.4024915594998786  0.5941962749405250
  0.5990051896884782  0.6001971935341485  0.0018298372301306
  0.5977859688387703  0.6009676689667295  0.6117946611924018
  0.6044346700407427  0.6043878408080051  0.8047405401940368
  0.5948131802835180  0.7993821900876205  0.0001137378749509
  0.5992054280237432  0.7980064263507886  0.1988671128055894
  0.6008174926587611  0.7967379939026829  0.4015604263666266
  0.5973492678617031  0.7983724533005953  0.6009148105978257
  0.6033645588900978  0.7982873166551170  0.8020346359315967
  0.7991303621580857  0.0031292386402172  0.9949028562841281
  0.7995612669778189  0.9991189450714728  0.2040159920623573
  0.7977630597498174  0.0015227094378487  0.5997272512346367
  0.8039430205409163  0.1999521395801513  0.9998658538150644
  0.7992124313067340  0.2006523906563246  0.1981273889837686
  0.8003402731263795  0.2030107273286564  0.3996961864007917
  0.7988993319549174  0.2006660647393926  0.6003576548180710
  0.8013042169277632  0.1976586352875362  0.7989504615733813
  0.7987256907975218  0.3996913306805340  0.9990797019342446
  0.7975974806647409  0.4007939718918186  0.2040943543442043
  0.7970860901022429  0.4002665184828044  0.5977113095958729
  0.7953992812202465  0.4020466414100313  0.7969772183568674
  0.7995234374460499  0.5970674203335756  0.0008005191924066
  0.7999663253302218  0.6020378468536176  0.1992172425400714
  0.8130338728016856  0.5994594907934383  0.4000103680237329
  0.7969818462165976  0.6020518326740257  0.5990992685821537
  0.7993008427984779  0.7997551944002615  0.1995469456937167
  0.8002486534888461  0.8033727226262055  0.4009508054457513
  0.7998454151164878  0.8008086517590168  0.6023075218567547
  0.9987283699146771  0.0017154600178136  0.7974661927702315
  0.9952800946002931  0.4033111417954140  0.8016570916369482
  0.0012235934678158  0.8060484603252466  0.3996910560334875
  0.2002052119626518  0.9992875871541553  0.1995892697801431
  0.6009224913589706  0.5989019240441553  0.1993943659153736
  0.8007303548864537  0.6029533316797542  0.7999751236440570
  0.0023390360214333  0.2012015541763693  0.9997326252581177
  0.0025834891357693  0.5938046712598513  0.3995650227728277
  0.1992538713017028  0.8014835849450933  0.9982282196145327
  0.7976118848126338  0.0035908624262782  0.4027494349651176
  0.7970935301064438  0.9984933918566977  0.7980847858580711
  0.7939980916451064  0.4037408533801781  0.3992332598459550
  0.7990261128090737  0.8057254918644866  0.7961406999805892
