Zr2 Ta1 Ti3 V111 Cr3 W5
1.0
  -7.5249999999999995    7.5249999999999995    7.5249999999999995
   7.5249999999999995   -7.5249999999999995    7.5249999999999995
   7.5249999999999995    7.5249999999999995   -7.5249999999999995
Zr Ta Ti V Cr W
2 1 3 111 3 5
direct
   0.5996061992720537    0.3973274726032356    0.6037071747867971 Zr
   0.1975712037674695    0.8030879176334551    0.9981075217245607 Zr
   0.9983376109519583    0.1968947441666036    0.3976206210718978 Ta
   0.4048306420813213    0.3981802392794551    0.7959008944981301 Ti
   0.0030876213367989    0.1968476872712883    0.8031987484283449 Ti
   0.0006983691465113    0.7998340552746224    0.4016678535511057 Ti
   0.7999141654981837    0.0010661750441847    0.9994245031627991 V
   0.6081003267427415    0.0033197587258591    0.0013083547850807 V
   0.7960958276107075    0.2010877553386540    0.9947301375390446 V
   0.7993322179905408    0.9979779624330534    0.1999752496016353 V
   0.3971395005085752    0.9984110922633380    0.9988541917775698 V
   0.5995040369969633    0.2007846891571060    0.0009598528967196 V
   0.7986513277276810    0.3987581058457675    0.9981871309546810 V
   0.6010592628414739    0.9997851707390828    0.2005831675747121 V
   0.8039705448154912    0.2015802560729446    0.2028993946549880 V
   0.8019945455305161    0.0001090488887305    0.4014577723659739 V
   0.1964797162212295    0.9962329334659491    0.9959870196954053 V
   0.4061929356709650    0.2057970092447737    0.0027513462507351 V
   0.6018661755317500    0.4004745783086719    0.9994205551112314 V
   0.3954824190625701    0.9974415287437349    0.1973589994598320 V
   0.6001567991371212    0.1968515135048536    0.2004053195122450 V
   0.8001801997718490    0.3945018080301856    0.1999396206806771 V
   0.5981380206570668    0.0011929847855058    0.3980082724974784 V
   0.7962821622383405    0.1959192799641983    0.3995712765720124 V
   0.7958881556790268    0.9978083322633469    0.5978022145755607 V
   0.9976564466879576    0.0025337388655708    0.9948459686760563 V
   0.1987676376759129    0.2000144771346723    0.0037887621977959 V
   0.4007813542333123    0.4028443815055451    0.0067635483419027 V
   0.6014072979990512    0.5970171832733169    0.0060644425450950 V
   0.7982109925295798    0.8000106747796796    0.9979400928369967 V
   0.2000948921140129    0.9997185306191705    0.1991290154704058 V
   0.3999289082490454    0.2013335324175864    0.2023263925509552 V
   0.6023047373413322    0.4018529877656277    0.1974679209151411 V
   0.8002791857027720    0.5953058620424259    0.2035298151669601 V
   0.5957845815479925    0.2001383990624301    0.4003054798777515 V
   0.8044904240449409    0.4029824981295126    0.4021522701826820 V
   0.5965836706699960    0.0009971472713874    0.6025548571940634 V
   0.8002280345303536    0.2024009688286194    0.5950583952090810 V
   0.7967137433909373    0.0012633130914479    0.7967105253546145 V
   0.0003401743143252    0.2025351916437798    0.0006449587353965 V
   0.1920194311936377    0.3941830429372048    0.9980223295377549 V
   0.4010825137648388    0.6022535350866938    0.9980800610033811 V
   0.5954003649021485    0.7945601786984806    0.9909006723704533 V
   0.9994014389092913    0.0024416854378273    0.1993308307662593 V
   0.2087415931813659    0.2031029877158929    0.2044602194187762 V
   0.4052541182640813    0.4073668354603224    0.2081973240856402 V
   0.5978238507854029    0.5995396997927924    0.1974875852832192 V
   0.7945375485071063    0.7991472277573399    0.1965290764455020 V
   0.2000493238579510    0.0028356712368565    0.4039526658800809 V
   0.3954686067668219    0.1996739339071217    0.3982540929059070 V
   0.6014185064222519    0.4019503653449235    0.4016497575111901 V
   0.8008869331117455    0.6042359018089661    0.4033710869817528 V
   0.3980723463227325    0.0041142496155534    0.6013464495744619 V
   0.6074474853180798    0.2021212694548463    0.6038003287220493 V
   0.7951123016803682    0.3961529770377371    0.5990284337516342 V
   0.5992709069678366    0.9991536454078344    0.7999207341953233 V
   0.7970128157101328    0.1977868120783513    0.7987476153648195 V
   0.1948327474486595    0.5939183619558913    0.0010689243040700 V
   0.3989233096106052    0.7984884801840844    0.9990809482029626 V
   0.1994833126551371    0.4003837007267435    0.1994863694058962 V
   0.3977263200895344    0.5960334061017183    0.1971824979724668 V
   0.5993608616914773    0.7948901127467565    0.1947028636001163 V
   0.0012861116092121    0.0005033695658467    0.3984222979169332 V
   0.1993760199366523    0.1946954059125636    0.3970580885564663 V
   0.3973153639880809    0.3979659170753894    0.3974373992134242 V
   0.5949451372937895    0.6002420512786045    0.4042295282228007 V
   0.8047241930930761    0.8009729398882273    0.3976794223772890 V
   0.1983532474887560    0.0023366585195565    0.5992808871430991 V
   0.4019997444543189    0.2008830183287896    0.5996075222899651 V
   0.7995501913515723    0.6013127201383703    0.6014136707887719 V
   0.4018726497077226    0.9985418191375296    0.8009488871787462 V
   0.5960064215087999    0.1928686320699356    0.7945555876432184 V
   0.7977792542329648    0.3965110642980029    0.7982120484067508 V
   0.0001235538384990    0.6007487821045181    0.9998474276028615 V
   0.9988758315986442    0.4038035922648885    0.1999677095323323 V
   0.2002123355670305    0.6011644231224594    0.2006405029222464 V
   0.4051024602047476    0.8056089925272800    0.2022403673357383 V
   0.2039151652249948    0.4026995113873256    0.4044758921851531 V
   0.4016416341237722    0.6039905064852680    0.3986371963591794 V
   0.6011527273959898    0.8029356210806098    0.4019367918153661 V
   0.0001438060365394    0.9987648161805326    0.6001435156717880 V
   0.1953851203991666    0.2035794015290159    0.6017111008136443 V
   0.4001914491022548    0.4023425859280527    0.6072252801946836 V
   0.6061509923068897    0.6001040170658973    0.6018081853188774 V
   0.7994996768549258    0.8021825630222924    0.5938014547432401 V
   0.2004677911594250    0.9965496356491477    0.7936257719391817 V
   0.3989982412945310    0.1990649080902402    0.7987702442069514 V
   0.5938383297929172    0.3980846892118831    0.7988886279340007 V
   0.8031171790541997    0.6005557376957672    0.8005358460687035 V
   0.9960547373221940    0.7988618684689017    0.9952097927519989 V
   0.0017004149007903    0.6036990924318841    0.2033406883453128 V
   0.1984512450108210    0.7974037919465833    0.1982085120137720 V
   0.9969881198689438    0.3977649562892134    0.3944395650960430 V
   0.2017442024920907    0.5976129121823934    0.4013260044928210 V
   0.3974889015982537    0.8056557388024322    0.4028021083385159 V
   0.9959907501003126    0.1983126541727074    0.6038030310002694 V
   0.2043457045750011    0.3998011065402696    0.6051254766048879 V
   0.6004640655677403    0.8017495316552674    0.5977195866400223 V
   0.0012283736249032    0.9961393624782597    0.8049059599396661 V
   0.1978488890605265    0.1986308352232365    0.7999953044364028 V
   0.6000540924330875    0.5970329951178757    0.8057474073434590 V
   0.8002364535830481    0.7982294358349313    0.7979480468597817 V
   0.0017461014391759    0.8023543918328513    0.2073286891135677 V
   0.0002348583790943    0.6024864046865152    0.4011974035744593 V
   0.1967593489028079    0.7991830931706864    0.4006047157324159 V
   0.0013569128557136    0.3993392398346087    0.5990369628962183 V
   0.3968097817888305    0.7925339532142859    0.5964614342588266 V
   0.1958262135618300    0.4008003771740528    0.7960052760868006 V
   0.4011537150494260    0.6008803026877924    0.8027293846545988 V
   0.5995889791901299    0.8054519448051124    0.7997286991304657 V
   0.1994575944700140    0.8000826366127014    0.6010034724275222 V
   0.9993100095472115    0.4014570484559149    0.8008715061695779 V
   0.1995640146499735    0.6006107456476305    0.7985354210523383 V
   0.4001181039221068    0.7977772157672192    0.8014192251874772 V
   0.9983310651502427    0.6053563607754442    0.8002714343354729 V
   0.1989461866852592    0.7966455405452481    0.8016809335327512 V
   0.0004311881768446    0.8001465201970407    0.8011283814055284 V
   0.3918422974740028    0.9983445913623351    0.3974634953051264 Cr
   0.0036755904114591    0.4036368908076026    0.0028867826707599 Cr
   0.4012211613961917    0.5944984014993658    0.6007965737750555 Cr
   0.8018824142515414    0.5995293145537230    0.0002494584074637 W
   0.9977031775199021    0.1963596474613619    0.2017117693713943 W
   0.1999362790697136    0.5976886265723158    0.5985322297330917 W
   0.9992442769867078    0.5980556648521885    0.5990807079530446 W
   0.9976808402399351    0.8005898188571309    0.6029647730598843 W
