Zr Ti V  W 
 1.0000000000000000
    15.3704372863088707    0.0041087699184726    0.0045828320708022
     0.0041071823098185   15.3593176205705255    0.0049868964281650
     0.0045832368054306    0.0049883200619353   15.3853693029952101
 Zr  Ti  V   W  
   2   2 106  14
Direct
  0.1975702329394237  0.9804494089591076  0.1704031851717855
  0.7913600178419558  0.4009708417541308  0.8085402738612091
  0.4087655233253978  0.7989287524180998  0.8067086999457713
  0.6122031070001915  0.4013694191620775  0.9899662829437459
  0.0039566612835131  0.9976846598173243  0.0045865393079449
  0.9915018897528117  0.0038899544826694  0.2027804341740898
  0.0003057073211039  0.9972434585176075  0.4002637690908542
  0.9941130835473678  0.9995029932740370  0.6035719946841940
  0.0022739592254943  0.9982102235418593  0.8018758676536660
  0.0005317647184991  0.1990255179956741  0.0009927634754121
  0.0004939884289838  0.2027461072241556  0.2033326445449159
  0.0011482441644011  0.2003060977060951  0.4013398475687094
  0.0018963109810168  0.2002122346499085  0.5996487426711155
  0.9998136474599776  0.2002820546730193  0.8013224376807001
  0.0039714311944203  0.3986044899231921  0.0063769121810686
  0.9985357026536863  0.4008066296012593  0.3971582076177895
  0.9322241799507778  0.3998839056738657  0.5993053287075389
  0.9991974208044533  0.4008366808548585  0.8043808643416097
  0.9986864884961143  0.6069011418558096  0.0011265801828385
  0.0030520535359571  0.5964990865122478  0.2007367273066736
  0.0001389397993885  0.6033874070321458  0.4016970581592126
  0.9984324721309980  0.5999830851135781  0.6016721111285178
  0.0029988701877515  0.6008689442575779  0.8000132771301592
  0.0086100061795407  0.8041001439948232  0.2015710987845377
  0.0000108386091768  0.8002207700436449  0.5944097746502622
  0.9993798641861400  0.7995025219154146  0.8082218494118373
  0.2006852452729027  0.0029545644575691  0.9799957698995185
  0.1983463120208059  0.9994849313362263  0.4105149312204663
  0.1984553068737352  0.0031783053281524  0.6055608478741729
  0.2006050196653759  0.2023884070382568  0.9982640233134261
  0.2009924390068917  0.1963512216533777  0.2002135685900314
  0.2021266159139586  0.1981316341198714  0.4032742932756326
  0.2011495551508671  0.1968279110187632  0.7954562074363879
  0.1964868060996224  0.4027334894437836  0.1953146416434794
  0.1993903155843869  0.4014368373788400  0.3999163464522357
  0.1988267159686225  0.3965735471817442  0.6012478744748411
  0.1976849807420883  0.4041051740857363  0.8046171453255764
  0.2007390076052065  0.5954055984112536  0.9957409508297063
  0.2008659668902291  0.5990674771663768  0.4009537277592202
  0.1990635907243881  0.5985242244402124  0.6048712211902668
  0.1946848222483515  0.7987632351213683  0.0002427401083123
  0.1955290561303387  0.8015300925824214  0.3957807450253325
  0.1994800201423885  0.7998724720209449  0.6002443920283628
  0.1985285290162878  0.7981146446857958  0.7996693920180153
  0.3958611471631786  0.0010174756025216  0.0030202590538612
  0.4041800269293565  0.9969878382328782  0.2010017675768624
  0.3992986359375089  0.0029603815945549  0.3998109092363158
  0.4020099684267371  0.9990211042070360  0.6012195717170886
  0.3981469806465840  0.0001696539972886  0.8013336213324819
  0.4009932480821337  0.2005125876152390  0.0026690442231074
  0.3996466686318770  0.1981515970435402  0.2047432952653508
  0.3958574690650190  0.1996763002537208  0.5953940038998733
  0.4004277199051497  0.1997000740786182  0.7997655656442807
  0.3955954334872190  0.3982756286219478  0.0012563426293803
  0.4023016654809725  0.4010730389923381  0.1986172651014502
  0.3996429508639548  0.3969186523136856  0.3971829898977500
  0.3989501854201908  0.4000518352107337  0.5985450074258141
  0.3967701035568724  0.3992828285797366  0.8006963546457811
  0.4013810538767290  0.6003538416349212  0.9995848881575342
  0.3999085466919044  0.6033687262133118  0.2002230926469217
  0.4003036108746897  0.6001841627561708  0.4005140682854404
  0.3983464377946552  0.6008308080725909  0.5987627486319808
  0.3959425900947878  0.5997214218280645  0.7998232275897308
  0.4011238146092828  0.8008496003098220  0.0068728507559348
  0.3998297583350575  0.8026105341743461  0.3949784595043780
  0.3993770319431636  0.8014749350405060  0.5934013217444346
  0.6001126499051000  0.0004506006394127  0.9978913600845303
  0.6019951329038103  0.0000913961009201  0.1978808638954624
  0.5991749957907154  0.0008092682804581  0.4013679710810159
  0.6017785421372188  0.0004773822333191  0.6027571919663230
  0.5973708898908018  0.9992134216192601  0.8016525189454606
  0.5990525712633136  0.1986477217312365  0.9990165172519181
  0.5987684387016382  0.2023450316664684  0.1989808343348942
  0.5951150354435899  0.2012996651156771  0.4012822834946155
  0.5994267370461762  0.2017746267922259  0.6012465433976714
  0.5969341634719341  0.2008500920782741  0.7999999146722607
  0.6025848268130537  0.4014050001582780  0.1991130505010751
  0.6020411214610265  0.4013382148614440  0.3996065802985599
  0.5973249842346746  0.4007865011773440  0.5995635940230640
  0.5900056527654807  0.4009420597965043  0.7949486863253958
  0.6006177331178834  0.6019160703416254  0.9981292006689277
  0.5985941646977063  0.5994848657034153  0.1980733825832618
  0.5995687861243996  0.5996381916304296  0.4016634368291285
  0.5993560254870173  0.5993595790814203  0.6020694801035159
  0.5951711661171234  0.6013781623106641  0.7999713044015465
  0.6000822666024082  0.8005246699518818  0.9992921830887150
  0.5941071663733357  0.7995268913752909  0.1989361099564569
  0.6020053689656947  0.7989489519964916  0.3984364472262321
  0.5989175812530299  0.7998098419756803  0.5994859114052463
  0.6027020410943268  0.7996477836331802  0.8003430900971858
  0.7998042831743722  0.0001135382473958  0.0048524496188784
  0.7980117105943795  0.9967997960882786  0.4012826091874934
  0.7999057758704819  0.9988558861980680  0.7990984949400305
  0.8007966351260638  0.1986319914754427  0.0014513087656887
  0.7980875905645362  0.1968467444436318  0.2027759472031620
  0.7986105198042250  0.2003579313547952  0.4032449182806432
  0.8004854113723603  0.1940684815345544  0.6005057978286342
  0.7997690605692900  0.1951099198228231  0.8006962853144556
  0.8074788669367714  0.4001975791504552  0.0081236614539786
  0.8041057678625434  0.4006106918670386  0.2038206941938867
  0.8006350775118860  0.4012702174937860  0.4012957127354188
  0.7999556816944856  0.6021995655436173  0.0010921592119573
  0.7992970167397887  0.6026006387356585  0.2006750719786282
  0.7986249950434832  0.6044222496069307  0.4025060539346466
  0.7994292054109320  0.6031978730806589  0.6027128760173457
  0.7991244370558204  0.6062657982476221  0.7993559265504527
  0.8046271146794718  0.8019571589221427  0.0039153304577434
  0.7954990179631836  0.8044596982789662  0.2046903073724303
  0.7997672384111034  0.8048928894926967  0.5962361872174471
  0.8005820201656428  0.8015969710572998  0.8007697561290997
  0.0007849261031061  0.4012261577814007  0.2018260280460315
  0.9984006392613196  0.8008002530927097  0.0049870830037982
  0.9974581940499011  0.7989219512465726  0.3987868655804105
  0.2006001100330901  0.9970132421319458  0.7960158975721087
  0.1992356002347341  0.2013923657481282  0.6013951404192871
  0.1998241497095916  0.3997430637283323  0.9993818798998956
  0.2035814057788986  0.5983240166935152  0.1972994026041981
  0.2005910147292964  0.6006314399242662  0.7997199665084271
  0.2028134825083251  0.7826326300473643  0.1993610227158757
  0.3990937427775015  0.1999075012686071  0.3992111130919380
  0.3946395335097906  0.8028520862203748  0.2007976304108717
  0.7967071385519242  0.0016631291684815  0.2017900855433348
  0.7984037293949527  0.0000349227799599  0.6015056548479073
  0.8033007120118081  0.8012574559681365  0.3987454531599766
