Zr Ti V  Cr W 
 1.0000000000000000
    15.4426403378846846   -0.0320005039046650   -0.0557208927597321
    -0.0320601671519035   15.4795610846132128    0.0067732802617652
    -0.0556571551947803    0.0068453986319217   15.4616290361641866
 Zr  Ti  V   Cr  W  
  16   2 101   1   4
Direct
  0.0093318140663126  0.7694345696785618  0.7851472872782506
  0.2424875049574085  0.1972256430118943  0.0280517714911639
  0.2009237181350999  0.2038168783728222  0.2418096020922646
  0.2021293529822764  0.2039736924880316  0.4491765603451470
  0.1618704777722864  0.2033420039884880  0.8230502774087486
  0.2067427131951011  0.7980088218025799  0.4039230555251269
  0.3808146057930002  0.1896483862532235  0.8048209511745088
  0.4034495288092162  0.5994595621067061  0.2032250595091691
  0.4067945092291448  0.5977416056783914  0.4276627001766340
  0.5877976522334757  0.0212851671712400  0.5750304581114055
  0.6002338104014422  0.2360132990886517  0.6094432893808509
  0.5964221697959189  0.3980176023779659  0.9998398138465450
  0.5855347769289279  0.4498791496129200  0.5971090699589314
  0.5940563950577192  0.6227616085844536  0.9892720960820002
  0.7873892152127151  0.0096759124044192  0.4106000368108046
  0.7985189174252832  0.3555500870877722  0.5632954304372986
  0.5871768934227305  0.6392855792559075  0.5916235130548058
  0.8078405844728243  0.9861352843285066  0.6437659405086847
  0.0092752529552945  0.0024785912797134  0.9973007958876022
  0.9998360860780402  0.0005095246132917  0.1961062343957433
  0.0008148686535094  0.9999406839591120  0.3981702087932581
  0.0027362456279446  0.9979439527837631  0.5999531770469774
  0.0079883450177169  0.0092997930811398  0.8002973610826517
  0.9874725094809944  0.1974135843917964  0.9995119180237219
  0.9982995429639999  0.2011885277264402  0.1985586117940009
  0.0000497828434242  0.1993728055707488  0.4009345139551017
  0.9975000754229590  0.1968023943780952  0.6017374335178638
  0.9771864377774284  0.2047403906082643  0.7995687013327338
  0.0033053525530338  0.3962247071326754  0.9969465675770184
  0.0047447205132865  0.3995728464830771  0.1959955008308353
  0.0008696935206430  0.4016941823704316  0.3990196008194820
  0.0004295440963502  0.3953979473557415  0.5986767636660021
  0.0000630958686719  0.5998894842726887  0.9905312440576930
  0.9996931418571610  0.5997265053103142  0.1964837231707069
  0.9996508041809404  0.5993704773717539  0.4010075804356158
  0.9949896969867946  0.5964685137907022  0.6006279890547817
  0.9997121217491129  0.8046300186688309  0.9962998612513785
  0.0017349481966491  0.7996527910454051  0.1962429733354150
  0.9982056335843797  0.8005925635425603  0.3954783137635744
  0.9976268101263529  0.8015749256704154  0.5896338483071143
  0.2032831092527603  0.9969613637650765  0.9935667287155220
  0.2021772081559272  0.0012485241408295  0.1925834317619111
  0.1985390806427606  0.0042552206281576  0.3964431050153133
  0.1970491525210789  0.9994176229326625  0.5985267345958484
  0.2067310384895142  0.9961483166105294  0.7964185735205522
  0.1994376854031591  0.1987053857114389  0.6321703495121470
  0.1972465815232773  0.4005798977588547  0.9973517617272317
  0.2035284216694020  0.4045835443615231  0.1966029779668201
  0.2038265646136235  0.4011263993312347  0.3979157793117692
  0.1983563873272094  0.3997138144972313  0.5989910339265134
  0.1982747020452895  0.4037174200274165  0.7973120892817156
  0.1985188724009500  0.6015509974020621  0.9996327636170097
  0.1956428175768123  0.6023188582578897  0.1990750465438077
  0.1956208047634509  0.5950020109828265  0.4010834710541882
  0.1974487414702473  0.6002583343717238  0.5973882229302738
  0.1913020477814110  0.5993058869823488  0.7987506859153127
  0.2055880182102723  0.8002024196736226  0.9982475179921926
  0.2025969748011346  0.8004024240529872  0.1962031491453951
  0.1953438765489181  0.7994459807482382  0.6071005788622924
  0.2092198482819927  0.7965401249871014  0.8010686859274460
  0.4020691527796317  0.0097693991330581  0.9910384456563558
  0.4010309229732018  0.0026618542211709  0.1955516395037458
  0.3963209570829810  0.0008863660362457  0.3978027347926961
  0.3896830300797970  0.0001630486950877  0.5971634375975805
  0.4043688818264800  0.9891231964592719  0.7924628111560050
  0.4360490635889600  0.2106668937723551  0.0051554719126181
  0.4085703573176961  0.1990185818581280  0.2032533326127178
  0.4018817425735375  0.1997538088299571  0.4003207133773024
  0.3961682178509660  0.1971913266867363  0.5979435033121921
  0.3913514701814427  0.3994377626678151  0.0006536147556950
  0.4013481232891479  0.3951176582931213  0.2021927258869881
  0.4053088757330982  0.3950495826427206  0.4026102391872039
  0.3922876897709018  0.3973751166773554  0.5999923523045739
  0.3917832064608011  0.5985381414731734  0.9967020693583306
  0.3887113570463641  0.6017707631524142  0.6159607308372993
  0.4016726624718516  0.5974027227627301  0.8032229825524976
  0.4060877524046806  0.7991515143102929  0.9983430252198119
  0.4033862875769568  0.8067500138329707  0.1969246996132303
  0.4074835294247454  0.8042844477080030  0.3977201337364787
  0.3966515977569601  0.8020103401354930  0.5968757438937587
  0.4038536073565586  0.7954076633265694  0.7986261540723451
  0.6002663083826399  0.0003008383514184  0.9926135668159216
  0.6038260869387886  0.9996110112790796  0.1881556967095303
  0.5874787102140797  0.9992812194702386  0.3770807954616643
  0.6007237050285258  0.9952189046216497  0.7947007352871438
  0.6081647733661253  0.1936547831571361  0.0023557508907823
  0.6053414777850568  0.2013592237594214  0.1999881092458838
  0.6027463939335156  0.1939377696419717  0.3958041771021679
  0.5928962145886879  0.2003116866100309  0.8046301565322089
  0.6009492936263375  0.4001969330173846  0.2051713912889029
  0.6059903421018447  0.3964414186321828  0.4019171674860080
  0.5981547426982592  0.4019524564498504  0.7957011061190841
  0.6082955893874062  0.5995905489897403  0.2015878270530555
  0.6103020508097512  0.6007999984316434  0.4012618061787919
  0.6040183249536967  0.8156622161765636  0.9987537407045740
  0.6021939298934277  0.7958235578430137  0.1953147546445777
  0.6048589861560737  0.8058207149190538  0.3950150336280479
  0.6009962786625414  0.8194807053823994  0.5962950317439175
  0.6020850034655547  0.7929706485618849  0.7953944472039043
  0.8024564520021574  0.0018426189318037  0.2014211618197382
  0.8041447294868665  0.9941824784331175  0.8329532748758618
  0.7955413342948185  0.2021908780269212  0.9987377380025293
  0.8009521084189469  0.2001155898162231  0.1973094416089110
  0.8019036079248879  0.2136844729950410  0.3946078135103968
  0.7874786599022965  0.1949949421928249  0.7993303821479980
  0.8044331269435648  0.3994471871427787  0.9976271568058968
  0.8007388092621948  0.4013834943809209  0.1886254075925561
  0.8041781342754798  0.4058567111651894  0.3752725051635633
  0.7974107055465453  0.3944495488371331  0.8048851186173874
  0.8011727519597953  0.5997710167955789  0.9983733744831744
  0.8035862404260022  0.6011986137054859  0.1951449228793188
  0.8036938941933461  0.5994698479457619  0.3968136494488094
  0.7935017143183222  0.5943139869573397  0.5951106707757702
  0.7948458264820404  0.5904191793068030  0.7948932018350806
  0.8005051974233859  0.7960504882648461  0.9973854448699963
  0.8021007490192794  0.8041290666565546  0.1977668812389922
  0.8004917948828512  0.7977860547534722  0.3983047885895107
  0.7994111986985559  0.7923117410584368  0.5982371060927810
  0.8020653121374088  0.7936512940831612  0.7976806734709531
  0.3962085072887188  0.4020168276408924  0.7996874841390208
  0.9987780959627598  0.3929147059561342  0.7956515503645994
  0.9928206464815480  0.5742200104711050  0.7959147531586164
  0.6016583421307440  0.5909920698667953  0.7889817687823875
  0.7913013635487639  0.1593730771152906  0.6059147534807985
