Zr Ti V  Cr W 
 1.0000000000000000
    15.5605004684825037    0.0303255126318240   -0.0385586955404674
     0.0302728279200678   15.5530849979154286    0.0655903308017144
    -0.0386454446837789    0.0657938000358750   15.5388918105482556
 Zr  Ti  V   Cr  W  
  13   4 102   4   1
Direct
  0.9502769244739150  0.9528274924844136  0.4277335822478983
  0.9847149799942876  0.8105178282185634  0.7888673156890731
  0.2430814717101467  0.1949332060146626  0.5948057796428946
  0.1963704574939508  0.6026501414782294  0.3983293274582435
  0.2012654926935812  0.6049449250239601  0.8019336077755480
  0.4040546168411193  0.8063252908834975  0.5966751518191934
  0.6056788673109432  0.1874775321165703  0.8127006622941420
  0.6344343654303841  0.8289149391950349  0.0039648057957342
  0.6172269618214040  0.8026293132656743  0.2364428969402412
  0.6014587228362235  0.8230032596665336  0.4523681341762403
  0.7422747119839044  0.9935173002960328  0.3716396771444065
  0.7981592649433003  0.9879958176385846  0.8018002395323424
  0.7717104776450846  0.6421286917779380  0.9962449057095260
  0.4221223521523867  0.0439578962166837  0.6160356947974781
  0.4004191281517891  0.4014291384051601  0.2007280065001271
  0.6182985155880140  0.1738760450900204  0.5952982127937516
  0.8174698191749060  0.7749947213119925  0.3663834152126502
  0.0059952779242612  0.0054631773303044  0.0020018888174204
  0.0001999670508680  0.9972360904635541  0.1968927420804349
  0.9956202027876846  0.9977499406189906  0.6250912551479250
  0.0064628207344275  0.0128214277300658  0.8090314835152572
  0.0016934009447051  0.2036359061841961  0.0012272190263723
  0.0003497723718755  0.1961387000701977  0.2013865730382761
  0.9970530516712938  0.1948341400760891  0.4004876132564182
  0.0012947816361355  0.1979270958775103  0.6007332434666733
  0.0039819643737800  0.2047546635579328  0.7995981673474307
  0.9988580479068724  0.4029779874444650  0.9987408264962938
  0.9991179032719000  0.3968854705087139  0.1995039106951027
  0.9979277090596668  0.3953339454653747  0.3994156944381040
  0.0002265719176020  0.3993055511497559  0.5990573622218729
  0.9996479215307568  0.4009446910747286  0.7978243886084453
  0.0077562933792821  0.5997648596043190  0.9945830149688089
  0.9991509577506610  0.5936189861700051  0.1939959966778792
  0.9908927330023488  0.5910360831034804  0.3981408904124076
  0.9945852680467981  0.6025886907327146  0.5972551082690513
  0.9939808947576049  0.5981379705627490  0.7971637923375651
  0.0112524503240622  0.7971689192340333  0.9994365074915026
  0.0062987032156134  0.7963005295151425  0.1952068063892082
  0.0158840829177995  0.7643452770436762  0.3879542383420488
  0.9985080066845541  0.7989605972493035  0.5827247999015315
  0.2035747752613132  0.0028086295133517  0.9997259639566936
  0.1992845465337203  0.0017411202478970  0.3992774228924474
  0.1874287468586928  0.9985801082431554  0.5978786059018438
  0.2019342580356252  0.2003749316354066  0.0009576801216809
  0.2001243003373027  0.1991168099592781  0.2000310855985236
  0.1952826291243541  0.1974049183393971  0.3951336233621407
  0.2022693391883134  0.2016056719901032  0.8021427217824736
  0.1999311940358445  0.3985036693209597  0.0003795255941321
  0.1981509752698695  0.3955030124150027  0.3999163690693716
  0.1983928644083794  0.4040774664780949  0.5997643443126061
  0.1983082876586433  0.3975294080782619  0.7988624327958619
  0.2009188610339267  0.5997329393086697  0.0038896791461916
  0.2014831109572134  0.5983971516755541  0.1953378844111087
  0.1981140660837921  0.6028655056312013  0.5990142757468229
  0.2035930344689620  0.8045500126066014  0.9994413664916356
  0.2014933616390138  0.8012959010632975  0.1978938254985823
  0.2044323410103155  0.8067254401651403  0.3974134473289915
  0.1968124230277529  0.8047263561910818  0.5983116713581346
  0.1985410471282511  0.8065601980649854  0.7975001253871414
  0.4022890329212422  0.0020486715582801  0.9996948658997739
  0.4015868511330262  0.9989802994583887  0.1936223940923962
  0.3912179422884549  0.9986277033078884  0.3851198269388941
  0.3972397937209723  0.9971103157972643  0.8080457446213700
  0.4003704318257912  0.2029399572132943  0.0017323290981666
  0.4005981850551685  0.1986564534298467  0.2005589000115910
  0.3967776997153400  0.2018988785441294  0.4049201212349695
  0.4389683562707808  0.2208952816788378  0.6115826756844593
  0.3979006668244191  0.2048409560942224  0.8025444222598612
  0.3982753000477666  0.3996683772069117  0.9980329808118088
  0.3981168263817132  0.4000481386286064  0.4015494455252618
  0.4006338661369208  0.4065844127979136  0.6001629192761087
  0.3977468657605837  0.4071154158185471  0.8006933311702408
  0.3975731319160491  0.6012728487160329  0.9970851588901526
  0.4001244749396888  0.6016520311082838  0.1985458460190296
  0.4015903282278380  0.5998734783572331  0.3997509428164877
  0.4008057649088579  0.6014969064013371  0.6027214077202108
  0.4018291293797523  0.8007921244258109  0.0011652692983030
  0.4042195574159818  0.7977766306986500  0.1963520787875307
  0.4004926351539255  0.7993785498274090  0.3905297166025785
  0.3944770359049368  0.7953812807280803  0.8052062554331639
  0.6002246234956000  0.0221478611890935  0.9993557121990757
  0.6017598339398257  0.0043451769130229  0.1972722090278063
  0.5669306481604865  0.0126194378192312  0.4081874665705145
  0.6091436890693128  0.9859496897418520  0.6058014714871466
  0.5909583696877693  0.9870338026590800  0.8042397311711554
  0.5988466634489553  0.2000674958209660  0.2024233262282964
  0.5983712865977610  0.2001444845045506  0.3971956054215759
  0.6013107826614980  0.3983708935442528  0.9991836500313881
  0.6040315269098637  0.3950232641969810  0.2006007605911178
  0.5979687830408580  0.3967824458657772  0.4017702970856820
  0.6024474347218429  0.4055073501815129  0.5999561390926139
  0.5979986962781477  0.3979950353657996  0.7982508813134772
  0.5864615662265553  0.5913958426876272  0.0022407586886650
  0.5989664980328520  0.5955602416446485  0.1995893682926742
  0.5964622963589314  0.5955821611369799  0.3974033083104281
  0.6007400468304973  0.6039517238810759  0.5944975208702846
  0.5943033920184398  0.5958602590748864  0.8043739192686471
  0.6110289051422650  0.7935021686571940  0.6332043817308952
  0.5894759507027229  0.7938471276217179  0.8040048313983017
  0.8002324906319788  0.0133247414316107  0.0019471102397925
  0.8050549609394434  0.9902424515536530  0.1879734290881760
  0.8005747274203631  0.9951126221341047  0.5998356940368047
  0.8044867532734046  0.2056994479731466  0.9939376667717863
  0.6677748720227303  0.2027945340392728  0.0684446684631856
  0.7979322227012908  0.1960319882298200  0.4021913074456281
  0.8083656923844801  0.1956092191640540  0.5975291797058945
  0.8044600984457445  0.2005662804145708  0.7962343773801889
  0.8014603818489781  0.4012891317448865  0.9988276008368805
  0.8005297118391403  0.3994754627573299  0.1969083504500310
  0.7974929510543211  0.3921426836658639  0.3980160196196806
  0.7989460183996534  0.3980086192198211  0.5984057264985470
  0.8015536394888018  0.5952411294290675  0.1988991165390481
  0.7946382333033059  0.5899984436496081  0.3987153297444954
  0.7974342854232005  0.5973212814098038  0.5977139344332201
  0.7956894176458791  0.5912902982348750  0.7943651483999543
  0.8313422474095757  0.8296673443932873  0.9670345562298097
  0.8112057778875228  0.7937908507556811  0.1654567918836648
  0.8046287214081820  0.7945327505637203  0.6136773446240099
  0.7818619561730095  0.7793428130133492  0.8124583309670421
  0.2007577294149472  0.9995285570862776  0.1977430196154567
  0.2008669930181266  0.0020803061784116  0.8014174094031752
  0.1971091254296076  0.3986989363334270  0.1996666524725925
  0.7987592021371029  0.3972223505657724  0.7974996854042128
  0.4020500876721792  0.6026559216390883  0.7972527262975715
