Zr Ti V  Cr
 1.0000000000000000
    15.3990340272275770   -0.0170018773457157   -0.0022529018582575
    -0.0170107766548915   15.3787801482628375    0.0165544931564424
    -0.0022517709109467    0.0165430754876648   15.4057927644380346
 Zr  Ti  V   Cr 
   3  13 107   1
Direct
  0.2006903496867060  0.2029509707688447  0.3879445546360605
  0.2039966204676355  0.6195562411148374  0.3868845319055034
  0.3847144583450661  0.7952803650718457  0.3906509835334230
  0.0010713039643819  0.0042809744623658  0.9980938474564649
  0.0011154510609499  0.1969061817343871  0.8042868237311354
  0.1852607648345681  0.1991875085308955  0.1817603051206143
  0.2019126742414116  0.5904285576249272  0.1842649950888932
  0.2097535231991585  0.7988025019840724  0.2140833101616460
  0.3944699095396044  0.2039470312605948  0.6005011357856719
  0.6089729073708211  0.0104988142311049  0.5951357151150849
  0.6097621071045541  0.1942885153083794  0.4074466228913864
  0.5898361773504309  0.2023839507053275  0.8097062937703795
  0.8109370257013695  0.1971955212343369  0.1963311639281395
  0.7857498139160186  0.1948069425663640  0.5922554657579834
  0.7982382211648098  0.1990170357852385  0.8010846633692257
  0.8001419966506607  0.8020767655467546  0.1988938213949216
  0.0026918286035529  0.9969781250491753  0.2049200098343201
  0.0013635747553519  0.0012936112890917  0.6008514113104527
  0.0014584109910461  0.9975797352425525  0.7979004834085259
  0.9996471368939329  0.2022658554001223  0.0028205945524410
  0.0004826455070722  0.1329444356388299  0.2680759401941633
  0.9965829150582268  0.2036274613047528  0.4004936167066076
  0.9998088539646290  0.1992234717286305  0.5958925976832026
  0.9999644623605435  0.3999173111507700  0.0009448564067321
  0.9999465755342497  0.3999515572470533  0.2013245313979715
  0.0008705386170638  0.4010130738076993  0.4005555423005563
  0.9988879698133794  0.3993152030662956  0.6007624643883599
  0.0007161170405043  0.4009152988268128  0.8001923499525802
  0.0005953053060201  0.5999513289724330  0.0008711147594488
  0.9996801315270644  0.5990089057505775  0.1990737521374791
  0.9957227807958030  0.5995890145877465  0.3992750785001750
  0.0010115527141250  0.5999472757393666  0.5989075327712753
  0.9997355738529377  0.5998158414015041  0.8009643606346764
  0.0019633289116590  0.7989437530315400  0.0026468621258577
  0.0019790797831387  0.7998035353903894  0.2018253477602189
  0.9934481377348777  0.7971455126616523  0.4003760962373916
  0.9995948760752120  0.8011666182486825  0.5999307937064720
  0.0000504797801473  0.7989536108944081  0.8005532147159838
  0.2029084370438668  0.9998402653879170  0.0007156178007588
  0.2003603962209555  0.0022977651596066  0.2018504110253133
  0.2012927964090709  0.0030045165428059  0.4019131425887143
  0.2008177384826715  0.0038844547397245  0.6004572657914153
  0.2019019762196454  0.0006888200486303  0.7993518794188328
  0.1979422980244971  0.1996181786363189  0.9918169112139043
  0.1964051964986629  0.2012162180420365  0.6015013949472358
  0.2017220281075464  0.1996559652695455  0.7984270729565086
  0.2002153035249549  0.3984602963456024  0.9993352357869351
  0.2001289518885158  0.3960631706165154  0.2004243666725888
  0.2000205651830456  0.4073662349587679  0.4005111080016878
  0.1995179004304508  0.4011983446139406  0.5990888349553321
  0.1998895369357521  0.3994585351168168  0.7998906420641957
  0.2002264920966350  0.5996479987466624  0.9935469206964208
  0.2000941564257223  0.6016135179027631  0.6007626471414611
  0.2008077386778122  0.5996475153243819  0.7982940635125093
  0.2006729055575851  0.7999071708436950  0.9997088283811602
  0.1833254541765610  0.8193913162760867  0.4102454858919228
  0.1995678445871923  0.8020316492544061  0.6037588561156833
  0.2001627070619946  0.8022245927073710  0.8016372698551533
  0.4012332839307829  0.9998192668309537  0.0022688097106021
  0.4001721523773217  0.9980788670626013  0.2011666750704362
  0.3998728095173742  0.0050139678447413  0.4010960659796408
  0.4018555172433669  0.0003111384600045  0.7990005160085550
  0.3981335312285274  0.1985395702097013  0.0028579683961547
  0.4004184013848718  0.1981624017979225  0.2020190783610146
  0.4045212052981961  0.1994041913719919  0.3995408829233744
  0.3963372793845505  0.1992924672153894  0.8052982678330863
  0.4003468449976975  0.3984125821155562  0.0017778040383665
  0.4002061574963655  0.3972415862919003  0.2015273505831934
  0.4006342979612960  0.3951999001471946  0.4009840640256462
  0.3995075335959747  0.4015931917132787  0.6008991651059749
  0.4002745504034387  0.3991730275857155  0.8002759433303316
  0.4002984514324979  0.5990263091750441  0.0007158841984598
  0.4036854359689719  0.5967377537548294  0.1996190600939065
  0.4088360264857933  0.5904246781315676  0.3998670971014918
  0.4005356080813802  0.5987862571522081  0.5993181184662686
  0.4008318463214049  0.5997712795437119  0.8011256219985883
  0.3996657590712786  0.7997742508984629  0.9977898286788890
  0.4053712955170054  0.7994425836936733  0.1913788928170556
  0.4000939887669281  0.8006856812899622  0.6020662513047914
  0.4005423478554258  0.7999008584492607  0.7998465270212380
  0.6009771277373608  0.0002216245240605  0.0006964112518540
  0.6024448973486951  0.9999482731589698  0.2028961915278771
  0.5954665665078270  0.9953937501267115  0.3987559587470033
  0.6005533416972503  0.9999291491979523  0.8015648383820381
  0.6004346292603127  0.1996569159014621  0.0063756820084980
  0.5974786839668050  0.1982128393185284  0.2007697239601051
  0.5931763389251817  0.2046218131169258  0.6064363484081069
  0.6008790439637267  0.3994579973205764  0.0011208555209046
  0.6008699946012452  0.3972242075660516  0.2023304661807077
  0.6015250693646464  0.3995835772132429  0.4016657012430815
  0.5995399447025623  0.4014579147649363  0.6018025064885384
  0.6002392375554196  0.4019951443703386  0.8015039958235799
  0.6008937274126137  0.5996662635878458  0.0011175553383007
  0.6020357846308443  0.5992384317953159  0.2001402094957846
  0.6022627087173086  0.5989771686981979  0.4001437952458778
  0.6002343794784466  0.6018806251360104  0.6004745989833951
  0.6004579063663638  0.6003218756907241  0.8006324261032113
  0.6011352675209619  0.8001442443572080  0.0007578230963479
  0.5990588027223227  0.7989956700188363  0.1999792571265616
  0.5992484456611277  0.8003900861149769  0.3998131035942604
  0.5988761780777722  0.8007591656042642  0.5996641223793290
  0.5999998822239490  0.8015217582460947  0.8005456512412586
  0.7990497519276828  0.0000099815391785  0.0008001067373607
  0.8024681108070393  0.0001034512085361  0.2005468900911097
  0.8216733919571411  0.9993093278132112  0.3986036128958934
  0.8057379470543159  0.9967105964393976  0.5986981160960101
  0.8006956631232000  0.9982003194535556  0.7986976785438844
  0.8009568011899729  0.1994799564692623  0.9978486186791695
  0.8045442144616741  0.1980767481042444  0.3960946094377227
  0.8001817092443090  0.3984455276564245  0.0003342409636777
  0.8015051655242391  0.3990606858320018  0.2001052094378378
  0.7997050974475184  0.3981117459828745  0.3999367119268707
  0.7998186570122244  0.4004876548398275  0.5996292025100705
  0.8002797873494381  0.3999196278017120  0.7986703534221847
  0.8010585695907222  0.5989332576757952  0.9994803178884266
  0.8002020660432511  0.5969913597493179  0.1992425840143476
  0.7990712344232925  0.6002526732485969  0.3991652952512438
  0.7997960919799459  0.5991375398312766  0.5999659615448716
  0.8001833893144339  0.6000890223304922  0.8001282633639929
  0.8012616413544074  0.7999264922256073  0.9972170956088020
  0.7975395424183656  0.8014601516285439  0.4024691154586743
  0.7991382845758611  0.7993384195345434  0.6010225139047566
  0.8003980237351128  0.8001085620088590  0.7999986674384275
  0.3986332640690654  0.9978186446069833  0.5995006153095752
