Zr Ti V  Cr
 1.0000000000000000
    15.5054759955686290   -0.0026938295988576    0.0222345561511436
    -0.0026911951043345   15.4937529874400166   -0.0133710719798359
     0.0222461462953622   -0.0133733789628594   15.4975574155639322
 Zr  Ti  V   Cr 
   5   5 111   3
Direct
  0.0095331838900311  0.6124564091583172  0.1984381060538488
  0.3995299417009208  0.3998775053585311  0.6003661882894834
  0.6006090232657921  0.2007798511202061  0.2001467015144656
  0.6101949912104179  0.7997578722216356  0.9911536940468662
  0.7929834509470547  0.7981560941503603  0.8090549418051520
  0.9943022367355597  0.7859003011848770  0.3834129005026990
  0.1853540960467984  0.5992635255690761  0.0158423518474684
  0.2026197284145632  0.8011719742196707  0.3960158735959911
  0.5970842609982824  0.2024187149664526  0.7980469246079386
  0.8192005354163707  0.8035394992551238  0.0176021930322060
  0.9996253963684237  0.0011986561047213  0.9976770544374844
  0.0000350552535338  0.9992765984172715  0.3971253994397034
  0.9980816245872327  0.9976532148178778  0.5981067097769053
  0.9979186964118462  0.9987052368009197  0.7983124954672430
  0.0003044785355718  0.2000871403933112  0.9985142318258047
  0.0023357721566970  0.1998060211823240  0.1988091873463082
  0.9998471433847169  0.1988942783011664  0.3999094723777219
  0.9989412167766466  0.1984732932374753  0.5992103952959045
  0.9996939232501927  0.2000216413367804  0.7989924897687078
  0.9990959870841277  0.3999839669612138  0.9985399848605755
  0.0005752501730558  0.4011302458059577  0.1995898568372279
  0.9994587046072958  0.3979554596104136  0.3992666749614057
  0.9979268257306456  0.3993263790086848  0.6011518008081644
  0.9991818050530323  0.4008143753125897  0.8002712185305056
  0.9923999238931462  0.6008567445661470  0.9927919899386777
  0.0004380721856521  0.5932901955625799  0.4057935740838508
  0.9983058974022672  0.6000442924276790  0.6009287890645048
  0.9975421030919427  0.6003142444629768  0.7982197706504502
  0.0093588688786255  0.8006527401761259  0.9959811099926605
  0.0065735117399438  0.8126399480618191  0.1927317109529476
  0.9987916425815782  0.7991477211909583  0.5994908555886429
  0.0016257165927180  0.7998213203433252  0.7982085988030081
  0.1993571263264375  0.0006947238840883  0.9967979711166750
  0.0001847024688479  0.0022511600646002  0.1984691241913704
  0.1992375491474619  0.0001028617665633  0.4022421370628118
  0.1984188349546738  0.9993433318034201  0.6001198642719240
  0.1988073801020005  0.0002807853220646  0.7988700003046566
  0.1989836994112084  0.1994583398669000  0.0008749764988730
  0.1992199169553865  0.2018893141922874  0.2001877496241066
  0.1998327493839822  0.1991903487442281  0.3990599295595423
  0.1980413138153143  0.1990454322258017  0.6002774086202849
  0.1982217875315443  0.2006530004799925  0.7991662228120395
  0.1989752109974744  0.3987544028382266  0.0006829719050070
  0.2008165678161156  0.4012414526556321  0.2003626412196718
  0.1996392306039302  0.3985718672658554  0.4004121727419319
  0.1947362820903985  0.3992046739009426  0.6000201560339622
  0.1981707154332461  0.4012560182228315  0.8016336909185914
  0.2112933430138613  0.5986268393896834  0.2085499974880758
  0.2010426237463925  0.5965232313946057  0.4033078809202492
  0.1984237564912297  0.6005508353725324  0.6010990861970571
  0.1979249472979534  0.5998635078803757  0.8004279146633433
  0.2026273930146137  0.8036807544900000  0.0003813348410768
  0.2042501223510413  0.7969686616240304  0.1982174646439758
  0.1980330050258438  0.8000684298637751  0.5994572924046412
  0.1998374776855236  0.7985815615226775  0.7994598452823195
  0.3995810341913749  0.0008252019690700  0.9997063386545919
  0.4042458072646066  0.9982535743208291  0.1982983702996879
  0.3995861689604901  0.9993026061189942  0.3972322802581335
  0.3996860686764768  0.9984317324466733  0.5987679770443277
  0.3991934935668762  0.9998576280928179  0.7991259243872537
  0.3984519041913131  0.2000031608975428  0.9994465515214451
  0.3944201688459744  0.1979559360850978  0.1988066793555993
  0.3993052055421555  0.1985980161381949  0.3991069296636732
  0.3987056182856522  0.1948769689782856  0.5996637522997377
  0.3959419313973946  0.1999087365956831  0.8000627388510461
  0.3996008513827705  0.4003423583017667  0.0006603812810260
  0.4002593254745274  0.4011694082340837  0.1980742919487204
  0.4004556838563924  0.3990161422439858  0.3955152420554658
  0.3981010164980412  0.4007176745720474  0.8048694298427910
  0.4020323126441621  0.6005507629883740  0.0015590791979339
  0.4047413441693606  0.6011312064306632  0.2000342477398516
  0.4018604030449041  0.5996716121438295  0.3999018274570592
  0.3993649547872433  0.6045279530941042  0.6000748646456229
  0.3963442239413569  0.6006784113744409  0.8031985703296251
  0.3992426843351625  0.7998139109735602  0.9988298718457853
  0.4016347906027941  0.8004274435338357  0.1980684723063202
  0.4022712524864641  0.7997097808428283  0.3981097396129870
  0.3988511913648419  0.8010010536712486  0.5984037989214681
  0.3959133479548720  0.8001599270237282  0.7986967032170912
  0.6005141927654506  0.0045349845627476  0.9966447919885308
  0.6018601452372897  0.9950009761378393  0.1976216631449447
  0.6003286708715065  0.9988723811105756  0.3990908427214651
  0.5976431392901693  0.9992350349623919  0.7963520378174198
  0.5993902480282031  0.2014401432628329  0.9954889260629239
  0.5992657325938533  0.1992606531288661  0.4038960765637605
  0.5999711049350841  0.1983716215469308  0.5986561796041022
  0.6012162925516660  0.4003046427322183  0.9994383465436298
  0.6003597704537369  0.4047488843320831  0.1994789735359429
  0.6007837883965945  0.3998622196228713  0.3992648644399135
  0.6039752860840516  0.4002122905294737  0.5996314059648793
  0.5986864389902311  0.4028163297412459  0.7994405124402958
  0.6001500971743228  0.5960332781341934  0.9984366788561477
  0.6003336971511624  0.5988077491679020  0.4006924228997991
  0.5996749998821655  0.6007000040986173  0.5995571620754588
  0.5971718345565143  0.5996780721000876  0.7977696395137180
  0.6012086676627890  0.7989789824839150  0.1998298590862146
  0.5989143507406895  0.7997955231372174  0.5954166365731624
  0.5897573810712590  0.7996144482500802  0.7887516612967684
  0.8002343924432307  0.0046619791545179  0.9994554283494741
  0.8005110489750984  0.9988550236452489  0.1992191627422129
  0.7991021175297996  0.9996325838251933  0.3998784119838139
  0.7988064371179873  0.9990744738072391  0.5990403227369854
  0.7977194057185836  0.0043270145149393  0.7987707011941513
  0.8014722175510370  0.2018250099091677  0.9996986223128937
  0.8047214060424731  0.1998620494697546  0.2000519700577146
  0.8002822323565750  0.1998302811948604  0.4001539083507262
  0.7995306741932309  0.1987758828539751  0.6000109914529274
  0.8009475831883115  0.2011462684048546  0.7991699073851480
  0.7998528132038286  0.3993271717010937  0.0007969848379417
  0.8022140744217489  0.4016067236291596  0.1998414664726091
  0.7996470085157272  0.3990289599259336  0.3994340971361556
  0.8002880096959204  0.3990391353176205  0.5999837459355067
  0.7990862323151612  0.3991198671179325  0.8006861769049270
  0.7987820742224916  0.5976539423194681  0.0023626019241791
  0.7993044921801422  0.6003214620555593  0.2004152910654241
  0.7992878212930409  0.5978931983601344  0.4009641157744646
  0.7990415513910111  0.6005343535459280  0.6001150425466353
  0.7971267354341638  0.5951024993274924  0.7996438820682524
  0.8031388230361463  0.7995874366203091  0.2073769190370814
  0.7974716314341043  0.7988343620838781  0.4006540485139720
  0.7994007477641004  0.8006532360105607  0.5980875679634512
  0.5993945157096114  0.9986508593393308  0.5973074133000457
  0.6020238038776616  0.6014022353281193  0.1998608534460938
  0.5998717798813458  0.7989075200594740  0.3983325184311587
