Ti V  Cr W 
 1.0000000000000000
    15.4557498811443548    0.0004941212289126    0.0018267395804492
     0.0004939353714327   15.4692164812837163    0.0004600942864290
     0.0018268799168668    0.0004596930157856   15.4533924520731851
 Ti  V   Cr  W  
   3 114   3   4
Direct
  0.0026240260426698  0.7970259581058101  0.6041051969872658
  0.5975264853958626  0.7941137883778020  0.1991337319617291
  0.7956061069509687  0.4063255365533918  0.7990680774680603
  0.0001758932110916  0.0002627145623757  0.9991092978267518
  0.0004450020405963  0.0002800039301014  0.1987111654221208
  0.0000589743635091  0.0003782043663180  0.4004248657738058
  0.0010592549726931  0.0026333531598051  0.6011024552766787
  0.9957098249340397  0.0030312700366044  0.8006192196423824
  0.9996797924463996  0.2007038936063070  0.0007295696224496
  0.9993741544343627  0.2001624995563073  0.2001071302693464
  0.9988655060738779  0.1999204328815944  0.3997576451143395
  0.9995871277709629  0.2013213212158595  0.5993635520085219
  0.9994980568008304  0.2013674771413997  0.8004580365656937
  0.9997484896450973  0.3991663339690678  0.9994780500372401
  0.9995482715230939  0.4002626223297414  0.2002741990025246
  0.9996609045898105  0.3998497025008259  0.3997375559700097
  0.0000010473804477  0.3986064387920233  0.6004579754716223
  0.0022542782098329  0.3997591655147548  0.7999161422014398
  0.9991349996069130  0.6001439160083545  0.9991631021656661
  0.9990901955572891  0.5984517677914163  0.1990223546236530
  0.9995964329763292  0.5986130487759870  0.3994630874566036
  0.9999857799729319  0.5965764215221828  0.6007398507568040
  0.9997312030758484  0.5974486465707438  0.8002444511352327
  0.0004944334134560  0.7992942898455964  0.2002004390098614
  0.9961898281905246  0.7994575436002276  0.4003366369301439
  0.0000612640783526  0.7995987160371821  0.9689689841435137
  0.2000181683940236  0.9995786423311855  0.1997982027255851
  0.1999049025223812  0.9991051730785544  0.4001146689842395
  0.2009962741329598  0.0001400443231253  0.6001981578218207
  0.1980048102682121  0.9991748897173071  0.7996396347345802
  0.1991862669495446  0.1992211931195342  0.0003282893869505
  0.1999195976780503  0.1998163948028135  0.2001983185939628
  0.1995197260235757  0.1992309883320693  0.3996701796996117
  0.1996890985884326  0.1996132591818825  0.5995546347536136
  0.2000589897973697  0.1984756717951849  0.8000349885566814
  0.1996157324362228  0.4005270950767924  0.0003960660448534
  0.2006710988284918  0.4001380171237283  0.1997531461357565
  0.2000018749799358  0.3999142536192344  0.4002954278185396
  0.2000914611681777  0.3998613539236630  0.5994798099917696
  0.2037850277975777  0.3997057370452636  0.7998504865869431
  0.1990060763952366  0.6008488651025918  0.0008171085449201
  0.2008058170726897  0.5998024342000250  0.2001282249819569
  0.2001454575220297  0.6004654087784115  0.3991383955518650
  0.2000679815335995  0.5995156622758607  0.5986931381306498
  0.1985911730421008  0.6022208755949718  0.7997557275373952
  0.1988728136230200  0.8000726971663065  0.9986351828569189
  0.1995590690315554  0.7995253219543289  0.2003567267157225
  0.1986396269358023  0.8000764787505934  0.4002847302795210
  0.2018534481287821  0.7997761204215960  0.6003319561282514
  0.2025046082397667  0.8008549081870053  0.7999131924593782
  0.3999562683688536  0.9997681757396238  0.9995723080400971
  0.3997836740779148  0.0002730202993411  0.1997942512465571
  0.4004008272125251  0.9992166753834568  0.3998595727071553
  0.4003394345560070  0.0000978153746598  0.6008066298633762
  0.3998421793858217  0.1985919776638148  0.0001938382895241
  0.3997140561179837  0.2003447834962024  0.1997881337809275
  0.4002592147382091  0.1995457018064906  0.4002934501781807
  0.4001790792370681  0.1991814217462841  0.5999968227296213
  0.3997788916020065  0.2021693195589230  0.8002844339045421
  0.3991602362398067  0.3996841906613148  0.9961709519686075
  0.3992757399937302  0.3988420633041121  0.1991988684869057
  0.3995871607074237  0.3995883189009174  0.4016861591020329
  0.3997683502904064  0.3996016788488638  0.6036562902257349
  0.3993603660128123  0.6003439485017509  0.9997364434747340
  0.4033642071568198  0.5991813819686145  0.1996805546102326
  0.3999048832616298  0.6002655884581821  0.4003938855136273
  0.4006971920565562  0.5997521953840486  0.5995265595560777
  0.4004941009204339  0.5961694021316959  0.8003496725313725
  0.3989679326763536  0.8007764886469716  0.9992604172156195
  0.3972549728177159  0.7997506562154951  0.2003303169330813
  0.4006316770829513  0.8003465681221195  0.4005634162457841
  0.4003760445176964  0.7996620034453228  0.6001137202455811
  0.4003131268885101  0.7994177530846109  0.7997483942596730
  0.5995571349669427  0.0005061618159756  0.9998897996191952
  0.5993193182328596  0.0013036581710268  0.1992653705074283
  0.5997579310128038  0.9999187872078671  0.3999733289681089
  0.5984470718483695  0.0008900589609135  0.6010180332887375
  0.6037793844895355  0.0000350296487472  0.8003379165115609
  0.6000500872105698  0.2000553245521764  0.0008331960660366
  0.6000533558496230  0.2010146497294998  0.2003631760908459
  0.6006851666806590  0.2000171899114954  0.3997347548774111
  0.6002201762778621  0.1999369066967312  0.5993796371742434
  0.5995490829238890  0.1997463242173436  0.8002834525430365
  0.6004260364973600  0.3985404409372587  0.0000140671348705
  0.5989479367950483  0.4005705078082114  0.2001632323844303
  0.5996579033006403  0.3993444631688860  0.4004924939840827
  0.6003638632223417  0.3994033982438846  0.5993463511310569
  0.5947788658302118  0.3999548487240990  0.8005273964661886
  0.6006720297707434  0.5998382661373682  0.0039684522636154
  0.5996397199593948  0.5990227063910781  0.3958382749572935
  0.5998102144916865  0.5985622367317185  0.5990853323419543
  0.6004338646472078  0.5996559311312788  0.8010636885674139
  0.5989829593888328  0.7995488287655983  0.9988256687398438
  0.6037114341953087  0.7995810316512435  0.4017513977753021
  0.5976682777098760  0.7986749267882760  0.5999400664446128
  0.5975567345991166  0.7981675096154937  0.7998150009432634
  0.7999651410901660  0.9983632379714090  0.9961589525008642
  0.7994137216522520  0.0002348844938108  0.1982910294989040
  0.7997221292276133  0.9960347391460079  0.4013404485456273
  0.7996744280258135  0.9997458987812030  0.6048746695495455
  0.7996992316438605  0.1993966597181656  0.0001879227866737
  0.7994039695232408  0.1994729109925661  0.2006377077306191
  0.7997056127863653  0.1974057382997499  0.4001005133236366
  0.7997708764846608  0.1996291844101516  0.5999090863559716
  0.7996796529492251  0.4001445166346765  0.0004729592233494
  0.7999474069622559  0.3990362290571037  0.2005657240112715
  0.8000635975685798  0.4004664665321032  0.4006318321629025
  0.7993487630214555  0.3997937536921753  0.5986198736639256
  0.8006719087994848  0.6015512786399514  0.9999110774828882
  0.7957247250987166  0.5995034052039527  0.1997791534403298
  0.8000814269647922  0.6040980054425185  0.3999133130337736
  0.7991456971424289  0.5992212950013437  0.5993796817576852
  0.8004684760196381  0.6053499585394546  0.7996217364550414
  0.8005607704469402  0.7995854774592500  0.0008121139186097
  0.8016896574646583  0.8000708531920138  0.2041899824555183
  0.7972797487768838  0.7984938480710100  0.5954687039588588
  0.7965157364849383  0.8003725546717277  0.7981989675904494
  0.1999745856254479  0.9995463189857621  0.9994725428741162
  0.4006958586887203  0.0006090231993624  0.8003589651873529
  0.7992112420233051  0.1988560190641695  0.7998787031443473
  0.3997191120352748  0.3996582186922642  0.7999045701500834
  0.5994105915962481  0.5938058469118885  0.1994208912194070
  0.8011384911089723  0.9918229122854193  0.8002896304712188
  0.8002212507244811  0.8008823352686738  0.4008851592421108
