Zr Ti V  Cr W 
 1.0000000000000000
    15.4119853477336850    0.0092002105036784    0.0075686985216924
     0.0091978282521091   15.4168317070722267    0.0033033723005877
     0.0075647771218920    0.0033039266611125   15.4231482065347798
 Zr  Ti  V   Cr  W  
   1   3 110   3   7
Direct
  0.3987156049062314  0.1999714591972945  0.5989139888537001
  0.9999871312126488  0.2002087222485910  0.0011553961554226
  0.1965531175122014  0.3966619831643203  0.1930468826820748
  0.3992664489802888  0.9993711769513516  0.0083877178873232
  0.9996411263352164  0.9985516388054616  0.0005812833982761
  0.9993441804831045  0.9988121073338074  0.1995700618007057
  0.0004632909181992  0.9988564802069180  0.3997364167663139
  0.9988650544126463  0.9993176243901463  0.5994559736017873
  0.9999005687473586  0.9999655253066163  0.7999542454194135
  0.0005300753749025  0.1994050485976107  0.2015325604368723
  0.0049033672844282  0.1990876320201219  0.3987133531051269
  0.9960984818356694  0.2014108508818245  0.5999772983531736
  0.0003788436035002  0.1995385316687154  0.7997949995496533
  0.0006293057898268  0.4016354033429634  0.9989851795894503
  0.9987294131661204  0.4002150745420922  0.1987710480532338
  0.9998097182939477  0.4008153953838154  0.4004698581664166
  0.0045692073527171  0.4010237880717505  0.6010948556212703
  0.9996206796033993  0.4000890287074982  0.7997508137617331
  0.9998640145273190  0.5991630152749945  0.0007767404169725
  0.0007274293904532  0.6003024583541324  0.2007025543395011
  0.0015286752412126  0.6002789884321390  0.3990206502997276
  0.9974334096662049  0.5981674112264889  0.5988012027745387
  0.9986344660926122  0.5993797832967440  0.8002745154790479
  0.0005960899790869  0.7988730451243103  0.0004681904457626
  0.0012865692290056  0.7997301004220770  0.1996684571321555
  0.0028164329577768  0.7994097571500142  0.3996581437417515
  0.9999236522829474  0.7986181708499028  0.5986606335891742
  0.0043893915108852  0.7990882823970645  0.7999336642937561
  0.1983306191700759  0.0013528422700018  0.9996364230351475
  0.1992245652369409  0.9998097078230217  0.1983555630851856
  0.2007348152131935  0.0043687784015887  0.4004362810763072
  0.1980911375615566  0.0013725482351992  0.6002896108456639
  0.2002245590989780  0.9976363424693230  0.7993612669757140
  0.2048349867939639  0.1999610174535467  0.0006568038992484
  0.2010738953274052  0.1975169338141362  0.2031644771965198
  0.1942591534613033  0.2028393521383922  0.5963234432189964
  0.1997448365843352  0.1975391171002270  0.8012514032370092
  0.2005288647811989  0.3991796222829615  0.9942594794708031
  0.2007215479078355  0.3947206770699395  0.4055755492389782
  0.2002307684492839  0.3988458392975094  0.7960516749411478
  0.2012544482720443  0.5987781769498836  0.0001892608334235
  0.1997718747271058  0.6009898057654934  0.1990032076302213
  0.2039902077595460  0.5989505302474288  0.3996610352522225
  0.2002714396453148  0.5950315028780581  0.5999386852194546
  0.2005568426506988  0.6036352553269344  0.7993415937869696
  0.2010405175504299  0.8002098016757381  0.9952818703904205
  0.1994784103771690  0.8009430631735353  0.1978149207144811
  0.2032340760037883  0.8024544286435528  0.4006603829977274
  0.1994763670298339  0.7986322057973972  0.6034643626840853
  0.4002710036398375  0.9986270353018873  0.2022568118550956
  0.4007241403986675  0.9951583322631794  0.3992528725617485
  0.4012346105910489  0.9948034542364423  0.5991597000369792
  0.4000441498558481  0.9989354885292531  0.7983914526967701
  0.4041432868113661  0.2030334794001659  0.0022397253654338
  0.4007138103492898  0.2003133776140122  0.1990299231737368
  0.3975075516784090  0.1993727641598000  0.3933939674608927
  0.4002396993715558  0.1985666912245290  0.8049224940520541
  0.3994880416612652  0.4022340620248148  0.0007985901980732
  0.4011393638710890  0.4018705205328686  0.1996608235794442
  0.3991900645347795  0.4058125648794205  0.3970295679852474
  0.3953978430509545  0.4055296613284697  0.6012263519749583
  0.3979049510636490  0.4021493839532621  0.8016818143614957
  0.4011718408480204  0.5998985563545046  0.0026533587361315
  0.4006570684319292  0.6003156185380107  0.2039874475038548
  0.4050748459305416  0.6014485122259146  0.5953767725675507
  0.4003706040518201  0.6015817260685153  0.8012568886386605
  0.4001614390114424  0.7975982386190545  0.0023973310571922
  0.3992832493392372  0.8002244896938727  0.2026089985058707
  0.3993181121202093  0.7990126582746481  0.5957864953654518
  0.3955223909306197  0.8002950703468975  0.8001491725340057
  0.6021110792079745  0.0050098986641207  0.9997512924840736
  0.6014433991341536  0.0011069005942675  0.1997527578419046
  0.5997391088962162  0.0011810235580556  0.4008033314558944
  0.6020206027402277  0.9991947849814791  0.6005539708867309
  0.5995719671218370  0.0004336879349022  0.7996581932653505
  0.6006399036893371  0.2000687403403042  0.1968525528259439
  0.5992342987475412  0.2001718763722586  0.3986876392582817
  0.6013695241752398  0.2007030909097828  0.8039589767757512
  0.5999900074550745  0.3972887585447508  0.9989689200525024
  0.6009882590533123  0.3997693697993873  0.1997220359440685
  0.6001999387750776  0.3987852834041147  0.4014515704018584
  0.5960163347359985  0.4024417379347396  0.6014671715187675
  0.5993851144644310  0.3997229889094309  0.7991188584125435
  0.5998877394080098  0.5986670351427701  0.9995231281421021
  0.6012842475966299  0.5998474243606929  0.1995004496073882
  0.5970757429446222  0.5995870837199746  0.4035774871300592
  0.5998986662852021  0.6004035321486464  0.7977110721156665
  0.5987960502612646  0.8014984112744968  0.9991454459512578
  0.6004399384296881  0.8010656011392780  0.1988837668497723
  0.5962895846550267  0.8018270666219109  0.3994697830210862
  0.6005114226772418  0.7963886976304693  0.6016282311205190
  0.5978402031745266  0.8014159990706873  0.8009504710847625
  0.8008704800175078  0.9999236907294615  0.9998677836686514
  0.8012862142768375  0.9995316917499950  0.2005408338081071
  0.7999813146501263  0.9996584907986563  0.6002153011565143
  0.8011811351054083  0.9986104500463032  0.8003421527917618
  0.7953714366043981  0.2002926595709136  0.0008270036659654
  0.8013402668988939  0.1991901485471392  0.2008952770934843
  0.8008736897864641  0.2010972109019576  0.4008416065002865
  0.8005777029665405  0.1981102157048829  0.5994914901416573
  0.8012991923240524  0.1996724547093713  0.7993296743813458
  0.8007012077518888  0.3999885562272170  0.9985232673082409
  0.8012727274086678  0.4000912790945824  0.1998807419453787
  0.8004561731962753  0.3996807152950008  0.3986125708776943
  0.7974796472761679  0.5684431291814581  0.5994769768257957
  0.7990145000344830  0.5996925241060554  0.0002750356681840
  0.7995901229090613  0.6002473015876474  0.2005216456836504
  0.7994980548853343  0.5993859277451535  0.3999532178674738
  0.8005268469403862  0.6003266879659417  0.8002619524126653
  0.7998630819715455  0.7999857097064340  0.9998469203837678
  0.8000694203319744  0.8002710148763734  0.2000060939264082
  0.7994947435815738  0.8000543044841754  0.3991590844494158
  0.8003186305581136  0.8007666517349811  0.5994909584381440
  0.8014141035647828  0.8010688334198207  0.8008537926189523
  0.6034715314191065  0.2015173069246715  0.6012532854995680
  0.7999619308789965  0.0000488144556345  0.3999142010472876
  0.7999747427376959  0.3998330750619031  0.7970246174047927
  0.2021262926825913  0.1994327051888594  0.4005556976621470
  0.1992889106581949  0.3985812802614964  0.6015572631100961
  0.2000532682412213  0.8002569269417077  0.7988615402932113
  0.4011567945166017  0.6044747181161103  0.3990639301612764
  0.3982179074572365  0.7978729955015613  0.3987490454052583
  0.6005702258098479  0.2019292515486997  0.9997131294031708
  0.6016278304540222  0.5975385416804587  0.6016630849201986
