Zr Ti V  Cr W 
 1.0000000000000000
    15.4771126092992706   -0.0171409429028663   -0.0108832458615090
    -0.0171377985850307   15.4835452709138899    0.0089453070842751
    -0.0108770206815257    0.0089383803551370   15.5150560916889226
 Zr  Ti  V   Cr  W  
  10   1 106   6   1
Direct
  0.9981263722693329  0.0313315161049264  0.9587103687857333
  0.9976798043436775  0.2039208634358149  0.7922933880963596
  0.9911922603082634  0.3838050952399140  0.6021471239179000
  0.9911914917634900  0.7904285618522474  0.5891956858561173
  0.1692054946126290  0.9953933432078642  0.3104334260872624
  0.3670726480823998  0.9965303125249867  0.4105554515100976
  0.4044295069028955  0.2026435202893233  0.0019185026411876
  0.8115509962111601  0.3968143991387733  0.4170288991408785
  0.7729093297533763  0.4020019171934353  0.6346486182093909
  0.8087246859938713  0.6255833323102661  0.4176898352507036
  0.5981978842520437  0.7990894192611366  0.5991083184594405
  0.9923503417524328  0.9966966120774237  0.3938498059279835
  0.9990821208268327  0.9955475084578257  0.5883011994219860
  0.0016537834179149  0.9917397861884826  0.7751772921918062
  0.0021850936016925  0.2161044119943603  0.0043917692806724
  0.0006067767528073  0.2050424869605846  0.1998508608164080
  0.0042538817962581  0.1969376405754048  0.3969095709826297
  0.0020736147251324  0.1867167791568842  0.5893814517080530
  0.0032376472494822  0.4071494760099288  0.0072937354198437
  0.0146703884970112  0.3960245730963761  0.3920573216760034
  0.0026174739918945  0.4068799935588840  0.8102306594594184
  0.0009356747620242  0.6032204032940010  0.0008446760146654
  0.0000318778216333  0.5935396055332345  0.2019435734436408
  0.0102276141718345  0.5964045118495912  0.4005633549898913
  0.9983546169300677  0.5910925136768457  0.5992863199585833
  0.0013047083287362  0.5996442808144615  0.7978306089303583
  0.9998383138922043  0.7992155046335333  0.0011184971297853
  0.9978342843280549  0.7983806431765658  0.1957350815685041
  0.0006318541574760  0.7971138910398206  0.3902050424950598
  0.9987310911873533  0.7975592151397534  0.8014275946192648
  0.2016947322374259  0.0005480856717981  0.9970318247819417
  0.1980958130403775  0.9960433177876310  0.5684921027741260
  0.1976884051100358  0.9985394588169069  0.8012789133111030
  0.1985337027065350  0.1993366822619273  0.0005924264268677
  0.2022309406432947  0.1989144592787082  0.1982511871959794
  0.2097107947736139  0.1918934191671725  0.4040446325327844
  0.2006302536108998  0.1965370668801472  0.6014463468167787
  0.2021626845340065  0.4020304537861454  0.0008646539090032
  0.1994266067487903  0.3981219723322136  0.2011583038723884
  0.2060233151824412  0.3976522626529462  0.4029981169790550
  0.2013488563884218  0.3959017340606661  0.6015482666768373
  0.2003541896698185  0.3982579780847826  0.8020302058294284
  0.2021955158009347  0.6009734207716211  0.9993291057109378
  0.2009165595112490  0.5997490635619652  0.2020422842219186
  0.2039225624012236  0.5989997942236889  0.4023708012776949
  0.2005610576052258  0.5993869514631395  0.8003748699155537
  0.1993335261648507  0.8029918412818144  0.0021104270709134
  0.1992383667530957  0.8301468178386393  0.1973030450941674
  0.2045766619465733  0.7991710447019034  0.4036099400460114
  0.1993833298679060  0.7964143352794985  0.6007008970140989
  0.1987600741018445  0.7993230712943565  0.7985313010844531
  0.3996395604953046  0.9970906186599150  0.0020714549589904
  0.3996841179964018  0.9986589726348010  0.6084527045328748
  0.3988602300699793  0.9985770571531898  0.8002879698651936
  0.4020978852584973  0.2008058830173293  0.2055571202310360
  0.4059621399982549  0.2024344424930197  0.4026796499856503
  0.4013474877630980  0.1998847655985755  0.7981779050189178
  0.4008863712870540  0.4056517331288433  0.0031191136006872
  0.4009306067383278  0.4017172838589811  0.2029257319777832
  0.4013677193897850  0.3996347010284881  0.4018857809065298
  0.3969914345004666  0.3993665841708179  0.6034454646741727
  0.4007488474368819  0.4001356218050100  0.8023950045417403
  0.4011915579585337  0.6021885767868527  0.0017059418429719
  0.4006533389067289  0.5986973145574603  0.2026802591586416
  0.3999524977393378  0.5991533212523650  0.6026522196042332
  0.4005182850288502  0.5997769897877308  0.8005463895693947
  0.4000110321030218  0.7998362919577271  0.0014609127290495
  0.4003727910378069  0.7982032606723616  0.2011763623704086
  0.4027886105566455  0.7944030656244586  0.4017113035222591
  0.3984772387689898  0.7979949576950172  0.6029340416125319
  0.3995740068923811  0.7989306527618778  0.8020044859217245
  0.5991339011988752  0.0009681818102900  0.0015195878166660
  0.5948945654370569  0.0009902363563945  0.2011273416326305
  0.6001440168946935  0.0011208023516669  0.4021559695869030
  0.5983807975236861  0.0033885870787616  0.6004869039923348
  0.5994593935405435  0.0014589250301031  0.8013057454272697
  0.6075938798870850  0.2014390682105442  0.0019425591015578
  0.6026644734132982  0.2002805420719753  0.2026868896453613
  0.6026251599349114  0.2007079055891081  0.4032688614123566
  0.6025565313504189  0.2021178414975668  0.6014940597633096
  0.6011664749641267  0.2005299561656503  0.8008870097637303
  0.6028468785140462  0.4015546775341191  0.0042043856495277
  0.6030811925134349  0.4000215627952297  0.2037902368915493
  0.6005631211865529  0.4003726909764438  0.4009336337478656
  0.5862838956825288  0.3992640025255608  0.6000113766830053
  0.5988883055125851  0.4005009280169138  0.8054941364359419
  0.6011052087549345  0.6005952271098315  0.0026614155182441
  0.6015979308399818  0.5992414174557604  0.2038674356399156
  0.6011094167555674  0.5995827590976562  0.4032273666894087
  0.6006213588728776  0.5962444638715368  0.6018686485643209
  0.5996450356845788  0.5996939338341445  0.8023572412054581
  0.6002001595800168  0.8004094874373537  0.0024233787515451
  0.5995484743446042  0.8004065352707652  0.2013484225316787
  0.5988379046200889  0.8006464831430855  0.3985796519498995
  0.6010013862333594  0.7999212554502126  0.8043334062478804
  0.7965585369837078  0.0000339304956396  0.0002725010212494
  0.7966083830940871  0.0006395438211192  0.1971613264630651
  0.7976136776948500  0.0012291163838856  0.3990431341419753
  0.7987892434768890  0.9997264813688187  0.6020411963780862
  0.8007914219438496  0.9994031276529730  0.7993053546477183
  0.8044432666802562  0.1989149706880623  0.0013703947495224
  0.8006423813578657  0.1992083082453901  0.2030447023129235
  0.8026480518528650  0.1932291307504380  0.4013045162038218
  0.8019742691334517  0.1970317541734570  0.6008723061453687
  0.7961872811660035  0.2019685542626274  0.8003136532346675
  0.8005207008908454  0.4012853113683031  0.0072025346256305
  0.8049581134683854  0.3992630498913676  0.2024489221033820
  0.8021811273723587  0.4006925798078217  0.8212742117786742
  0.7999626541817876  0.6023690904449558  0.0020979543765802
  0.8008924772971070  0.6017317465559251  0.2048804215126472
  0.7995196783548957  0.6051088433328551  0.6150978962501208
  0.8007546369316477  0.6010063166941304  0.8048437977590370
  0.8000102805478448  0.8024630858150590  0.0019150149332654
  0.7988220387800193  0.8010265134671931  0.2014934343794961
  0.7986890789114378  0.8146068388605674  0.3988590967327708
  0.7905620681575470  0.8028348366654133  0.6028938201713786
  0.7997624879800941  0.8009842957104840  0.8035254785015684
  0.9943524728135325  0.0019029820909475  0.1934068857292004
  0.2044204077776551  0.1982508840239775  0.7996704570042541
  0.1991601624422244  0.5951237723467374  0.6013477802689556
  0.3970548548534278  0.9993996502511755  0.2008642136627560
  0.4017878207966004  0.1986597022227281  0.6021431430462031
  0.4010716664127913  0.5986027715964801  0.4031909968717849
  0.0010575830875732  0.4000974784455544  0.2012242401738331
