Zr Ti V  Cr W 
 1.0000000000000000
    15.4546529229448950   -0.0040749683285616   -0.0054037382233372
    -0.0040912970430347   15.4638570505567383   -0.0473148360752500
    -0.0053791826064366   -0.0472533129127416   15.4680791581891697
 Zr  Ti  V   Cr  W  
   7   3 108   1   5
Direct
  0.9995728891228201  0.0020978346047977  0.0291368688534452
  0.0125279801991278  0.1902403612220011  0.3951186232396887
  0.2038701568068327  0.9943333682244322  0.6013299595094843
  0.2015069747561442  0.8396631008122346  0.4208797974701395
  0.6028734894960897  0.0028093496368050  0.2184729285224247
  0.6033625579413294  0.1903446762281115  0.3942244971774934
  0.7736760764807319  0.0280769562260159  0.3809880836606765
  0.1964053949021776  0.0344128416709359  0.3845210169166923
  0.6108254756128152  0.3996211292466372  0.6000196168306297
  0.7908221674452782  0.5871752501930433  0.5943744902351202
  0.9967121121383461  0.0023859170353906  0.2217920808105915
  0.0062240512075595  0.9867326574571852  0.4086983643265217
  0.9939934759203238  0.9955431561591137  0.6032812750321305
  0.0016553521307848  0.2042079174183829  0.9954875103267795
  0.0000920925539685  0.2014870056321972  0.1900507258093019
  0.0009276467027932  0.1941869928583549  0.6000720652814707
  0.0005884119658642  0.2023114651991059  0.7962245308296688
  0.0001969789908955  0.4014770202422711  0.9944755075537816
  0.0000708023608047  0.4018569590558869  0.1987922934871632
  0.9989664495126590  0.4021597611116492  0.3997502323083121
  0.0015034350138040  0.3970894428599298  0.6029408990998067
  0.0003702131985769  0.6000669651084032  0.0016381479483234
  0.0006337546285864  0.6013814195108258  0.2012580074586411
  0.0013627906302569  0.6000810426000998  0.4012177510401895
  0.0022237756552146  0.5969234122796967  0.5987910409811440
  0.9998947417938275  0.5951117065790917  0.7986099049892931
  0.9988327586149612  0.7963401856077407  0.0005945614116798
  0.9983966862435159  0.8016381134843913  0.2037552030226876
  0.9944483757429039  0.7961960050742651  0.4041773130021271
  0.9976024450841022  0.7929898756651227  0.6046520977966180
  0.9967789688348392  0.7956501442543924  0.8015744179087793
  0.2034362984215289  0.0014222027221595  0.9974011183773432
  0.1960537920178947  0.0017034090508876  0.1937414580296012
  0.2020362581271413  0.2008750665873439  0.9984197412545599
  0.2000805105160163  0.2042352113204285  0.1980148602491578
  0.2008527534514132  0.2000096757754439  0.5930386809375491
  0.2018442027582539  0.1933274473082048  0.7959583495110644
  0.2014371531972076  0.3996675442304830  0.9994495899220194
  0.1994302649835026  0.4014891176492824  0.1974782155213214
  0.1977860734551625  0.4017174011340421  0.3987385966878666
  0.2012915546337022  0.3968488865105504  0.6006584667556695
  0.1963001886481472  0.3963630228327190  0.7993654429298795
  0.2009843984393662  0.6002184679303039  0.0006956810396992
  0.1993900939740103  0.6025778901409434  0.2029002153379161
  0.1997764340010809  0.5982283226790954  0.4006403887912617
  0.2030423421105161  0.5955312097779398  0.5998671391442787
  0.2001506552962164  0.5992462954568289  0.8021863513046759
  0.1996179791486811  0.7996723582047484  0.0032530333819055
  0.1979840241120358  0.8016979377747439  0.2038272762252836
  0.1988015019251091  0.7883002862557649  0.6134858149165059
  0.1992908640148124  0.8025051350905194  0.8066986961589729
  0.4004258815300015  0.0002870663512308  0.0032265844547641
  0.3951833369671435  0.0006900249871028  0.2007218408231760
  0.3914778481596345  0.9989258723603419  0.4008014947414770
  0.4058674969939171  0.9982359047174610  0.6019300986336381
  0.3982299039306765  0.9992495553825121  0.8004905090273799
  0.4017085812055017  0.1997043941737131  0.9985546497841445
  0.4015363303143590  0.2008868466629927  0.1986033994650689
  0.3978301325994228  0.1992046788246166  0.3989019931870866
  0.4037371130765631  0.1989455902975917  0.5970667241517701
  0.4013617720744166  0.2001984061486135  0.7968330403654686
  0.4005602315263371  0.4002295729044501  0.9985047633273276
  0.3996669973181926  0.4011593757690068  0.2004090178999778
  0.4036999180105586  0.3978299650777693  0.3998936873254301
  0.3995542575494503  0.4012112310294605  0.5989234535623436
  0.4003306152853168  0.3978364510268159  0.7983331842906098
  0.3989419980835571  0.5987497981855129  0.0007973047034857
  0.3986393120050987  0.5996830756313473  0.2028117451769189
  0.3976859101049302  0.5995497604222990  0.4034603719194250
  0.3980728307317160  0.5983690621550674  0.7965483802932476
  0.4010223390621401  0.8002185448382725  0.0029122307201619
  0.3986991085248633  0.7998753835482579  0.2031531926297871
  0.4033514824809636  0.7976197828561832  0.4008650090027478
  0.3994911828948804  0.7920249363698616  0.5999549932719151
  0.4044885244080549  0.7989695412224388  0.8021829471979495
  0.7372715812616848  0.0001060187587010  0.1255758625599857
  0.5817177512768740  0.9855636022576341  0.4142170585728059
  0.6013940603429677  0.9964076604064892  0.6037881441401840
  0.5989752652953145  0.9954790430195835  0.8006449017041846
  0.6001535301978277  0.2013197044917310  0.9955988134667575
  0.6008322279964899  0.2083915634491886  0.1880072226669333
  0.6019695068983104  0.1968719452188122  0.6018625802573337
  0.6010196613724957  0.1973159860855018  0.7980297074097089
  0.6009484102113430  0.4012374008451996  0.9965524280844322
  0.6014339484248619  0.4027217516782988  0.1984070837689183
  0.6010325988649889  0.3998771557423272  0.3963214841782876
  0.6025180368000154  0.4008801988311011  0.8003979234792409
  0.5986225419536311  0.5991922099336717  0.0000465115326406
  0.5983832532827421  0.6004545014079214  0.2004496130088684
  0.5976910724578224  0.5982186024917352  0.4001898795998498
  0.5918353908974640  0.6004080360382770  0.5998679138563938
  0.5992708577887468  0.6032137544066498  0.8004469060913748
  0.5998106248378575  0.7974556651700878  0.9985255443048537
  0.6007935963320609  0.7966822657403292  0.1984986792752935
  0.6010241678161249  0.7952641333575586  0.4036970984265674
  0.6009529618899480  0.7970739690954945  0.6077370918307254
  0.7996146463532801  0.0007855929822567  0.9981624819695287
  0.8008183919580301  0.9964593172908257  0.5970967733467979
  0.7998943368481584  0.0006686864879317  0.7990977646036683
  0.7990052772051762  0.1980706598669268  0.9971237047749608
  0.8030432842970628  0.2058434648404557  0.1981812213906744
  0.8088984895015845  0.2166951207752701  0.3960059583081992
  0.8020864290329044  0.1955689006214571  0.5929600904881553
  0.8004645123525186  0.1979126237542814  0.7973561313642146
  0.8002721513557127  0.3997081763225943  0.9988289062911653
  0.8016968359377408  0.4016509779363142  0.1969306500959708
  0.8008599428300849  0.4049755305091253  0.3981849659324928
  0.8043823577529849  0.3927014959471106  0.5980307811687076
  0.8053541688751037  0.3972541978897796  0.7982600242840017
  0.7992177470258454  0.5990451630450975  0.0001191489064132
  0.8002659756974317  0.6000553788818561  0.1991195808895675
  0.7982122166439284  0.6003420192349105  0.3969339145468156
  0.7998873539630784  0.5982742207264924  0.8000870843127001
  0.7990591085699130  0.8018114397984879  0.0011952198214143
  0.8001412598971919  0.8005039613852103  0.2012188737389474
  0.7990619263574368  0.7974948269493620  0.4016023841066667
  0.7988488651354743  0.7987230565436436  0.5996331354665914
  0.7974038250093781  0.7985910406323614  0.8010031299750033
  0.0010115650448100  0.9979589698475270  0.7992732417951067
  0.0017161164484041  0.3988659134265864  0.7988458242762241
  0.2016896660231521  0.9986188985126894  0.8045465359520763
  0.2094717519987909  0.2142684139735881  0.3971808024905372
  0.3980116714455423  0.5957421896523643  0.5990305261116693
  0.6002640355242722  0.8010969223020743  0.8030997289978073
