Zr Ti V  Cr W 
 1.0000000000000000
    12.2882735461728885    0.0000000000000000   -4.3445607757035454
    -6.1441367710433559   10.6419570608175889   -4.3445607757035454
     0.0000000000000000    0.0000000000000000   13.0336823299999995
 Zr  Ti  V   Cr  W  
  10   9  91   5   9
Direct
  0.9973834505744834  0.0039110444573041  0.1967443174568165
  0.0149962197351030  0.2084689674488926  0.8052569454336153
  0.1956139529379643  0.3912730092119157  0.3962944465316703
  0.3745679497134652  0.9940325627476229  0.5867963024042218
  0.4060870753615913  0.9969642423574365  0.8065179592402527
  0.4026676300113614  0.6005609351835601  0.3959467464326334
  0.6006634153283693  0.9709124597464669  0.0045462673386066
  0.5908154226564586  0.9916633660919243  0.5907084089327090
  0.6049757854747756  0.4007768297598835  0.1955092687601462
  0.8002281080621880  0.8085716983740397  0.8073649484754329
  0.9980011591447338  0.5916808356587975  0.1960358474494118
  0.9982350803931663  0.7942139353149711  0.1935649917884107
  0.0055572448351368  0.8047576457310187  0.4073873572944198
  0.3981895975636017  0.2003580791059359  0.1957888030481852
  0.6106046528853963  0.2064498323156621  0.0168720654231350
  0.5969425764491322  0.2026147896775802  0.8038308527377108
  0.5931763550380222  0.6050966317937788  0.1669921450962392
  0.8128940831696275  0.2045050178224688  0.2111190166808519
  0.7633134898513165  0.6021148074222362  0.9952856686086530
  0.0161787170921064  0.0142387169588125  0.0003983417734350
  0.0047460260065762  0.0104561659219769  0.4110593259397944
  0.0049701286501409  0.0012669270854517  0.6003440655284162
  0.0063986049914782  0.9960254199100158  0.7999751463148894
  0.0054749964327945  0.2057344983510827  0.0083438565622338
  0.0031347162521393  0.2043714716471839  0.4073461815104260
  0.0056475778037051  0.2066294567607626  0.5967573398444079
  0.0008077409822348  0.4049792097534876  0.0043844967286056
  0.0007451438924403  0.4053219347777933  0.4114873233003927
  0.0031128878337215  0.3997325978482947  0.6034824592388973
  0.0027803809005318  0.4061439537107320  0.7993491448408925
  0.9985402672382094  0.6009079773734118  0.9977003190355570
  0.9994808771584722  0.5978817706735986  0.4067826262931586
  0.0007936008854203  0.5979492137115355  0.6016311607165685
  0.0008865347768053  0.8015080339109776  0.9968463413746320
  0.0005221317650714  0.7995757544169160  0.6059379827732342
  0.0064966365484729  0.8021787644643501  0.8010414364775189
  0.1979750595577102  0.9955538133872159  0.9950352636756715
  0.2014239535449591  0.9981534539604910  0.1976949854713029
  0.2006027891483276  0.0054103519280256  0.4013244521266257
  0.1914044980841325  0.0084099305299737  0.6057239089018422
  0.1966616268653277  0.9987995909653631  0.8017150683189117
  0.2074680501409239  0.2031030721066320  0.0027611361318704
  0.2005148272100208  0.2017479236376714  0.1984866612061009
  0.2122067172733101  0.2035017337575837  0.4146447662022399
  0.2038064072118864  0.2079298499812716  0.6054347072200489
  0.2129910653967148  0.2059927690488585  0.8010738691538775
  0.2086077149939691  0.4125428332636296  0.0077166398295719
  0.1926018836594248  0.3947618695211611  0.1833183460106508
  0.2047725444902159  0.4009718950952585  0.6104062588328033
  0.2080544501358168  0.4084063292861746  0.8049528894447709
  0.1986579836648137  0.5989913809162373  0.9975799843602839
  0.1978946666685333  0.5991190653175431  0.1914175038864376
  0.1992654030560671  0.5984113679966231  0.6030589318092090
  0.1995147768076527  0.5967832492061915  0.8005659187549105
  0.1968105102320911  0.7952964491259844  0.9972148084689890
  0.1953580722335360  0.7955602171694637  0.1923442095703806
  0.1951753244820868  0.7950298025785374  0.3874552190073901
  0.1876476132328726  0.7909163262488986  0.5959998168665144
  0.1990708301659082  0.7964906289174630  0.8012009045260642
  0.3939167066487125  0.9950323767605870  0.0061415760337341
  0.3955324783222847  0.0003623305673474  0.3903328054183005
  0.3910388780772789  0.1916361358198778  0.9894984740665957
  0.3971941035834977  0.1997309008087995  0.4010088249208361
  0.4010913946073946  0.2163638362627712  0.6048050684475529
  0.3970141075617956  0.2123579648452661  0.8044454300236655
  0.3912553278991888  0.3958959072383306  0.9952564433044733
  0.3950207622070986  0.4027240567940885  0.1945829850192015
  0.4032063217063831  0.3905360847437058  0.3962797699833219
  0.4216279504465485  0.4277502453870490  0.8225523482120819
  0.3969726243962259  0.5989726855344051  0.1877177525979921
  0.4040943211419087  0.5974687153897392  0.6074021735738688
  0.3933952340674574  0.5970352648789780  0.7974672837907391
  0.3935377703726874  0.7894307636722011  0.9987025438634516
  0.3952221423294461  0.7938192802567337  0.1951536106148907
  0.3900530604155230  0.7972354337186072  0.3826231386627811
  0.3982836499666388  0.7907140889758689  0.6013414063456245
  0.3871369078139557  0.7797331316016384  0.7916263492809255
  0.6016399415534496  0.9948205843709493  0.2084019758176569
  0.6021929917875674  0.0002164378587610  0.3926003194823108
  0.6148046528296769  0.9916731485734820  0.8059627043498745
  0.6043313008929092  0.1932462419572261  0.2107396136824605
  0.6030729304548604  0.2017945141819219  0.4028278245187198
  0.5982144752880785  0.2096544027268582  0.5928969260443877
  0.5961465535931995  0.4001096622977485  0.9891985815994898
  0.5960866938733155  0.4012331179496557  0.5983807011465868
  0.5923383957650050  0.3968051254081637  0.7934005712557167
  0.7514096929934380  0.7751210204599650  0.9999229496835133
  0.6075349140628966  0.6023212950926605  0.3975905517294150
  0.5939998839524024  0.5946847685562003  0.5943739888542030
  0.5878925311555830  0.5930331779842076  0.7933653296830270
  0.5899258573308307  0.7437549285580728  0.0041477975183075
  0.5991101208229745  0.7968050542004328  0.3891102095879164
  0.6051378490525001  0.7952440320394273  0.6009769695913493
  0.5880170682500315  0.7894548674690693  0.7938313877342340
  0.8179930226007653  0.0209080817796774  0.0108291310185358
  0.7971133354166656  0.9990451576838524  0.2087313202143099
  0.8046042585368679  0.0028211176626706  0.4019561390686393
  0.8048803156480595  0.0068670320884416  0.8010299148477718
  0.8047337797066656  0.2059774684698003  0.0021672764049492
  0.8043829287541634  0.2019119878153665  0.4087258228448124
  0.8020300584003821  0.2021753242639265  0.5969169816654455
  0.7938618210331995  0.4015278040660543  0.0047115174322951
  0.8223784573824700  0.4093810192575184  0.2102982781503017
  0.8061032441959357  0.3999445270122329  0.4045438938438976
  0.8015681713736877  0.3984023255076855  0.5977042670099917
  0.8077077392659365  0.6061702427518055  0.2069005256280041
  0.8103983196153999  0.6072393424446249  0.4075749430621867
  0.8011998904675295  0.6011359422107387  0.5975524470361063
  0.7975881903259729  0.7967194573506502  0.3988988060201806
  0.7994057379886728  0.7956997836702138  0.5910456597797693
  0.0005410628336376  0.2057572529265640  0.1922254593511788
  0.9984423167327059  0.3946259061736942  0.1980623227878588
  0.4018557860561991  0.4004380602413349  0.6024179493830211
  0.3942844456296288  0.6015348703898068  0.9998686176007653
  0.5940137263665490  0.8041574212078670  0.2019472870767978
  0.9999327136131655  0.5994145668349360  0.7989600568954055
  0.1914023428109465  0.6019853483951602  0.3959954986848643
  0.3980441763917248  0.9954407862675805  0.1979623420156615
  0.6051305921857325  0.4026535965841552  0.4046436789951702
  0.8032511502174784  0.9951812618340973  0.5926713209433410
  0.8017375728363557  0.2035630476332022  0.8028609206631787
  0.7967828821176770  0.4012716842776168  0.8007899957228380
  0.7940301860920260  0.5987551354599523  0.7980642045700916
  0.7997018601952106  0.8034770700205002  0.2067208776807550
