Zr Ti V  Cr W 
 1.0000000000000000
    14.7668904951090898   -0.0158161882333206    0.0691101305642305
    -0.0136211433651554   14.3505728735534905    0.0266547947778874
     0.0697682745283305    0.0258345201295757   14.7728914043337962
 Zr  Ti  V   Cr  W  
   3   2 108   7   4
Selective dynamics
Cartesian
  0.2253991955334893 -0.0269270361815279 11.4414178929571690   T   T   T
  3.5071724548253211  6.2250717652939436  2.5781880408152906   T   T   T
  8.5232267908218251  3.3429038799801432  0.2198321366745145   T   T   T
  3.2629112449537225  8.1825965791486155  5.4366936465337243   T   T   T
  8.8504539318122788  9.1007590284702626 -0.2623530624179991   T   T   T
 -0.9617741104812105  0.2668634264409714  0.3015942637250609   T   T   T
  0.3546632911784563 -1.3087343850129380  3.4772783848621560   T   T   T
 -0.2145192440482880 -2.2976323186694914  9.2810438891850691   T   T   T
  0.2129321018694479  2.6165178958094955 -0.2393738202467178   T   T   T
  0.7936504339661241  3.9458215428884236  3.9104505141954675   T   T   T
 -0.0156990297670340  2.0114695783634433  5.6201607660152115   T   T   T
  1.0348989253964580  2.1286895141188777  9.4716561462117319   T   T   T
 -0.8497573456753470  3.4009598961639260 10.9763565211011915   T   T   T
 -0.2981984506801603  6.7127261146291088  0.5117441534268277   T   T   T
 -0.1421075764414347  6.2007293743864267  3.0065511636708311   T   T   T
 -0.4303539454864111  5.9780974439200305  5.6453289719813631   T   T   T
  0.4633959940206682  4.4737000256166040  9.1047431021365668   T   T   T
 -1.0548824480847818  6.1439577553273139 11.2897890614859229   T   T   T
 -0.7035774438229045  8.7549296530309935 -0.6658619547226912   T   T   T
  0.6804844276759918  8.4111961392159635  2.8034649922367008   T   T   T
  0.5369513024410404  8.7068137491505606  6.1084767834592881   T   T   T
 -0.3682139533914089  8.6229933091322319  9.7262623136906665   T   T   T
  0.8535656745243344  7.9838289906583739 11.7352325832365736   T   T   T
 -0.7868203506396096 11.8180675174397027 -0.3327279198976144   T   T   T
  0.3677629407578012 10.9403842347611135  2.3010962182500152   T   T   T
 -0.2914591981126277 11.2540176259049396  5.5471494003016346   T   T   T
  0.1858590557676116 10.5344084324546312 12.0236104132353780   T   T   T
  2.2308877858296654  0.3672652380700580 -0.5485532093123555   T   T   T
  3.3718045997585007 -0.1367351253240581  1.7684502437155474   T   T   T
  3.3079376054760319  0.3691903498638653  6.4736638293110422   T   T   T
  3.1364892556677644  0.4054207588122499  9.1473487458245764   T   T   T
  4.2330146792704504 -0.4412666672851979 11.0637382095852512   T   T   T
  3.8204989638522577  3.5566276745965979  0.6341299412010341   T   T   T
  3.2156925864978798  2.5358949261348411  2.9730132432304650   T   T   T
  2.4996575678481689  3.1550314677232838  5.7029593907983589   T   T   T
  2.3799952728520064  2.3332618341101488 12.4313798064335739   T   T   T
  2.3372730886333755  5.8631635606677337 -0.4683170112610513   T   T   T
  3.6468927214619304  5.6012529044588817  6.8047142848662974   T   T   T
  2.9480149138486791  5.9242422274522228  9.2448681923497844   T   T   T
  2.9099947746680193  5.9155850189787298 11.7812124553679585   T   T   T
  3.7568479032704722  8.2923545019088962  0.3881272893105325   T   T   T
  4.6302661511524636  9.7278776726632099  3.4029066348839661   T   T   T
  2.0188262838777851  8.1903694109993790  8.0829017481680925   T   T   T
  3.0141150352701094  9.4654117506928337 12.7045941877335409   T   T   T
  1.5772249530890885 10.9636937468557285 -0.3369726110708782   T   T   T
  3.0373273400466108 11.7731989538390316  3.0311579668887103   T   T   T
  3.4615592074114341 11.2986215492418847  7.2334202729940920   T   T   T
  2.7986921845251853 10.8377089725032434  9.3279630498246533   T   T   T
  2.9072288385460991 11.7352761818826892 12.1268360387891381   T   T   T
  6.2596221678959747  0.1259372814525228  8.3296710463432664   T   T   T
  6.0833800779945388 -0.0654317835744593 12.7520540075750564   T   T   T
  5.3134255638919017  2.5373700012293123 -1.2534460981651396   T   T   T
  5.7949440498653182  3.4436795470882018  3.2186565515853487   T   T   T
  5.7151741906395337  2.2886266999606710  6.6274693633870037   T   T   T
  5.3743745330588348  2.2807899016768558  9.5841813824574533   T   T   T
  6.9463992568672719  3.1336374435128063 11.5526775830392054   T   T   T
  5.4010523369694186  5.5296255753602184  0.1422055798847837   T   T   T
  7.3022494763606058  5.5946702266016084  3.3742963426056405   T   T   T
  5.7375508651379743  5.1052131850727385  5.3154982347707946   T   T   T
  6.0304171491745207  4.4411523900969634  7.7530940879648931   T   T   T
  5.0796912539735191  5.0364254110277313 10.5497296469272523   T   T   T
  5.4830409639386977  9.6258696176898120 -0.7051290696661839   T   T   T
  6.1511721314607408  8.0994664121992308  4.3334708767587156   T   T   T
  6.7108335942255568  8.1762582182455912  7.3066034702449967   T   T   T
  5.6807922291151653  7.6596436806868109  9.4881168799128126   T   T   T
  7.0263172460229821  7.0284946132109045 13.0731711499310492   T   T   T
  6.4796068650829399 11.3456464834078403  0.8799913626631810   T   T   T
  6.6051597115409209 12.8389274908284872  3.8925430501492500   T   T   T
  5.8790925930436808 11.7139415245125562  6.4688068793018800   T   T   T
  5.1143343990117369 10.8929517234318052 11.1359630489745189   T   T   T
  9.8556404016152328  0.1930140310049152 -1.3374462330269461   T   T   T
  8.9951832897380797  0.4579272508399880  2.1082485829212745   T   T   T
  7.9302992771747132  1.1206797444444918  5.7002756711779625   T   T   T
  9.2224544265215371  0.0286356467464106  9.3091596240365515   T   T   T
  8.0411276363158368 -1.0931186936067903 11.1972931997189740   T   T   T
  9.5417852960583716  2.3536462844837076  3.7195027389509252   T   T   T
  8.4733276228116043  3.7921124814299247  5.9029325144232248   T   T   T
  9.4563474462496444  2.4690071720312456 11.2803908031798716   T   T   T
  9.6666494940560579  6.4296250475914505 -1.0120820637445795   T   T   T
  9.0393601353235589  6.6226773653490678  1.7955835693932891   T   T   T
  9.1497099023471833  6.0423859188203197  6.6987081919101579   T   T   T
  7.6627833100780967  5.9422435728877110  9.1908341108503357   T   T   T
  9.0296406657228321  5.0356123331835319 11.6118153852003445   T   T   T
  8.9413687256634162  9.8841619689802585  3.5221501495017180   T   T   T
  8.4923847979214528  8.7289570623136079  5.8054668417758553   T   T   T
  9.3988904912655080  8.8193013554919943  9.4901247145644660   T   T   T
  8.4220826939046560  8.9095391047715999 11.8550243481241804   T   T   T
  8.3224176950158757 12.3690226161261787 -0.9108455588129392   T   T   T
  8.7875568240576420 12.0180820949814482  2.0448428102432854   T   T   T
  9.1239193605411835 11.9294540241568967  6.5399597751101517   T   T   T
  7.9755402401290878 10.8323688187222018  8.5407960898218995   T   T   T
  9.9678093644902646 11.0736913951239551 11.9236043993208636   T   T   T
 11.7415976919029976  0.8544317150290981  2.8475400849217758   T   T   T
 10.0998303996004140  1.0231104817745986  6.7282549795547473   T   T   T
 12.4007988261628341 -0.7574405150815204  9.3558118810494495   T   T   T
 11.3945497781355023  0.2763975241295680 11.4865323756152744   T   T   T
 12.4996064873177630  2.5201183150336668  0.9055048992000354   T   T   T
 12.6210951813081351  2.3769328622301886  6.9294082453088883   T   T   T
 10.6310620032984406  3.5896897194521680  8.2146195912842686   T   T   T
 12.0865922927647080  3.2952485246282528 13.1786218666825050   T   T   T
 11.6081259204491598  5.0716119681749685  0.7128901213457630   T   T   T
 11.6557988566935471  5.8159643717159781  4.2152190114824570   T   T   T
 12.0402744406548408  5.2764301740129484  6.7214581568401677   T   T   T
 10.5877034512876911  6.2891541692296355  8.8513875242352444   T   T   T
 11.5458494366729809  4.4402674311598274 10.7297478332462397   T   T   T
 11.4784232517392830  8.2480154717705325  2.8868571973980042   T   T   T
 12.5895640697978735  9.5493359108080380  6.2285237464733356   T   T   T
 11.8863015092009423  8.6079346542792763  8.5921022744390516   T   T   T
 11.5086197421684595  9.0695329990989695 12.3546507515588218   T   T   T
 11.6029019021501938 10.6525987291223885 -0.2903884666666070   T   T   T
 12.6449358203606632 10.8630735788693755  3.6439757573377798   T   T   T
 11.7780447177136409 12.0066925480184921  5.9808599120010397   T   T   T
 11.9495897503903130 11.2037763253423517  8.4967410082134585   T   T   T
  0.6221951934950349 -0.4812676597630345  5.6616770784437573   T   T   T
  5.8200148786427865  0.8528132346277226  0.3300447255152279   T   T   T
  5.1641043047866777  0.8700182721616486  3.0564905094614145   T   T   T
  5.5399202533929071  0.1423842852772494  5.4439810706695857   T   T   T
  5.7385693328397416 11.8518206016686793  8.8708589087092733   T   T   T
 12.3568595274435342 -0.9142747873929198 -1.1107471904084307   T   T   T
 11.4796331905973368  3.6004932590079339  2.9670285683179589   T   T   T
  3.2532085259745585  3.2402251070602142  8.1832154728466087   T   T   T
  8.0980280052095797  2.4794978078290777  8.5181750362624129   T   T   T
 11.5253472333763085  7.8425442733385768  0.2100715632582580   T   T   T
 12.5785886447864748 11.9147943354184545 11.6769000789225341   T   T   T
