Ti V  Cr W 
 1.0000000000000000
    15.4539762940606913   -0.0009302546193068   -0.0040609226562242
    -0.0009305541856652   15.4553324993326164   -0.0016432811203864
    -0.0040599645847516   -0.0016432389492442   15.4631351219687598
 Ti  V   Cr  W  
   3 114   3   4
Direct
  0.0047902714848145  0.4010235816072177  0.8087006161352095
  0.1938948404775354  0.3987987349961470  0.9926089000051822
  0.6049428639974176  0.7989829165986075  0.4054621666587642
  0.0000450009671678  0.0002991808582586  0.0019773287999322
  0.0017337892866269  0.0016042185574410  0.2000828327559482
  0.0002888899872178  0.0005325583173214  0.3990995652823993
  0.0010594443665695  0.0007104945090828  0.5993572627539694
  0.0004310465195354  0.0002063722111667  0.8008502238956965
  0.9999104608408255  0.1991385786514733  0.0006213457338677
  0.0315932090672325  0.2030444577456108  0.2001604558838928
  0.0009635162792897  0.1995647869882269  0.4005903363004038
  0.0010160575606980  0.2009459162569825  0.6009371744162298
  0.0001781556729161  0.1980564397059798  0.7998711907908578
  0.9957597815750627  0.3997749680595944  0.0078416704070432
  0.9995471674072713  0.3999817746764056  0.3974394283961550
  0.0009280729391789  0.3997328692323391  0.5980216388337393
  0.9992641964779830  0.6004774968556345  0.0008564541002196
  0.9995559199547784  0.5969272838195370  0.2004755671322018
  0.0004084688775931  0.6005194976030280  0.4004152152030163
  0.0005529975609579  0.5987321662395563  0.5998848474037427
  0.0009289069950497  0.6012733851824936  0.8008357603128954
  0.9999659334025299  0.8003213639357154  0.0010017005991539
  0.9995306562797392  0.7985440938384145  0.1997621723207184
  0.0001672932863706  0.7999094687641823  0.4000749469384849
  0.0012682241016098  0.7999794784840820  0.5996580752638372
  0.9959964945743043  0.7998172882939074  0.8007485702268927
  0.1994177160454337  0.0004692221829337  0.0000125961508746
  0.2033724155616752  0.9973193234104162  0.1997528357698828
  0.1990917146661312  0.0000328786773727  0.3987330221832203
  0.2007621378054893  0.9990968268481294  0.5998258769029235
  0.2000107437273933  0.9980083321935328  0.8000227945100458
  0.1998296084337862  0.1988797835189584  0.9951009660811816
  0.1992967287107174  0.1998694889330473  0.4028296209822082
  0.2042496845083351  0.2000825822908530  0.6004150140084005
  0.2004694400870522  0.1987852683031556  0.7985648882870366
  0.1957894142559840  0.4025894611698699  0.1996711340649779
  0.2005160237503682  0.4001225973687888  0.3986184729857728
  0.2001995841618602  0.4009305859276181  0.5989943476312007
  0.2028532514930243  0.4007836092664709  0.7962972917160142
  0.2000156385612054  0.6024677189509962  0.9987367512376715
  0.2013826759887034  0.6003497985871589  0.1993891651240985
  0.2007477899721433  0.6008387745137027  0.4012077767048774
  0.2010587275690054  0.5996774233241666  0.5999939430924129
  0.2011876333305192  0.6012820241873692  0.7984003363574417
  0.1991604291617279  0.7994138024477432  0.9982398991026551
  0.1990067978632137  0.7988196312786029  0.1994124167644510
  0.1996465590505432  0.7990349103583391  0.4010340736055654
  0.2004206079606560  0.7996895414936626  0.6008826790736066
  0.1994339190080400  0.8000572330605201  0.7994083511407651
  0.3998430602683460  0.9999840865278692  0.0030431771259414
  0.4004215930337261  0.9993880592591886  0.3958302448677792
  0.4005275275102840  0.0032242200697490  0.5984876506952511
  0.4008949193766816  0.9988029955736647  0.8010097327868593
  0.3990583912951634  0.2006840808533754  0.9986287491295311
  0.4017654699169744  0.1969734008150689  0.2003776041024413
  0.3996295211655134  0.2007371075726785  0.4032972561633025
  0.4010225528120704  0.1993125142602671  0.7961388673997667
  0.4009215315830771  0.3997377782938519  0.9993928477844140
  0.3965182756467971  0.3975482864938728  0.1990782389077771
  0.4003862259991806  0.4006247571591524  0.3986884697678983
  0.4008463581992706  0.3965703080079265  0.5988537540584552
  0.4013841498311349  0.4005871228224653  0.7996997835797239
  0.3997860850144148  0.5998304923559850  0.0006440804160730
  0.4000559476786018  0.6003973544833054  0.1997746320611235
  0.4006060467167783  0.6002523964914785  0.3992121672603733
  0.4007712210390301  0.6002044437343910  0.7993190144654179
  0.4003118423771798  0.7995009265225413  0.9984868948971349
  0.4006632072127999  0.8028671431334822  0.2001049369247447
  0.3989805876397998  0.7995471453749620  0.4011855157795365
  0.4005510339307951  0.8008103770450079  0.6003339198092418
  0.4014212098268815  0.7998942620944646  0.7994694213108341
  0.6000717092359449  0.0001310895783533  0.9998709593252396
  0.5961344787452606  0.9991907043154356  0.1997857907446935
  0.6013038541407739  0.0015101348371224  0.3995546728818171
  0.5996118794126666  0.9999225576221804  0.5992457683557318
  0.6005827489093226  0.9995541616348912  0.8009386846687646
  0.6006318795451430  0.2004360894638471  0.9985307027040399
  0.5997670355777034  0.2012274030546401  0.2000635327326260
  0.6017035774429730  0.2007971669248770  0.4003608954850135
  0.5968125434637251  0.2005878021170559  0.6003702687355877
  0.6009117033722533  0.1996735537291854  0.8000686338248353
  0.5997488037705184  0.3998773927476814  0.0005406089825871
  0.6004309422993849  0.4000430282469656  0.1995127257648331
  0.6009055358523223  0.4005792592267396  0.3988458585394065
  0.6008853608577097  0.4005524482366727  0.6000041598497460
  0.6018290312366360  0.4010805816042975  0.7998635774877924
  0.5997697661519350  0.5992821171320926  0.0000649418033170
  0.5998398047567001  0.5981897608678352  0.3997402529128796
  0.5992798448503553  0.5988409030770141  0.5997631895357237
  0.5992652379286076  0.5995542629961248  0.8001152715596281
  0.5999884239329404  0.7989627696183449  0.0000048160907522
  0.6013908178915394  0.7984260001625355  0.1981226954130142
  0.5993264711147482  0.7994795841175094  0.6020242906177222
  0.6047235389901551  0.7991304168385250  0.8004532288544298
  0.7998795254316989  0.0003267927551737  0.0009740638005867
  0.7988551636319147  0.9992561870407024  0.2000215334730802
  0.8004672493345996  0.9996306354083194  0.3996468469401002
  0.7999010472055703  0.0009612224736278  0.5993689959951726
  0.8000812373232642  0.9953026107869312  0.8001734839582310
  0.7995809120751316  0.1994049752524275  0.9984072779523913
  0.7980637422793243  0.1988260463806112  0.1998722830348325
  0.8000024504776272  0.1996841332114433  0.4018886333163154
  0.7995383831917614  0.1996911927679702  0.6012231305501331
  0.8006046214611916  0.1991135962216345  0.7992020386682426
  0.7984861894803440  0.4002124692334382  0.9996465384058267
  0.8026222025275966  0.4002704220693362  0.2004601449691511
  0.7999724994734775  0.4002870543073364  0.4005436411166947
  0.8010577291359547  0.4001177353969105  0.6011494385325717
  0.8001540727459338  0.4010349574610648  0.8007716695819470
  0.7990459847217790  0.5999711797339641  0.9999461651450591
  0.7986031849347911  0.6013024442743156  0.1999100845920058
  0.7994560712682018  0.6010722012245696  0.4008700546798448
  0.8001867070432918  0.5993069794374010  0.5998025214030698
  0.8001805194548540  0.6041415228247623  0.7998397662583245
  0.8000451148742813  0.7999997646335960  0.2005785526939324
  0.8030725123624631  0.8000830725436127  0.4017966866346034
  0.8009165556566339  0.7999292532617549  0.6027955637262480
  0.4002737986274431  0.5990365479862898  0.5996644581206615
  0.5992806657206060  0.5993529315436125  0.1994985439666228
  0.8000996415405983  0.7998834330128333  0.9999106063235866
  0.9997282917592005  0.4001611869568988  0.2019514772919887
  0.3989279701515708  0.0013749547137305  0.1996029721647436
  0.4007076533817094  0.1997051241308925  0.6001778653659777
  0.8006192240492203  0.8000494773069605  0.7970556681779047
