Zr Ti V  Cr W 
 1.0000000000000000
    12.2882735461728885    0.0000000000000000   -4.3445607757035454
    -6.1441367710433559   10.6419570608175889   -4.3445607757035454
     0.0000000000000000    0.0000000000000000   13.0336823299999995
 Zr  Ti  V   Cr  W  
   9  17  87   2   9
Direct
  0.0025956051115825  0.0010373973892610  0.2060885451829366
  0.0013732643491564  0.6007093776932847  0.6022790076971231
  0.2001402779369561  0.3989646230386097  0.6047386300488991
  0.1619509526584160  0.6002954319829616  0.0010827105382125
  0.5984598232930045  0.2063499733909183  0.6070129014089611
  0.6130352763732994  0.4054337204765519  0.0070643337211857
  0.8017793502353082  0.1975458680481522  0.9978821097789540
  0.8577841513075651  0.4479397103074655  0.0461200785166410
  0.8415276734111076  0.6115716777817611  0.9959048066447225
  0.0007473867285533  0.2012997111826476  0.2005376425332382
  0.0002466797393147  0.1954692914882495  0.6034341132821879
  0.0088891209513305  0.4089966418418024  0.2117796252683283
  0.9952694563325849  0.3843126342331168  0.7848243200263937
  0.9946131553686621  0.6067727966367312  0.8034081384108974
  0.0113579613609263  0.8079001338916595  0.9956307013066428
  0.1956153350273722  0.7920398948004761  0.5981299562519444
  0.2079126883785330  0.8118313068072114  0.8156038033142202
  0.4000141808627580  0.9966743625518433  0.8043848760642158
  0.4032837385590817  0.2032272599494648  0.7999316671317529
  0.4079186212268450  0.6079539708336726  0.8124616989772615
  0.5992123626984716  0.9962129873408048  0.6029565943702059
  0.5954245699646489  0.1969336361440580  0.3929998475337437
  0.5955151391224178  0.4003077317541200  0.7906846658679058
  0.5992418752019588  0.7918515807196483  0.5950072142577467
  0.8006195742954559  0.9960563748672877  0.5954915152869655
  0.7896855234746849  0.3932816952972834  0.3955876340635074
  0.9967591283610889  0.0012356837162806  0.4079819997946984
  0.0006388005607637  0.9968629806214920  0.6002295108476486
  0.9990004092367476  0.0021698584219598  0.7946407320500363
  0.0107202389303413  0.2023040699455035  0.9976045306607801
  0.9931960617793835  0.1904274622732776  0.3945195767906543
  0.0076284526461995  0.1989572335706463  0.8095258757757939
  0.0071085976315248  0.3952679856086121  0.9988843707761249
  0.0028041017449315  0.3952242553404237  0.4019259774488915
  0.9957254741053517  0.4000083944496667  0.5973643704679429
  0.0110716322119559  0.6082503825677200  0.1363707614591203
  0.9950719962275665  0.5897503148098940  0.3904042811785988
  0.0079423175274932  0.8078857164720982  0.2111944864135263
  0.9930781185783196  0.8062409055526945  0.6017082752750126
  0.9945468358876723  0.8082083912471111  0.7909025844806717
  0.2025402991347363  0.0040906036700601  0.9994814296857487
  0.2131798525614855  0.0087369745181812  0.2063213132451450
  0.2033864137211252  0.0048035089774432  0.4008108832416342
  0.1993363074140244  0.0101771941666377  0.8052506064867402
  0.2067474182472577  0.2058782230650770  0.0017848996112989
  0.2068410583845669  0.2065483779178931  0.2020551154307638
  0.2099182455267203  0.2119672373037478  0.4079589142619759
  0.2052047072050350  0.1970563117921692  0.6043892438416267
  0.2023453083929015  0.2058449942064533  0.8054393041075154
  0.2030212795986906  0.4004695670795995  0.0042320251930172
  0.2047330498348734  0.3985630715020641  0.1995512505454634
  0.2039243291240111  0.4041414119249404  0.3959973365908152
  0.2133828669657525  0.4082611439246557  0.8183314099587373
  0.2021110903772267  0.5954901626610563  0.2059447733365208
  0.2057263151852332  0.6017930987635921  0.4072106380786963
  0.2070956582557787  0.5976356469548469  0.5981333314446733
  0.2024273497187438  0.5993816304104793  0.8009026979222822
  0.2154412799429204  0.8148736467890972  0.0128751520258694
  0.1973883315807144  0.8070536449759996  0.2008152408133942
  0.4043145056392431  0.0050234056702449  0.0106533868016484
  0.3993360697445280  0.9964083405904511  0.1991093578878857
  0.3956760424126269  0.9980970903716870  0.3927029205338363
  0.3957388123590124  0.9984081614190787  0.5985074500668233
  0.3997117353621135  0.2033374031631545  0.0032457060947446
  0.3957860680107168  0.2030983288484095  0.3996362538357555
  0.3873129197263139  0.2002540522269001  0.5911142545409120
  0.3961395896156146  0.4069694170147657  0.0024957328891060
  0.4014358581683580  0.4063713098590200  0.1998639804569660
  0.3970567542134649  0.4021654806627775  0.3983711993542942
  0.3988125643735940  0.4038807807936309  0.8008685729652150
  0.3979466061633208  0.5988637360713768  0.1939152979727194
  0.3972631428145830  0.5932229999493226  0.3934719821436586
  0.4024125906038215  0.5985474391868306  0.5969532794319130
  0.3993426782535504  0.7957343700313083  0.0025126844470787
  0.3992991657040635  0.8002838969442588  0.1994245209331570
  0.4004634580310639  0.7968785927162173  0.6023275258068548
  0.3965752152708381  0.7919036436503747  0.7971476980886715
  0.5953150718927663  0.9925517098699399  0.2001299398920209
  0.5983092511703844  0.9902774670433798  0.3926218751846095
  0.5933123866661256  0.9819727261400127  0.7941411632117319
  0.5955909127444735  0.1968420779632309  0.0082866302831970
  0.5950677414318413  0.1959622183499265  0.1927879213088870
  0.5920087688924409  0.1758319647098856  0.7966404820348962
  0.5989052751015366  0.4038223537284111  0.2069354349843306
  0.5947541202486909  0.4063687964850963  0.4000923002698195
  0.5891596053889719  0.4046206580687227  0.5896815490955791
  0.5940951865319941  0.6030850684383504  0.9984921561104190
  0.5974393381906196  0.5997920708821043  0.1993171256561990
  0.5947688710778130  0.5997185988495218  0.3949792199109052
  0.5941837160624162  0.5962094312225363  0.5926102467286584
  0.5946376859090335  0.5981177584770753  0.7908932687639249
  0.6002639281053272  0.7987083890860770  0.0054876760229875
  0.5924260813205782  0.7910305485769499  0.1941980106063107
  0.5947083255721186  0.7919061974883562  0.3873987307233227
  0.5965464902544674  0.7946138540083375  0.7965749330752413
  0.7928923828764114  0.9850367250502091  0.9941627734526961
  0.7911815356890227  0.9910932041249069  0.1993502130830894
  0.7937850739696495  0.9892589236314535  0.3902801366592273
  0.7979901926521009  0.9954651787347611  0.7969056878827765
  0.7955441041071672  0.1974921466098695  0.2062164709702760
  0.7902663323052680  0.1908470164868228  0.5910251351776316
  0.8111199741518811  0.1953008341581553  0.7939730075698652
  0.7980247361798480  0.4027172226009077  0.2071222848117110
  0.7930781569993958  0.3992459192848091  0.5996974615155412
  0.8154738921214173  0.4094509676082076  0.8046793373386839
  0.8014477337132433  0.6052425899897218  0.2108148009867667
  0.7923676349120080  0.5999109260202709  0.3982231277702329
  0.7898435011951230  0.6008769306870495  0.5925373858473184
  0.7853903193962264  0.5985951958833180  0.7760291529737915
  0.7937340462740917  0.7929312177580613  0.1983867439925792
  0.7914864205035460  0.7973136151827052  0.3968040853200323
  0.7987646064617975  0.7945764329007140  0.5926433991743751
  0.7963920326471619  0.7995296365135249  0.7908182546612464
  0.4028771207996382  0.4029751820947347  0.6000130737391387
  0.4018208259085945  0.6019579120222917  0.0050364159313560
  0.0018293201196370  0.0060285868136155  0.9933893557178335
  0.9945405119352245  0.7969594456149111  0.3997486366854157
  0.1988953555299214  0.0009844080587980  0.6023320618289965
  0.2014728513427856  0.7991847432736428  0.3986786428651932
  0.4020124512425381  0.2042010082547597  0.2019833067976569
  0.4000109238625166  0.7962784177642173  0.3953774873947793
  0.5944525269336607  0.9916408383734269  0.9998103987245949
  0.8022593671001527  0.1940665951359613  0.4023528771738794
  0.7906724654703763  0.7934279651600538  0.9895811124460868
