Zr Ti V  Cr W 
 1.0000000000000000
    15.4771126092992706   -0.0171409429028663   -0.0108832458615090
    -0.0171377985850307   15.4835452709138899    0.0089453070842751
    -0.0108770206815257    0.0089383803551370   15.5150560916889226
 Zr  Ti  V   Cr  W  
  10   1 106   6   1
Direct
  0.9991118856768553  0.0313013882464683  0.9624522940342404
  0.9983934945925393  0.2035697175941216  0.7907570424858588
  0.9931826701741682  0.3795792371055634  0.5989568520550960
  0.9826018955455262  0.7816241497814050  0.5914238778738988
  0.1689131684943924  0.9968809683674589  0.3711439686578009
  0.3931164445493361  0.9970910108172384  0.4013067148624377
  0.4036093754324881  0.2037949518684795  0.9998252956842321
  0.8108373959435482  0.3941929974342851  0.4179869787739968
  0.7757387996218008  0.4055089673745708  0.6345228046122365
  0.8064372553722231  0.6217994447707831  0.4140140193103610
  0.5956029103555962  0.7981962565143937  0.6001541857540859
  0.9839310836402038  0.9983874516082348  0.3944670229196037
  0.0009536459891586  0.9918874269061067  0.5891724509492047
  0.0013529897853330  0.9919457684015126  0.7790817342267683
  0.0012190732176896  0.2162811771800156  0.0039152350027512
  0.0018454407795524  0.2037454879605552  0.2294195630287623
  0.9994087093412701  0.1855071124371612  0.5851425368199017
  0.0027941268716869  0.4080062208653416  0.0052396431759121
  0.0113707185382612  0.4069059081869125  0.3902897314291414
  0.0014427228684806  0.4071131559527685  0.8082807131506897
  0.0009189804266425  0.6037162777435497  0.9999114640110809
  0.0017776972327426  0.5961641175483282  0.2008357787389117
  0.0094827509012860  0.6021430936520924  0.4002621933094797
  0.9988255591684735  0.5875139011135541  0.5987378096186112
  0.0013800853801339  0.6005312397342429  0.7968891956862781
  0.0004140719481385  0.7998066186260810  0.0013956762045351
  0.9989140171887767  0.7998419231990662  0.1966667770648401
  0.9976004034427698  0.8012846994483627  0.3917676041435375
  0.9994973434289857  0.7983782601323710  0.8001774648323929
  0.2026298049361254  0.9996475765797238  0.9931262514672712
  0.2035747596317925  0.9994601743412178  0.1805931854938154
  0.2026127289855153  0.9976064047400323  0.6068222706265423
  0.2012220011776116  0.9980614194471422  0.7992822435464040
  0.1971368695369755  0.1994774335008220  0.9972577126137423
  0.2016250650893152  0.1971406141869955  0.2002138039081988
  0.2047531198791457  0.1983154589294300  0.3995936958061851
  0.2007463420510290  0.1952242191809358  0.5964010161107060
  0.2023991806970235  0.4002242239389859  0.9989413968852104
  0.2000020927241359  0.3991031879465832  0.1980642578370972
  0.2025124232145728  0.3980199998576293  0.4008881165787247
  0.2017540888548865  0.3958845329794176  0.6001873666449390
  0.2003730906903158  0.3983657566308540  0.8003645903520273
  0.2023784107069100  0.6002486492496555  0.9982175665518002
  0.2021295164150134  0.6012807743452464  0.1994582776872350
  0.2035270717023116  0.6003173453770079  0.4006212357153474
  0.2008770951246227  0.5992343819282270  0.7995270470500923
  0.1990380353164657  0.7999371190764297  0.9989760618920021
  0.1998530586998893  0.8014244511826700  0.1994903223857952
  0.1958880225160812  0.7954214524096853  0.4014200401611526
  0.1970263777060178  0.7983944466515465  0.5997265828183631
  0.1984871750052639  0.7977240626547031  0.7996329166374407
  0.4030579710861972  0.9973519983500916  0.9959027655915527
  0.4002301290665233  0.9987070587297633  0.6048796911849770
  0.4026714652589589  0.9986821460834819  0.7995961348820231
  0.4018738852079436  0.2006157189708378  0.2033533448525700
  0.4008998327081084  0.2034084389103023  0.4011577718445629
  0.4015803714281094  0.1995561573442161  0.7958976047252156
  0.4013553050248347  0.4059051073022132  0.0011730156112795
  0.3999815282845247  0.4013210582294206  0.2012971211817333
  0.3995725750492246  0.4011180680301528  0.4003135841713910
  0.3967514334750026  0.3995639494698846  0.6022072951878081
  0.4008955119010986  0.4003545676852430  0.8008661119553480
  0.4016787472136822  0.6018917274965614  0.0005040835962920
  0.4008710862714667  0.5999855694754141  0.2013523383623792
  0.3998224524107839  0.5992212978629011  0.6015925852004442
  0.4007935753638148  0.5998364218425595  0.7991709707964735
  0.4002046364485279  0.7990211250395548  0.0002597687640490
  0.3998549000198697  0.7989844315750336  0.2004250102145239
  0.3981522396531116  0.7937369238777933  0.4003512225169298
  0.3958133630792242  0.7974745901155784  0.6000739287823276
  0.3993842380905908  0.7992554331155406  0.7999858219759156
  0.6025089549159196  0.0004183205332640  0.0003670820024408
  0.5996367039296776  0.0006695621122583  0.1998252094261593
  0.5994929753706593  0.9999806990417390  0.4014549533478317
  0.5991451026918901  0.0026477949559018  0.6021428322415728
  0.6016784207745201  0.0010264139642220  0.8014388238307288
  0.6074400223006395  0.2011068994811310  0.0017446860179910
  0.6024834383678820  0.1999663794885424  0.2023479750986322
  0.6002716081900972  0.2011749012906117  0.4025601990749565
  0.6005697957649009  0.2010895686562552  0.6008873983294406
  0.6013457324849554  0.2005299125760451  0.8004944760703492
  0.6025759934441843  0.4015748200729815  0.0033677645082063
  0.6028134101893188  0.3999562649111918  0.2028557801808215
  0.5981075273051308  0.3996461197626667  0.4003764052472165
  0.5868751866171562  0.3985283812293903  0.5997620513741471
  0.5991723756187181  0.3998821501031900  0.8045473721070129
  0.6013549078482437  0.6004906836120476  0.0022259225494795
  0.6015952893318561  0.5990942836565488  0.2031433789524199
  0.6000476463811480  0.5990920607908065  0.4029599619068486
  0.5998488888273257  0.5958734166318989  0.6019411041501735
  0.6000721878577748  0.5994384456878533  0.8020203344922675
  0.6002369097171290  0.8001002534894162  0.0025478547124123
  0.5998867979027719  0.8002030377716097  0.2012633385902987
  0.5976806971954435  0.7982537170037539  0.3984325403703401
  0.6006378498179149  0.7990870714613894  0.8044160399135361
  0.7999559687905941  0.0001795480597242  0.0036871157070306
  0.8005830607397990  0.0002247038505684  0.1996275424660110
  0.7947581499399839  0.0012259824303700  0.4011893523426596
  0.7988122497112692  0.9982151901775556  0.6042437203228661
  0.8024222499689909  0.9994395384674923  0.8018162298504921
  0.8039921456094524  0.1994488873156382  0.0018920722459639
  0.8032428624649074  0.1987296315276592  0.2056844018578275
  0.7978061756880223  0.1929028393048674  0.4032260651672181
  0.8002816790559620  0.1961903253467073  0.6013936692074592
  0.7964990698177599  0.2017416345240520  0.8002386067982172
  0.7997372241075410  0.4012820023989778  0.0069736333976019
  0.8052572964139572  0.3991437383021330  0.2027206728172745
  0.8020843401700266  0.4005849463454765  0.8202208883573915
  0.8000918113176827  0.6022084795323555  0.0017404054970112
  0.8015212478238265  0.6017823464285449  0.2042164640662485
  0.7999658647708575  0.6069908774831350  0.6132487925874398
  0.8004463388098986  0.6009628763355869  0.8047052247854665
  0.8009772014114113  0.8019219249860808  0.0025930988949745
  0.8004018671321782  0.8013563741052554  0.2015196355225171
  0.7958235547276423  0.8115612475242767  0.4005733712275872
  0.7869558756589017  0.8037789076335213  0.6052388637632395
  0.7999065806737086  0.8009446977491811  0.8046786786908522
  0.0011904017774227  0.0026867918483380  0.1980426705160493
  0.2048349747301889  0.1987787837897968  0.7976511669519992
  0.1990004161028584  0.5955873117131690  0.6001754044784234
  0.4010178491709209  0.9996080302035550  0.1944871041413855
  0.4009796359926222  0.1990067440867062  0.6000273487944068
  0.4000165265034634  0.5984971514714891  0.4019516267980104
  0.0024505691045009  0.4008140596089113  0.1997853698028008
