Ti V  Cr W 
 1.0000000000000000
    15.3720038313806135    0.0023998420144863    0.0001449001601191
     0.0024007571799185   15.3633006247875361   -0.0006442210894229
     0.0001450310074229   -0.0006449824026597   15.3697544548857330
 Ti  V   Cr  W  
  15 105   1   3
Direct
  0.0053895511073512  0.3911749895539099  0.6038861834642100
  0.9914246250869186  0.8003854704923684  0.2038118490791854
  0.0092595324989848  0.7972835396165722  0.6017009831677659
  0.2001584640726734  0.2047284886653551  0.3932562342705083
  0.1958696748662694  0.2045550743993983  0.6054844270130066
  0.1985922467769624  0.3956877593368280  0.2036453932577092
  0.2028618536969288  0.7983791931920571  0.2007174935715983
  0.4069853473290731  0.9960871450187715  0.8065162994806109
  0.4016112092690066  0.5985590954602265  0.8019091675076701
  0.5931562695657294  0.9959137584709491  0.9949322590963650
  0.7978075771505422  0.1974086660259743  0.7973051009394478
  0.7992902991608530  0.4045050663086940  0.1928852818860150
  0.8012740902542893  0.5934514397014082  0.0034609729121589
  0.8065523109602970  0.7976341731756788  0.3912785426988477
  0.7983926337492867  0.7963479533186124  0.6038573285708412
  0.9984197394478547  0.0023463464981799  0.9990332914678065
  0.9984568262656459  0.0009892771597400  0.2014273353862205
  0.9983578695857369  0.0000750803232239  0.4004469476804888
  0.9997779186974631  0.0016391094371671  0.5996405310524799
  0.9992985236007325  0.9984717973938370  0.7982234623008135
  0.9988499169794904  0.1997068986756151  0.0016209306134316
  0.9980986213128885  0.1994530889555326  0.2003401987355173
  0.9977029833037696  0.1963624134904513  0.5964767631738804
  0.1646795745101364  0.2004364676922403  0.9651559461395571
  0.9966470268843288  0.3982030106417469  0.9995039747588116
  0.9999381607831379  0.3995167563221214  0.2010209180127157
  0.0004511851672664  0.3980995017848138  0.3980288804772403
  0.0000803594656627  0.4005712582915515  0.8011832293308075
  0.0022904113136291  0.6000275107161939  0.0023678411289696
  0.9998147676486319  0.5975590018035861  0.2015638690862352
  0.0000132889652844  0.5987483281286899  0.4008951534328857
  0.0010082066422957  0.5988059674904249  0.5988795130711719
  0.9993414129070847  0.6004559282109886  0.7997604123260147
  0.9996787979967520  0.7988863098346504  0.0001594060633700
  0.0034278786269475  0.7997728886114793  0.4013189600292374
  0.9993036031065361  0.8004373673341222  0.8030776650692079
  0.1971992018616509  0.9990088307099237  0.0002869540348979
  0.1976171943121174  0.0002964686879072  0.2009483098826260
  0.1993083374319712  0.9991482029375929  0.4002547704909908
  0.2003305740113113  0.9995960688286949  0.5996393863453010
  0.1972669512034843  0.0013849748220847  0.8005013366266923
  0.1993358650975146  0.1971339312206203  0.1979372046843794
  0.2032190644537942  0.1990800299099856  0.8010021034791998
  0.1988311939768120  0.4004732722996784  0.9992774862521571
  0.1995540859030121  0.4036314650049692  0.4050745234633812
  0.2045027546594226  0.4046178105313086  0.6022026268068837
  0.1984765462556173  0.3995310002451161  0.8013386466700799
  0.1989543529044114  0.5993457708021440  0.0010762546844478
  0.1991113210320216  0.6004407451115379  0.2020269391841295
  0.1986153671441142  0.6014466508030838  0.4006412558772426
  0.2008005065665152  0.6025034826684261  0.6010805987076803
  0.1977781644685265  0.6003831851384510  0.8001972215062554
  0.1992519408553319  0.8000035368750332  0.9983733577124757
  0.2006495312969410  0.8006475422628350  0.4037915055058622
  0.2054681005569210  0.8009331916271980  0.6023939236747474
  0.2006596647928626  0.8000695940186441  0.8003838880682541
  0.3948143852602390  0.0004412717913829  0.0045593811013071
  0.3981736186584773  0.0001935438494929  0.2013839865794010
  0.4021279889448237  0.0000512610454264  0.4003051018963634
  0.3996799039734487  0.9998193592507096  0.5984621224076162
  0.3995375149677557  0.2007015435390859  0.0003360404535961
  0.3992535241728669  0.2002302487953201  0.1977081479035996
  0.4014078288355645  0.2009622967044671  0.3998088962626430
  0.4001737988074217  0.2000462707724523  0.6003145797033262
  0.4043094047481524  0.2017175839488031  0.8011197589736205
  0.3984525896396148  0.4012018621734980  0.0013033507966271
  0.4018810821442516  0.3998113850002749  0.2007944658347265
  0.4002779920981106  0.4002159492741424  0.4001547352221184
  0.4015209903826979  0.4015721590188209  0.6002217217900416
  0.4007838943721288  0.3991332499380504  0.8010207176923586
  0.3990975480413695  0.5992764147744448  0.0039722908964617
  0.3993530044178726  0.5998843642202392  0.2014323075798266
  0.3995805041084941  0.6002695678126674  0.3995232359314072
  0.4013388110680991  0.6005663923730979  0.5970352535295271
  0.3987756278978121  0.7991616911799192  0.0006654004267574
  0.4010978041591885  0.7999325296315354  0.1993164649363566
  0.3995266879644916  0.7996318164234594  0.3989837292061818
  0.4008392276875299  0.7994706813470124  0.6013751011260947
  0.4013263247937704  0.7998272160565973  0.8012462043772154
  0.5985998640935802  0.9992935953493920  0.2042323595694487
  0.6009600060803736  0.9999781735567823  0.5939098396279129
  0.6052044724335744  0.0043229476063147  0.7934533788966548
  0.5985768396138145  0.2019311467024872  0.9947428798761154
  0.5989941990920523  0.1993131991413924  0.1974053025986622
  0.6001543311685668  0.1972039067517693  0.4003669430804834
  0.6004998018484102  0.2004963652155237  0.6028083985769270
  0.6038860104762463  0.4012056659270855  0.9996293104704257
  0.5973431509175468  0.4008036026278323  0.1999320898138498
  0.6007969516343085  0.3986332777483285  0.4000159508340058
  0.6008430047152983  0.4009717033237501  0.5997305885198289
  0.6009990962078359  0.3976755351403652  0.7992979117240564
  0.5968157095423826  0.6002435341479863  0.9997259412009681
  0.6000000196560870  0.6014225718666985  0.2016463634946241
  0.6019178152394338  0.6017804551721662  0.4000092243559820
  0.6009675268175561  0.6008327216530815  0.5988854337013749
  0.6033252192971990  0.6007986851957419  0.7989737618153343
  0.5990740800129002  0.7973164183750411  0.9982866553695344
  0.5987831893487791  0.8004713972168814  0.1977363423669103
  0.5987317057740569  0.8044479996445996  0.3998729815056942
  0.5989545293400005  0.8003561222614831  0.6000693297588032
  0.6007349830960415  0.8025512019087135  0.7995778523671981
  0.8004018063889075  0.9986879717329787  0.0000952392841935
  0.7984643212874459  0.0001171602703442  0.1984076185275228
  0.7963063654276230  0.0012368996908578  0.3984052985252439
  0.8017028198996837  0.9986812493232741  0.5966162982502099
  0.8018441772285653  0.9979431986418263  0.7988342802802633
  0.7996015682293176  0.2020559592692930  0.0011160349761608
  0.7974452068412179  0.1988578937370341  0.1979531789534563
  0.7990865166338833  0.2015927674426306  0.3969947500303376
  0.8010123027568762  0.2015294850456127  0.5970388266014374
  0.8002614283545809  0.4002761944530460  0.3999844742649750
  0.7995387819851080  0.4005783355035466  0.5991253917444450
  0.8015224077750565  0.4030497353305554  0.8019096022791935
  0.7989431244017444  0.6040843978597279  0.2033110558201076
  0.8016217119968444  0.5971823970398670  0.4001690955453628
  0.8019518958904053  0.5977362063219348  0.5993657847269496
  0.8006847292543049  0.6010937268063201  0.7979473100628903
  0.7988627202332650  0.8000354916913451  0.9990293189512633
  0.7949705815590264  0.7999810739191621  0.1936360383281764
  0.7997697265788561  0.7991221212075271  0.8027537324798880
  0.9959459057557229  0.1996452927762945  0.3985168386874453
  0.5999112226306104  0.0009937776026445  0.3989353377268569
  0.6013686927005990  0.2009387530909713  0.7973524255964891
  0.8001602577447292  0.3982675685356327  0.9962861206266014
