Ti V  Cr W 
 1.0000000000000000
    14.4098393967644967    0.0172340356966039    0.1947290039414470
     0.0168027656938818   14.5837326834486234   -0.1581687849059784
     0.1939067096931866   -0.1577447558867834   14.9425224182432466
 Ti  V   Cr  W  
   3  99  15   7
Selective dynamics
Cartesian
 15.6220340384358121 10.3957075587124663 11.8967627399250215   F   F   F
  8.8695723487884930 14.5233100633389220  8.3212587257812167   F   F   F
  8.4278030394849495 11.3134830054358968  6.6350773396796185   F   F   F
 14.7631882832244727  0.6954485204484008 15.3922002009658456   F   F   F
  1.4575673646989653 14.9810162224912951  5.3182746405160977   F   F   F
 -0.5514253044658151 -1.2682849040279967  7.9716946116065994   F   F   F
 -0.1065869411890953 -0.9028119546111256 11.7997095153316724   F   F   F
  0.1797891434236754  3.1152182652703235  5.9962167149697985   F   F   F
 14.4034637115424271  2.0041660125648053  9.6700532832492296   F   F   F
 13.7161654258088586  2.5098181755724549 13.2638894519282449   F   F   F
 14.2175305263125136  6.3109819161977878 15.1962740103019467   F   F   F
  0.1762022912461278  5.9834758731390814  3.6964642028150410   F   F   F
 14.0146460494752585  6.8816867353434290  7.4877121537889044   F   F   F
 14.6679498631285554  4.8747521396346283 11.9179887161492264   F   F   F
 15.2410982453346850  9.3857978892609246 -0.3417961487162958   F   F   F
  0.0402726415855859  8.9003787594987003  3.0547980477946344   F   F   F
 -0.0244320362660943  9.4160510485652384  5.3514279191042267   F   F   F
  1.2009256795707146  8.5580654625069368  8.7921672079680224   F   F   F
 14.3144906290595699 11.6768027592907444 -0.0042311846860634   F   F   F
 -0.5489105989002677 12.7215592472235777  3.4610599100558819   F   F   F
 13.9914956124793033 11.7606579338709079  6.0743589739690202   F   F   F
  0.6350889151858140 11.0618674944747486  8.3545051058989923   F   F   F
  3.8888471021320594 15.1667385036547486 -0.2488120690011950   F   F   F
  4.6904715045598033 14.9195218100661116  3.2663422030744758   F   F   F
  3.8925762811108808 -0.5527194532820626  7.0349616696171040   F   F   F
  2.0196865224142369  0.2894360092027085  8.3297129013262676   F   F   F
  2.5647339381211389 -1.0881327568692516 12.6322138830145398   F   F   F
  2.1631148800719013  3.8749628141635997 -0.6879436483220519   F   F   F
  1.9992708866662572  2.7939371123843904  2.7138764002131555   F   F   F
  2.9892319899096873  2.0476297995203803  6.2329834890546989   F   F   F
  2.9263112673414469  2.1392283587873804 11.6028572789571882   F   F   F
  3.6768549984475389  6.0625196955878025  2.1646776045282081   F   F   F
  3.2603308986067114  5.0497340952623126  5.6926261614076328   F   F   F
  2.3316126051400254  4.7875119962910739  8.5812763346369056   F   F   F
  3.0548999396561722  5.8754139176510867 11.9423355015422619   F   F   F
  2.3980620323934683  8.4599595515398835  2.0792333567123755   F   F   F
  2.9748571225916756  7.4694681161936884  5.6100764804015064   F   F   F
  3.2838825824405800  8.3844878273431380  9.1516133923112086   F   F   F
  3.4750489144213375  9.4117469943619447 12.7320225110382594   F   F   F
  3.7684236092706547 11.5066370894611936  0.2399118544894631   F   F   F
  3.0695939860448300 11.5812852946202955  4.1064919774329214   F   F   F
  2.9427218083783040 11.1282134307082732  6.6468532106744469   F   F   F
  3.7443337956660856 12.0500820630772658 10.0249998040213928   F   F   F
  6.2028271749956803 14.4600167508483075 14.6622813722052037   F   F   F
  6.0948830965484255 14.4559971881560099  6.1718061604598624   F   F   F
  6.4154117156630930 13.5306860781365188  9.3084243335674675   F   F   F
  5.0202029100573293 -0.1160532374228692 11.3580442335263658   F   F   F
  5.1887057469741587  3.8448844869497862  4.3734557190837080   F   F   F
  5.3599530724910087  2.5004621559061802  8.9070167959890671   F   F   F
  4.8726428511507720  2.5286729351900554 12.7108305506085859   F   F   F
  5.0871604634378826  6.0352331325056685 -0.7472149565779239   F   F   F
  5.5880321242459781  5.9940332525933249  7.6248463029870832   F   F   F
  5.1145141027540690  5.6993674434589670 10.7236896499538901   F   F   F
  6.4715611882218198  8.6465049432214194 14.9580452449859909   F   F   F
  4.8484088103624075  8.7996155433906544  2.6556597840343765   F   F   F
  5.6437726161155339  8.7141998951437394  6.3238289815044295   F   F   F
  6.3233416023440832  8.4859971635235976 10.0915366959059689   F   F   F
  5.7337829583087556  7.8063011239263052 12.5066068958446408   F   F   F
  5.4963937507504994 12.1315939788057872  1.1977872036646551   F   F   F
  5.4830556029103628 11.7760343969267272  5.2796227742033777   F   F   F
  5.5256457220319781 11.3684455538133022  9.0379503166469952   F   F   F
  6.5221475697644058 11.4375944980238327 12.4956917363658579   F   F   F
  8.9408188585377886  0.2973954336433781  2.2686647638589248   F   F   F
  8.1113783780693645 -0.2187180940011520  4.7771115143605583   F   F   F
  8.7765064200662763 14.2412029624035448 11.9893457397709575   F   F   F
  7.5387634922148905  2.7257242364525527 -0.9788261490277785   F   F   F
  8.3139930142176013  2.7882690566382258  2.6275150195358088   F   F   F
  8.1140418156983110  3.1052411673795879  6.4231997894852677   F   F   F
  8.7093176814026041  5.9882529349700970  0.5742242253839931   F   F   F
  8.2763979792221178  5.4599210034181533  5.0610249027467189   F   F   F
  7.3684563951605524  5.6298620389532168  9.1837973297558353   F   F   F
 10.2444220539375408  5.4082888460622138 11.8863851471972861   F   F   F
  8.6983365885394992  9.5036223402469702 15.0761942047439081   F   F   F
  9.5444136325764450  8.4043168788442575  2.0907177052886516   F   F   F
  9.4583384081529420  8.8669163298370766  6.1543326739134594   F   F   F
  8.3273771735248374  8.2432217540086636  8.8832562615371025   F   F   F
  9.3819309855956927  8.7533024335616325 12.7244857436352277   F   F   F
  8.9851618439899177 11.9253104875118190 -0.1292283070280390   F   F   F
  8.2996840276033641 10.6261334969122760  2.8885217218802457   F   F   F
  9.0891298551595447 11.0491392831403807  9.9015554141816811   F   F   F
 11.3590633839560002 -0.5730148471134725 -0.4999686868734241   F   F   F
 10.9319886794005559 14.0337521372034182  5.5436720081987731   F   F   F
 11.5069921073522909 -0.5849561052983820  9.5910290181492890   F   F   F
 12.3078413227633163 15.0693168670080144 12.2954999059493755   F   F   F
 11.2307942297433261  3.0128240156061179  0.2881993954342958   F   F   F
 11.9705509805746644  3.4906361018412939  3.2135464784343055   F   F   F
 10.5907683095433711  3.3010150946092041  5.5741564489084618   F   F   F
 11.4352919203159029  2.5683012939576733  7.9192329993632278   F   F   F
 11.0363430684738777  2.6000016145689218 11.6079213335314932   F   F   F
 12.3827148088280534  4.8720210997784159 14.0652961137899659   F   F   F
 11.0106627363523799  5.7496642542665795  2.6949797335506558   F   F   F
 11.7967007548379872  5.8727850589173398  6.3974433086828757   F   F   F
 12.3242258093734520  5.0421021085380264  8.8550368475948158   F   F   F
 12.6396451867075488  6.9187957724995135 12.1964806477983494   F   F   F
 12.5434881239457905  9.4987707225967792 15.7825804709249464   F   F   F
 11.8524864051163465  8.2160685276351870  3.1848071014628876   F   F   F
 11.5801569792230357  9.4269208487786891  7.7447236389867848   F   F   F
 11.9193899794241371  8.3395696820452301 10.0042855630597742   F   F   F
 11.3967745534473490 12.9669006389254786  2.1660614127724718   F   F   F
 11.6069524733293790 11.7282633971792905  4.6729443401231956   F   F   F
 12.7141736681647135 10.5737699031293761 10.2662332458754904   F   F   F
 11.9775917209086931 11.3465671415494604 12.1477605891222193   F   F   F
 15.2071894910475383 13.8415621421596953  1.8935462682034452   F   F   F
 -0.0596397557188152  3.6870971344004286  3.5332517839559729   F   F   F
  2.4834844863518812  2.5429775036285411  9.2297029958550016   F   F   F
  1.8913502460267084  5.8509274742088149  0.4932366077430554   F   F   F
  4.3290424149515818 12.0499460610003410 12.5859031279897753   F   F   F
  5.6438249812374846  3.6625513477323297  0.1911238208917063   F   F   F
  5.8017038842172379  2.8837201269055242  2.1957159816249137   F   F   F
  5.8295978614623092 10.8617400672791540  3.2545885948286504   F   F   F
  8.4844310182572311 14.8166072301971496 -0.3046990937945134   F   F   F
  7.4902566331224349  2.8980410043613380 10.1768479107232768   F   F   F
  8.8902603797144817  3.4760905652815985 12.2046956282443073   F   F   F
  8.2813617259919443  6.7029689765325449  3.1820628226208250   F   F   F
  9.4151003371661321 11.9034784007115597 11.9478211083903698   F   F   F
 11.2391238621853180  0.6805869557374085  3.1089334815528615   F   F   F
 11.9728848334453808 11.7797668183852124  0.0780871423772070   F   F   F
 14.2164144346864081  3.7170018611446181 16.0296763591640925   F   F   F
 14.6665846151685528  6.5431116672813019 10.1099545080560009   F   F   F
 15.7088975584011070  7.7153194850592008 12.3948825269567440   F   F   F
  3.4808188697143203  7.7845433827915835 14.6577221522760599   F   F   F
  6.2745043271898826  5.7161602822712370  2.0212330127601574   F   F   F
  5.5749739116368033  6.6282445629384110  4.5994903297388658   F   F   F
 13.2926378026676542  9.2744352244426143 13.1725429006196944   F   F   F
