Zr Ti V  Cr W 
 1.0000000000000000
    15.3205282173675101    0.0002014824685806   -0.0032720455521328
     0.0002023707323046   15.3277042438828079    0.0007193262014022
    -0.0032728540049734    0.0007198926617368   15.3420216939870571
 Zr  Ti  V   Cr  W  
   1   2 102   1  18
Direct
  0.3941615786371264  0.4174843147286117  0.8176835046527288
  0.6106596581319793  0.6093323786971310  0.0085754162407800
  0.7930462504231747  0.7883248667214666  0.0061189348066589
  0.9968978756462934  0.9987820397178870  0.9971812219757245
  0.9995996220681150  0.9993888785666499  0.1987011128515423
  0.9997652408001300  0.9985862949083288  0.3981347166077196
  0.9993361412517592  0.9973288007732235  0.6044140502619982
  0.0018610770588207  0.2012301933789718  0.0000556724526917
  0.9985727026095107  0.1992652841748191  0.2011689263268461
  0.9994708593318132  0.1988404322325803  0.4019434617369574
  0.9996298265358859  0.1999185384157023  0.5994519185217118
  0.9943461636803395  0.1995708383489967  0.7988438332410496
  0.0035757237316906  0.3995414486595932  0.9995562581465118
  0.9999982348287765  0.3991080797257710  0.1975439849433978
  0.0011031291983723  0.4001076559657429  0.3979555611816870
  0.0014612089051935  0.4013289601979897  0.6056577190031494
  0.0018890061521903  0.5995438081300529  0.9995761480779481
  0.9985900326021546  0.5978942857537837  0.2007223006066703
  0.9950835488988033  0.5980024880676050  0.4059976518708297
  0.0013832421858742  0.7978569796103708  0.0008579056973437
  0.9952781958129776  0.7990276565928225  0.2002941273409402
  0.0028338417920973  0.7995371570758342  0.4052356886382659
  0.9977439818640695  0.6987972624102547  0.7970370956869154
  0.2001098940876891  0.0011107945786555  0.0005084066905914
  0.1990293065133528  0.9999903508203341  0.1983746767313750
  0.2041198244373286  0.9953371943199113  0.3982402969260475
  0.2003277391991526  0.0051841166335837  0.5996733408093320
  0.1965480989908994  0.0006559729764901  0.8001979870032160
  0.2008650918332747  0.1989914421277586  0.9995130005797964
  0.1993796232626282  0.2002831455617829  0.2016205269679906
  0.1997029663779523  0.1993684494453400  0.4045916160216526
  0.2023551272903545  0.2006288817938391  0.7939436090352215
  0.2068487655439616  0.3991170797665349  0.9990240421030074
  0.2009153175277128  0.3994019557014623  0.2005766794666313
  0.2009376757174184  0.4003563403609798  0.3983544577834192
  0.2013986083186116  0.3951154466540626  0.6002769764309599
  0.1906109977333643  0.3985895466755823  0.7999139160782442
  0.1979551202864792  0.6011754758061103  0.0003285237180725
  0.1996269505397313  0.5989379807461647  0.2008899732822609
  0.2027289526996279  0.6028207627013000  0.4005733811229092
  0.1970974411601440  0.5974970734659915  0.5996699757878269
  0.2054495064387196  0.5985136081491936  0.7991111029033622
  0.1983396813450686  0.8000606243684880  0.0006584388264121
  0.1991316308041826  0.7987273420866806  0.2035629782129670
  0.1972843244073482  0.7999520801538755  0.5958606605910990
  0.2026253155000962  0.7996276249822536  0.7985094328996809
  0.4000056169231025  0.0016165294697943  0.0015948559247310
  0.4015700966968311  0.9997075074013477  0.2009302963847134
  0.4002209502429269  0.9994228789401509  0.5961903682920654
  0.4006754486872895  0.9959225375677753  0.8025045835287701
  0.4006049508414171  0.2030326770748046  0.9982606397141318
  0.4006913535973069  0.1997904217385958  0.2015752029666704
  0.3996419859640770  0.1957076482346898  0.4014792634014648
  0.4009603242035331  0.1999502152880021  0.6017810038823319
  0.4017700699106579  0.1987833984180070  0.7990268016262007
  0.4041226575436452  0.4008727403777114  0.2027188502077392
  0.3992804296080760  0.4017514399990650  0.4003823237450483
  0.4000425431007983  0.3991099507334460  0.6015689448031729
  0.3999383039205909  0.5984239173875290  0.9972896591319657
  0.4023961132299576  0.6008251629700726  0.1998392836683048
  0.4012912235344556  0.6004979273080465  0.4032283941596369
  0.4011151399955077  0.5982323683623646  0.6047221899891330
  0.3975887673140501  0.8015328693138430  0.9981898752312230
  0.4013992760778252  0.7978702255390973  0.1967402671165910
  0.3996615502357492  0.8005351889693143  0.6027381509795392
  0.6021474126861234  0.0035178671440027  0.0004917289013411
  0.6001119934449061  0.0008711753439452  0.1995472040607927
  0.5956040636352247  0.9987059601446170  0.3979582495382456
  0.6002991887405442  0.0038221103484114  0.5999442486818453
  0.6001365946754837  0.9996907368324845  0.8002909894110698
  0.5998803374819438  0.2006833314032886  0.9987541858793125
  0.6022872458720869  0.2024670982200327  0.2023821431190345
  0.5996422720905359  0.2002067994477061  0.4050495480988772
  0.6025221189138733  0.2009138456497975  0.7959340249010128
  0.5963075637940818  0.3982390803650768  0.0057024861486797
  0.5983016490076660  0.3988527310789204  0.3958800766652663
  0.5977661924854180  0.3949930772673082  0.5999433056604051
  0.6017557819333762  0.4012166409440742  0.8037658128788039
  0.6006448163769490  0.5952758926531443  0.2058362258276121
  0.6023477623071510  0.5993916853956011  0.4039579217465803
  0.6015506665238357  0.5976970462473384  0.5986590642779961
  0.6025569257894337  0.5997161363271338  0.7964859991679857
  0.5936899276872364  0.8050905193660506  0.9999440552530375
  0.6019040725043515  0.7982493918345637  0.1997979744890858
  0.5991415369876422  0.7992179984359727  0.4009623458601575
  0.6006806621623798  0.8022773687944521  0.5980664783470908
  0.5973014306663820  0.8023974169666895  0.7977483704955277
  0.7993650730959414  0.9946765525197736  0.1949526153205469
  0.7988708720124958  0.9975490884842226  0.3978819618388051
  0.7999350158246714  0.0021918929970619  0.5986417829583791
  0.8023277305030739  0.0003891697954632  0.8062453724422960
  0.7990310098680542  0.1993851181378354  0.9951552641001885
  0.8003078110806086  0.1991478338488641  0.2030416990587629
  0.8005725734029115  0.1974638909038418  0.4042786877061065
  0.7992419186005317  0.3983023680094442  0.0021704037295620
  0.7967695488776589  0.3992649214638818  0.1989089659266061
  0.8005790018910278  0.4030106711916191  0.3993565889437741
  0.7992537375546943  0.3944617884540405  0.5984493913784555
  0.8008823068652445  0.3982806568212571  0.8028874409507193
  0.8044018069437494  0.5945042144245386  0.9935838385407608
  0.8001614182144005  0.6023110891914203  0.2051606258828552
  0.8016653924045516  0.5969265065123461  0.5992103345278440
  0.7982303857010004  0.7962433991787061  0.3975398408663834
  0.8021105197656714  0.8024746848846893  0.6001363680051846
  0.7949960171426582  0.7948766626384479  0.7991744700652643
  0.3997313227255845  0.7990545639948897  0.3999273744168080
  0.9996834359699417  0.0021713153972138  0.8016871129765752
  0.9970336463283107  0.3959075600589638  0.8052362532752122
  0.9996714590316168  0.6012697235010290  0.5998735212421242
  0.0001424371025782  0.7978621965293888  0.5993532820982865
  0.1993157078163845  0.1998615955000712  0.5984604655550726
  0.1977218852968785  0.7993970361387922  0.3990442596056149
  0.3998698450274099  0.9994720811209574  0.3978154146652746
  0.4019140193629818  0.4012825399380971  0.0128468990523027
  0.4044755274444776  0.6145963949259786  0.8010275974600426
  0.3986893904361917  0.8006282280449565  0.8001453006103337
  0.6022664738566210  0.2004256380437110  0.6004929262356273
  0.6006140696271700  0.3981231455930455  0.2009894626604596
  0.7999655227418828  0.0062974265487037  0.0000991537844814
  0.7976198137316703  0.1990101020579466  0.6023816516203984
  0.7993528159131896  0.2001939659590769  0.7955441305975919
  0.7989089352140597  0.5999520750429235  0.4025105922682348
  0.7964631486114818  0.5963893555786153  0.7959787813171234
  0.7990632660614871  0.7992401005573229  0.2040575252393315
