Zr Ti V  Cr W 
 1.0000000000000000
    15.5250581035635555    0.0249023373092759   -0.0029593452149727
     0.0249075060967649   15.5258599297975692   -0.0072275987838562
    -0.0029689522119990   -0.0072397786097423   15.5108223676839163
 Zr  Ti  V   Cr  W  
   5   2 106  10   1
Direct
  0.9981468278653860  0.1635398841895485  0.7987335499674166
  0.0015845846762082  0.7992502547530594  0.2025715187484083
  0.4074624539641944  0.3924520667518969  0.2019222352425129
  0.5910594566616219  0.2086583654731670  0.2026135099042614
  0.7942417156506614  0.4021623818836247  0.3997689857699373
  0.6175426204266090  0.4178112566627027  0.1821252526168825
  0.5825249799560948  0.3859260000422409  0.3640581726580284
  0.9994278439350334  0.0028461761097182  0.0031393322815252
  0.9993710421726103  0.0054046993125842  0.2012975805463951
  0.9992255816534311  0.0008629167480881  0.4007043297890419
  0.9991673359434288  0.0007799958475105  0.6329169991671986
  0.9981050407000056  0.2005903147505761  0.0026285646288524
  0.9989857595583962  0.2048872441250192  0.2014949030232364
  0.9994553520285179  0.1996282464841414  0.4005177194777639
  0.9983931964564929  0.2016856399326077  0.5964085142860315
  0.0016446096334803  0.3991809355801018  0.0030453979350175
  0.0039275750603837  0.4000636611840999  0.3968424872161139
  0.0009885381693116  0.4000376452258105  0.6013803906739905
  0.0001755127242535  0.3921008942547212  0.8027062430743072
  0.0003306303902417  0.6003213475570375  0.0000521119035822
  0.0014380766706958  0.5930311520794939  0.2005038527056167
  0.0007752262683252  0.6001404156638809  0.4010804965200955
  0.0003618271452826  0.5994219454622632  0.6006556863633655
  0.0008782428320132  0.5977201300293504  0.8007681660267736
  0.0007104817063524  0.8005432128891935  0.4056738238308899
  0.0002293971268590  0.8014489004056320  0.6028290672808910
  0.0007333743537478  0.7966691305375405  0.7996237084051718
  0.1988716279518748  0.9988452298289274  0.0007970013593328
  0.1987730982840863  0.9997646761213052  0.1999766420781235
  0.1997793612586320  0.9999163450898733  0.4006708363411769
  0.1999910461064504  0.9996468010859481  0.6011066916663008
  0.2001304453196916  0.0014457654866122  0.8013175031418505
  0.1976311904682028  0.1992333846585692  0.2011874102635539
  0.1996437858329996  0.1984202130357941  0.4013637510333967
  0.2001008426136117  0.2014949250809811  0.5999297672171593
  0.2028081860326952  0.2005754559535070  0.8000676220797718
  0.2019294190204071  0.4016114421006222  0.0000294144125768
  0.1966563224700203  0.4001383554706366  0.1993414500948016
  0.2000534317751426  0.3993685048840551  0.4012229153632187
  0.2001555616287917  0.4007311911878954  0.6023073745535250
  0.1997692861745998  0.3992889470880757  0.8014131263246513
  0.2011267176303943  0.6006299669295414  0.0003622291721277
  0.2039078045269621  0.5991566331419739  0.2005173964036737
  0.2013909933531944  0.6008591880071883  0.4003847428572501
  0.2006754934620824  0.5998270018824223  0.6010092067479798
  0.2012541711985919  0.7994381321558114  0.9991833605799649
  0.2045267496552836  0.7995781146609157  0.1998520675359332
  0.2014929636633458  0.7995622007869053  0.4015453179993265
  0.2005334214917769  0.8002763333110530  0.6015256342137321
  0.1994038077337025  0.8014082251426454  0.8007467578146590
  0.3995365111589500  0.0002841715187594  0.0010527539708568
  0.3997803546797906  0.9967363468705379  0.2009221267491029
  0.3990023559857150  0.9984836025464305  0.4009774037766993
  0.3998110428332958  0.0007279325153868  0.6009030196600822
  0.3994546835445391  0.0003270723738837  0.8010792474658071
  0.3984618919639730  0.1997688419258290  0.0011141905719465
  0.3882212707156584  0.1893293469450921  0.1999012141616488
  0.3973446094158093  0.1980709066542911  0.4021585250434550
  0.3989849848448436  0.2003222987992240  0.8010538157564979
  0.3993278872444682  0.3989119490686776  0.9965818892151925
  0.3927245812164777  0.3985219876696306  0.4074886897242825
  0.4007075664502129  0.4004488197813932  0.6017005055988655
  0.4011968733743233  0.6016065052382178  0.2011263033904517
  0.4012256282700227  0.5979371584332112  0.4014588029268274
  0.4012260820875060  0.5990857158545927  0.6003469022337715
  0.4006630998353823  0.5999102416436686  0.7999626884169192
  0.4009060728556246  0.7992971944178464  0.9999935708361624
  0.4014164157781044  0.7984866533976758  0.2002310453697243
  0.4005814640799947  0.7997070747091695  0.4011664194949415
  0.4003909466754858  0.7986595179585969  0.6011774462538014
  0.4002851845219182  0.7993868219929084  0.8004657667166212
  0.5987643005765868  0.0012878299498855  0.0014920893942722
  0.5995447435934381  0.9987730568598767  0.2008849710761837
  0.5981176122319485  0.9975508337276128  0.4003744271625815
  0.5990532944754717  0.0005906142007852  0.6008095562225976
  0.5988009023692722  0.0003715931585637  0.8002354375576464
  0.5975301224059993  0.2014214757414602  0.9969829899020738
  0.5969097879214138  0.1916064105597112  0.4065316983285642
  0.5987093424141072  0.2016128380429752  0.6004878088567679
  0.5966370247579603  0.2005005543627706  0.7997539345154451
  0.5997858185707015  0.4019489588037756  0.9927662266568452
  0.5992305582744452  0.4007069313992805  0.6040162494136861
  0.5996127088750648  0.4021686512599008  0.7986963597874951
  0.5999235592533499  0.6014112764755998  0.0008423941556505
  0.6013327089012027  0.6065929769934715  0.1995722320166809
  0.6007912787435989  0.6024110553857098  0.3986923347895638
  0.5999414536280642  0.6011902264513687  0.8007663302917951
  0.5994586422886111  0.8007485586713422  0.9999503769972109
  0.5990990802363725  0.8000937729787668  0.4009262276562527
  0.6001118624785109  0.8003518643368046  0.6007592133913603
  0.5998720306967076  0.8003227437083645  0.8012097847160599
  0.7990519062885495  0.0009702934863435  0.0008817325292838
  0.7979527696202607  0.0029075114861561  0.2003901181455731
  0.7991564965834366  0.9994906235330671  0.3996975656661788
  0.7986543757228068  0.0002512114956461  0.6008180235866064
  0.7985241464217722  0.0018326518445729  0.8012807309295814
  0.7959788639631643  0.2023745061142844  0.0014553284938425
  0.8004227313591562  0.2002757913027563  0.1998901595832055
  0.7970963884539736  0.1959574025709404  0.4004918225309188
  0.7981838036039743  0.2024723660642054  0.5996664922214903
  0.7943860228607401  0.2018507159378508  0.8004395628758058
  0.8012591238237627  0.4023981976525520  0.9983111051358257
  0.7996586770031591  0.4015087419749823  0.6030911725076115
  0.8013363138876809  0.4005211871908337  0.8011450429120089
  0.8008797429500114  0.6036434465679876  0.9981574191254707
  0.8002298464670137  0.6064925474264764  0.4014426700519473
  0.8000494342517720  0.6014222827798017  0.6013762924843729
  0.7990794357588683  0.6007705324439067  0.8001526527008773
  0.7995842453170138  0.8017459830140755  0.0002769221569228
  0.7977551939805045  0.8021613023301680  0.1995964598859095
  0.7993741863348741  0.8016023527975322  0.4000569038525981
  0.7993178015272610  0.8011437831396595  0.6008424900163349
  0.8015464098098605  0.8030146516449154  0.7999944885750500
  0.0004964908973919  0.8014610656510067  0.9968683065659627
  0.1990082369135927  0.2001956098746192  0.0002715184689932
  0.2010430777381439  0.5999965960069904  0.8010731181196564
  0.3996797500438692  0.2005901423951839  0.6015197492572844
  0.3995959701667849  0.4004354691789686  0.8003434643406343
  0.4005676176219317  0.5990272357974987  0.0006448054730284
  0.5999713659352416  0.6005122267513463  0.5999697179098222
  0.6007735763161541  0.8014894927232820  0.1996947107999161
  0.8076201118570611  0.4027819129960080  0.1944113409242870
  0.8015189957489779  0.6035011168954342  0.1993294828701764
  0.0019153237556133  0.3990169230203366  0.2004827591024219
