Zr Ti V  Cr W 
 1.0000000000000000
    15.4357522694901306    0.0105672325688139   -0.0055587419859117
     0.0105752466497430   15.4447163846642397   -0.0181666291281516
    -0.0055641894905488   -0.0181586168388952   15.4493552363450650
 Zr  Ti  V   Cr  W  
   4   3 106   4   7
Direct
  0.5085335161490243  0.6065206565329150  0.9939268385643548
  0.3858335244876258  0.5905401449210791  0.1842672850920282
  0.3982562241084830  0.8094788722564965  0.2075952270055479
  0.7988068213469879  0.4006742661287734  0.6023393262311810
  0.2105354002845442  0.1985733075957376  0.5909324128840598
  0.2026408230203506  0.4015702302285882  0.9913172833127810
  0.2010574359122383  0.6004104727281502  0.4065877168017816
  0.9994154074823093  0.9983500149594894  0.9945322759670960
  0.0013644056168773  0.0022050784559946  0.2000216184954666
  0.0014276827841272  0.9997927046520165  0.4052800821534687
  0.9988305115094481  0.1978149302782408  0.0030864587862838
  0.0003585656489671  0.1989827535442869  0.3968528463633098
  0.0011643240679182  0.1960941391877074  0.7993101144752798
  0.9969518193772752  0.3975651902324783  0.9988925025205426
  0.0008634280674188  0.3944203173741286  0.1998053292987791
  0.0040373485249227  0.3986589483342711  0.5991989907548405
  0.0048420128440074  0.3976406386570530  0.7997448661675445
  0.9955459945809196  0.5995297693252267  0.9985007971467174
  0.9991521349401830  0.5968296197683294  0.2011184391624050
  0.9981749559374059  0.5983937168357440  0.4014009131624111
  0.9991385222452988  0.6014992099102119  0.6008576714601624
  0.9996192998435024  0.5997950972096399  0.7987964841974899
  0.9983720895440521  0.8009900859844051  0.0006955730737510
  0.9986133014388063  0.8013260167202138  0.2003391153435203
  0.0002851983059407  0.8001657005030555  0.3994376536463819
  0.0011296846398902  0.8022387131763139  0.5983477012840096
  0.0017595072712902  0.8011345150004779  0.8004190454743236
  0.2017272851335842  0.9979765273310043  0.9993282503532677
  0.2004038805816393  0.9961151573599266  0.1984334306107375
  0.2008364404408947  0.9988232735903811  0.3994120409212767
  0.1972024164939941  0.9980500166461003  0.5991372823663588
  0.1965412227811760  0.0008080294681854  0.8002119743602047
  0.2016584818744890  0.1972383520760168  0.0005251155948152
  0.1956322755698490  0.2000917986113070  0.1984800323646948
  0.2016584330239779  0.1997537304861154  0.3960218097488005
  0.2005354669072753  0.2036881332686807  0.8011306380700243
  0.2007574439756786  0.4039167115464650  0.2012041735440955
  0.2001205024904784  0.3981167479871906  0.4011568433398242
  0.2007181335913008  0.4022851066558976  0.6005533690186654
  0.1965143241858553  0.6018603577263630  0.9992648733914296
  0.2018916086851017  0.6012255940381566  0.6024725530079259
  0.2014779927657358  0.5962828570701892  0.8015983361278247
  0.2010122239177519  0.7987807265245308  0.9981473572784880
  0.1942767836302733  0.7931822904206471  0.1998462502698985
  0.2019181632240310  0.8000314097424041  0.3982669567059572
  0.2016091990723912  0.7972789217137676  0.6000899616978589
  0.2007827235570832  0.7969502612172336  0.8001606603951104
  0.4040612467764522  0.0002277925146394  0.9995011718488396
  0.3991242174240185  0.0077744081447087  0.1999740766249997
  0.4005848557252456  0.0007459991811714  0.4013683843234755
  0.4000213357615646  0.9994470464252180  0.6015338807556055
  0.3981110831077382  0.0009924005497080  0.7989019871063557
  0.4002930816880341  0.2004372022200951  0.0006905341007145
  0.3978670229145549  0.2001361637594637  0.2008667164739369
  0.4005714140358441  0.1994513883496816  0.4003956163333161
  0.4041198719170114  0.1996900884785173  0.5997846814870813
  0.4003411400922973  0.2002783987760194  0.8003293387277363
  0.4042322134520932  0.4025978259376481  0.0021168636414250
  0.3989091681916527  0.3897683379107885  0.2015356515638672
  0.4004324493145025  0.3989074376747798  0.4004047669061154
  0.3984379937603126  0.4004040221787086  0.6010758526633423
  0.3946105506683375  0.3996283410680340  0.8014207266215633
  0.4043653330282825  0.5999643528099108  0.5995362248098023
  0.4002060087225734  0.8009453916610629  0.9992166906119333
  0.4008429447158596  0.8002904706437221  0.4072871841951842
  0.4004240957648251  0.8001704999961154  0.6018469622276525
  0.3971629339730074  0.8002102276614484  0.7989986569861528
  0.6004437797614133  0.0007749756499285  0.1961071893862558
  0.6002883551166915  0.9996323391510126  0.4002390305818075
  0.6021123318802964  0.9983919977226311  0.6011739239841887
  0.6010852150413597  0.0006113197203004  0.8012607848492591
  0.6003870573621460  0.1962661090228387  0.0005766444878328
  0.6022062863479826  0.1995978014899730  0.2013607361609616
  0.6007197013413882  0.1991710127020261  0.4000140966319777
  0.6010889687306016  0.1985514218062366  0.6001799247733773
  0.6005653529249623  0.2010047873995022  0.7983642900248049
  0.5998400891013206  0.3961041453245743  0.9996541282787994
  0.6005549760603897  0.3989117546699509  0.2010292995486753
  0.5992907282643961  0.3982188117564472  0.4007561221457036
  0.5934970899230365  0.4038658680202976  0.6007776508391380
  0.5991614966850944  0.3997874616338848  0.8018296299696055
  0.6020819541634020  0.5986065260686909  0.2055450580859885
  0.6012769816710771  0.5996512529032266  0.4030564136443895
  0.6016678593151625  0.5994145061116970  0.7896994848642728
  0.5992720496547339  0.8080819540702553  0.9995375548759449
  0.6040673073884432  0.7992109616927329  0.2008179656305458
  0.5993096884059590  0.8008526062665569  0.3993210665391259
  0.6006398595850051  0.7977273630974567  0.6000196071811675
  0.6011914817715652  0.7998663384627699  0.8001300175149412
  0.7958892955233785  0.9995036008120731  0.9995124018608248
  0.8019513623671948  0.9987444039762208  0.1997412027025378
  0.7996105374196013  0.9991995343938487  0.3992991265983163
  0.8045964511902265  0.9994089442787946  0.6002807674348405
  0.8052280762737360  0.9996201142201259  0.8005863850805841
  0.7993166364607974  0.1998329306107228  0.9999822231557809
  0.8056426591071896  0.2003438986812440  0.1999563969228149
  0.8004852681501268  0.1998926837917464  0.3996627264280757
  0.8003543728324799  0.1968776328853500  0.5991030307720778
  0.8015568288986816  0.2010506722585904  0.8006158894397540
  0.7966115043282187  0.4013586911719983  0.0014241317139758
  0.8014415873458528  0.4003468092361865  0.1992400650904528
  0.8008723998991221  0.3995650501186558  0.3964164663018846
  0.8035345338555113  0.3992966157917437  0.8060936660529422
  0.7952279137736779  0.6002424287405482  0.0006277395221930
  0.7996863296877009  0.5985947930682582  0.1990171580072764
  0.8019366031840744  0.6000528687422330  0.3992232698605860
  0.7981658512076703  0.6054508646370178  0.5994055192011674
  0.8005198172170142  0.6003060950753676  0.8028971191989557
  0.7971007224487050  0.7976378979089833  0.0009147759668162
  0.8025839685548787  0.7989682761429941  0.1999588097799234
  0.8000583252822439  0.7994922410349899  0.3984077265107306
  0.8005501825266457  0.8008934920276202  0.5998310620635569
  0.8014010542595620  0.7986350984207502  0.8008923623858750
  0.0011165515246067  0.1988314564724872  0.5976094364621649
  0.0011219752273895  0.3979369349608993  0.4000396498134051
  0.4033073996498364  0.5996586646740182  0.4038786338156394
  0.4006372422510793  0.5997258125171275  0.8002427323531180
  0.0009015049149268  0.9967778251329744  0.6027195575748955
  0.0006614930339267  0.9995498495434304  0.7973715071877191
  0.0014037679779373  0.1972097851069990  0.1993528962792864
  0.1991073078009553  0.3991461504042222  0.7953309815696369
  0.1889472566317231  0.5983133852152850  0.1916642879634717
  0.6003019369693275  0.0015346742996949  0.9981183315934847
  0.6031017959255189  0.6002059722670098  0.5982529682517626
