Zr Ti V  Cr W 
 1.0000000000000000
    15.4218125631900325   -0.0059686382723848    0.0062585989012477
    -0.0059677460242910   15.4281327699692579    0.0068346148581175
     0.0062604253005019    0.0068382331099848   15.4329886035241781
 Zr  Ti  V   Cr  W  
   1   3 110   3   7
Direct
  0.3991734709430256  0.8022571720907489  0.5976946333458528
  0.2013866474386981  0.6061943935455756  0.1903157013215582
  0.1981720016762210  0.7905495333453405  0.0073997610803851
  0.5999977674389489  0.5979782111848021  0.5816597215224172
  0.0014813888870429  0.9993853073269880  0.9992631676799631
  0.0002144505934653  0.0026332452157356  0.1998793039044112
  0.0006666959840085  0.9942134626640410  0.3990256386834666
  0.0004696014658971  0.9956765800389998  0.8017119253141504
  0.9995832855988492  0.1991005323960453  0.0068158241823635
  0.9997105461615652  0.1995541788280317  0.3967778410616729
  0.0016634287417088  0.2004232441182654  0.5948977610039115
  0.9985897341717711  0.0354842728091487  0.6359677706639536
  0.0045443960627815  0.3990490307899036  0.9988046308795461
  0.0013500422842883  0.3976695454083760  0.2013127645572403
  0.0009786845780529  0.4042040312813117  0.3989085427793638
  0.0001035929189341  0.3988426777576908  0.5995898091363885
  0.9992378889019703  0.4036666168777963  0.7998016816061716
  0.0000776941715827  0.6001677933048839  0.0000852862588022
  0.9981670996848422  0.5989185037701088  0.1995042823302881
  0.0011197006511504  0.6038356638372955  0.3988729172835569
  0.0003815027978715  0.5988634461321666  0.6002682290722829
  0.9993801761579684  0.6012309227478522  0.7993096407423768
  0.9986598554882061  0.7987959630123443  0.0018678163852706
  0.9993345613022309  0.7992879836468569  0.5967338064453862
  0.9998035257285075  0.7987156384664558  0.8000869150853068
  0.2005794887724078  0.0012376506782059  0.9996738385095173
  0.2002963755301866  0.0011998387187564  0.1994230761005039
  0.2004490498134211  0.9989053827426470  0.4011212530021716
  0.2007166258979010  0.0050023833916089  0.6010343746562417
  0.1999276907202775  0.9985934985072907  0.8014351902346045
  0.1989010962339385  0.2018653351026321  0.9973632333127832
  0.1956043347244975  0.1998079872966314  0.2025028790481845
  0.1999380988747848  0.1998822232157491  0.4030162761977341
  0.2030776903898997  0.1986253799006309  0.7955680826280184
  0.2004338662325092  0.3976069162594721  0.1953283512297516
  0.2005274984760844  0.4024718616548836  0.3985867242286320
  0.1998936588010456  0.3949718848288634  0.6000730127297854
  0.1998258654319137  0.3987249094288371  0.8024429563912299
  0.2007739353462243  0.5910209811822468  0.9938109739344847
  0.1999804771438785  0.5961403727464077  0.5998818109639078
  0.2016240978534677  0.5993218943279000  0.7974511367526375
  0.1992323941538554  0.8030662661990714  0.2037202328698922
  0.1945942750294866  0.7982931569440299  0.4001751905305473
  0.1953466886711624  0.8011065844866447  0.6008626421396021
  0.1999982836102247  0.7972972546404123  0.7991374572198263
  0.3987028572970283  0.9990423765963634  0.0007690062887246
  0.4000193159763866  0.0004086969628430  0.1991863860470289
  0.3990039417395770  0.9977834863715415  0.3982016759447349
  0.3996902331131604  0.0043444683432526  0.6005016047113759
  0.4011546318839141  0.9970739537841967  0.8023740305757598
  0.4007027854739490  0.1992414013484922  0.0012182594372509
  0.4005417701313984  0.1986748357036499  0.2006799883404303
  0.3994447715655775  0.2006887475418536  0.3976756998477172
  0.4003345028250895  0.2007923309056379  0.5990222923403592
  0.4017906031442328  0.1992298959576849  0.8010636835538404
  0.3961380538383657  0.3991244953172056  0.0005412254534462
  0.4000766837311364  0.3997644274648245  0.2006422211027880
  0.3992862675726225  0.4017384262462311  0.3979468823331609
  0.3989267071013656  0.3993315683058052  0.6002541601989632
  0.4010798838092544  0.4004853106558994  0.8003129106047805
  0.3996078929498623  0.5993237401997681  0.0011283876221722
  0.4019472992223470  0.6005595247004432  0.1996383054993600
  0.3985931036901886  0.5998129574103193  0.3988507008752095
  0.3978121935736323  0.5957622981876358  0.5998099393172672
  0.4051233475807393  0.5998765335841699  0.7992425965298754
  0.4011439363921597  0.7985190314085885  0.0022464361483698
  0.4004845928928019  0.8007352563770236  0.2004338110288577
  0.3980266360386246  0.7979022124043620  0.3947473241602986
  0.3996569146660263  0.7988790844302803  0.8042620130246974
  0.5992255446428766  0.9992016212214567  0.9985191012304845
  0.5994283812566160  0.0002689252731292  0.2005200824237443
  0.5985426995903786  0.9980983276512768  0.4006437083157915
  0.6001556800035448  0.0048365670732589  0.6009490437919598
  0.5999737789558637  0.9974897098828752  0.8006552834687743
  0.5996219493348819  0.2000287299615066  0.9991924280981443
  0.6043471811356461  0.1999563597171076  0.2015500885067068
  0.5998269504575906  0.1999361086729941  0.4033096181720569
  0.6019185714223632  0.1993875895380681  0.7965911193136096
  0.5984383466037535  0.3983315273224124  0.0004619946077440
  0.5997870619342405  0.3988576012787185  0.2000849937178205
  0.5989290966421258  0.4022472471346872  0.4009355292210494
  0.6001422947925070  0.3933730127424188  0.6002828021739419
  0.6004684198291128  0.4032755123987050  0.7997871614393921
  0.5997327106213926  0.5987629841608897  0.0011596744141978
  0.6007983883140560  0.5995309726611456  0.1992190530912994
  0.5997400960749423  0.6005001520685034  0.3950680413404232
  0.6002122787114297  0.7995782896329396  0.0025817096184592
  0.6015464849083887  0.8009163266413378  0.2009877235919637
  0.6008787964508606  0.7990086631294955  0.4005168438004335
  0.6045206775416061  0.8032666290263980  0.5996897414253526
  0.6014817449762296  0.7950722739371689  0.7996840744901468
  0.7995357941364268  0.9993696662617768  0.9995747975236796
  0.7990935716087983  0.0035108568758970  0.1993072226907808
  0.7991581510322850  0.9986831275402861  0.4010540054900977
  0.7998865862796267  0.0020790461587368  0.6010379703030222
  0.8010527401122097  0.9993142098101191  0.8016189632762761
  0.8004805419247876  0.1997850317248404  0.0023016886418128
  0.7996860156299209  0.2003012709749485  0.3967383498267115
  0.7988053499652542  0.1996582517170542  0.5991328845840743
  0.8013700385032050  0.3992847196923859  0.9992977940696697
  0.7994086717186387  0.3963712716856773  0.1995922983816914
  0.8007436531330254  0.4018125218650287  0.4005564191178244
  0.8013004754476715  0.3976805269116864  0.6011761581411523
  0.8022926013398960  0.3985489664741616  0.8009813056808166
  0.8012565774599495  0.5984135175753456  0.0018573489216569
  0.8004616701241472  0.5981482479110912  0.1995890925066748
  0.7991982287742680  0.5998484603955720  0.3996793033933191
  0.8014839685126335  0.5978264933462509  0.5998502097753520
  0.7960464152485637  0.6000229938952172  0.7994639333903757
  0.8011080890352456  0.7995404840682316  0.0015779226741610
  0.7995279591493614  0.8011480275165089  0.2005214397415919
  0.8031910713159751  0.7990265469882954  0.3994094172380530
  0.8009099243938672  0.8013233472417347  0.6016799695816717
  0.8006484167424162  0.7990235514215902  0.8002103009868319
  0.9987912048686557  0.8013180522776145  0.2013228335570263
  0.1998636671801143  0.5996082567398386  0.4008103200404542
  0.8021487962749646  0.1995323973110213  0.8007489968842689
  0.9966508473593952  0.1989524594257020  0.2013734715511224
  0.9978796879315918  0.8000614544075857  0.4022461716970799
  0.1988050447459515  0.2004774413935537  0.6000106707654485
  0.2006145927946930  0.3967320572431671  0.9979868183722800
  0.5986824769897345  0.1999949668424343  0.5988730955660992
  0.6006240328443270  0.5993305421275439  0.8079727626389251
  0.8020387091445338  0.2000104404268254  0.2013991080337434
