Zr V  Cr
 1.0000000000000000
    15.5176564344983579    0.0055358052127085    0.0009235349890332
     0.0055289702635454   15.5339659065587714   -0.0041197367383691
     0.0009253811786535   -0.0041210125583897   15.5341853465245965
 Zr  V   Cr 
   5 117   2
Direct
  0.9993958314911339  0.4002051103154577  0.0008304326979528
  0.3746332665705336  0.2022968111124023  0.1970355945196457
  0.6003314359043712  0.2003517000188226  0.1998558731894477
  0.6092157762387916  0.7923743878608845  0.7998602026475711
  0.7929136040534617  0.6073962973309134  0.8001197620626541
  0.0014767395058193  0.0000707943091006  0.0008476334144013
  0.0007383729526009  0.9997400169220126  0.2008592154037921
  0.0011677364092640  0.0007703346771404  0.3999362362591413
  0.0008204504189291  0.0001787272842264  0.6001866925162636
  0.0018722826900059  0.0011793843751633  0.7997440524176936
  0.0002468559669264  0.1964565836276073  0.9994802553704721
  0.0013425531470394  0.1995570465274775  0.2011519176219874
  0.0004237560081173  0.1996924265895036  0.4009828791426770
  0.0008656219034365  0.2003278699255968  0.5995569206096214
  0.0008725361827070  0.2000436255716241  0.7996385609453296
  0.9998371718025574  0.4013444436526319  0.2043957559442042
  0.0005850555992257  0.3997478751887574  0.4008099361794488
  0.9997641231642355  0.4008576205729040  0.5992298241718600
  0.0006136079091959  0.4021911743003134  0.7959274090397204
  0.0008370040954091  0.6048961939092248  0.9988216051799316
  0.0003497988874886  0.6009872933028247  0.2010891641973408
  0.0001156323363964  0.6007697443908199  0.4000124987260084
  0.0007724262128987  0.6007369974702078  0.6005871658617254
  0.0008663516156204  0.6009885870987942  0.7996530842882519
  0.0014433576947255  0.8012714596917646  0.0004051560713673
  0.0015076491644861  0.8010593769852244  0.2007267074693077
  0.0009372591538299  0.8004106378716913  0.4003960680208314
  0.0016014972301681  0.8007855554717859  0.5992344240501598
  0.0048834826481281  0.8003091570096957  0.7998538878036024
  0.2017255941761822  0.9998660885655172  0.0004198693740998
  0.1999354262526160  0.9996132728176772  0.2007985828540868
  0.2013600039540707  0.0005072875020431  0.5995364694166053
  0.2012958735873207  0.0018912543274898  0.8009156725704859
  0.2006888358031481  0.1989564643395169  0.0011260822902244
  0.1995181057623869  0.1996268694128444  0.4009883801218369
  0.1997391238483009  0.1996607475852989  0.6000569975490767
  0.1998055646211896  0.2002097723296314  0.8001502279456112
  0.2039248925501772  0.4009017183121594  0.9994967055905122
  0.2002753875804842  0.3995698131572107  0.2014423910925995
  0.2007572347323293  0.3996964096879885  0.4002752515094225
  0.2005549392545381  0.4004639540260727  0.6001565088046268
  0.2004459864056201  0.3967429517890379  0.8003395791430463
  0.2010619973694005  0.6003652346666780  0.0031667466946957
  0.1994198720424142  0.6000970077284569  0.2002657776613119
  0.2003495824208431  0.5992689389192088  0.3992125620366278
  0.2002556018637071  0.6002977529515806  0.5974613864993475
  0.2011045478989952  0.7692722037732669  0.8002720190126433
  0.2012988586367657  0.8001067685282662  0.0008020650376676
  0.2001967882542491  0.8001954389871685  0.2008771820779855
  0.2011270683817084  0.8010225051033916  0.3994919208302821
  0.2005959455323973  0.7993296794627269  0.6000492767086669
  0.4018935361330814  0.9996696972573671  0.0003053233256255
  0.4011828109253260  0.9957005713418208  0.2002545054724245
  0.4012554534615594  0.0002221412258694  0.3997394374534132
  0.4011027739877681  0.9992514368356306  0.5999059141230109
  0.4013908309200133  0.9991393204620111  0.7997040828124746
  0.4018873432496422  0.1993503903504412  0.9933720973857550
  0.4006221601834896  0.1995685927340805  0.4039659075223080
  0.3996311770731259  0.1993617833860979  0.6006634896261337
  0.3995932530603775  0.1995704107189058  0.7983772116013093
  0.4015919547616980  0.3997386012058146  0.9999652929087913
  0.4013511111456279  0.4062322678958197  0.2001874833297147
  0.4010155277016940  0.3996165437288007  0.4000393315986502
  0.4006088363265305  0.4000782707542946  0.6000200542753303
  0.3984738503081345  0.4000811960292817  0.7992758572879706
  0.3990711036869555  0.6008562243760595  0.9992262619909245
  0.3994260939817673  0.6016113998386637  0.2001342764263061
  0.4004232127240480  0.6003541594270462  0.3999888644587223
  0.3986533156165639  0.6002314775929756  0.6003019646037645
  0.3979019833533644  0.5995854363334676  0.7999187944544278
  0.4014081506608068  0.8000732106335406  0.9994483862325685
  0.3998119158619049  0.7993649197213707  0.2004969775573018
  0.4007500913128400  0.8000568575979707  0.4001638519224116
  0.4006942584610191  0.8001693121405133  0.6000036520403504
  0.3987420777377447  0.7992590576032055  0.7998333651725813
  0.6009372322703966  0.9993751136115873  0.9997783431197674
  0.6015994888257220  0.9949450211597108  0.2004674806481676
  0.6010195563030660  0.9998868063767556  0.4001058922904842
  0.6007486318507023  0.9994369876682140  0.5999898195957519
  0.6006656863016735  0.0010713144556442  0.7997316458248117
  0.6015136608472759  0.1998337344198912  0.9945098840819571
  0.6011953245253504  0.1996454359614160  0.4051582373777209
  0.6012865122298263  0.2000559568247108  0.6011554770218519
  0.6008351858243037  0.1993956876205964  0.7981395190671126
  0.5992528569913362  0.3997492012406744  0.0000516556514344
  0.6011628607475348  0.4056458719293132  0.2003348569664251
  0.6004981940282308  0.3998301848627295  0.4001518228472338
  0.6001211971960301  0.3996593267842221  0.5993618151614307
  0.5994788456394847  0.3964091731926613  0.7993591892526939
  0.5985102763781913  0.5989861647643808  0.0016970679077237
  0.6004427041937672  0.6013880788297742  0.2005552208444273
  0.5997435575876577  0.5997145382620934  0.3993730083507607
  0.5988428584174861  0.5985832716073232  0.5977073119079968
  0.5903450870610996  0.5899258272326051  0.7999409459001249
  0.6011230300466581  0.7995617270962511  0.0042004037848004
  0.6017565281771908  0.7982773082687404  0.2009368421445755
  0.6010917908309384  0.7997628860844260  0.3993450652182896
  0.6013468356020865  0.7992545202568415  0.5956363802476271
  0.8000490744402859  0.0010823430505145  0.0006651814357525
  0.8014816243266937  0.0007343841912006  0.2001685217543763
  0.8002788702272973  0.0009248390444403  0.3998169537323735
  0.8004554506749395  0.0011339198145544  0.5993116224750072
  0.8016704128198594  0.0041641282930650  0.8003351171386544
  0.8003931564090591  0.1997997073623739  0.0001778414209236
  0.8051575773728037  0.2009069601808159  0.1999156925973742
  0.8014027057629951  0.2004683714151101  0.4000714965802413
  0.8010082858545329  0.2004183049703168  0.5999816281675966
  0.8017921853240459  0.2012704739194827  0.7997842174698901
  0.7956562939741728  0.4009360619467282  0.9999381681136290
  0.8002710138819074  0.4005798017583072  0.2007294650364919
  0.7997354578226555  0.4000621875468191  0.3997980099985966
  0.8000046724298734  0.4007295888324811  0.5993216092269538
  0.7996004529846800  0.3989307207813456  0.7993851054892503
  0.7987113259940145  0.6019265849234767  0.0044977069575784
  0.8008857155028818  0.6010754998124418  0.2006411902824265
  0.8001804256759520  0.6004571876228393  0.3989553079728494
  0.7995295430876984  0.6011514923077212  0.5953701805900276
  0.8021604934818884  0.8028353207638312  0.0021010252886282
  0.8019361343586290  0.8007877778724416  0.2006578153436865
  0.8012206500457870  0.8013561826399881  0.3991200374114556
  0.8023419141690342  0.8021356756153172  0.5979204710600713
  0.8113626263072238  0.8105764094370186  0.7999654759939410
  0.2008143908934940  0.9997117509630922  0.4006881563727682
  0.1915004151480480  0.1999493908473486  0.2005899540256157
