Zr Ti V  Cr W 
 1.0000000000000000
    12.6208809983277384   -0.0515555905252703   -4.4407078317342261
    -6.3484634534939008   10.9423638358042581   -4.4222015915041393
    -0.0248880343447468   -0.0206040592337627   13.2512453625971212
 Zr  Ti  V   Cr  W  
  13   2  82  12  15
Direct
  0.9928542347351649  0.9942113222946636  0.7894413136574570
  0.0093045357835614  0.2082445545014307  0.0063453264783448
  0.9911327065894119  0.5924982179141070  0.9904456074284094
  0.1980538739992097  0.1956166359363820  0.3966134570021577
  0.1922194893763745  0.2009362236306302  0.8014761672896143
  0.1874903340109527  0.3977148854270249  0.3854114105588485
  0.4092962525490775  0.3991759727209764  0.3967756491852916
  0.4176517250890824  0.8133167803578034  0.6089525892735714
  0.5976232687404978  0.2055101588950518  0.0001588517522487
  0.6037389962958566  0.4491496873786098  0.8042642342733195
  0.5980903089758592  0.7943297890758599  0.1362732976619243
  0.7927784761859816  0.9940230591905805  0.3871493959298375
  0.7693883029269852  0.9931028541641742  0.7860162922979660
  0.9920285268247443  0.4074449259734091  0.4083327137725619
  0.6042539514656561  0.2104136846222616  0.7884413213175373
  0.9911330785398071  0.9848433368518018  0.1949841149953885
  0.0055063263849611  0.9966002231928431  0.4105178557866213
  0.9787451760436445  0.1821342057079195  0.1973608529558118
  0.9949504354579621  0.2018513947663349  0.4102177613964903
  0.0032926686011890  0.2084702657292182  0.6014789888918440
  0.9858953420412528  0.2186106157374478  0.7862408472312207
  0.0059304135625417  0.4037078031434390  0.9991910878375125
  0.9949735561464161  0.4015399990308388  0.1960742118589181
  0.9995971698067813  0.5995337652815246  0.2068313179960999
  0.9982489934854761  0.5961540162517598  0.5965367686394772
  0.9953272582803110  0.5948454167532031  0.7877631614532946
  0.0002795307763877  0.7997237541399410  0.9985144661379620
  0.0038137709723247  0.7946106669378433  0.4064951560851183
  0.9966178561029779  0.7947618436154488  0.5973460720407652
  0.9950982103563286  0.7866591708904055  0.7942312748810071
  0.2023666397745945  0.9944333164393586  0.0015185475010884
  0.2047651279461460  0.9962180437670853  0.1978330966274385
  0.2219054921201047  0.2072326416883497  0.0248673566911421
  0.2025252579641977  0.1977970865552766  0.6032688837628893
  0.2204533533739269  0.4173298694333964  0.1947574657999826
  0.1978115762183413  0.4041231348352489  0.6113404695319311
  0.1946267011541537  0.4066697504363033  0.8041557317095788
  0.2007650020697615  0.5967375645338174  0.9955317874237454
  0.2021238469932760  0.6004683646472451  0.6044852157261389
  0.1914986136311847  0.5905465867680080  0.7941060927511201
  0.1955423028705528  0.7963726070677423  0.9990786581091643
  0.2051162275923150  0.8029721094173780  0.2018456231086564
  0.2026885267463837  0.8004648048601876  0.4026728024431467
  0.1918420757312709  0.7956836500322727  0.5959462182477607
  0.3989344061976081  0.0021990026678329  0.0083281162043164
  0.3963984157383413  0.9954872045266751  0.1974663635116884
  0.4040018875993351  0.9999666169145545  0.3999491409987889
  0.3935225565977104  0.0080579336148769  0.6032181306822485
  0.3886566850277401  0.9920693260105490  0.7975404103507558
  0.3966194954576926  0.2009668603535806  0.0041649823327439
  0.4061498109231164  0.1955033895210090  0.1986532805518500
  0.3981626916903801  0.1949621006347665  0.5984235672085014
  0.3933306551401786  0.1920202775361549  0.7917536602732247
  0.4025126419783490  0.4070636795685811  0.0077683188172291
  0.4140232511581557  0.4048972242805539  0.1954700447723512
  0.4046652074527239  0.4044743929457525  0.6142272857585535
  0.3924549803607050  0.3996057142113994  0.8007122706011206
  0.3877897439891355  0.5904786976675318  0.9888490800619394
  0.4021719714520195  0.6047012144076244  0.1952953132654605
  0.4051672021604853  0.6075006393357232  0.3974514500717923
  0.4022207972198734  0.8045449773187628  0.1997728237979477
  0.4050478002312736  0.8023865655971311  0.3900883339778202
  0.5948236540541939  0.9942601242307861  0.0135152098665346
  0.5948722450660821  0.0146919121240126  0.2020647849200587
  0.5955261692359869  0.0061086247807067  0.4004247603880185
  0.6008637385167473  0.0025392497931821  0.5867882329745467
  0.6011761885357747  0.0085968571555629  0.8399487433664199
  0.6043794078067157  0.2023435199406223  0.3960513948703803
  0.6116835771880302  0.2040183231928755  0.5984219572218828
  0.5958326659436333  0.4078578392967516  0.0115261849763769
  0.6128018333713604  0.4019375061283580  0.3971452430540805
  0.6069361134566652  0.3974810421436208  0.5964683464620140
  0.5959115663142421  0.5898363766394129  0.9979151445034924
  0.6064586604504212  0.6018246689431352  0.3995706229526834
  0.6068201231045783  0.5973531342514554  0.6057559525442661
  0.6016893147671803  0.8028033012091498  0.3978326023101305
  0.5976200940457673  0.7763193507865417  0.5796562905621433
  0.8000908312868380  0.9997069740325868  0.0120507030192538
  0.8060255756546229  0.0062539975537073  0.1981126777791846
  0.7981596809050544  0.9974483686887964  0.5878939058458814
  0.8072645355643279  0.2090863973743423  0.0163475822092645
  0.7912007739788449  0.2010483671980385  0.2063608542578809
  0.8066691995854753  0.2149733042214380  0.4066028676146601
  0.8001591764977268  0.2018877695451693  0.5930541326830673
  0.8044436972915263  0.2184544278892993  0.7981796234419798
  0.8116818612499958  0.4026684091157030  0.0122848427155186
  0.8075264649323126  0.4101725659710747  0.2127864273691678
  0.7939217755611143  0.3999627754038569  0.3989910161471349
  0.8040992412454762  0.4011540776725538  0.5970686979862810
  0.7963560523469083  0.5992049948169318  0.0066652930541019
  0.8041909836827550  0.5986851960752554  0.4029189732293864
  0.8005977987561922  0.5938660625234775  0.5969407736921996
  0.7976172469720944  0.5902210561169056  0.7925810149062904
  0.7957239480857833  0.7901668660203603  0.0038498326890881
  0.8113453207120566  0.7957497805310297  0.2065259390456106
  0.8101438930875645  0.7992425444932070  0.4085278420230727
  0.7929600236060578  0.7850693763826166  0.5874547210246986
  0.9954431384924999  0.9880736791493299  0.5827103262069838
  0.0002446437924990  0.4034244694227875  0.6049189837639320
  0.9943263414377242  0.4004434079139645  0.7894274050365897
  0.0007606217557248  0.6043817762347646  0.4044355313677723
  0.1998318984999502  0.9965242894491194  0.6009142666213544
  0.2035510454236426  0.1870588793785059  0.1887206670626204
  0.2062412841542091  0.4109474683944292  0.0040511061369236
  0.3950297684439713  0.5900909778764917  0.8032021510468447
  0.5984425945307047  0.2021466629813529  0.2071894832792860
  0.5999349353593192  0.3998791590212288  0.2033547499294288
  0.5981285634940463  0.6606617580193744  0.8667455681353197
  0.8045204861195450  0.3893869163728742  0.7842527035310004
  0.0029269170916697  0.9926025936347959  0.0078526674452926
  0.0015538118562766  0.7967566944916601  0.2010352259989193
  0.2017567007883236  0.9931119263561755  0.4036354266962972
  0.2025715862617953  0.9939912807251680  0.7982894043686523
  0.2042462688719215  0.6056082558971139  0.1983690197267368
  0.1950250758362854  0.6052890907127030  0.3984440109343695
  0.1941245918602774  0.7939653728325515  0.7987566662810368
  0.4102960302031057  0.1936877839697335  0.4006819783708042
  0.4024744600822924  0.5953660091290545  0.6071670897734486
  0.3901642493614658  0.7959582917804493  0.0006451633601470
  0.3953927092262249  0.7943288143105695  0.8056017418105901
  0.6028059851040755  0.6047927793333868  0.2024435901438379
  0.5999825461239174  0.7901351035843919  0.8138817149661712
  0.8012378523502901  0.5982185463695205  0.2043927147119711
  0.7969304548998415  0.7883427694290871  0.7979508303081646
