Zr Ti V  Cr W 
 1.0000000000000000
    12.2882735461728885    0.0000000000000000   -4.3445607757035454
    -6.1441367710433559   10.6419570608175889   -4.3445607757035454
     0.0000000000000000    0.0000000000000000   13.0336823299999995
 Zr  Ti  V   Cr  W  
   8  15  93   5   3
Direct
  0.9945564223601294  0.8006161986725575  0.4430793773983982
  0.1610039369485192  0.9637947327239419  0.7624291818604607
  0.2008601548268157  0.1915497838613724  0.9902249088124494
  0.2003233040255774  0.3980983444822574  0.4055804326326020
  0.1978136458843532  0.6004494527949794  0.1918390998639624
  0.4082456641749677  0.5987018264271374  0.3972726365197843
  0.4040759043463745  0.8102833122570050  0.0053381297176459
  0.5958050672821428  0.1909668086823102  0.1986344166379777
  0.9913235302659902  0.1853704867531895  0.1864573328757167
  0.0024278801025401  0.2062975325947165  0.4070640705902078
  0.0022623932833547  0.4123235474488716  0.5959306020942730
  0.9974077492849733  0.4074692424904346  0.8019271693520654
  0.1956203651718180  0.8077490197012234  0.1968187869636623
  0.3992575621634038  0.9980473236025077  0.7962313597416494
  0.3894857800931296  0.1926710334255015  0.1915395757617100
  0.3974387189730622  0.1982906224343836  0.6017976693473154
  0.4036046629415001  0.4092823730110072  0.6033871718910994
  0.6078813662814729  0.4049387274475141  0.4001863754919625
  0.6071385932278858  0.4018093893427490  0.6077519627521255
  0.6020686161199109  0.5994803162035011  0.1971599628463468
  0.6191116754354835  0.8093925977085412  0.6066741831088879
  0.7950056979823030  0.2028544704935449  0.4028118886513612
  0.7997179896335247  0.6021435073326539  0.0028838079650675
  0.9931868319984875  0.9937105079471449  0.9997732426395528
  0.9948906595936132  0.9925982681735201  0.2027826982445035
  0.9974144139583189  0.0018681949349262  0.4018281804461024
  0.9964236960917568  0.0128283791487737  0.6018287968311473
  0.9798730530382009  0.9941860337690465  0.7940045834066586
  0.9903756678567174  0.1956444566972394  0.9880425649770588
  0.9969631540323978  0.2042061534884413  0.6037988870444361
  0.9971174049874848  0.2010131624870674  0.7943718237241437
  0.9875874527208954  0.3925746356382357  0.9903329946079340
  0.9947498815426968  0.5966518423896209  0.9950340984715841
  0.9901398839263685  0.6014743486606212  0.1951178503768514
  0.9962680614315662  0.5898810412631424  0.3942873459598133
  0.0023977545271865  0.6129917259670729  0.8040669637344073
  0.9963803971408254  0.7977607951296094  0.0019720451958179
  0.9938755779764594  0.8025446682588258  0.2044792229318549
  0.0010536512139477  0.6325109075839712  0.6014618061169511
  0.1832275175676078  0.9744234956167046  0.9931896367911853
  0.1927267341061327  0.0007940001693182  0.1992376869701446
  0.1940932998659527  0.9942383877150408  0.3960303955821325
  0.2099700734430907  0.0129225434868675  0.5960461938612958
  0.1972228452518651  0.1940616463236919  0.2027628585684864
  0.2023538005004573  0.1862577933441145  0.4022971300596077
  0.1939895552323474  0.2043541687002548  0.6001864007889799
  0.1983328223291035  0.2060575780274159  0.7884755193640879
  0.1972977582496881  0.4023796098533350  0.9906824289757610
  0.1897807954983443  0.3798943098995233  0.1813119670399287
  0.2095839831702119  0.4130422539489387  0.6242093950912142
  0.2021881248822774  0.4034213190918603  0.8013622590067569
  0.2020475713613409  0.6100452621412148  0.9934200716416158
  0.2006596261256537  0.6067870465280515  0.6054420038690429
  0.1965370873940644  0.6007711892673936  0.7986093284539034
  0.2039494180316604  0.8060986314951931  0.4064170875597085
  0.2032129148521596  0.7982355294317163  0.6018225079150946
  0.2043628235114393  0.7965787884112860  0.8067752953715200
  0.3854884594878763  0.0069420741606318  0.9892985851203756
  0.3913859068628033  0.9937320623238052  0.2015470953891514
  0.4014344764878188  0.0035251249222518  0.4053300473059367
  0.4049686734542197  0.0007194202796168  0.6000738527670328
  0.3962637163401063  0.1940815746846580  0.3962732729984626
  0.4016116152198588  0.2037681037881438  0.8030399708016278
  0.3979597228544350  0.3958663041880302  0.9932659063533652
  0.4053218771369798  0.4069606636790857  0.2002641543272636
  0.4038005755919898  0.3852049095171446  0.3901197251130355
  0.4020749832618803  0.4017997852036414  0.8029983180642120
  0.4031636898264992  0.5970785430382923  0.9995108735485230
  0.4032660641151630  0.6019362713747549  0.1846441060553096
  0.4168307131828192  0.6208827407066916  0.6211003108835773
  0.4053679241788579  0.6045928812415104  0.8047075373699937
  0.4075018115219075  0.8054844068078439  0.2089406203293812
  0.4132035736313373  0.8181906304819868  0.4074823764673278
  0.4045404437534421  0.8059522077515064  0.6030356883051682
  0.4037703322918107  0.8003869894870960  0.7966587646058439
  0.6032857195154385  0.0020658594585230  0.9990049446022117
  0.6100101855046728  0.9959570381642525  0.2094581686258862
  0.6046079017129536  0.0058050233451678  0.4040464380793644
  0.6062160130957702  0.0077697221298209  0.6003396423458145
  0.5980223712901926  0.2032741668861416  0.9917983522129591
  0.5942820390241293  0.1990477847106157  0.4156851301491939
  0.6046288935980108  0.2005914506025487  0.6100667109772869
  0.5995538691453144  0.4026501967076215  0.9975474898847572
  0.5949764821518655  0.3944997736833523  0.1862220907564365
  0.5987038903048351  0.4000251918004662  0.8062659205618540
  0.5970999451253569  0.6011309774692075  0.9944589553708800
  0.6177898673387382  0.6123356507010494  0.4110594722589669
  0.6094715204924838  0.6036252192774659  0.6049591646496623
  0.6088421233983765  0.6056829694240148  0.8059478649628183
  0.6080816946176264  0.8012706358911905  0.0002494345757505
  0.6059963760994886  0.8054848618820981  0.2008435892673832
  0.6056528684094225  0.8073100350195102  0.3994755225883084
  0.6075186473264554  0.8015786846164383  0.8054512511077008
  0.7938213294003169  0.9922558376316242  0.9939900712123756
  0.7993316153594824  0.9996063315347151  0.1993422897125980
  0.8051974868014148  0.0056282867296548  0.4045897203470303
  0.8005228177333528  0.0039577826970536  0.6001342706809732
  0.8055494449684900  0.0035508107620472  0.8026880624052026
  0.7962422449136121  0.1976391404832478  0.9969061147283269
  0.8034473601814239  0.2030689892989165  0.1975939705236939
  0.7974873211357209  0.2025125633515014  0.6047371569339474
  0.7989526935482703  0.2045177954767176  0.7997067970841153
  0.7941958367112175  0.3952149884174302  0.9952706678439228
  0.7923594139474738  0.3973160886769532  0.1927691212827000
  0.8153688120130708  0.4117937616760847  0.4049751408222791
  0.8052469869147831  0.4084721526930567  0.6055682467873535
  0.7968742672626546  0.4062312154704615  0.8029560356127988
  0.7988925356310157  0.5936277128702010  0.1996909240190316
  0.7904468198005647  0.5897128359960809  0.3935699163472085
  0.8066472229212235  0.6068905146606814  0.6085016419225107
  0.8083276761861498  0.6075295664532482  0.8048463319546022
  0.8017809154346226  0.8044068772949722  0.0042576555805566
  0.7992852158718056  0.8009055717490705  0.2004432394662946
  0.7911801819498446  0.8104694079246838  0.3976021423429860
  0.8284782681634525  0.8029817092711719  0.5986898227271734
  0.8046320408051316  0.8000261718538205  0.8029864131197622
  0.9909133360583949  0.4055582600793392  0.3949592461828735
  0.9945335762213190  0.7965966750942984  0.8029852327596086
  0.1912045500867455  0.8006374820678896  0.9981363799787186
  0.4066997445552741  0.2010230944419909  0.9878968263157629
  0.5991354838475483  0.2033524390741785  0.8000940961469372
  0.9935657555421787  0.3971908073171209  0.1936413881065107
  0.1991666542525907  0.6081778287740219  0.4056437697921219
  0.6051464502101883  0.0032147065560894  0.7991745839800657
