Zr Ti V  Cr W 
 1.0000000000000000
    15.4866786594883052    0.0045727944722263   -0.0056523024637120
     0.0045733880575991   15.4730184242307782   -0.0004346354815861
    -0.0056535001248325   -0.0004347516217034   15.4799689699620178
 Zr  Ti  V   Cr  W  
   2   4 112   2   4
Direct
  0.1997892138527172  0.8000068002982835  0.0059016578125426
  0.8006654885383391  0.5991191473585629  0.3999915956411644
  0.2005995059947449  0.3994031270381115  0.9999686112502700
  0.2099652416590738  0.7992305745092633  0.2157278363171516
  0.3916356871721199  0.8024122140919854  0.3942226273384285
  0.8014868151768580  0.1987108560892550  0.5811629573086242
  0.0023186057413302  0.9991101898484144  0.0006775572071942
  0.0004363917178949  0.9997754254397291  0.1995829678280813
  0.0004113513105408  0.9962193991093723  0.4003400754080082
  0.0013634802094340  0.9992692842609918  0.6015204666405568
  0.9996538006897816  0.9996376412026882  0.8005847606085860
  0.0005211532490230  0.1992508590213204  0.0017410503075540
  0.0005510241153987  0.2001220844870427  0.2005293137028669
  0.0007273529252410  0.1984625891361222  0.3999954508959040
  0.0027153128736181  0.1999792039028100  0.5996649284879374
  0.9963371648924314  0.2004872702644556  0.7996376760060124
  0.9980014272734929  0.4011139181661035  0.0005612659242542
  0.9992646284855938  0.4001564410130563  0.2015527332925229
  0.9999832399119435  0.4003507208427402  0.4009028733402277
  0.9997455983248473  0.4011860910308492  0.6002019471057439
  0.9985530487855860  0.4002795756099382  0.7989218527750488
  0.0005746860703342  0.6004706372420823  0.0005679290741327
  0.0022761054841807  0.6000237180326488  0.1990356069265312
  0.0050698049200546  0.6034890903263392  0.4005942976836901
  0.0027278752396228  0.5995326046638217  0.6017958393636743
  0.0001524893668858  0.5996696774813725  0.8007192765309115
  0.9953850210318472  0.8004019798253882  0.0028485940544907
  0.9981512147673665  0.7991672997936595  0.2072049738995935
  0.9992579531718082  0.7987985565960510  0.5965274771345750
  0.9982790841409724  0.7998236659121400  0.7990573341896737
  0.2004551990790784  0.0043187903780944  0.0005409224342106
  0.2015411094068917  0.0032211935076389  0.2015750449560226
  0.1995199995968972  0.0006917189989712  0.4011031732673350
  0.2014489108191153  0.0002569882587174  0.6006049149646167
  0.1999445595082736  0.0014503755332458  0.7992783318621804
  0.1996041858590945  0.2003254388035614  0.9998611128788588
  0.2003400912185970  0.2008799173075007  0.2012932886509354
  0.1990874946055779  0.1996977792497903  0.4010276781177548
  0.2003173849119350  0.2001904990585064  0.6000320063037697
  0.1990630539089039  0.2007937430631661  0.7996796335621872
  0.1999895027158240  0.3993458642370326  0.2036214984196975
  0.1985349781497771  0.3985245623035415  0.4011987494365292
  0.1992677604605323  0.3985775563517314  0.7985571469742903
  0.2005606871315536  0.5966402786614811  0.0004046042123209
  0.2017607745421356  0.5960008672517835  0.2019000362346134
  0.2001869994174890  0.5985493745019850  0.4012521074737353
  0.2036416150879193  0.5989557229772776  0.6009626955834594
  0.1994110517396824  0.5984567424206840  0.8005639699335370
  0.1913217333978502  0.8000667260928882  0.4071356381702402
  0.1994896881266391  0.8001703842784046  0.6020144837859714
  0.1982503046605656  0.8006870861330966  0.7980454721509987
  0.3988472817454601  0.9997782163773690  0.9997004372661297
  0.4012090723100454  0.0009228516031974  0.1985240795349004
  0.3994859480563187  0.0014569264507642  0.3996986935427098
  0.3993323441758548  0.9984347841618588  0.5994082395179340
  0.4011117071824227  0.0010163911123899  0.8006996129072987
  0.4006375458622639  0.1991934526721313  0.9997724424298894
  0.3998292687110818  0.2009090116769843  0.1994713340107291
  0.3986053409570632  0.2000747872197972  0.3996510335399905
  0.3986665063612110  0.2008937599760652  0.5996647091847745
  0.3996887383225172  0.2004655431701630  0.7990809434340240
  0.4012869200643338  0.4007217953366110  0.0001660470691294
  0.4008200125354142  0.4004433199931026  0.2005562375921098
  0.3991443496805849  0.3992614967847038  0.4000669665495704
  0.3990546381131136  0.4043080224730736  0.5987531014661790
  0.4039131990049423  0.3993114281579316  0.7993565057871302
  0.3996517122720236  0.6010427435175444  0.9992330812331394
  0.3995905122812797  0.5997760604272045  0.1991844276247706
  0.3980602830364535  0.5985569778876864  0.4028319627593860
  0.3989429112477012  0.6003349190743882  0.7973446778727943
  0.4057077149581467  0.8007004068513024  0.9980497915733000
  0.4050754795256364  0.7996427322040344  0.1971443165490498
  0.3993603045975056  0.7969551101817858  0.6009948676813571
  0.4011032982009500  0.8005183156198492  0.7999541515226223
  0.6005192067059174  0.0001464900238701  0.2014329724697959
  0.5995021113573322  0.9999461371903700  0.4003137549299392
  0.5978827903675525  0.9991519683757670  0.5996489428758173
  0.5998798943957934  0.0007325472878816  0.7980488132361766
  0.5995811412859327  0.1999893525696379  0.0014013238345849
  0.5990297135323059  0.2000933797690664  0.1993442945988894
  0.5988996932802114  0.2001359946054992  0.3996892322841937
  0.5967679925860800  0.2000172915714194  0.5982830193472681
  0.6035043501164433  0.2025834941856713  0.7993717753550543
  0.5996787786521784  0.4011065914087443  0.9966532961279135
  0.6003931792702932  0.4000913652410510  0.2002635759695401
  0.5992074403392081  0.3987208673652439  0.4006734347244784
  0.5996464442984515  0.4005509914418121  0.6032013035131156
  0.5991366503082888  0.6008652515678405  0.0003859475215574
  0.5977586435426185  0.5996547224105505  0.2003187701022965
  0.5942213139071197  0.6007934743072334  0.5994037889108328
  0.6004194170957815  0.5958886133570819  0.8006356030707403
  0.6025573024860146  0.7990042869325628  0.9997165499938758
  0.6017278682478843  0.8005247876697477  0.2001486850026190
  0.6021580594236968  0.8003218775284973  0.3994971593488424
  0.6000438852170595  0.7996015604842874  0.5989096219528840
  0.6019066860518516  0.8004724297659742  0.8003702031858727
  0.7000377900834760  0.9994484814725884  0.0002576799840994
  0.7985810156964417  0.0007496771668063  0.1992017784028560
  0.7999851999032497  0.0016590065274586  0.4000511398964660
  0.7993914406055429  0.9983936486345438  0.6005085986111224
  0.7989128066986331  0.0046892923775466  0.7984347827244839
  0.7997650068737362  0.2006447361567880  0.0013491638161290
  0.8004413289938224  0.1993067970886211  0.1981204174774231
  0.8003260714150841  0.1986841546091166  0.3943332393174110
  0.8005240769841713  0.4011528953992590  0.0014602697006025
  0.7990634382491674  0.3997821241843983  0.1997290440932270
  0.7999284872340100  0.3952896678457170  0.4004408313874942
  0.7995109845718904  0.4019779703165106  0.5997473158211203
  0.7969736184738105  0.3953699742890861  0.7994044483867644
  0.8002852716451690  0.6001750130762094  0.9989827754918029
  0.7991479300583215  0.5989538669544454  0.1950433690453426
  0.7987447692924268  0.5999846055035597  0.6049336043742892
  0.8002348137672759  0.5995975431650646  0.8008417574990241
  0.7993998176562664  0.8003488463259042  0.9995899380552286
  0.7995040447614379  0.8010030209876349  0.1991574621430700
  0.8030526252639314  0.8049453542622109  0.4006284723929019
  0.7988464872282484  0.7996805744509453  0.6010089030492998
  0.8003231588637266  0.8016485953368184  0.8003425757580244
  0.1996772656067200  0.3995515090740933  0.6001830273931006
  0.5952943978636233  0.5997835415262537  0.4001327695160843
  0.9970619014391714  0.7996929201246560  0.4018001782416736
  0.3978535560499541  0.6019523196039601  0.6008193913958819
  0.6008105866410419  0.3999128728068854  0.7995358527197333
  0.7999617967256112  0.1997115579999000  0.8086482612877500
