Zr Ti V  Cr W 
 1.0000000000000000
    15.3205282173675101    0.0002014824685806   -0.0032720455521328
     0.0002023707323046   15.3277042438828079    0.0007193262014022
    -0.0032728540049734    0.0007198926617368   15.3420216939870571
 Zr  Ti  V   Cr  W  
   1   2 101   1  19
Direct
  0.3940919524776599  0.4178562932786472  0.8182099675325611
  0.6115649676848911  0.6092061947315719  0.0067367200306466
  0.7921100123154373  0.7909362056152156  0.0127037746112564
  0.9978891984596860  0.9974934011441267  0.9953849052219571
  0.0008009979565883  0.9986337181525249  0.1978066917745394
  0.9982683390697116  0.9974055755261775  0.3973295808923547
  0.9993955258259398  0.9952243639573570  0.6065075554891527
  0.0014615730662711  0.2000696487511408  0.9983707076314305
  0.9977573333474772  0.1984987931322019  0.2000737580988881
  0.9991382941705080  0.1986092159813381  0.4029195204197311
  0.0000120225058227  0.1991985464731356  0.6014534298019106
  0.9961093039982443  0.2163342527330867  0.7994991528976730
  0.0043785882534525  0.4002987230001484  0.9990571349750732
  0.0001876620176549  0.3999049301584019  0.1967118869440688
  0.0008353181531862  0.4007895014578717  0.3988980487283980
  0.0020092980594518  0.4035773103879370  0.6049504795772815
  0.0023019111517431  0.6000411690063971  0.9952909488843916
  0.9985080342064347  0.5980244146138332  0.1987434861956109
  0.9952806947666852  0.5986345285160157  0.4052144313161131
  0.0047672041927662  0.7980001401911723  0.9993148889124096
  0.9970753610180653  0.7984832694733854  0.1985534694009367
  0.0021204076776257  0.7988745110907817  0.4036376707127555
  0.0015118644129431  0.7927508526575373  0.7972524718191999
  0.2009801462238704  0.0018508329767237  0.0002070935490019
  0.1982134219165158  0.9999906560052910  0.1984792874752248
  0.2039491780018314  0.9955972636861369  0.3987229678819607
  0.1996642458917212  0.0053136841534260  0.5996475119752767
  0.1946318560413022  0.9999186157639326  0.8001676494824016
  0.2005683952310328  0.1980071191905870  0.9994513480157274
  0.1988544226733798  0.2008608403921315  0.2017672229421943
  0.1990020145007435  0.1993352799861290  0.4050182560889304
  0.1989956666719117  0.2003919456877499  0.7954832589889524
  0.2062168940718319  0.3977966580579810  0.9992471517127719
  0.2006624898560269  0.3992863848704804  0.2008528576101850
  0.2009237744391894  0.3999615330364926  0.3983710671755277
  0.2008813327613712  0.3944738043940805  0.5999449693456066
  0.1917516716041266  0.3999969331899066  0.8001680084217022
  0.1985023570113369  0.6004734341745486  0.0002682611154210
  0.1989957387653830  0.5982805231939108  0.2000508209207548
  0.2009306532311540  0.6026876311066306  0.4007206390629809
  0.1966603969092121  0.5970338318656471  0.5988700404114624
  0.2143421413538538  0.5971896913745341  0.7987638845999643
  0.2004537443215352  0.7997782204476335  0.0013310204257579
  0.1999324776240825  0.7982303813969384  0.2033743860280619
  0.1968927460240030  0.8002433495573370  0.5945971726307306
  0.2031476631624001  0.7985580345364439  0.7985264502974107
  0.3998978522408039  0.0011766180906239  0.0011195120248411
  0.4011373348475835  0.0000609119555699  0.2011231697119434
  0.3997946554127774  0.9994623084771692  0.5967430939654474
  0.3999733909432746  0.9963809633111359  0.8019068928437292
  0.4004802745657642  0.2031863864721796  0.9976494478104736
  0.3996801361647146  0.2002326100082630  0.2016390126169776
  0.3997326337632853  0.1957891455103608  0.4018983032733605
  0.4007035748162786  0.2004706384033909  0.6025424642184612
  0.4007788420949229  0.1984172044690037  0.7991368835982083
  0.4037418278452224  0.4009442749572077  0.2028109956730373
  0.3989509850706818  0.4022336291100119  0.4007537538091732
  0.3995867622709331  0.3992516695195396  0.6018657655511405
  0.4002668844609826  0.5980356455102535  0.9965404152685787
  0.4016853455496291  0.6004985601325660  0.1996525235663568
  0.4005214264016909  0.6007132075757530  0.4034168079330687
  0.4006975082601789  0.5983595327213835  0.6048776554022055
  0.3980324095215238  0.8009750167633631  0.9976274330042487
  0.4004370627467180  0.7974629776878542  0.1967448629989212
  0.3988280625931606  0.8006031772314965  0.6027168318139715
  0.6018946190478566  0.0027674212540184  0.0012893039283211
  0.5980721654030680  0.0008697568031960  0.2002782899730303
  0.5962929407728464  0.9985135197780072  0.3979710951044353
  0.6003273392210501  0.0037850085809924  0.6013486664191364
  0.6008467520968470  0.9994800801119078  0.8009710799240565
  0.6001456504490348  0.2003908949065216  0.9987585563011184
  0.6028383374322044  0.2019393839599496  0.2016782445763149
  0.5998157048838675  0.2005101294838341  0.4057251018394684
  0.6037073099458772  0.2009502436979154  0.7964802408287001
  0.5954809021315451  0.3981874327131118  0.0052152704038112
  0.5978644576328181  0.3992797532797184  0.3960011862444259
  0.5971829812571101  0.3949950696966314  0.6005931469745246
  0.6018104115381204  0.4014967159580369  0.8033469563433704
  0.6006908514620666  0.5955518103352528  0.2052066929975192
  0.6026531825950165  0.6001996076852834  0.4039538383637676
  0.6017818262828780  0.5979255508495633  0.5989747625997027
  0.6022986343136383  0.6001361782499702  0.7963664811822464
  0.5940739257552757  0.8048587210876702  0.0005797159386782
  0.5990216686234068  0.7993132012671655  0.2007778050685459
  0.5995556563264471  0.7994859222484488  0.4006936337638338
  0.6005247381840346  0.8020918565648473  0.5981620853973153
  0.5983746724750617  0.8026407522891488  0.7978779000739188
  0.7984893330098501  0.9979743413504304  0.4009838881450324
  0.8007566442752136  0.0026405908117169  0.5988933827049745
  0.8038256422153036  0.0010190868742951  0.8064007563213493
  0.7997751713055866  0.1991036224679962  0.9954193318429958
  0.8006341789983836  0.2025643248583757  0.2025875435566903
  0.8006981011405911  0.1981620858055481  0.4047823067000143
  0.7993987011185643  0.3989046984909992  0.0022443857790886
  0.7963519533576278  0.3987673830179179  0.1993937715878389
  0.8002831991559006  0.4031796738027273  0.4004326357632439
  0.7996372201450619  0.3951614758875169  0.5991028889043375
  0.7996268220453986  0.3997854689673064  0.8035669590332510
  0.8033691291378098  0.5957121824871392  0.9951986430816095
  0.8007956080253686  0.5984544660835067  0.2061758164074972
  0.8009189921907574  0.5967503661653578  0.5986472433268841
  0.7990750982472142  0.7970699293013445  0.3974119357382725
  0.8029933261274012  0.8028722164011064  0.5982105899174670
  0.7957475895661879  0.7947937944004391  0.7961482506121559
  0.3994320520307315  0.7991607686194201  0.4000631300984107
  0.9990694240524848  0.9810635134951097  0.8007443228015462
  0.9974164370529871  0.4099314899549401  0.8038051508242011
  0.0000518798190254  0.6024007411155466  0.6036008225198995
  0.9845085964263451  0.5971226017832748  0.7953644805988246
  0.0012209719022309  0.7956890615181486  0.5994190669012275
  0.1990194748455451  0.1991558871850405  0.5995999022341781
  0.1971406473155854  0.7996244053604685  0.3987958251039916
  0.3996487167220848  0.9996832765346121  0.3985509726430940
  0.4014611060951972  0.4009195674713374  0.0128252666737463
  0.4076612571825620  0.6153130115365015  0.8007385559635912
  0.3997361243849054  0.8017042385100891  0.7998440194161164
  0.6027415455677398  0.2004765023170718  0.6010626649374932
  0.5997464379482798  0.3985305603008734  0.2009114588523676
  0.8002694100047705  0.0043452084947582  0.9967144444283469
  0.7982888168302705  0.1991787000972293  0.6037772975487204
  0.8018945978211002  0.2007606693325820  0.7959560733650806
  0.7997307929075647  0.5996937913283951  0.4033587205951248
  0.7960941352469032  0.5976509222865305  0.7968514190275665
  0.7986741642491444  0.8264992844423094  0.1997068209521933
