Ti V  Cr W 
 1.0000000000000000
    15.4557498811443548    0.0004941212289126    0.0018267395804492
     0.0004939353714327   15.4692164812837163    0.0004600942864290
     0.0018268799168668    0.0004596930157856   15.4533924520731851
 Ti  V   Cr  W  
   3 114   3   4
Direct
  0.0057333204303131  0.7940297125186504  0.5983075081785527
  0.5972827516218843  0.7953732263632468  0.1982377633525481
  0.7973870629227926  0.4057574813711466  0.7989588974221772
  0.0001659917277970  0.9999277214630028  0.9999207937892080
  0.0005626258313052  0.0004269410299931  0.1985004071280357
  0.9996213672599036  0.0002653169397019  0.4000764018599961
  0.0006781024295983  0.0024095993866036  0.6005015985870422
  0.9957797321906878  0.9997651500194402  0.8003396566076145
  0.9992847691198385  0.2004978506349325  0.0001095655854955
  0.9993485826347176  0.2000731999354631  0.1998870261863223
  0.9986946236959470  0.2000850207167770  0.3998728232816537
  0.9994115768509945  0.2010008422004716  0.5997109529835988
  0.9997697051055483  0.2006373772213335  0.8004325653037216
  0.9993834675341112  0.3992331729687874  0.9990785404631626
  0.9994853635636023  0.4001835477537943  0.2002318125744026
  0.9994253112870872  0.3999014455491918  0.3999512486243748
  0.9997815557244703  0.3987896438374587  0.6007323253253606
  0.0021442100608544  0.3998893389196793  0.7998655149874869
  0.9995017737354188  0.5997962986802344  0.0004368084412738
  0.9990178129532864  0.5981458530961907  0.1991068183845696
  0.9992292436564548  0.5986076559479290  0.3990245253390134
  0.9997660516918326  0.5960389059613602  0.6005195554086556
  0.9997045636115046  0.5994552914537229  0.8005796991858999
  0.9981672127220454  0.7991864193535482  0.0005889590102553
  0.0015678875640470  0.7992850637538799  0.1980544754191008
  0.9960180045140952  0.7993896655720358  0.3977874295270561
  0.0021180679671748  0.7988525208093047  0.8026960414291171
  0.1997782877678082  0.9990671624654103  0.1996046141193347
  0.1994822392861854  0.9993213335337886  0.4005468615243274
  0.2002830974449238  0.0001878123398178  0.6006089800327726
  0.1990985340024683  0.9994255274688586  0.8003437629954765
  0.1987913241133648  0.1990631966512706  0.0003519263430639
  0.1997821271653179  0.1998328422250615  0.2004498623992731
  0.1992217766930818  0.1991698961418957  0.3999508605810007
  0.1994661989825359  0.1996094520546811  0.5996182856601781
  0.1994144202152870  0.1982562281184601  0.7998007738798200
  0.1991965348240397  0.3999493189688809  0.0004933646412672
  0.2004817704773196  0.4001071975938456  0.2001428129320553
  0.1996790528945369  0.4000879277078470  0.4005683642982488
  0.1996135542513711  0.3999703961759430  0.5995051978955946
  0.2031557345342339  0.3997968147491439  0.7995599563853871
  0.1996423105758722  0.5993959935410158  0.0008913992882838
  0.2006562784467809  0.6006124943033091  0.1996567342053449
  0.1997805680770197  0.6003093449002874  0.3994728929822592
  0.1993973638661209  0.5998158018377435  0.5994805639871122
  0.1998771132389488  0.6016391751304837  0.8009261683193798
  0.3333731389242140  0.8006950764378507  0.9995512304604245
  0.1999839107320502  0.7994750067744991  0.2020312433778885
  0.1981919437529241  0.8002471135014275  0.4004514488274844
  0.2024149950155377  0.7997678784650522  0.5993847538917690
  0.2010313877620345  0.8009644524106373  0.7991999651000429
  0.3994977954232167  0.0001478002849362  0.9995780920130399
  0.3994792130385367  0.9997650900051888  0.1992450229040520
  0.4002051930550728  0.9993239765804512  0.4000644398714511
  0.4001849924538812  0.0001034503531185  0.6007607810785017
  0.4000001892302186  0.1987852036080335  0.9999890715327377
  0.3996416317343913  0.2004308572986032  0.2001360112728841
  0.4002106810330311  0.1996735743631639  0.4003992085384799
  0.4000276991622690  0.1993529283058997  0.5999936801156615
  0.3998180078811536  0.2024924147159767  0.7999105761941165
  0.3992518357081671  0.3995541569803928  0.9959154596674559
  0.3991504361114055  0.3989216108140118  0.1994214948036914
  0.3995209493725644  0.3995949339384657  0.4018471937630470
  0.3994321008759698  0.3998197449622538  0.6036565299846236
  0.3987691310441470  0.6004095940342872  0.9997792812786516
  0.4034537055180530  0.5996547667624538  0.1995409462419834
  0.3996254660441069  0.6001561603004766  0.4006521951176993
  0.4006563332534750  0.5997046449251815  0.5994419334584157
  0.4003126154867452  0.5969795688423468  0.8006226374743124
  0.3961524664557014  0.7998464574496481  0.2004078226074758
  0.4006691231313844  0.8002750383274901  0.4010721891725013
  0.4005807316382478  0.7997172710732253  0.6006565824896234
  0.3990888192785144  0.7994022912707333  0.8002665519646145
  0.5989511537774341  0.0002202120435721  0.9997240361146529
  0.5993459809488915  0.0014332619611339  0.1995343844168526
  0.5998462158222558  0.9999443053499949  0.4002608038626859
  0.5984732948273058  0.0008140901955990  0.6009530883957641
  0.6029972558018766  0.9997077063646743  0.7999754142702505
  0.6003994519233736  0.2002061121700943  0.0007502732324323
  0.6001485183716261  0.2009068053843685  0.2003809138568200
  0.6007812194801369  0.2000244190435219  0.3999037931611141
  0.6003042714565697  0.1999155041232064  0.5994005686775282
  0.5999588008042448  0.1995975797146328  0.8001056820933855
  0.6005095410985872  0.3985270227386795  0.9997589136238303
  0.5991235003543339  0.4004270547530160  0.2001971361866430
  0.5998024289694540  0.3992607219787165  0.4007143149829002
  0.6004077020805217  0.3995055938187975  0.5996116868852129
  0.5949923025056431  0.4000701840731585  0.8004057382301100
  0.6002311247049531  0.6000744589385197  0.0041227631777849
  0.5997917781220268  0.5990253775816631  0.3960842894380902
  0.5998820028537304  0.5986031712936692  0.5992348738876349
  0.6005124443090276  0.6002982464673186  0.8010636892389855
  0.6011739824050982  0.7993829438592038  0.9981423680360934
  0.6036143209878518  0.7994638992520896  0.4018975995601289
  0.5987709192222538  0.7986120388537182  0.6004392685403780
  0.5979376802412032  0.7984755299465056  0.8000895897509239
  0.7992689944149256  0.9992726933450692  0.9962241450307365
  0.7996109093602172  0.0003375923851996  0.1984523222155064
  0.7997204762781689  0.9959726842536789  0.4013978056868187
  0.8000566520935756  0.9996885984836726  0.6048192745220564
  0.7998058229352260  0.1996607386501685  0.0002444862116391
  0.7995464411963282  0.1995546241887132  0.2007651844795089
  0.7997244899908947  0.1974227203985792  0.4003008059840223
  0.7998230520895717  0.1999495355212086  0.5998056751118430
  0.7997722872483929  0.3999413586646197  0.0003570211378204
  0.7999729274886792  0.3989385665007664  0.2007344720605318
  0.8000694842900000  0.4006922798771585  0.4009378744171520
  0.7994137499687400  0.3999095129918025  0.5988096008524750
  0.8000968962757105  0.6008385965374006  0.9998915766302944
  0.7957543295978031  0.5995718083551618  0.2000129030296791
  0.8001422886472737  0.6044011209571140  0.4003831633163373
  0.7992076301616201  0.5996184715648313  0.6001190869084382
  0.7993609835634549  0.6044842503254206  0.7999673183073530
  0.8003546719526798  0.7998096481325214  0.0017921975226575
  0.8017234716815895  0.8000888091303229  0.2043327574927430
  0.7984321198254647  0.7988415078495034  0.5957690366330868
  0.8000594018488899  0.8022855519655456  0.7977198176095459
  0.1998210634624903  0.9987302072100682  0.9995181674481057
  0.4003891380201868  0.0004237077473222  0.8004068670396107
  0.7995200942022073  0.1981992013792228  0.7997378361239057
  0.3994456050583228  0.3999662482034558  0.7996964768981435
  0.5993055483536343  0.5935745295931401  0.1995146517470980
  0.7992833617440228  0.9954612157345352  0.8004739574241214
  0.8002315438194424  0.8010495316780074  0.4009587671539656
