Zr Ti V  Cr W 
 1.0000000000000000
    15.4881673496800545   -0.0044988716137269    0.0023284428611688
    -0.0044995262007590   15.4868836992738235   -0.0013404811889266
     0.0023287711427859   -0.0013405450580446   15.4872612960135356
 Zr  Ti  V   Cr  W  
   2   2 107   9   4
Direct
  0.9978315417649261  0.7956264129041963  0.5979840025731747
  0.6042586466261149  0.6022581669500218  0.3998275481725962
  0.1972161556329134  0.0087606439959278  0.1976531358291139
  0.6018404119193084  0.5996146654953228  0.9964144623859834
  0.9991842354682715  0.9997524684124837  0.9983437645088378
  0.9993748995773455  0.9963109152012787  0.2005999576532733
  0.0003837633939368  0.0001305904391027  0.4015144645506925
  0.9987973874491477  0.0017740373708256  0.6005158176006945
  0.9996042095466063  0.9999672868124210  0.7992663762991061
  0.9987208529413116  0.1990170238468299  0.0006451709911663
  0.0000623216436872  0.1991980158465829  0.1999104472717909
  0.0003025078051251  0.1991404916891931  0.3990309693412882
  0.0004222060957215  0.1990504653612830  0.5999140585185080
  0.9995165321601811  0.1994164152890604  0.8005242777719380
  0.0000340933099982  0.3992315551412327  0.0009750919825942
  0.9998244525135361  0.4007917020402668  0.1998943687877943
  0.0006512314053694  0.3985925049029491  0.3991156095078484
  0.9998110614435406  0.3977754278738014  0.5996925035326915
  0.9995687392196361  0.3988987787975578  0.8006735834582437
  0.0023674029350473  0.5982137190907549  0.9995794145701636
  0.0025250034024843  0.6029228516964451  0.2003838968244816
  0.0019593606470283  0.5984849406388724  0.4000349767114866
  0.0005724790130965  0.5934151017649919  0.6004459908974455
  0.0010476638601307  0.5983119559779824  0.8004148941790682
  0.9966831908163835  0.7997422790362597  0.0047164881372760
  0.0010019909444414  0.8005483555979479  0.3919097776049275
  0.0002698920753603  0.7997103158848571  0.8049372520763345
  0.1985091424756497  0.0005473865178811  0.9959886599635696
  0.1994862390359369  0.9992648135079244  0.7993747578843410
  0.1997427499541945  0.2006578685390797  0.9991574972752828
  0.1997675554516014  0.2024647474007152  0.1997127613553242
  0.2002233981873694  0.2001041698324684  0.4005944824871511
  0.2003541192555202  0.1999636592789726  0.6002998430641778
  0.1994334202716189  0.2000360608419735  0.7989923182648950
  0.1998969282271730  0.3996985824114568  0.9993545678723144
  0.2008322261099969  0.4006717876913614  0.2000324645376294
  0.1998998234154861  0.3994675077951375  0.4004136149855771
  0.2007269065542493  0.3993321207607045  0.5998098325076744
  0.2001729970318060  0.3996553937839749  0.7993329626376630
  0.2004928500501281  0.5996429024726967  0.9982914156499599
  0.1999829317409026  0.5990420222370707  0.1999137243306907
  0.2000059345575059  0.5987384165685182  0.4018800688401167
  0.2009501047101161  0.5991110557729638  0.6003795518115698
  0.2002027496907857  0.6001209583833780  0.7990143170051841
  0.1997983409697523  0.8004620292798397  0.9992547032088660
  0.2007833001287322  0.7988521435347509  0.1987758362170672
  0.2003011806630644  0.8011883280777029  0.4012232471577029
  0.2035274300598306  0.7992733054313074  0.6001567368459105
  0.2000751564019077  0.7999898867240910  0.8007514189681318
  0.3989170886930138  0.0013668936161286  0.9987854107488036
  0.3986493237147467  0.9969538449796608  0.1989661732836537
  0.3991376361100729  0.0004775103673338  0.4013963649798716
  0.3997434151273099  0.9998232265540732  0.6000131812128582
  0.3986068263573277  0.9994623853904798  0.7987768091791236
  0.3998329514999137  0.1998829173834589  0.0002586752050577
  0.4013643231654491  0.1984306943565889  0.2002025678278776
  0.3996991928885043  0.1993586240679201  0.3997337729831417
  0.3996663029152954  0.1998036558217151  0.5992847829000680
  0.3994706412059665  0.2001113355099781  0.8005074658307298
  0.3999862525837084  0.4000854892655162  0.0009474955262747
  0.4001070303065172  0.4025805490178501  0.1996757722017702
  0.3998134530631584  0.3995993831464220  0.3991089544076551
  0.4002290908912085  0.4002761821817921  0.8001076062955632
  0.3979250122121055  0.6000448682443907  0.9989068961127958
  0.3993047765845969  0.6054708497528516  0.1998968629191663
  0.3972799322180138  0.6001931532805586  0.4017524912193531
  0.3999807179098950  0.5999564823503870  0.6000342724819965
  0.3992084751805059  0.6003171372075898  0.7992489240621136
  0.3999317108150145  0.8016474920391439  0.3967988197073281
  0.3997645699940593  0.7998765030024694  0.8002301515138530
  0.5991892975004518  0.9998186245193027  0.6002588404003323
  0.5983977777898001  0.0008743466705035  0.7991028967245822
  0.5998416212092511  0.1985390590256933  0.0002861055963463
  0.6002049978866030  0.2016323927854672  0.1996580659584758
  0.5995849530861374  0.1986192491319794  0.3994281229770003
  0.5996729739067771  0.1998675351626801  0.6008511346766303
  0.5996571654499593  0.1998812755126692  0.8002866384327281
  0.6000706892874058  0.3986718075780294  0.9992075137857840
  0.5994646618419683  0.3993346286686025  0.1994882131421004
  0.5995866571089022  0.3988690964130616  0.6003832009688720
  0.5997940340947068  0.3992976286552455  0.8002570971332373
  0.6008778017757234  0.5974344656997099  0.1966945890139064
  0.5990966752615996  0.5999539873894340  0.6038813130295758
  0.5998303553922177  0.5990951706653391  0.7969505344957183
  0.5961770718473872  0.8652221795789194  0.1969300673457796
  0.6001345979390670  0.8051977292846989  0.3991776864292292
  0.5983428363924534  0.8011429820214550  0.6025558267677136
  0.5988598334011890  0.8006505047097644  0.8047763886568057
  0.7991038997333508  0.9967654655966706  0.0001978568766126
  0.8007202800693910  0.0000336731912374  0.2018047243086133
  0.7991775401405273  0.9998583512902047  0.4007730914473891
  0.7985307877615407  0.9993229024600666  0.6010364722178221
  0.7992971125020714  0.1975404555435309  0.0000493001974506
  0.7989118494601465  0.1985804470352875  0.1994935015168939
  0.8003286153844691  0.1984451268086193  0.4000590223652253
  0.7993103169615217  0.1998603530921745  0.6002358499124740
  0.7997289908077755  0.1992418596683635  0.8010905302060625
  0.7996548246847460  0.4001770700471813  0.0003639960113433
  0.8003150853326636  0.4004107996138602  0.2000910458024698
  0.8010233504627898  0.3981509289474638  0.4002766656323257
  0.7996567911258681  0.3995781986892663  0.6003727715838006
  0.7998526817330707  0.3999989265867440  0.8002780626762663
  0.8047447419033642  0.6021038908879393  0.9989576850739138
  0.8019114209287784  0.5986147805576520  0.2009086888392179
  0.8062838033844730  0.5996943407206363  0.4009528591498667
  0.8001222249965523  0.5993414714732451  0.6007855998693979
  0.8014821803207514  0.5991217059464232  0.7991760747853753
  0.8044017540270119  0.8005565643254948  0.1970922140452332
  0.7983176072944120  0.8010044553227170  0.3982835641860439
  0.7945439326050476  0.7994837678903263  0.6024557732339140
  0.8000982887076877  0.7995819149781442  0.8051823679027746
  0.1993621326234064  0.0010177042848551  0.4023724246856718
  0.1999113506807092  0.9997971302516970  0.5999611233900072
  0.4001812786743811  0.3996054652898591  0.5999048782881080
  0.4015136679794641  0.8008453134383227  0.0005264343612694
  0.3999349131730034  0.8005846274219560  0.5994546107732638
  0.5990108032289140  0.9995413753452448  0.0003421434152026
  0.5995649488198209  0.0004840347553913  0.4000280601416396
  0.6001611832231633  0.3958354149334020  0.4002872173254435
  0.7989828558292920  0.9999890686333291  0.8001674306853140
  0.0022775236857969  0.7991477665638295  0.1990042274845479
  0.3970116742336941  0.8035832027950647  0.2018743202870898
  0.6060574236882851  0.7991668340916384  0.9972278755059063
  0.7985341713404055  0.7984339428607593  0.0027979449619759
