Zr Ti V  W 
 1.0000000000000000
    15.3704372863088707    0.0041087699184726    0.0045828320708022
     0.0041071823098185   15.3593176205705255    0.0049868964281650
     0.0045832368054306    0.0049883200619353   15.3853693029952101
 Zr  Ti  V   W  
   1   2 107  14
Direct
  0.7911759112630840  0.4016294797718389  0.8100551689415334
  0.4090853697380963  0.7979973152653731  0.8038994216671808
  0.6121368728511654  0.4001003860993786  0.9890515504499239
  0.9981560739678755  0.9968489620056242  0.9998049756139141
  0.9981430631169025  0.0027957937476704  0.2000523918583191
  0.9993181333298159  0.9964624508839580  0.4001336311554468
  0.9950359966244198  0.9999545972673551  0.6008606301676258
  0.0028725850858498  0.9983331979613190  0.8008507021110118
  0.0011029603827973  0.1986241214624045  0.0015576426684520
  0.9988188491740717  0.2028752141448830  0.2015438772582313
  0.0022318580088192  0.1993211281876799  0.3994964869778979
  0.0022239762036702  0.2006246792227057  0.5995665889136721
  0.9987031419667780  0.2008634414872446  0.8006702458996756
  0.0032636405997062  0.3992823537818616  0.0059592842998406
  0.9987308630097332  0.4012026960389904  0.3976235581212542
  0.9977042175287389  0.3999831529024233  0.5997288632209420
  0.9991364569715875  0.4006770598900127  0.8029595317941427
  0.9974465589243544  0.6047049009670025  0.9994058327465515
  0.0041472605343109  0.5968075871553491  0.2004259981039187
  0.9994729229033167  0.6026375232521831  0.4028466691008358
  0.9994676788101894  0.5996951252618162  0.6016096361175445
  0.0026453205302950  0.6007494103280535  0.7999038388298213
  0.0042235689942937  0.7982014703288318  0.2009497592670543
  0.9991013159500016  0.7995111751837457  0.5946989954991255
  0.9995022629484017  0.7991312317802040  0.8057047883244286
  0.1993207881921151  0.0015060776542787  0.9964130710581031
  0.1978519340152439  0.9993472581710571  0.3996337650781838
  0.1984210954983407  0.0019284615311148  0.6057910880329852
  0.1997517463725765  0.2026039266362676  0.9947249663996702
  0.1992173216434440  0.9935203644887468  0.1976958006824106
  0.2020245217442287  0.1989569844885399  0.4067935874414754
  0.2008250632111615  0.1944243331048547  0.7964329841120122
  0.1979448877291353  0.4090464273517512  0.1956492275154485
  0.1993319556749451  0.4005588051904682  0.3981855635900001
  0.1980459891815921  0.3967086987690356  0.6023013226446858
  0.1977778797625354  0.4053102458679826  0.8052720578505936
  0.2003235842363622  0.5967307262803538  0.9966596584180756
  0.2008054123187154  0.5996260673363502  0.3995117350350350
  0.1996367339475285  0.5988575714249820  0.6047837277883068
  0.1951169208964473  0.7984409414780889  0.0032223455372775
  0.1958870478904161  0.7998141829706039  0.3978203927573281
  0.1995062260688034  0.8004976741185874  0.5990506109978935
  0.1986217000600837  0.7991755790892343  0.8007707059124489
  0.3999109949872724  0.0003835292434507  0.9993758029284919
  0.3988803928173987  0.9970934488006209  0.1988706335263743
  0.4008016777090346  0.0025800070514856  0.3996316509323131
  0.4002254593941806  0.9980558497164157  0.5993679349159238
  0.3967423207220486  0.0003012996184383  0.8003675372156774
  0.3992273445683360  0.2000418041405272  0.0033515043957414
  0.4004005792758992  0.1982921632977001  0.2029040934842454
  0.3964840073360605  0.2003206890221118  0.5955634932778476
  0.4002498065828486  0.2003189021509117  0.7977728270606526
  0.3961923843006773  0.3983108736972981  0.0003305385791799
  0.4009874594098937  0.4004988774258316  0.1980705171797211
  0.4000160165602408  0.3969564375406108  0.3976099322911298
  0.3991838136144513  0.4004396897395290  0.5981346186955172
  0.3969145370066914  0.3992642505747856  0.7997853199483009
  0.4021135512338868  0.5993384309920150  0.9989136144893387
  0.3982319558838401  0.6042111142745080  0.2003566843176052
  0.4004165668460802  0.5984730931060032  0.4007153675072543
  0.3985717173178822  0.6001607963073865  0.5987157636464341
  0.3957983375198573  0.5994642160609029  0.7995733376604330
  0.4018506729945047  0.8009502332909825  0.0069340334845152
  0.4012902609310188  0.8017968973460161  0.3963228514924853
  0.4002253620174957  0.8006337406760150  0.5938644490768380
  0.6002080923835830  0.0001747301250397  0.9975852970326207
  0.6033513569782634  0.9995190031863294  0.1981099206402510
  0.5993741550649933  0.9996459877230203  0.4007940172656486
  0.6020933641027895  0.0006457849137510  0.6022866079398479
  0.5976975622504048  0.9989512293482835  0.8005462270849901
  0.5990204605538220  0.1987760930785827  0.9986380658080394
  0.5981957380999656  0.2017046965577612  0.1986920081960646
  0.5943367574812123  0.2012122409275560  0.4009391724647504
  0.5978434877454816  0.2006248929492280  0.6007956737555173
  0.5966019916238468  0.2008827475270847  0.7998700779907153
  0.6031656467510760  0.4014863450724958  0.1993714791347109
  0.6011543506932309  0.4013392467126162  0.3985000985217719
  0.5999106138879207  0.4006059009966599  0.5991938094247438
  0.5898284131956270  0.4010461624407929  0.7944654397641078
  0.6004585020673000  0.6013306666480367  0.9982088420627769
  0.5985049074097847  0.5988411620307799  0.1978579666016798
  0.5994868572414607  0.5993144005142190  0.4017698741974830
  0.5985156782036665  0.6002142686257608  0.6019366232487772
  0.5956957303657083  0.6010135862865640  0.7999076196312872
  0.6017086698166553  0.7992944777514176  0.9997167752008198
  0.5958394119225631  0.7993242549942390  0.1996112591745928
  0.6034710812988067  0.7980483710284003  0.3989521356595219
  0.5996811640918971  0.7996030046014048  0.5997941820934291
  0.6028823463652986  0.7995980693553046  0.8005677970089286
  0.7992281804266974  0.0003299778615979  0.0044836082157631
  0.7988679378333585  0.9973267186678269  0.4007898666007639
  0.7991499771215694  0.9993595349270854  0.7964815494558316
  0.7989896541056325  0.1997846736195328  0.0006882270383783
  0.7994186233198103  0.1962069912756525  0.2026886292977089
  0.7970381233876574  0.1989517417574112  0.4017447614873456
  0.7994014793874934  0.1964314397871073  0.6000208362403275
  0.7994802595220665  0.1953034943719038  0.8007362195012748
  0.8074064788654149  0.3999224830711755  0.0103879120030732
  0.8053614376386412  0.4004866809174315  0.2046260707425727
  0.7999852939780911  0.3999024296809001  0.4021215949255698
  0.7993261026958411  0.3989473303517870  0.5995942066846270
  0.7993672522673875  0.6016277587221287  0.0012895566629675
  0.7985342804917557  0.6008770457002672  0.2011851521804222
  0.7984295481663314  0.6048772018236123  0.4015580597263225
  0.7985478261069827  0.6002354485624505  0.6029508058500136
  0.7991392060513888  0.6065414950798759  0.7994281358828041
  0.8032081865828870  0.8015103486460670  0.0031431126283162
  0.7994074108881372  0.8041958922264812  0.2048824917497835
  0.7999208138929880  0.8049693825926691  0.5960778597574791
  0.8008168483693505  0.8018375078875692  0.8001812162664927
  0.0032200691837918  0.4005233232018693  0.2024584880580982
  0.9979229946540912  0.7999520525022615  0.0039622282991958
  0.9980108093287755  0.7989562674443947  0.3981547501079670
  0.1998692831307749  0.9969630397213397  0.7995955773753491
  0.1989898444978196  0.1997509721415107  0.6010717122197233
  0.1997317789992726  0.3993255383668232  0.0008090144200430
  0.2028258387501609  0.6030687705334176  0.1976993444801585
  0.2006694524774613  0.6014098222131983  0.8001566640221213
  0.2019299215482535  0.7961465249262024  0.1995166578480050
  0.3978459084115817  0.1993863897832382  0.3977454291030348
  0.3973336949973379  0.8001247982505877  0.2017056310495737
  0.7985579211095606  0.0011393353896316  0.2015021505653996
  0.7988538335726157  0.0008022095632627  0.6004857718537326
  0.8032494153110685  0.8008915118126314  0.3997234817748537
