Zr Ti V  Cr W 
 1.0000000000000000
    15.5633147981762434   -0.0105082892338306    0.0011052113616143
    -0.0105224976463168   15.5390273600018674    0.0056805954645976
     0.0011054290159095    0.0056800010957864   15.5617863503600393
 Zr  Ti  V   Cr  W  
  10   1 106   6   1
Direct
  0.0069880249509887  0.1888073931502446  0.7960472534385952
  0.9993600733699043  0.5991937193606990  0.7997453694207217
  0.1933283639407883  0.0037706943044191  0.8024782848278222
  0.1970274788128454  0.8004139535599232  0.3971882716327637
  0.3975326562795647  0.9980285637440871  0.9975350031647963
  0.3987484257145545  0.7734129936289511  0.0009646526845473
  0.5988785486710251  0.2022371690517407  0.2227134041029930
  0.6071353465650433  0.3974595146826842  0.3982992294634068
  0.6009480429047095  0.8010207368290931  0.6019194784369432
  0.7959806409652819  0.5949862594860900  0.3992304675059566
  0.9999434184931359  0.9944032304393283  0.2017880062293070
  0.9974262993276978  0.0002992757838227  0.9992382338076939
  0.9986081450536415  0.9993822928178243  0.4004982540982404
  0.9982828805643300  0.9988918094368137  0.5969474533729112
  0.9895987736100678  0.9899058254303420  0.7980711259905849
  0.0010810012063139  0.1996158168077262  0.0032213982459715
  0.0019632938173468  0.2017254766221789  0.1995066245313643
  0.0018791154477835  0.1981518067220858  0.3982569065450565
  0.0057235357984009  0.1992030089194466  0.5938899136228875
  0.0011249525514647  0.3993604424370931  0.9992367002990697
  0.0010783935453076  0.4005315440489312  0.1996236369648975
  0.0032971854108973  0.3989283981395265  0.3982537163326479
  0.0013533933593328  0.3983103615898324  0.5990012257317526
  0.9999217614908290  0.3959191450206628  0.7989963448807399
  0.0003687634729852  0.5992519908106154  0.0036558609614512
  0.0012697023641610  0.5999858963221866  0.2000880440631955
  0.0028664944694647  0.5991499761224431  0.3987919220455508
  0.0012229731305322  0.5993214458640485  0.5950723744818261
  0.9990131784239697  0.7984919257115786  0.0000498796017686
  0.9987232489982557  0.7971321974741559  0.1993483408334355
  0.9945929908135196  0.7986931165968661  0.3996821557493071
  0.0004268526078961  0.7986484279363018  0.5993493736019929
  0.9992203394912231  0.8006485056095101  0.7992992650211442
  0.1916656568503176  0.0025331724952398  0.0058751913908848
  0.2017010501926495  0.0019326198056102  0.1987846243551986
  0.1987766803478655  0.0039440100238547  0.3979818346978832
  0.1986442292187789  0.9997602280770368  0.5965436092237101
  0.2006673221639306  0.2019064076683584  0.2002017862059108
  0.2003999470807229  0.2008033987975190  0.3976791078231308
  0.2070869630970458  0.2020374435593645  0.5974215278243246
  0.2091150924480825  0.2078324954734305  0.8010405815967548
  0.1994725928230683  0.4009973542161260  0.9991494553086402
  0.2006580371486920  0.4021148683493130  0.1975741651934363
  0.1994732902319959  0.3999682866711265  0.3983000229540020
  0.1996960682351297  0.4008336061670625  0.5996467820020002
  0.2017074900528051  0.4023270048282247  0.8010180902654241
  0.2007825505983969  0.5996057482697033  0.0001987803850331
  0.2009640939423921  0.6001627682154597  0.1987908672210755
  0.2010968530140804  0.5970732969027712  0.3988227889253966
  0.2021512294813293  0.5990936846785787  0.5998840810887158
  0.1942705965065003  0.8011326064532338  0.9985355488569914
  0.2000660595898187  0.8002560264630960  0.1942544463459097
  0.1979699151769246  0.8007890188411020  0.6032922929666394
  0.2007176876274088  0.7975379460699873  0.8011438667442123
  0.4001112750670386  0.0013170615294284  0.2046017663352014
  0.4007631814437537  0.0008346782793951  0.4015149263733412
  0.3979461628076053  0.0045665745900411  0.5973641695971663
  0.4022685145754174  0.0002539528854721  0.7931137266138250
  0.4004557359445105  0.2044983916636076  0.0001052956131687
  0.3957842680989279  0.2013356875056857  0.2003966540559758
  0.3983425694218883  0.2018748021541538  0.4037355184881501
  0.4020382437370977  0.2012959796639329  0.7965628495221211
  0.3999155600826494  0.4005918447727581  0.9977999998411834
  0.3997250337714372  0.4022928293288380  0.1989806269627747
  0.3979758504595879  0.4018433615048326  0.3994697803677555
  0.4000739290695560  0.3975733418130847  0.5998656625040307
  0.4019359152532616  0.4015740562102916  0.7991507659899655
  0.3995979789275413  0.6012777520955243  0.2002881537359864
  0.3987752712395310  0.6001002065188779  0.4004267589450147
  0.3988910449274654  0.5988890804706783  0.5991977073084565
  0.4016120013641710  0.5999039290969280  0.7985298914210068
  0.3999569755305994  0.8012863761240924  0.2053043437964904
  0.4014256280722364  0.8009584467571755  0.4015736597813134
  0.3994633620656302  0.8006464341654659  0.7957878488289768
  0.6043613952314615  0.0012078875847050  0.0016604096255379
  0.6000773149856392  0.9972851702915865  0.2002915439177120
  0.6003305974232829  0.9987446272563474  0.3996634147079509
  0.6014757664019141  0.0062503715389683  0.5986945020379091
  0.5995674594003665  0.9997059672265027  0.8011324297429169
  0.6000023803244279  0.2004401593510852  0.0038653538232190
  0.5943941426845624  0.2021598552557559  0.6043187687975748
  0.6011347603323811  0.2000959258107360  0.8026161613138432
  0.6021328417879956  0.4002993163475240  0.9989076559986826
  0.6021763303704056  0.3998727119096140  0.6038944630038987
  0.6007065542817878  0.4013235262390061  0.8017763797211460
  0.6000236561960031  0.6001073135860509  0.9997689935265980
  0.5990166791706095  0.6014851468109984  0.1985134066772111
  0.5926674617522572  0.6048406111509147  0.3993265554400557
  0.5974677210915188  0.5966077157362326  0.6010893068986006
  0.5990552473104481  0.6001661064958701  0.8010338172310275
  0.6046168989503719  0.8004119679994687  0.0017495882671059
  0.5998878869542855  0.7999751553696215  0.1991393162904543
  0.6000571447204716  0.8019512219933536  0.3966815415425828
  0.5992659307959185  0.8002699655211680  0.8056617735082620
  0.8010649756620680  0.0006918538135450  0.9998304306654362
  0.7985629150991854  0.9999649648303135  0.1992265839715804
  0.7991620189179816  0.0010080831777117  0.4006555037863049
  0.8001837729741783  0.0001411812376195  0.5993917921079578
  0.7962057147975481  0.9996173389147742  0.7987693137529280
  0.8015812944951890  0.2002979113225931  0.0004209840981113
  0.8026179559590118  0.1977672372415507  0.3987962855343954
  0.7002641681090011  0.1994677897707085  0.5018748208191396
  0.7982717927331939  0.1988729875398950  0.8008706269883404
  0.8017566212693938  0.3991780513910463  0.9983406567091172
  0.8032172437707356  0.4008067051609642  0.1959911725743890
  0.8105464072517071  0.3907861125095583  0.4019671166098016
  0.8014431325046707  0.3987263175933752  0.6011668683804947
  0.8000198135608406  0.3969765994728234  0.7990360768506543
  0.7993094696377013  0.5985540252282896  0.9998152686843964
  0.7993932510759095  0.6007325506542545  0.1954268032183647
  0.8002295500306182  0.5978195649276576  0.6032549352725549
  0.7953609785133522  0.5998797127968329  0.8007726595929220
  0.8017524403778462  0.7997693340400567  0.9997565434036425
  0.7998831889980880  0.7999494969573411  0.1992483699154470
  0.7998481694679431  0.8021204739158807  0.3987747118037276
  0.8038602199674659  0.7992657619478933  0.6004567602155328
  0.7989218880945231  0.7996845365926319  0.8009184154914893
  0.2008188493359950  0.2029057627421720  0.0016026834114737
  0.2048064495483042  0.6001708631829935  0.7995396338096310
  0.4013034053792819  0.5905140961329965  0.0003292803744377
  0.3953083546631622  0.8002998418176773  0.5991787317992530
  0.6005428250297943  0.4047663392005231  0.1936203407014553
  0.8041815606695388  0.1996430552205559  0.1991870292979315
  0.4012529344963925  0.2012636207051499  0.5987027598079708
