Zr2 Ta1 Ti3 V111 Cr3 W5
1.0
  -7.5249999999999995    7.5249999999999995    7.5249999999999995
   7.5249999999999995   -7.5249999999999995    7.5249999999999995
   7.5249999999999995    7.5249999999999995   -7.5249999999999995
Zr Ta Ti V Cr W
2 1 3 111 3 5
direct
   0.9993519072907462    0.7988860388847256    0.9971766960685071 Zr
   0.0088454514834773    0.4046712784053925    0.4040116202234217 Zr
   0.4071262477154456    0.6026494173750248    0.4062753567728162 Ta
   0.5987055080138520    0.4002044175376999    0.9973426879213783 Ti
   0.5995771373384238    0.2002093977852518    0.3927436575988121 Ti
   0.1922926252017822    0.3996114104888551    0.7986976086571219 Ti
   0.8008639888217459    0.0035397337752727    0.9948810975165692 V
   0.5992414968934583    0.0004428589091098    0.9994961450960123 V
   0.8012471356091028    0.2021865134216101    0.0015466395111418 V
   0.7991454077671247    0.0027452964506400    0.1943300213669201 V
   0.4015048556945490    0.9981133266901344    0.0023132163748928 V
   0.5979672304467892    0.2012151117006626    0.9997739326587325 V
   0.7998563072179913    0.3985281514501658    0.0001296029072379 V
   0.6019297161682721    0.9984390272640873    0.2005529779250668 V
   0.8009974234646380    0.2018207387173848    0.2005329970457768 V
   0.7986505307774481    0.9985161465060090    0.3999952577806575 V
   0.3980179096204496    0.1990079957716799    0.0003471579281285 V
   0.7982283418275417    0.6032235810432153    0.0042711655298184 V
   0.5963743887129754    0.1938281630198122    0.1949137272806717 V
   0.8051826115070481    0.4021492193676756    0.1991236955990603 V
   0.5929882830540109    0.9939427648514966    0.3919916017010504 V
   0.7950720204156586    0.1932922203841316    0.3913069046293994 V
   0.8042546320530943    0.0032260283608563    0.5984423802766641 V
   0.9991568979056481    0.9986106577501465    0.9988168383459597 V
   0.1993232608918380    0.2000845989715171    0.0009494371613767 V
   0.4020349737091136    0.3997291459135590    0.0056206306619237 V
   0.5933542368948147    0.6004420552827506    0.9975213449324463 V
   0.7971598560832894    0.7978624505660737    0.0000215071097496 V
   0.1976241395726727    0.0010495651153329    0.2019459977320904 V
   0.3955616520889704    0.1964348831500633    0.2009717753827842 V
   0.5996181271687512    0.3962431494915097    0.1977252774298293 V
   0.8022368160062271    0.6022377672598519    0.2003107205679772 V
   0.3995109452056049    0.9987279110727578    0.3979228246664772 V
   0.8004805803985249    0.2000121516754703    0.6008350604901082 V
   0.8044364550228206    0.0043547289448813    0.7980288494993802 V
   0.0020762076448081    0.2037072423750600    0.0023992710062404 V
   0.2040098274561131    0.4015555794332346    0.0034111108670259 V
   0.4000371999777506    0.5995722084066489    0.9983756892755639 V
   0.0062058721767237    0.9979083547025609    0.2005672341024120 V
   0.2014906539650597    0.1995907661756408    0.1999115165223865 V
   0.3992770747446877    0.3985407105472655    0.1974973865835840 V
   0.5917595733900956    0.5961816348704938    0.1964993929663220 V
   0.7917043587593624    0.7952376197262941    0.1957675115430993 V
   0.2003937278651845    0.9996992884007363    0.4006429103967489 V
   0.4022071040971007    0.1985564614831878    0.3973576577435283 V
   0.7946554593264383    0.5919010935007323    0.3935088625610332 V
   0.3976045843201939    0.9951856430240449    0.5940786403841704 V
   0.5989481760748324    0.2040937342751029    0.5998404141072463 V
   0.8022301265404852    0.3986143774623886    0.5987170438984591 V
   0.5947986021694619    0.9998120714859449    0.7949830967617372 V
   0.7955223898163295    0.1934819273813892    0.8004302753634057 V
   0.0037805358394670    0.4083721889894814    0.0026290096374092 V
   0.2025565170276061    0.6078012622614618    0.0046552840356379 V
   0.3992836624064590    0.8057419631401102    0.9980746947332844 V
   0.0001336269186510    0.1979946001433534    0.2012665955390851 V
   0.2018167142518436    0.4010616059653390    0.2024498045312198 V
   0.6066453823410444    0.8010154237113064    0.2044874388595072 V
   0.9947641580579949    0.9992422324798065    0.4014935121884274 V
   0.1990828783059598    0.2012797921253845    0.3959940819860653 V
   0.4025926184159594    0.3998596978306455    0.4042897756989708 V
   0.5972786507199797    0.5987337866056086    0.3986031183599086 V
   0.8052037055414769    0.7990606398786715    0.4020787778822713 V
   0.1980333808251981    0.9959675641472174    0.5995873877050951 V
   0.3945391787507660    0.1997378931161288    0.5992598312803976 V
   0.6043891835185660    0.4039414497130320    0.5989013364419360 V
   0.7931509042575486    0.5969553751960726    0.5977419775991006 V
   0.3917938242675073    0.9922433577833210    0.7935201193900335 V
   0.6076519302403608    0.2079660019293829    0.8071351699641703 V
   0.7999480454881703    0.4006362384308793    0.8020487398777739 V
   0.9971656772335933    0.5977743487622353    0.9928352615431001 V
   0.2017956335971267    0.7990027634708117    0.9995831023370115 V
   0.9954100130224780    0.3923208910874117    0.1980344159103694 V
   0.1958149308961325    0.5945815604998042    0.1982556759568579 V
   0.3969487567454198    0.8024819939564669    0.1976436676197116 V
   0.9992804079301157    0.1982684213490797    0.4001979087428009 V
   0.1930711533293675    0.3948023962533137    0.3977381002971981 V
   0.6080484026224183    0.8038797871058814    0.4040536815393636 V
   0.9967507995001009    0.0004347322930615    0.6045049672110581 V
   0.1991104417920196    0.1979957327799232    0.6024393543229964 V
   0.3996739380669688    0.3989213195719484    0.6000263070109928 V
   0.6008623234949517    0.6023603348496611    0.6005780833358788 V
   0.7941848378733631    0.7982537259278544    0.5978733942451044 V
   0.2017696869448869    0.0013712386909506    0.8002726995673031 V
   0.3925571665923761    0.1946699662995512    0.7964059267015964 V
   0.5952015851915888    0.4042379919525790    0.7992420265796647 V
   0.8026654991437889    0.6019523996901835    0.8058710192142202 V
   0.9984206468386332    0.5961014892651931    0.2006162659283459 V
   0.2056941849001691    0.8053190615369172    0.2031980332318436 V
   0.1996488275230156    0.5991475465715973    0.3964697370473527 V
   0.4012840610868769    0.8004232810601142    0.4005961521958339 V
   0.9992331670920476    0.1984369169782754    0.6056117904861134 V
   0.1984468716720868    0.3998017608245135    0.6011858725778400 V
   0.4011115755289775    0.5999793006909353    0.6007172729657233 V
   0.6028043978685288    0.7986982074625264    0.6038269378442739 V
   0.0000022510765299    0.9984910646957081    0.7990610990134080 V
   0.3953527319174973    0.3959255463603381    0.7939585844248461 V
   0.5978521219463210    0.5962274566351489    0.7994874149769735 V
   0.7988575573902902    0.7984844311023763    0.7996584372466782 V
   0.0007296358773894    0.8083614012484681    0.2025572305509518 V
   0.0012098725247695    0.6016706749288014    0.4014314456898198 V
   0.1988555012995350    0.7987889151101687    0.4024128482234529 V
   0.0018601068643052    0.4032449433238633    0.6063094326099348 V
   0.1995188873208602    0.5979753695081635    0.5983031519629255 V
   0.3981200865452896    0.8018122864786918    0.5982291192978442 V
   0.0060347594428641    0.2003647771772955    0.8004310832109002 V
   0.4011086129812708    0.5997769256997278    0.7931097692694562 V
   0.6037553109675239    0.8000619813362065    0.8063363057407829 V
   0.0029034956973125    0.7958787367201861    0.4036538086175713 V
   0.9925011116828035    0.5967035744624376    0.5956428389420021 V
   0.2005876830024485    0.7948657724747641    0.5959220298695015 V
   0.0020966361703387    0.4008281747016600    0.8023737018064356 V
   0.2009401536183261    0.5983186986792546    0.8006412975412186 V
   0.4003488368207430    0.7966570886664878    0.8019245173812850 V
   0.9963592219771472    0.8003464959486793    0.6008675408802975 V
   0.0003632265990242    0.5997954966820661    0.8009992753835231 V
   0.1991161806336314    0.7953311056239080    0.7972701384138620 V
   0.0005763967251018    0.8006968873789948    0.8020530867077137 V
   0.5993410838206089    0.9996102170120564    0.6006249472552201 Cr
   0.6051011811999556    0.3982824461812201    0.3993506644456554 Cr
   0.3976051190542833    0.5968629216289172    0.1972254195558333 Cr
   0.1996204850422008    0.9997186813613208    0.9987609846427796 W
   0.4047550861315603    0.0011275025433060    0.2050283687659396 W
   0.7998945199268723    0.3987257228772979    0.4022275386986262 W
   0.6008232435322356    0.8008469601556897    0.0003019920008228 W
   0.2025060917671283    0.2012522575790495    0.7949424277701178 W
