Zr Ti V  Cr W 
 1.0000000000000000
    15.4218125631900325   -0.0059686382723848    0.0062585989012477
    -0.0059677460242910   15.4281327699692579    0.0068346148581175
     0.0062604253005019    0.0068382331099848   15.4329886035241781
 Zr  Ti  V   Cr  W  
   1   3 110   3   7
Direct
  0.3987636134095005  0.8022337897844689  0.5972899089935040
  0.2012234340550960  0.6058664356601996  0.1902326461119419
  0.1979472346490336  0.7901189473088520  0.0073158715356179
  0.6001659266152692  0.5982605672043643  0.5815486134903982
  0.0004618650147807  0.9983790577152504  0.9986429199997464
  0.0005790312995922  0.0032612026091903  0.1997159325644109
  0.0010481755399701  0.9945034993305094  0.3997171607669208
  0.9975372408589748  0.0015565480340150  0.6032161546108812
  0.0026967561592164  0.9977500125309158  0.8015069838048809
  0.0002719282364341  0.1995238077707280  0.0039213760086247
  0.9999612686080602  0.1997089142662624  0.3971392526887724
  0.0023117880291597  0.2000955654416574  0.5985118240513231
  0.9973868187840683  0.1975813555362916  0.8011518326339380
  0.0049885387715020  0.4002833002798326  0.9998184129641633
  0.0015256088273068  0.3972772113728579  0.2010854074770776
  0.0011335606842636  0.4037688395962693  0.3991169404295222
  0.0003810210633447  0.3992862094377872  0.5989158857892691
  0.9994833261076007  0.4010584525320213  0.8004016942543740
  0.0001954169495664  0.6002508320570071  0.9998167141587210
  0.9983154367731319  0.5989234838941765  0.1997271879386321
  0.0013012811872499  0.6038166136854635  0.3987148969093913
  0.0005801012811424  0.5987459936724358  0.6005663433055445
  0.9996366816671239  0.6011391904998182  0.7992264215634792
  0.9987072296640058  0.7990132283345101  0.0014514243640995
  0.9996437864465035  0.7998914228304500  0.5968612063245130
  0.9984513630809104  0.8000513403223500  0.8001892611838922
  0.2008539575485081  0.0014073278908780  0.9998341349012131
  0.2000648611333893  0.0012825158439269  0.1996704769565531
  0.2006675180405042  0.9992278936397940  0.4009239546527685
  0.2001173926144332  0.0054746941335548  0.6007139734852016
  0.2007628249036758  0.9981227273308184  0.8013058493098194
  0.1999827016840020  0.2019659215613571  0.9987029206319424
  0.1951748495559701  0.1998540574231031  0.2019018566357539
  0.1998867281187300  0.2000161062125236  0.4030072552395957
  0.2006033300946820  0.1994744925553781  0.7959178366033316
  0.2004515463842781  0.3975091064447651  0.1955133767725424
  0.2006375820556045  0.4022702327637095  0.3984560175281577
  0.1999656805580786  0.3948743696333242  0.6001410259772765
  0.2005967718119215  0.3994660114308135  0.8023448156154825
  0.2008622690978507  0.5908871533729451  0.9935957101169094
  0.1999670877520333  0.5961119859978704  0.5998194056342017
  0.2010046615693210  0.5990326033125177  0.7972542994182099
  0.1991359392327801  0.8030878534980888  0.2038324415716095
  0.1946132196506347  0.7984352348999766  0.4002197367449515
  0.1954245029543880  0.8005219742238413  0.6008959065193266
  0.1998118006307795  0.7972674055457269  0.7991490607373013
  0.3988047039070220  0.9990583291955215  0.0008464800833149
  0.3999606098801550  0.0005267820306982  0.1990679195262414
  0.3990946780522273  0.9977885373974920  0.3984983118535832
  0.3995996560138441  0.0045356604723323  0.6002251080488777
  0.4007133249541625  0.9973574020996874  0.8022277227582688
  0.4007144423379329  0.1991733361930416  0.0010428604823741
  0.4006576401430292  0.1987321899936157  0.2008425609514361
  0.3993127548789442  0.2008625079485465  0.3976163533549911
  0.4001019005859518  0.2007105675711094  0.5990829498441380
  0.4009449193353076  0.1997572719488520  0.8010796766623312
  0.3962810058905122  0.3992175800194031  0.0006779488223604
  0.3998970550656137  0.3996739820073101  0.2007110689955864
  0.3992535298418096  0.4017480159320164  0.3979927126735125
  0.3989242679917627  0.3990877505005826  0.6000224673877110
  0.4006859046898855  0.4001627642807979  0.8003069858627428
  0.3994686359876709  0.5991893832576058  0.0010854570206026
  0.4017979095462389  0.6004799624636390  0.1997082274433958
  0.3984717490275148  0.5996898067507127  0.3988046734364399
  0.3976464209321634  0.5953774667845498  0.5998423044027168
  0.4051905160036754  0.5998375401581173  0.7992517873162038
  0.4012208695503494  0.7986100084754110  0.0023033709705966
  0.4002408369174377  0.8006868097037350  0.2005272116757247
  0.3979261622180806  0.7977953672814718  0.3945285188754190
  0.3992863867091992  0.7984880713579504  0.8040771678101563
  0.6009965718767112  0.9993941732192696  0.9966406676003391
  0.5992508205182040  0.0004489525944726  0.2006009653111915
  0.5983066302885981  0.9983450420706363  0.4005738015986932
  0.6016750457967095  0.0051528352245887  0.6023918953379821
  0.5976208160572651  0.9973100936142306  0.8006417502027732
  0.6002479809051543  0.2002468493048053  0.9988677662944813
  0.6043245710204304  0.1999644248551031  0.2012538473251919
  0.5997344341725620  0.2000296023280318  0.4035919181265044
  0.6011696528133932  0.1982952226656155  0.7969450937435468
  0.5982947845322140  0.3982035966854925  0.0004126433098484
  0.5998035923769478  0.3988048442413542  0.2000997697852578
  0.5989526885235504  0.4021834373311060  0.4009560973424356
  0.6000056066609935  0.3932305261774280  0.6002384815248585
  0.6001446832129214  0.4033847521359569  0.7996120393385880
  0.5998587379635135  0.5988575616174169  0.0012479881883397
  0.6007671222464548  0.5993751296871113  0.1993551804662459
  0.5997018001395135  0.6003723650802880  0.3951119627766343
  0.6002479012266205  0.7995947064852016  0.0024690998935791
  0.6014791905321339  0.8009653000649108  0.2007398044379729
  0.6009065522528961  0.7991243829683173  0.4009070178209970
  0.6045191091213179  0.8033820820261424  0.6002777487631032
  0.6024377170671441  0.7956647085034422  0.7998720473287201
  0.8001899800539961  0.9992297705262689  0.0018941681644853
  0.7992456893397164  0.0039184009492006  0.1993098331705232
  0.7989565371863685  0.9987045669544026  0.4003476131458991
  0.8005455094025984  0.0017380822321087  0.5968639329990312
  0.8008152080955212  0.7966752890928331  0.8002900007764178
  0.8001869630449903  0.1993712508874836  0.0018562229622545
  0.8001904662778142  0.2009063194679874  0.3970503865771813
  0.7979404528112725  0.1991799460444124  0.5998929394439418
  0.8017187550240671  0.4002970467345091  0.9999242024919170
  0.7994501347758972  0.3962197965458348  0.1998340427522257
  0.8008631867240472  0.4019461619614553  0.4003238385383548
  0.8016275798451670  0.3980643585920509  0.6005329678054317
  0.8013118677820203  0.3984349129118828  0.8009357884343085
  0.8013123147174237  0.5985506286887690  0.0020052239054518
  0.8006283462614536  0.5982357420016297  0.1995291959664042
  0.7994667490099727  0.5999537452164508  0.3997928799530169
  0.8017413866377994  0.5976666229705010  0.5996658761032357
  0.7965507795995199  0.5994268539475364  0.7994354943238252
  0.8012222534724489  0.8010121129769916  0.0002479829306403
  0.7996034725710688  0.8009879002124970  0.2005168348748849
  0.8034353898949513  0.7986839718098416  0.3990369348325082
  0.8009261796296079  0.8024620437809542  0.6030125327118804
  0.9988067369529491  0.8015360189087198  0.2010801798858443
  0.1998291331947842  0.5994226235521745  0.4009155131226886
  0.7998311166270412  0.1988789419501475  0.8010115677295826
  0.9967095923778996  0.1989428860830470  0.2012381162515690
  0.9979879757934453  0.8002197291684281  0.4021766211123087
  0.1999345201670104  0.2005940789512147  0.5996310229503174
  0.2010471401439819  0.3969265733380643  0.9979580412280200
  0.5991134518398786  0.1998410845330709  0.5995132155199887
  0.6006301093519149  0.5986753646584562  0.8080671191213461
  0.8025629365098295  0.2004419536037279  0.2014108205460383
