Zr Ti V  Cr W 
 1.0000000000000000
    15.4243531601052801    0.0069213360103042   -0.0227130969377285
     0.0069117328085832   15.4243730448160701   -0.0099851585265742
    -0.0226677546087976   -0.0099574154515165   15.4321734753061364
 Zr  Ti  V   Cr  W  
   7   3 108   1   5
Direct
  0.2046084860556229  0.0020925319064554  0.2112540619388288
  0.1700173124257769  0.7671055969180217  0.5993417121793697
  0.4178668891706842  0.1977896648438129  0.9964097762759221
  0.3641389104851351  0.6339250393121176  0.5999703630214778
  0.6378707800150393  0.6004241782898193  0.0381159157216087
  0.8053646678405435  0.5970479396137350  0.2075924975658341
  0.7597390093906231  0.7997505584154485  0.5991021703549541
  0.9894526117034844  0.6019044349194385  0.3874273604896312
  0.2017541359476298  0.6013804113974081  0.0036158927030303
  0.5590266755335465  0.7869931954853867  0.5977761768356245
  0.0007536826225596  0.9941336215654352  0.9975761376929649
  0.9971184084835057  0.0000179411024255  0.2005029056233106
  0.0053148164739762  0.9968630683140309  0.4045770191878759
  0.0031896641987772  0.9982603425541401  0.7938629131590882
  0.9995008045327748  0.1987503789058791  0.9998784599745709
  0.0036589210435647  0.1988780966214115  0.1975374892772818
  0.9991797002846411  0.2001704506632447  0.3967156136386231
  0.9986654036591980  0.1942778597713704  0.5993635952424268
  0.0069542519170859  0.1998805591367971  0.8000432483644414
  0.0017103629032273  0.4013860867304658  0.9990208730331480
  0.0009941493037422  0.3990070146141881  0.1977587015021723
  0.0011508081777141  0.3987888285020252  0.3988553527694223
  0.9965244930644848  0.3961835029624152  0.5983083086747594
  0.0034144751583123  0.4009955119697909  0.7992860567474596
  0.0102642878101123  0.6041567605509349  0.9970993827474279
  0.0098769200660101  0.5996975923487344  0.1952838999566146
  0.9917223707072754  0.5998095591570828  0.5998666998732815
  0.0039536219707088  0.5984381591743235  0.7980550861962987
  0.0000193319227293  0.7983630368941995  0.1919284950037429
  0.0012571470115830  0.7985567140560298  0.3985108333216255
  0.9748056022586178  0.8040332810527381  0.5995181982312310
  0.0044453681345451  0.7982355762160602  0.8003141223325049
  0.2017213771114799  0.0008782735009196  0.0013517143237898
  0.1954190096716489  0.0049916722825021  0.6002206642198945
  0.2047663556625813  0.0039616068360293  0.7990042680401250
  0.1975761914329154  0.1995761317133078  0.9959984154294679
  0.2017449582477252  0.2059624520845648  0.1977248120543255
  0.2015165408201603  0.1967710450380389  0.3984976742811213
  0.1973868476406671  0.2003397507454101  0.6033612727056441
  0.2003821418973372  0.3996973961897258  0.9999995185796939
  0.2022806311231713  0.4022151046017229  0.2005645295941628
  0.2008056323237122  0.3975929529142636  0.4000215093743830
  0.1973608789607317  0.3960113793676019  0.5976367819483129
  0.2081596199141882  0.3955538334952707  0.7993534636820535
  0.2033840464220603  0.5981327239996498  0.2072810100368482
  0.2005296149375031  0.6018181345565481  0.4053628073783336
  0.1739567094719541  0.5793437115777097  0.5968157157552718
  0.2037575307167143  0.5994863743896376  0.7915772500724680
  0.1962947886633629  0.8033281619527370  0.9994588763459802
  0.2005364501159203  0.7941570434289417  0.1981039328324038
  0.1995377553045408  0.8044986608798071  0.3939589603729667
  0.2033469525769840  0.8015392337469197  0.8046636880564954
  0.4025036526650278  0.9949069354872921  0.9995835542685595
  0.4074525338730648  0.9979363611269885  0.2004031426473475
  0.3985781314083466  0.0001796311276536  0.4001413648801590
  0.4016392647441410  0.0048021173782740  0.5998082903765521
  0.4031589631318903  0.0003469924260235  0.7984628439182486
  0.4024680379625578  0.2035330448695813  0.2004132585850761
  0.4007328915904439  0.2010454661850921  0.3998367299389610
  0.4013323639031219  0.2027454760884334  0.5968077874245338
  0.3982429042536934  0.2049047734265608  0.7942592126464015
  0.4030742725048654  0.4067893286148310  0.9966249546805673
  0.4006526406088934  0.4035560740322883  0.1982297527136866
  0.3995506119080878  0.4024386508298347  0.4015625668798545
  0.4008959897551114  0.4042529527271214  0.6045289186606808
  0.3992742875722398  0.6043763359339406  0.0014017708981647
  0.4006514615961916  0.6017271352163381  0.2010128651778077
  0.3978396042703802  0.6001856604896803  0.3985783795899919
  0.4047255279025163  0.5963874566142203  0.8071001701046578
  0.4015669562409084  0.7994979304172704  0.9994161520506494
  0.4003774550180298  0.7992816824816230  0.1975432361920058
  0.3993640907370160  0.8000133594538090  0.3989782551513012
  0.3739200977060695  0.8218601291616393  0.6008747379188021
  0.4003956151531202  0.7997229516227025  0.7994094772841129
  0.6046135443788330  0.9967859514714761  0.0005975182523641
  0.6002552073184041  0.9981035475680103  0.4002149107898077
  0.6018135884760711  0.9972620984189038  0.5991668827743305
  0.6014477600458249  0.9995279503014489  0.7999852208348130
  0.5988745378241410  0.2010678593417304  0.2001428782283840
  0.6011406830254401  0.1994047801893189  0.3986870646391728
  0.6020144796254511  0.1971165093521125  0.5997584475406726
  0.6007962481107206  0.1983648816044039  0.7984343568370352
  0.6032296551858718  0.3923992492505808  0.0017430379246301
  0.6006157781407353  0.4022680165681326  0.2011706576898430
  0.5988920854936276  0.3995070693132273  0.4015425914268486
  0.5989885941323787  0.3989519424721972  0.5992103161665728
  0.5968914436696358  0.3989982843098374  0.8019729387403673
  0.5948600400618215  0.5998563424938260  0.2226105187386272
  0.5967796940483139  0.5993071169557173  0.4096052530221587
  0.6037227239862523  0.5972081886734945  0.6041919785298401
  0.6012711430815475  0.5987380574031624  0.8013626174788353
  0.6017679357795267  0.8016045910075601  0.9998146290593091
  0.5997460052073950  0.7969410350757723  0.1997308515124858
  0.5995169323738878  0.8000347967719976  0.3994236782361455
  0.5999096096692453  0.7980491774544903  0.8026173081109896
  0.8022322960840947  0.0013393177506564  0.0000583918990158
  0.8003666581319648  0.9983909080955263  0.2010650821492128
  0.8024098286755877  0.0011287642131779  0.3981932884449076
  0.8049575830350235  0.0018467142956675  0.5989078307562257
  0.8017657986402486  0.9996090418365370  0.7995722908144952
  0.8051581207234360  0.1996954486595496  0.9973438310312621
  0.6729700044556320  0.1997107281652210  0.0682699559386805
  0.8000802036319713  0.1994824083349630  0.3995074599973701
  0.8006739295661163  0.2007784699766804  0.5997304463774864
  0.8009078730242299  0.2011547422184604  0.8008936079239602
  0.8022063444032332  0.4007003448337171  0.9992890878655438
  0.8013100553676383  0.3948154579217018  0.2004120091094036
  0.7986636971167503  0.3990349679007075  0.3999584063605776
  0.7994878170279043  0.3979484393737333  0.6009277128994738
  0.7997649811528618  0.3998262576589540  0.7995415960298590
  0.8232290097303309  0.5983175090392527  0.9949713297734434
  0.7956683458847914  0.6003415298630271  0.4103985313309005
  0.7994065446373092  0.5954627124037232  0.6037116145747912
  0.8021291634260325  0.5978931255013373  0.8008289055141216
  0.8053291738309870  0.7962721405394116  0.9998039639035911
  0.8005664536479623  0.8026212512168253  0.1984222623921104
  0.8000892562344701  0.7976963823605689  0.3942951446220236
  0.8002742329526392  0.7968511380456824  0.8020723252338069
  0.6032488510789383  0.9995826310282087  0.2010611676771187
  0.0010503808953541  0.9954746653150330  0.5993289407468381
  0.0008413643870393  0.8007891780860537  0.9966001853978603
  0.2018322830734936  0.9991486684275940  0.4101902121478412
  0.2044747288515021  0.2008542172793727  0.8009418157138446
  0.4017553936642045  0.4026190879044561  0.7992624319418786
