Zr Ti V  Cr W 
 1.0000000000000000
    14.8102698591842419    0.1395584358812075    0.1742580454927734
     0.1415556362017736   15.1517454719318110    0.0721218881303105
     0.1744420097334217    0.0729305377979663   15.0054523389010033
 Zr  Ti  V   Cr  W  
  12   4 103   4   1
Selective dynamics
Cartesian
  0.7583704551047005  5.8187424035571071  5.7094301565076675   T   T   T
  0.4639928951066001 12.3302601256017148  2.6812112413210207   T   T   T
  2.5378664262430202 -0.3497544780866492 12.1471010919397227   T   T   T
  3.0295199193729601  2.6484071206529958 -1.0438362484170485   T   T   T
  3.4238300877035410  3.1072145531520445  5.5204961510356583   T   T   T
  2.9349347127678769  3.0346205771544388 11.0185135967317418   T   T   T
  6.0326300339691459  0.5546866866877489  5.9332092378250056   T   T   T
  6.7886772006733613  6.8525028907591565  8.9238508460376451   T   T   T
  6.8718664739284039  9.2962172390606312  6.4685533387950640   T   T   T
  9.0310345703549864  0.5574781435875374  3.5731518298934817   T   T   T
  9.1484969250460377  3.0976164167451272 12.2768055481296035   T   T   T
 12.8295102690803162  9.2173115342223149  6.3939640232267756   T   T   T
  2.8073467039327982  9.3721436404823226  2.6834524310293202   T   T   T
  6.4471394104493882  3.2516216919782588 -0.0315391378334451   T   T   T
  6.5271739572260312  3.3709762458896475  3.4805300402675785   T   T   T
  5.7635085970190518  4.8977479132970894 12.1304868089728117   T   T   T
 -0.5119044747744212 -0.7850003248788420 -0.5043224580631086   T   T   T
 -0.2374493624883732  0.8684508819840947  1.7155292041756076   T   T   T
 -0.4367288231880844 -0.3650093409792374  5.2789196826228633   T   T   T
 -0.3836602618545670 -0.4262127629388425  9.3335928680053080   T   T   T
  0.7278927023470008  2.9741749306914511  3.2524855076778545   T   T   T
 -0.3129523452146730  2.2061711098053300  5.9766344870880346   T   T   T
  0.4536119427320404  3.0085678606755555  8.2572575742011960   T   T   T
 -0.2118333905016188  1.9623420492356365 11.7796869135281472   T   T   T
  0.6974676203747205  6.4342854301999646  0.4998250062412435   T   T   T
 -0.5724001702062156  5.7077457172930002  2.4158205027388453   T   T   T
 -0.9337525731792129  5.3678650159785235 10.6145238637583681   T   T   T
  0.2484764816289846  5.2871272622500687 13.2613960806516609   T   T   T
 -0.1239810339014447  9.3748456925580310  0.6036079233750709   T   T   T
  0.1073784689809066  8.3609279159513985  3.0334759671432598   T   T   T
  0.9084891335895713  9.5753805797438964  5.2733420463218970   T   T   T
  0.6148149535672558  7.9454866459654845  8.7102312024769706   T   T   T
 -0.4402493937889643  8.5117367505037880 11.9989524169590016   T   T   T
 -1.0598079853348044 11.4076916301773554 -0.6019965619384688   T   T   T
  0.1982388611400076 11.9867167347262349  6.3958087982275540   T   T   T
 -1.1554012909659417 10.9672608185823801  9.3583014020525699   T   T   T
 -0.3042058215223856 12.2493282697047992 12.1427284278828012   T   T   T
  2.9119258817874178 -0.6595280100165631  0.8887839162100963   T   T   T
  2.8847098035828487 -0.0349738677488259  3.6941174179709817   T   T   T
  2.3892248734879620 -0.2885788301487434  6.5926602776590206   T   T   T
  3.2263486627024007  0.6434928340371859  8.6691204831843809   T   T   T
  3.0644761388848343  2.9735138564682799  1.9576605110806171   T   T   T
  3.3970013409934281  6.7025003057405801 -0.6006082828653379   T   T   T
  3.2880030720638675  5.8002781203090104  2.9608989088073119   T   T   T
  3.7117459832128241  7.0062180251835313  5.6393525393210586   T   T   T
  3.2887965188430024  5.5282191619016805  8.3424260313398602   T   T   T
  2.3658844686839009  6.6110622399126839 11.9225217684779459   T   T   T
  4.1058672240053786  9.3186344834046011  0.2132721603582374   T   T   T
  3.2669045234264429  9.6892058034584920  6.5724776428389022   T   T   T
  4.0508538617796370  9.1933494057246055  8.8522776514120949   T   T   T
  1.9936811314664666  9.3891953440724212 11.9823635713380625   T   T   T
  2.6409979008052544 11.9529118153539482 -0.3508519097616493   T   T   T
  4.1255323988968033 11.6650938038667213  2.9056426535208573   T   T   T
  2.5599694270303455 11.9439076378881932  5.5180520588555408   T   T   T
  2.2059484192764911 12.0848414803334023  9.6079934904874413   T   T   T
  3.3277046471180705 11.3963604860404804 11.8399860135476445   T   T   T
  5.1012734261156041 -0.4186700037255773 -0.3122369120491352   T   T   T
  6.1926663892146774  0.2162913476052699  2.1998679446785419   T   T   T
  5.1813436061491824 -0.5700570108146419  9.4547297872635561   T   T   T
  6.1100595163417060  0.7897449477501234 12.0289177248977559   T   T   T
  6.7309452546560697  4.0296472744462957  7.2099056454817498   T   T   T
  5.4960571628038846  2.2582823509293113  8.4201973776838894   T   T   T
  6.2480541842151949  4.0958638469525024 10.4804384486928956   T   T   T
  6.0186704770858688  6.8668946528503358  0.3112838945879471   T   T   T
  6.7223733840670503  7.2186203091494541  3.6540222293058853   T   T   T
  5.9788670043218675  5.7932345836255337  5.5320362345056555   T   T   T
  6.6904933491024243  9.8246736602561899 -0.6938081715814929   T   T   T
  6.3403178272249061  9.5523202935965141  2.5723678799692147   T   T   T
  7.4674401393090761 10.3582422116577160  9.9171182047173190   T   T   T
  5.6948525343633589  8.6535329662790801 11.7538823920856572   T   T   T
  5.9991754186950983 12.3207617986484923  0.5953867668817885   T   T   T
  6.2848192752791761 13.1596770436975934  3.3160511595291169   T   T   T
  4.8086073214805394 12.2080483606949990  6.5923083802811080   T   T   T
  6.6583521551765488 12.5751175360827396  8.4342354154482102   T   T   T
  5.3813990413377359 12.4515235354567295 11.9225756776391432   T   T   T
  8.8998966729332114  0.3691031294359337 -0.2096413635890167   T   T   T
  9.6286037654161252  0.5715092900462903  7.2328534384598040   T   T   T
  8.9378618166049737  0.2445926817891262  9.8631612227326872   T   T   T
  9.4599523552460347  3.1856145618371725  0.9714947990919135   T   T   T
  9.2883606513786958  4.1374726974233669  3.6069871387778045   T   T   T
  9.2856870470545001  2.6973636872048137  6.0303403432270652   T   T   T
  8.5600953826589610  3.6882052985027807  8.7248509294437646   T   T   T
  8.3248832273504583  6.3570098714684358 -0.9345355141996472   T   T   T
  8.9049108506582719  6.7065789180155670  2.5130351240832196   T   T   T
  9.4730861289535966  6.7153764773889684  6.4837635805911313   T   T   T
 10.1988068397734484  5.7258697026511705  9.8221704364488964   T   T   T
  9.1510415022575238  6.7836357203357114 11.7328181379061114   T   T   T
  9.2186155402100010  9.9679696226751275  0.3469981767033615   T   T   T
  8.3937564967992806  9.3775919889038200  3.9360652595356593   T   T   T
 10.0584638894645355 10.2603489034681967  5.7424520229627642   T   T   T
  9.8920350109502095  9.3366154011562728  8.7336417862705957   T   T   T
  9.1545636917236344  9.1816834861768246 13.0620450905823589   T   T   T
  8.4248714164964351 13.3049661518448747  0.9268429314291042   T   T   T
  9.1850117820413182 11.7164427784045859  2.4705013728847627   T   T   T
  8.2113523792933343 12.6816345854824135  5.4620751500341740   T   T   T
  9.1979781771439733 11.8567172449113816  9.0037397677398161   T   T   T
  8.6031130180088873 12.9009726922417638 12.3621224801252172   T   T   T
 11.6086232560551004  0.2787429224858174  0.8465826918619213   T   T   T
 12.5558967831108177 -0.2702332222093384  3.7415229928766998   T   T   T
 13.4742136882575583 -0.2999403484519618  8.7749769846718308   T   T   T
 11.6423617899622034 -0.4145806389584209 12.1421275762198135   T   T   T
 11.9296415591340654  2.4552179962884582 -0.2236262821677389   T   T   T
 11.9143431580527412  2.8278240155865788  3.6250522473642093   T   T   T
 11.9486301864582831  3.7551130086729403  6.9279876708077728   T   T   T
 11.7695537936401742  2.5305328841242738  9.5126112238994889   T   T   T
 12.7534306579978711  3.9799360714882948 12.7690219268686942   T   T   T
 12.3120168131655916  5.6182746443808460  1.0655074112238574   T   T   T
 12.5404146285494136  5.8867788422798988  5.0470967910830211   T   T   T
 12.6587178233039523  5.8996939990560415  8.1254628571875536   T   T   T
 11.3165997616026210  5.8855877159906003 13.5908736388526705   T   T   T
 11.7447082866723385  9.2995471458070682  0.0127327202493551   T   T   T
 11.9853294034992501  8.8774362465165435  2.7814714503281293   T   T   T
 12.3258187768029011  8.9629176124081695  9.9924297423993753   T   T   T
 11.6241828807197436  8.3801926593173324 12.5106265137568489   T   T   T
 12.0012228468629676 12.2053736524223080  1.0647759821999268   T   T   T
 11.4717984076559638 12.7295983541163249  3.3652520599445563   T   T   T
 12.0877094397941676 12.8637482238551470  6.5237663675421160   T   T   T
 11.4355541434883943 12.5450753535696542 10.2757281838876828   T   T   T
 11.5332910030531028 11.1296280922549951 12.6833577238252655   T   T   T
 -0.4824157403777394 -0.4085806259314906 11.7897442376501989   T   T   T
  2.9877702547305516  3.0890306942734442  8.3268133350709412   T   T   T
  9.2951660344875862 -0.0820200152012569 12.2758828513146394   T   T   T
 11.0692473568668532  6.0472394283400135  3.1938788038722636   T   T   T
 12.1606377947820175  1.0453183974148785  6.4526003373876604   T   T   T
