Zr Ti V  Cr W 
 1.0000000000000000
    15.4411249493602298   -0.0057725826640909    0.0015034816595225
    -0.0057736157285930   15.4404920489432147    0.0129561230258158
     0.0015050534304008    0.0129519398306557   15.4493068869615229
 Zr  Ti  V   Cr  W  
   2   1 100  10  11
Direct
  0.3967048974189445  0.1956249709064636  0.9995306738405230
  0.7966071856732193  0.3984518010436829  0.2009149988275985
  0.7916907687183276  0.3964775252176404  0.6034218473603419
  0.9967758261664278  0.0007939450982708  0.9993709619982489
  0.9978327088775928  0.9993981992476189  0.1999740721855640
  0.0006585212438865  0.9988841685816495  0.4006546761381651
  0.9988048737691503  0.9979943192521067  0.6001627639889664
  0.0004499038732732  0.0001806355694804  0.8008847786660135
  0.9998802591888329  0.2001164919832639  0.9992883546224850
  0.0023684073921397  0.2012449497483974  0.1998875433751326
  0.9943880520576410  0.2010249427925232  0.4017843798304982
  0.9998665428081707  0.2010962995096394  0.6012725859335379
  0.0005455175237032  0.2014280342594124  0.7990107698687248
  0.0035520147134547  0.4016125252074487  0.2002131606039695
  0.0010818200340512  0.4013823654570421  0.4009172787880181
  0.0031650479289500  0.4041767013047686  0.6000704336666752
  0.0011143559320885  0.3989280678335404  0.8002155010827153
  0.9995113255086646  0.6006066918517488  0.2004661836589181
  0.9992037379437592  0.5995070554841807  0.4039026462476463
  0.9963909974788973  0.5991601608046597  0.7959996005802860
  0.0018570468028722  0.8010698670524552  0.0007633361387940
  0.0009464851958439  0.7992435159411430  0.2008353593813367
  0.0001123820266197  0.8000719274613711  0.3993253246723842
  0.0002865890039399  0.7961067316153154  0.5985966567520056
  0.0003057127273176  0.7998671547449343  0.8007827941013654
  0.1995024084203063  0.0018311095490391  0.3992204818791013
  0.1989848689521394  0.9996367115835897  0.6000404850995360
  0.1985305817693358  0.9980995864836071  0.7969026778619618
  0.1983583025665570  0.1343873396191647  0.0012833798797509
  0.1993692335832074  0.1989675569674292  0.2019962196380807
  0.1978382156392938  0.1988278421233522  0.4013006267674222
  0.1987434530061682  0.1992948042135284  0.5996372851494921
  0.2008243572085717  0.4025879961710460  0.9996548706100575
  0.2001308304592354  0.4002047560484874  0.1983631110679148
  0.2040567904960723  0.3982035861810328  0.3987877472551024
  0.2002377569995581  0.3984059691169483  0.6011158608358218
  0.1995399115804692  0.3996241029263605  0.8019510519176070
  0.2007536019648377  0.6011854551256921  0.9988762023266803
  0.1985142570428921  0.6002778680562623  0.1984623790289306
  0.1985898859622314  0.5999698937952608  0.3978370681391568
  0.1979214583027189  0.6001674246528441  0.6011001913437883
  0.1993684106213885  0.5993055438026644  0.8011520342884951
  0.2022574519073464  0.7989725490720015  0.0008193814913122
  0.2002869655462355  0.8002971018445602  0.1984486017141188
  0.2042140747260303  0.8011005180517842  0.3980006666734801
  0.1995528325933099  0.8004193872179007  0.5994783289387693
  0.2003259164056253  0.8006645892122660  0.8016721088593537
  0.4006390187132520  0.0004743798968353  0.1998943579202478
  0.4004516903111207  0.9986082092850316  0.4001180912492459
  0.3997811091201475  0.9980362671931017  0.5983538409963293
  0.3995275937267343  0.1994207852390471  0.2064168743199684
  0.4008570369907684  0.2024566705469419  0.4044679279191584
  0.3981669540739314  0.4013311321903187  0.2045493502491909
  0.3980439512499273  0.4043941701968720  0.5968396704850065
  0.4011288208137604  0.6007821462341628  0.9980628942824280
  0.3999536296040698  0.6001386205458319  0.4030124544225466
  0.3996993826343016  0.5983219932598400  0.7946889634756462
  0.4034154401511966  0.8006012931242877  0.9995924315097457
  0.3992304381662284  0.8000117396912785  0.2040349744670015
  0.3994314985304553  0.7959900454186073  0.5965197585761678
  0.3999416160104506  0.7981997898283256  0.7977224118630022
  0.6013769932087104  0.9942019630075785  0.9988153253736046
  0.6051614198626137  0.9998132701601187  0.2015330682388827
  0.5985707682985522  0.0003269309406628  0.4001410615426542
  0.6007524125588239  0.9984035533530171  0.6005455033459480
  0.6031918969706995  0.9983240977002625  0.7983718116477436
  0.6044740326465632  0.2016106264748669  0.0011208559760516
  0.5989910514364597  0.1997535577327471  0.2007755989448104
  0.6043591355971428  0.1995185413428355  0.4024917271713278
  0.5999691261080564  0.1983205738896497  0.6014086486529181
  0.5971164474682896  0.2003236084741016  0.7994520828034271
  0.5987299914469467  0.4018070708784069  0.0009716024604482
  0.5935907417577991  0.4010760097703029  0.1993289295966242
  0.5938746959826615  0.4005778075398889  0.3997382467513773
  0.5967010346599311  0.3994814485118175  0.6015464368975314
  0.5998490068118195  0.3997417746504006  0.8014954485280787
  0.6000961406520396  0.6031138703858860  0.9997971298082230
  0.6015264303526898  0.6006410705673553  0.1988011077671996
  0.6018041602918713  0.5996631402858079  0.3993715250621484
  0.5964884700163778  0.6003476920433691  0.6006579941064962
  0.6036834303811250  0.5974709755382667  0.8001814146783830
  0.5992734408833376  0.7986906408025171  0.1970460134802662
  0.5962131926883598  0.7992149486738189  0.3981186463446564
  0.5995828356385826  0.8005132873717697  0.6001174807148232
  0.5991158290916111  0.7985849030885670  0.8025220345668294
  0.8006707083224384  0.9976386076658138  0.6027080669794873
  0.8007303371448677  0.0005964551022504  0.8042351746933035
  0.8008786153375923  0.1972744368064709  0.9981566736683777
  0.8012603548021513  0.1919197294574538  0.2064324864370257
  0.7998740276760481  0.1955278741641723  0.5966240813506141
  0.7994301452595360  0.2005158400898179  0.7973139270199788
  0.7997742023564486  0.3992260708478109  0.9981082908722748
  0.7972910352950638  0.3959582556273493  0.4055794513625317
  0.7993559714502426  0.4018050002365605  0.8031327335074830
  0.8010940094863666  0.6017889288125862  0.9958178656273495
  0.8022935662677638  0.6043637115475089  0.1998983410943142
  0.7990324198228943  0.5992169513576365  0.4019402081768284
  0.8034929266455569  0.6022759453065852  0.6041527300272891
  0.7953261833932358  0.8027590662272642  0.9999625413370746
  0.8005133224019744  0.8036348543584504  0.2017473873180058
  0.7972669403222293  0.7997648605771521  0.4001294268563358
  0.7984179597253201  0.8016597135264263  0.5987128493181409
  0.7995733705161213  0.7960818348524800  0.8003665241317691
  0.0003998195675916  0.4013683639537552  0.9995450256623144
  0.9999750528614288  0.6008367039447112  0.9990487889201031
  0.1988839522776895  0.9999486814731315  0.1996646894755876
  0.2016176480121170  0.1989732821864195  0.7995946689935127
  0.4004258142380071  0.9980867439377468  0.7980953100330325
  0.3992496108587449  0.1995030286495059  0.6025610723065266
  0.3997664403929252  0.4040343479237676  0.0017270140397592
  0.3994845950563625  0.3991749727295762  0.7999001102874237
  0.3994795172810830  0.6008537983422169  0.1994103807760589
  0.7996025853604000  0.9996394081504512  0.3994666659940733
  0.0003679159506601  0.5998963341470108  0.5995120933582352
  0.4062534015285151  0.9966326057603477  0.0023617163405214
  0.4034994299598384  0.1988499815708620  0.7993408892432414
  0.3993382719124212  0.4003685140691399  0.4007661395784950
  0.3983566148930729  0.6010709229401031  0.5989169906564797
  0.4000257124634099  0.8014811102183281  0.3993948973675233
  0.5982806228337064  0.7981871124834454  0.0004675357916826
  0.7992707871273368  0.9994441137083903  0.0024247440533509
  0.8003193878341445  0.9991651824289504  0.1930597577482815
  0.7993011320099266  0.2016284136828171  0.4000064758942963
  0.8003943244872216  0.5992401040847518  0.7991561824228475
