Zr Ti V  Cr W 
 1.0000000000000000
    12.2882735461728885    0.0000000000000000   -4.3445607757035454
    -6.1441367710433559   10.6419570608175889   -4.3445607757035454
     0.0000000000000000    0.0000000000000000   13.0336823299999995
 Zr  Ti  V   Cr  W  
  11  17  74  14   8
Direct
  0.9797989542236744  0.9734540562747114  0.9687500680474884
  0.9897981626828103  0.7992154034388741  0.3860756382935214
  0.2027708096568464  0.0073503227586618  0.6039970700669897
  0.1948245913174786  0.1981554678032817  0.9902929753494122
  0.1895655683623957  0.5898623808091161  0.5862085260534596
  0.2019899441287797  0.7970777085975241  0.3943805546055819
  0.4026128102660419  0.2019683717002136  0.2000777137577388
  0.4012389138225526  0.7958284038866150  0.2079815962376794
  0.4135325043182925  0.8046869477786019  0.7964548049939670
  0.6030321733059021  0.4048292886970729  0.0013015661695737
  0.8101626674723562  0.8182951766351607  0.6373353535169949
  0.9928231772077206  0.9970730116620256  0.1997890622947578
  0.0002801406683230  0.2070405279196165  0.7992211800005538
  0.9898084371552869  0.5870228941223945  0.3930728314847702
  0.1947976989230685  0.3916227971400529  0.3919850430056895
  0.1969728541881478  0.4033166817183196  0.8049674105135050
  0.4156360342775225  0.0063168382244291  0.6113529807029707
  0.4079065106131103  0.2017742943766233  0.9924172752624542
  0.3990304894153949  0.5941708331490444  0.3998726196287532
  0.6050933364118305  0.0120263606844204  0.0172233629153377
  0.6081783627740368  0.0102170707383030  0.4029360977799817
  0.6004234234502522  0.0055013549882569  0.7977084026873336
  0.6060239492136705  0.4069066470951541  0.2152295811129115
  0.6029280606041807  0.5999181246020049  0.6051033042390619
  0.6320400557797429  0.7968833797093402  0.8038259354779823
  0.7988947704929715  0.2137845544439236  0.0063839348052974
  0.7959567279130273  0.2047090011301554  0.7950929296238212
  0.7948601042485890  0.3948193019658701  0.3982741632093278
  0.9959585626568868  0.0109806448998463  0.4029498331962718
  0.9943200238988663  0.0085687617160680  0.6032630689254873
  0.9392637528523283  0.9329761944040537  0.7952119744725310
  0.9936949949103014  0.2086476431658049  0.0040093540246915
  0.9925485750410837  0.1932077506996227  0.3918220240844603
  0.9934428195528850  0.1985751080151209  0.5927328561491161
  0.9966869116669673  0.4037530023367626  0.9990582783134908
  0.9834467696197525  0.3784730977412561  0.3814885411947090
  0.9946435362750454  0.3942512785302931  0.5999854579008089
  0.0009790293655299  0.6030132681488396  0.9945684625355520
  0.9863366488634415  0.5855236966810717  0.1821152088624767
  0.9977977184741611  0.5961328532470201  0.6119209486095981
  0.9935756144156839  0.7943021945229694  0.1808859892367255
  0.0090695750929254  0.7913952840298126  0.8097920160841491
  0.2041134364034408  0.9834866086571953  0.9984486384797774
  0.1979733142105692  0.9934922490784284  0.1961966299403766
  0.1966860419101727  0.0075109852616090  0.3876981892746846
  0.2013599594488738  0.9933571385337429  0.8051031676083652
  0.2015978382617241  0.1979479027021961  0.4014424516553979
  0.1968718685471039  0.2053196195932684  0.5984281688232018
  0.2100098391429178  0.2056919933917283  0.7947923165704592
  0.1985482892492411  0.4122264114776645  0.0086486915803512
  0.1906178200350082  0.3965583490656307  0.1921791736071879
  0.1946907073382446  0.5915559370416854  0.9931752554305141
  0.1935384508276835  0.5954376168892922  0.1943898505243300
  0.1876501385000006  0.5824350612918412  0.3753587126903221
  0.1952456071842185  0.5992750294010057  0.8042773024957783
  0.1980548221075935  0.7936293039380534  0.0005803909959485
  0.1932016410366356  0.7988477922873504  0.1936127612648839
  0.2070194286602732  0.8061150749695957  0.6131523351798646
  0.2016039643334474  0.7966956289701390  0.8053880707408166
  0.3965068306300058  0.9943937085150117  0.9996435170970863
  0.4031946519916798  0.9986623974293666  0.2014757590066926
  0.3998108141820454  0.0082092368994388  0.3969213947219574
  0.4018285465014482  0.1983266496639187  0.4023489185709486
  0.4073910141018333  0.2043920416157847  0.7975968040505387
  0.3952689834464120  0.4124404045391227  0.9998963619659202
  0.4003366658944659  0.4152307132153338  0.2066912927588564
  0.4045667914957116  0.3956166232841374  0.4069037635477706
  0.4017283305790691  0.4035147861803205  0.7979829686498756
  0.3986938333338502  0.5911042065142877  0.1960868186966666
  0.4058939613818722  0.5898678954775068  0.6037852412228351
  0.3999542931136180  0.5921311181817492  0.8035804663512994
  0.4097047394474867  0.8013821962171325  0.4086725653208440
  0.3961413101470501  0.7871160773349236  0.5839995300629925
  0.6045626836692523  0.0005443730184886  0.5955663539829472
  0.6026597810960371  0.1902172142444157  0.1955812395617622
  0.6008031706705024  0.2064936753857778  0.4022891012631320
  0.6070766344497435  0.2027554645414267  0.6011230082290134
  0.6074452607318772  0.2159703680463461  0.8089574940460279
  0.6032674492758257  0.3985415233371668  0.6010552461275751
  0.6087292033253558  0.4070198138991417  0.7966332281348072
  0.5968595088609796  0.6061162991449871  0.0010273619687252
  0.5983219127740561  0.6059403606990112  0.1995277163047887
  0.5986955553435769  0.5914218759100683  0.3956886583924831
  0.5938466111677974  0.5877356149889302  0.8012560032127468
  0.6048936114429898  0.7973052500435045  0.0065875654612696
  0.6003257142148882  0.7963539067109209  0.4002104482053185
  0.5952125911620846  0.8146577533400994  0.6063927775823976
  0.7998302024788415  0.0008561030439559  0.3950050040607057
  0.7946509853472780  0.0094406449241608  0.5968479116182720
  0.8037341737738403  0.0116689195084025  0.8057819248570760
  0.8035347269029640  0.2022915888768061  0.2084375817112394
  0.7938550348775932  0.1932840109974879  0.3964458605735058
  0.8090158268960866  0.2104389121747254  0.6035860182314027
  0.8000305928019209  0.3932047652485800  0.1924038133479762
  0.8022206188632368  0.3974369848244075  0.6059442684696786
  0.8054392414214413  0.4077593833015742  0.8024352655111847
  0.7997559221506547  0.5983147080670922  0.9971580255392873
  0.7961485915595677  0.5980482391068755  0.1977910085417198
  0.7976330166996418  0.6050450278275693  0.4044353350611587
  0.8069783307760282  0.6090488884385775  0.8065639219703570
  0.7956924037937417  0.7897895915941517  0.9987953454140035
  0.7925500934869131  0.8021740974685814  0.1952644375221776
  0.9940934895442869  0.1962537191474878  0.1938772819221770
  0.9986892424916511  0.4005769556150886  0.1999871183029440
  0.9963091859378583  0.4060792703103226  0.8009101532339807
  0.0023172003046992  0.5953966782794030  0.8035859433592567
  0.0004130665307293  0.7925849708320079  0.0015534496307637
  0.4069835335700183  0.0148185023640848  0.8122204302563414
  0.4025451186802795  0.4007146159428041  0.5996203006314808
  0.4031439191540981  0.6012024229130180  0.0012742970058504
  0.6039553433372041  0.9995920341324479  0.2041625641484411
  0.6010099157379271  0.2018486924823147  0.0048248732153691
  0.6014351798866944  0.4025820128829473  0.4118187596326871
  0.6052218479604567  0.7998373010952964  0.1984642616434353
  0.7949932392430566  0.9982099922337631  0.2025340695713442
  0.8079989551943773  0.4077400805220608  0.9951232397091981
  0.0042707779108666  0.7964813032021063  0.6072741557284519
  0.1898873984826768  0.1975643981823501  0.2031922377885879
  0.1981781962890505  0.3923011150704360  0.5988308416327353
  0.4059391631986879  0.2083972197570015  0.6001481868274294
  0.4034922881939502  0.7968101396378702  0.0018970550397463
  0.8024374674705320  0.0062579576486350  0.0125775335762555
  0.8016434650290989  0.5897034117277389  0.6003874675424138
  0.7920561901468669  0.8029064428341502  0.4013703503848488
