Zr2 Ta1 Ti3 V111 Cr3 W5
1.0
  -7.5249999999999995    7.5249999999999995    7.5249999999999995
   7.5249999999999995   -7.5249999999999995    7.5249999999999995
   7.5249999999999995    7.5249999999999995   -7.5249999999999995
Zr Ta Ti V Cr W
2 1 3 111 3 5
direct
   0.5984184706324031    0.1981847384386083    0.5960373487083330 Zr
   0.9922782507115167    0.9945293509539710    0.3945717953268781 Zr
   0.2004087853311774    0.6011756953925440    0.1979759724563078 Ta
   0.4027603275551199    0.1998849329276513    0.9959298297197475 Ti
   0.9971563127024250    0.5914351036945371    0.1976020307738379 Ti
   0.9950827164472531    0.4003803517576784    0.5950628884596018 Ti
   0.8048873234056355    0.0053164302307670    0.0070077010949018 V
   0.5955425120720284    0.9947275932880185    0.0018251591832940 V
   0.8001286960585134    0.2043302137393796    0.9991046468596270 V
   0.7987605789702115    0.0032727999732513    0.2016304603480091 V
   0.4084845306583381    0.0043056573152507    0.0033037076928153 V
   0.6053306176747215    0.2009810875170550    0.0007728728815887 V
   0.7999021359647825    0.3999220975789855    0.0009010913860969 V
   0.6012809536192554    0.9997357840083022    0.1992964252783361 V
   0.7998955479208574    0.1981980010087971    0.1975727988372839 V
   0.8015517490192491    0.0039159609544442    0.4023136898707320 V
   0.1995665463968103    0.0004037899060945    0.9993250703067845 V
   0.8002802700401369    0.6025897566012131    0.9964016662036831 V
   0.4002462601790345    0.9990058083670880    0.1993211234776174 V
   0.6041018608127129    0.2028976589537299    0.2066037318987151 V
   0.7982239007379580    0.3979858592485646    0.2014701846899069 V
   0.6013261653061945    0.9955149626678456    0.4047751798222676 V
   0.7981165412053289    0.1989387320402589    0.3954544001114606 V
   0.8018230409386760    0.0078860115168978    0.6043363055846918 V
   0.9993446384668694    0.9987935266959176    0.0057327668136574 V
   0.1933993565569233    0.1963023231428649    0.9976436458936826 V
   0.4023891337606800    0.4002177449466069    0.0015692558143100 V
   0.6050945419860736    0.6085162504437228    0.0071794956167314 V
   0.8009495643067088    0.8004611340381843    0.0017505612644197 V
   0.1989191340437555    0.9927917301278587    0.1973459296349682 V
   0.6011499620142713    0.4027408746086942    0.2031167827239311 V
   0.8003051442304747    0.5999592408528550    0.2039651341456547 V
   0.3995526472762083    0.0029988856210537    0.4000979569569917 V
   0.5965635244379381    0.1982690301034209    0.3981434138014752 V
   0.7995902495292482    0.4045844960423189    0.4022723041267383 V
   0.6026276123783155    0.9980374472568632    0.6022282788362679 V
   0.8003879627766964    0.1992255648764721    0.5995558252502654 V
   0.7954480664402215    0.9994949873779272    0.7924412148486674 V
   0.9945134343250313    0.1944610770157559    0.9955547133139995 V
   0.2020583688250079    0.4042385407826737    0.0066557562060278 V
   0.4017114964410344    0.6036263791555361    0.9999300794253145 V
   0.5968767977448886    0.7995301350225945    0.0013226515380817 V
   0.9943270423966792    0.9951447958487624    0.1919760889802719 V
   0.2062098716591529    0.2081741913724089    0.2021240978988622 V
   0.4023979971399486    0.4058287164082389    0.2072453151753436 V
   0.6005675604734626    0.6055504062661994    0.2010923514741148 V
   0.8024032411984262    0.8011737091168878    0.2015028190014753 V
   0.2010195929088375    0.0004741412949128    0.4007789843006050 V
   0.4021682631644691    0.2017296204839936    0.4021970831596678 V
   0.5956364844389594    0.4015812108556311    0.4026374574782838 V
   0.8010003237975343    0.5955638226083424    0.4021846496046552 V
   0.3995682479685612    0.9996131736132978    0.5977586371963718 V
   0.7954477461080947    0.4014809086043239    0.6010553445022956 V
   0.5944878029283933    0.9979337466601070    0.8003459624589055 V
   0.9988846401781274    0.4013033442247768    0.9984366983997048 V
   0.1913416748685403    0.5975955746128288    0.9974771245138767 V
   0.4017126726872471    0.7932679305488071    0.9964841275835218 V
   0.0003761125373387    0.2017796097711315    0.1967769635462968 V
   0.1976637900998220    0.4036080535011054    0.2006997859896471 V
   0.3983543306701310    0.5944560237217092    0.1971890672181333 V
   0.1986832662283526    0.1983161616592584    0.3974515555751251 V
   0.4039176769288803    0.4010722870938219    0.4032313353263468 V
   0.5996616196893142    0.6010934865857185    0.3999740548190166 V
   0.8032265917768786    0.8021253581456871    0.4048418202867380 V
   0.2005350856940658    0.0020077329430745    0.5977823292775521 V
   0.4006474428650409    0.1993090743573260    0.5997846934525429 V
   0.5984240024773176    0.3940438077958697    0.6014881496274513 V
   0.8035538479170399    0.6005009474668588    0.6001699623981034 V
   0.4005895071368916    0.0042857964533279    0.8027971542774124 V
   0.6021955960293340    0.2023527953602231    0.8024404634049966 V
   0.8040542840474521    0.4043304000644903    0.8022879374525526 V
   0.0021697711118475    0.5971188316740088    0.0021575623761125 V
   0.1990453059827954    0.7980262765144137    0.9942419604614090 V
   0.9962278182532646    0.4000323878942693    0.2010523970091351 V
   0.3958979601952848    0.7995844813650426    0.1945882669892687 V
   0.9977335105011447    0.2038895096039237    0.4037079712347222 V
   0.2004718648817542    0.4003114639761710    0.3989059376987474 V
   0.3994518586641291    0.6000973341520260    0.4033898218349036 V
   0.5972387921852560    0.8022009172115983    0.4026469931208564 V
   0.0018739821441639    0.9934972308257004    0.5983441966914316 V
   0.3951837030550117    0.3997559930547614    0.5992904423350456 V
   0.5963884507139818    0.5987823271633501    0.6036867333106460 V
   0.8004664000717711    0.8014564175389167    0.6007559763417841 V
   0.2034300066579049    0.0006446835638191    0.7989203636262499 V
   0.3953633670087184    0.1972748385633993    0.7977747057259454 V
   0.5960427571877859    0.3956723477527604    0.7956112470483556 V
   0.7983466185982939    0.5979437084643733    0.8017527471269634 V
   0.0022673928399075    0.8022743466657296    0.0039652302293987 V
   0.0050093123596589    0.4010587700517538    0.4010396685999171 V
   0.2091897322970449    0.6040516891304156    0.4029630341989017 V
   0.4027345455248587    0.8037631255041000    0.4027233794279642 V
   0.1959997838720391    0.3994874841596285    0.6035907996960748 V
   0.3994825213401891    0.6000898334737488    0.6010629712248973 V
   0.5997009422431996    0.7952694412801018    0.6011306170000073 V
   0.0034735150768855    0.0022390133697183    0.8044346930483915 V
   0.2005674800635679    0.2022672992926944    0.7978482406223810 V
   0.4040621125589577    0.4051056174793295    0.8042770796460808 V
   0.6005310131626249    0.5999930331256738    0.8018839410107568 V
   0.7999623059341507    0.7998686374305763    0.8009409440731337 V
   0.9999165102825802    0.7987121654668102    0.1996247907827135 V
   0.0010684548499643    0.5995268764850327    0.4005986710919712 V
   0.2004334527470299    0.8003474418823062    0.3993510560829616 V
   0.1946331085090911    0.5947734837015438    0.5939750502883999 V
   0.3939294776159476    0.7927836433667537    0.5941736250269288 V
   0.9978118674375209    0.1970412494737392    0.8006311747773737 V
   0.1968789233019704    0.4031102571751070    0.8000487711676162 V
   0.3996702015146253    0.6016491554675280    0.8017078560763100 V
   0.5991649015482314    0.8003804877808143    0.7977793834222930 V
   0.9979085369938095    0.7988726305224542    0.3998432658189368 V
   0.9956678825764057    0.5939680139632388    0.5939826653350612 V
   0.2035825500361131    0.8011951158181578    0.5983281699371676 V
   0.9984896086962400    0.4048057183916828    0.8019648514336263 V
   0.2018238455556545    0.6016252930057714    0.7982688919977953 V
   0.9978112647392834    0.7949725180427725    0.5957332455524278 V
   0.9994552101152155    0.5984701650497554    0.7986892423224651 V
   0.2008558815749612    0.7995563227163059    0.8002108498864104 V
   0.0022182481190442    0.7997277494463406    0.8009847290785945 V
   0.4033127558407044    0.2026087703174555    0.1975569091626311 Cr
   0.1996347959233574    0.2029459860806990    0.6040129263924784 Cr
   0.3943538792017843    0.7954246679708290    0.8007628354001569 Cr
   0.6065404811458053    0.3995236505110198    0.0011690456915656 W
   0.8029614119266882    0.2069058893320213    0.8008741642941460 W
   0.6038423561965861    0.8015912564747515    0.1991436759698684 W
   0.1977826329589105    0.7998097803381023    0.1971320543716494 W
   0.0040981532547412    0.2051242874198399    0.6045779983777139 W
