Zr Ti V  Cr
 1.0000000000000000
    15.3990340272275770   -0.0170018773457157   -0.0022529018582575
    -0.0170107766548915   15.3787801482628375    0.0165544931564424
    -0.0022517709109467    0.0165430754876648   15.4057927644380346
 Zr  Ti  V   Cr 
   3  13 107   1
Direct
  0.1911267843602798  0.2007559979220324  0.3733577343107131
  0.2033472579585104  0.6190905401003685  0.3830413767215914
  0.3829447260681742  0.7948200582869638  0.3899653467561180
  0.0019119960338221  0.0061869167296764  0.9965749757774389
  0.0002836886839033  0.1949744190313349  0.8095174958983675
  0.2031820250862330  0.1995408779561128  0.1758033525152520
  0.2026902936875041  0.5911021088421897  0.1832496267358955
  0.2091070645533659  0.8012782992950682  0.2126302254338355
  0.3921491509613325  0.2043730912318875  0.6034485379301513
  0.6098291241184949  0.0142589101948225  0.5923049040343819
  0.6050083669950215  0.1913037406084578  0.4123733447890072
  0.5898429334146559  0.2026056022710781  0.8125591680623416
  0.7951307035458979  0.1964372666133821  0.1962469350519359
  0.7841252774880092  0.1956446808278978  0.5934939697889964
  0.7974665124898020  0.1990267109319689  0.8025972620102431
  0.8002161319925148  0.8026732829021888  0.1982866760401201
  0.0040421950230978  0.9988567039194586  0.2061795243411514
  0.0018029123365739  0.0010872069267464  0.6013155965855315
  0.0019093278206028  0.9974315905287580  0.7980799954222031
  0.0006578452612436  0.2030745017796985  0.0073555907420995
  0.0015839299495593  0.1980544069821637  0.2026665547353199
  0.9918375777950874  0.2038774185046991  0.4015860177470437
  0.9982241015812151  0.1988148488956173  0.5974214767620157
  0.0004794511703063  0.3999253935508816  0.0021245739968735
  0.0000044524007180  0.3984791626123809  0.2018509947576158
  0.0007000541798959  0.4001749537379837  0.4013836620426985
  0.9989329863320846  0.3988798406036350  0.6020165372188147
  0.0008861335853667  0.4003507445808996  0.8011616693073281
  0.0011893313032103  0.5998275700745865  0.0013564956832315
  0.0003030864924531  0.5989626299251491  0.1995738455824649
  0.9956111696563089  0.5979631414355954  0.3992538834153189
  0.0011257895731772  0.5999508213645874  0.5987149835321224
  0.0000793677618120  0.5995160589822804  0.8013792461222184
  0.0024229796647542  0.7990824983319821  0.0027194678119167
  0.0023887316381291  0.8008584436764781  0.2012417391458683
  0.9946825199188918  0.8298693600970470  0.3998243703777846
  0.9997528453735329  0.8013698120423218  0.5998931237072020
  0.0002826489118744  0.7987195596035965  0.8007207449492083
  0.2032694897434903  0.0001255929574593  0.9999611492854151
  0.2018667780244083  0.0035865707482736  0.2014095644429224
  0.2016837936493127  0.0015925878206886  0.4020613298878369
  0.2010898767195916  0.0036320710393666  0.6002512103063087
  0.2025500067113854  0.0006717681382821  0.7990538268042996
  0.1992041836759782  0.1998309568399208  0.9883104346767021
  0.1956463685619962  0.2010610541982272  0.5964428525360671
  0.2013335554719694  0.1996343128004533  0.7960861496668691
  0.2000620792287388  0.3983380416341319  0.9993745256028352
  0.2011775041936281  0.3959596379823891  0.2008716788484066
  0.2000560179704354  0.4060724605700457  0.4016248329814512
  0.1996502311232640  0.4012603497485558  0.5991544163606495
  0.2001686637547417  0.3995649539351654  0.8000889937409509
  0.2006826027933745  0.5995975934618633  0.9933494547971369
  0.2003180980056319  0.6016007589145519  0.5997301153978969
  0.2010651928676436  0.5997684831016195  0.7981428973199421
  0.2009770869427752  0.8002629408020553  0.9995435305338278
  0.1805125962292107  0.8192684134293994  0.4087388642498831
  0.1996352958768929  0.8017199825972410  0.6029977361696671
  0.2004043695658737  0.8022816748865312  0.8013897391986378
  0.4017104204361879  0.9997939142798075  0.0022867465032203
  0.4019334778276906  0.9977942005943994  0.2014188651440576
  0.3992937821894940  0.0043075153932582  0.4010771302032191
  0.4025190593373100  0.0003327698651350  0.7986796013323000
  0.3993033283386666  0.1985966638706869  0.0023056105331957
  0.4012013398455186  0.1984200309280953  0.2018220427350586
  0.3991979487291046  0.1994615066262168  0.4005876629107251
  0.3959550131603674  0.1994344347939767  0.8058621795299573
  0.4005152648663954  0.3986792721680255  0.0022080478551509
  0.4014665366816904  0.3976091607759189  0.2020393046359470
  0.4002105446409239  0.3950644068418795  0.4017928901525905
  0.3996116983280222  0.4015572616140343  0.6015135569882004
  0.4006550399056890  0.3993325014433000  0.8007746067279341
  0.4005705478629239  0.5990351382698608  0.0008580508809621
  0.4037490678328732  0.5970041747962191  0.1998998812945657
  0.4087753738521737  0.5903854420828842  0.4002493125613113
  0.4006799457876151  0.5988408300319230  0.5995632021549888
  0.4012328737595660  0.5999480207115521  0.8013349232426082
  0.3998382972396253  0.7998112764313338  0.9975117195193028
  0.4054985226070790  0.7996882177146187  0.1910398711205913
  0.4002107042235412  0.8006551282622647  0.6018373013760701
  0.4008042224096234  0.8000684017061027  0.7996789075070646
  0.6018091878597217  0.0003927390512664  0.0006373050958281
  0.6030060485604202  0.9997414167838906  0.2032253500613804
  0.5947184682143350  0.9947364503758590  0.3985500006276619
  0.6009602694474150  0.0005595729894165  0.8013942790003979
  0.5999675062023994  0.1997266219669206  0.0075472252556501
  0.5976182835618628  0.1982007617257253  0.2019352328397088
  0.5916439958491658  0.2060976863592509  0.6089972455413705
  0.6014845447714370  0.3994298833145444  0.0015365902501393
  0.6005516955932513  0.3974422937207706  0.2029478123905041
  0.6012415502014612  0.3989253002998770  0.4023280818134535
  0.5997660663809594  0.4021347888185202  0.6025157735887557
  0.6005955288618748  0.4022280485616822  0.8022985697021419
  0.6012978997199541  0.5996900065521302  0.0013347099100851
  0.6024571004424584  0.5994287028710014  0.2002461906023028
  0.6022705993628742  0.5986802790214573  0.4001623950003627
  0.6004495657135841  0.6023527191256154  0.6007142126040553
  0.6007792415088042  0.6006053331440503  0.8009882308927317
  0.6014606231273067  0.8003814447740537  0.0007146377478393
  0.5991716028611332  0.7987900242459601  0.1997399170328474
  0.5991501373489895  0.8002626251796373  0.3996937362739132
  0.5988591459199739  0.8014823176140928  0.5995610668203424
  0.6002086658977628  0.8021055148003647  0.8004341237149410
  0.8003670942409251  0.0000474188218158  0.0007771042700380
  0.8028695889931751  0.9997164169364732  0.2004772366613996
  0.8291687474694407  0.9969203704490568  0.3978030687242189
  0.8063218115307509  0.9968917455265074  0.5984672824726908
  0.8008525054615859  0.9981653793659081  0.7985198456962094
  0.8008626072892887  0.1995562963482180  0.9983619363609886
  0.8009289186335059  0.1973225649811572  0.3964148336103293
  0.8011592437663974  0.3984301840028945  0.0005392247227025
  0.8010560278641098  0.3988891325730646  0.2005541985187811
  0.7996765511159216  0.3981329173886975  0.4002328591484170
  0.7996743008561014  0.4007358342936809  0.6000813426954709
  0.8004965957522505  0.3998394885865530  0.7990544543876456
  0.8015373433049967  0.5988226011289616  0.9997447020014323
  0.8005948087737632  0.5968181180018254  0.1990919245258731
  0.7992403374513537  0.6001500981809480  0.3991569712241713
  0.8000703413957782  0.5992427587853287  0.6001226084453719
  0.8005465738689646  0.6001498545719784  0.8004015274919225
  0.8017215123983846  0.8000364758425655  0.9970980669625852
  0.7972942097612018  0.8007554313532704  0.4021217861961187
  0.7991342376689771  0.7994377283252572  0.6008218888650091
  0.8005953428682272  0.8002004023878853  0.7999413290726756
  0.3987846325673915  0.9981386299620182  0.5992293515980381
