Zr Ti V  Cr W 
 1.0000000000000000
    15.3769426143585743    0.0059849116118670   -0.0009680918711961
     0.0059831347537478   15.3868610689488641    0.0011536777848190
    -0.0009689375146539    0.0011543409515173   15.3947478707724041
 Zr  Ti  V   Cr  W  
   2   9 104   3   6
Direct
  0.1968505257964831  0.4078184722888406  0.3863074629033253
  0.6113358367964346  0.2338015001606156  0.2008550173533351
  0.0039841203069899  0.9979343397999390  0.2094866615932956
  0.0017127858850867  0.7871901395728852  0.2017929900868038
  0.1971519454001400  0.5913775937632774  0.2119979913579086
  0.4057678494837696  0.5957099011337927  0.2038935962312544
  0.4065837492916252  0.7931420486623695  0.5934815399297924
  0.5990094298715838  0.4313421586271175  0.2002827435483742
  0.5966157381920328  0.7981647362641774  0.4032391895072850
  0.7961844517520549  0.0056049432058467  0.4072126929235843
  0.8014271740458961  0.1933211464359329  0.5913409436569738
  0.0003777847516886  0.9981628461216134  0.9962496926586666
  0.0006141589784695  0.9985794551181048  0.4032471528745452
  0.0035088037751025  0.9991269196473488  0.6032405724116511
  0.9956522335908657  0.1986982985170667  0.0006704791304111
  0.0007926264346448  0.2021242988048526  0.1992099876407152
  0.9964934292459928  0.2013991381630843  0.3972267704927072
  0.9979042538804304  0.1993582858631558  0.5944501678527778
  0.9999513024218246  0.9931787640081541  0.8003407971228425
  0.0007892011849386  0.3984873201288363  0.9969858332913960
  0.0049594429350859  0.4018160674195120  0.2003242702534478
  0.9931364357868159  0.4008912972017314  0.4006974503292315
  0.9997515358600780  0.3978258665028763  0.6001282204966683
  0.0006261428689617  0.4057717616343730  0.7988852458531710
  0.9976137898590166  0.5951446323671506  0.2004228444329131
  0.9996989449201523  0.5993229559872132  0.4023696446830384
  0.9994878857276929  0.5998863973564651  0.6017172470160798
  0.0000850679593643  0.7984793493686770  0.0006941874415707
  0.9986622331562256  0.7976336334323592  0.4010560041569416
  0.9995552444524277  0.7985533930547918  0.5985840199486536
  0.9988892115347057  0.7935539845210106  0.8008844872994793
  0.2020899508842033  0.9983224564037663  0.1996825579011188
  0.1994502910031875  0.9995113730521421  0.4030585774441695
  0.1989258383057154  0.9992081351705914  0.7959084131669315
  0.1947036137516824  0.1961681200906727  0.9972888994650650
  0.1994186745693366  0.1964165501625142  0.1971205679218026
  0.1981973032881683  0.1979286792437088  0.3962999573932832
  0.1967939850297052  0.1955194059790262  0.5980244951415422
  0.2002142844697909  0.1978691133200615  0.7990927271494705
  0.2002606118869893  0.3973548477248315  0.9973547207855080
  0.2039967639737175  0.3938438133260507  0.1882784095586714
  0.1979931754675683  0.3975203516931421  0.5974949738017236
  0.2023177493946588  0.3964546451548593  0.7976718978583677
  0.2004284301616519  0.5986265786894307  0.0002914759522634
  0.1997621008265706  0.6086086658900750  0.4056471564731141
  0.2043575546220643  0.6008395571077521  0.6003254715633518
  0.1958868479174447  0.6004033412990470  0.8008305512353358
  0.2002178731006972  0.7980069391418375  0.0025931513465861
  0.2015825972088190  0.8010176469437711  0.2003062681495573
  0.1989179508921694  0.8024595011397219  0.3983159146546232
  0.1985047236968790  0.8046493050988488  0.5983748734424155
  0.2013045401880796  0.7991427521728343  0.8008993952841441
  0.3991907075111946  0.9986428683183789  0.9995253657508609
  0.4002670625610858  0.0000240442196151  0.2001101666474639
  0.3985234206289990  0.9992287154478912  0.3993823732819121
  0.3958766775989720  0.9998448082354477  0.5987255234828570
  0.3994788633947679  0.9983023419031357  0.7992565612545164
  0.4005894956535267  0.1965775652578345  0.0003466352820880
  0.4008872662329009  0.1977584244757537  0.1988125968439567
  0.3978753702855379  0.2014682249500001  0.3982294404823505
  0.3994502601222891  0.1989373536140125  0.5979657741308991
  0.3993589789764210  0.2037437200053984  0.7993425688393764
  0.3990820402803747  0.3978179599991146  0.9963379303907366
  0.4051478420374778  0.3957071282801381  0.1976785648295486
  0.4025937100066220  0.3985758363534053  0.3987254669089275
  0.3993423442369952  0.5979917557946337  0.9997834281434340
  0.3991101007349394  0.5977717138012937  0.4074279812780224
  0.3993559054195047  0.5945380568760192  0.7970252019349099
  0.4003960408999417  0.7970214357562185  0.0014495753247975
  0.3999343790992877  0.7992592183816892  0.1992264436043504
  0.3973198642951864  0.7979035984288997  0.3934104014931187
  0.4004977240859032  0.7970680626530356  0.8035910018006873
  0.5982118112587612  0.9985981063507422  0.9990875931832796
  0.5982468947485745  0.9993172561103690  0.2020317987690071
  0.5952688471546826  0.0023627399012024  0.4011669252419499
  0.5965147096042858  0.9980939457328258  0.6013707272896205
  0.5976826778509909  0.9978467528201150  0.7984295346950142
  0.6024015623477619  0.1973862806453096  0.9952621685902503
  0.5978607725841240  0.1996708242569349  0.4040941508755911
  0.5977350885483802  0.1985596735603500  0.5993070036905963
  0.6008684603967304  0.1993949120651921  0.7975004867223753
  0.5996149260473256  0.3989163962611834  0.0008552218385883
  0.5995998950625923  0.3987181699562476  0.4004033117755091
  0.6010753675451060  0.3985624846909027  0.5998923803414971
  0.5955110517284927  0.4012717654299424  0.7989140298495130
  0.6007392355423149  0.5995378914960051  0.0008154839340493
  0.6040273357842438  0.6149256185825598  0.2020629878751601
  0.5998262807019336  0.5970092819537328  0.4000404969954502
  0.5966416061582175  0.6007354201598998  0.5995668410831994
  0.6018410044155453  0.5990755769787633  0.8006485373802921
  0.6001506533387385  0.7983040245651927  0.0009206724632142
  0.6010727793186995  0.8049207008112297  0.1989776203223234
  0.6040357079357144  0.7999714333587253  0.6023051349959171
  0.6010701022570927  0.7984480331927779  0.8018646866765757
  0.7996727883159859  0.0031466116875878  0.0013395774482088
  0.7969228720329172  0.0056964785335880  0.2004751859775079
  0.7993321830096392  0.9967792443652491  0.6031448830906685
  0.8013639603931776  0.0010097271600522  0.8000895847232203
  0.7954243103063010  0.2042854172478595  0.3872588690717813
  0.7972188351147829  0.1992985360651488  0.8054511106967058
  0.8007886698096499  0.3966312561920417  0.9993210214806291
  0.8022487719682879  0.4011953048278696  0.1998081288721305
  0.7979264853504288  0.4026826857878645  0.3991243990397846
  0.7980836359127964  0.3996754823496493  0.5980501728434245
  0.7999676825087237  0.3965699789184050  0.7988620904846716
  0.7993368162399711  0.5981202738373925  0.0012454229495351
  0.8009515833913098  0.5999866904957636  0.2003277387845775
  0.7985982731802070  0.6014554704976386  0.3993694129427602
  0.7976466945970849  0.5991777166758862  0.5979616887790434
  0.8018347379964856  0.5993882126340118  0.8007135482278760
  0.7999910694973758  0.8022098192740980  0.0028320557268503
  0.8005399288643074  0.8029313659894410  0.2009233173779368
  0.8008277637551423  0.7999137752354807  0.3991431133908202
  0.8004445613188497  0.8001709667935671  0.5992687275290207
  0.7995900994741361  0.7993481711462129  0.8019201089923086
  0.9994855710072029  0.5978979301628765  0.9997702047085889
  0.2003804526945549  0.9976043963982572  0.9981334640846998
  0.3986970964227633  0.3986473589977163  0.5989915994096163
  0.9996715349024714  0.5981427065501562  0.7967672329084291
  0.2002409188490510  0.9990624782900576  0.5995973363078528
  0.4001836806049756  0.3990733766132775  0.8024051754776064
  0.4007147528079689  0.5991373639823200  0.6024190106181414
  0.7966804564306670  0.1996715208555995  0.0036149922947557
  0.8093291651123870  0.2028901960597077  0.1935335004521676
