Zr Ti V  Cr W 
 1.0000000000000000
    15.3185418189025757   -0.0058579337440910    0.0011531853961578
    -0.0058580518235424   15.3152820885503385    0.0003427542276612
     0.0011540796390519    0.0003423374486165   15.3446139054441577
 Zr  Ti  V   Cr  W  
   1   2 101   1  19
Direct
  0.6016781973739922  0.9997546707277423  0.8011248126750193
  0.2007286944194824  0.7950420584333460  0.2089823143728200
  0.4000815891715392  0.7992552073300557  0.6101097449011338
  0.9983668242312829  0.0016019089795622  0.3953291982367689
  0.0007194212880565  0.0013022767025077  0.5962527023750772
  0.0005136552473279  0.0010405066591105  0.8042984089753042
  0.0041776917067683  0.1984874747407978  0.9976881137608877
  0.9981080193372743  0.1985865606953489  0.2005436840754627
  0.9999271193315269  0.2034566283966807  0.4000891763870709
  0.0040472605173623  0.2021306635894196  0.6004024848550101
  0.9997766779120656  0.2061603656957881  0.7990956287584768
  0.9998785892574475  0.3988535447148028  0.9939598382501660
  0.0023845774839463  0.3985366083819593  0.2053397451090855
  0.0034452210183161  0.6030898374823377  0.0005202374117051
  0.9960205455258525  0.6010495841559064  0.1991521642161521
  0.9998432186185696  0.5972863001429261  0.3996810982910892
  0.9993316191218329  0.5976958584323878  0.5988798762650399
  0.0003270579842969  0.5983600387204192  0.8003138658041324
  0.9996213391598806  0.8046321099508840  0.9978521779112577
  0.9984813952131090  0.8024119264853914  0.2007643408631916
  0.0040522977634387  0.8012403176838292  0.4012026325172719
  0.0001350600482337  0.8000576604472122  0.6006680864090421
  0.0009395221045244  0.7994112891026860  0.7987480931332084
  0.1949689804521498  0.0032088805570043  0.0021501979210425
  0.1948547298449844  0.0004897943188925  0.2001468480916842
  0.2023030229239211  0.1681592043875992  0.4026352757881165
  0.1961799561572793  0.0028073574078202  0.6021404871135754
  0.1969734897533796  0.0003583002623144  0.8011280510971756
  0.2006512693007999  0.2029654877725973  0.1963114188746821
  0.2051831804380708  0.2043650044657476  0.8017821524084263
  0.2033647822054994  0.3989801172003277  0.0011594865003985
  0.1988948786543364  0.4006174676511658  0.3951020529267677
  0.1973551942315540  0.3952479801809849  0.6045467389186631
  0.1984886260534555  0.5926886110367752  0.1955002100634246
  0.2007499535087016  0.5991546728512163  0.3993915473796958
  0.1983092892103536  0.5992104393646738  0.5988499524537204
  0.2001727981216948  0.5974740063431000  0.8065565410871036
  0.2060807035722652  0.7958038304600735  0.4047303719568588
  0.1973447185450561  0.8000694225112820  0.6015188787845716
  0.2050898262294739  0.7991817085850706  0.7998714110088960
  0.3972440757789031  0.0001677775026938  0.0018401718438052
  0.3955253631550893  0.0000985157778218  0.2001177265895627
  0.4017472804055029  0.9949241758683220  0.4007261169560880
  0.3975806062713314  0.0011374373671156  0.5992756019284399
  0.3943777971028312  0.0015624125594677  0.8010656591565760
  0.3961319438402390  0.2004318209723404  0.9931263537272300
  0.3996515030333468  0.1981321067376345  0.1997718789321403
  0.3985883048050649  0.1957725048014794  0.4018595297572518
  0.3964685552575569  0.1983456839606256  0.6053001866259138
  0.4009732753857342  0.3995823921065408  0.1948084444733177
  0.4026812785673438  0.4010960637454621  0.4025587797185112
  0.3996329438337287  0.3999112527849019  0.6028392981533596
  0.3945703884567400  0.5992452802701183  0.9991377096182446
  0.3994727687798289  0.6004778311955229  0.1978604948109567
  0.4000579377378839  0.6034324542165875  0.4006152450622698
  0.3986285091340168  0.5968436050721802  0.6005260983934431
  0.3999289697833150  0.6030903244337764  0.7978343354613460
  0.4028512941725050  0.8015513820545478  0.9968921394955238
  0.4026497219740622  0.7989334934081549  0.2002300888585943
  0.6011115488575852  0.9968817914156158  0.0085768183724877
  0.6035059167550815  0.0018745400777089  0.2025025651996969
  0.6001777057602349  0.0003163963977087  0.3976390795085803
  0.6026406901852955  0.0005134717793540  0.5939843177247903
  0.5994922230037917  0.1981207742720316  0.0001532814487069
  0.5991461912604568  0.2033609096004991  0.1996470160609554
  0.5976722900155436  0.2041005977481330  0.4002221094797728
  0.6001188275297651  0.2002667745689509  0.5988910777568029
  0.5950475606226225  0.2057961181938044  0.7995024397372373
  0.5952872578016711  0.4018195518355133  0.0041815462191792
  0.6017945041644343  0.3998551652846130  0.5957454638257416
  0.5975138710273451  0.4024842053067244  0.7992818812400421
  0.6014495752943108  0.6049908524754283  0.0013595936344104
  0.6044537546799088  0.5953753832657526  0.1997918367829100
  0.5995717597639026  0.5960337362897519  0.3989048767572966
  0.6028438389163445  0.5984525467060169  0.5978005703912916
  0.5999427529386548  0.5967768561705340  0.7998624833248580
  0.6004828222820837  0.7992242760537090  0.1950039438384745
  0.5944669775691312  0.7980492296171500  0.4001077619296536
  0.6023302660446647  0.7988586235903731  0.5999541610181511
  0.5955596101989623  0.7929937962419722  0.8037508750923542
  0.8037596282911118  0.0000213128190789  0.0011888758722792
  0.8043599382913307  0.0004132710906819  0.2010440643485351
  0.8000474568899107  0.9993416963215542  0.3989134267166403
  0.8036623167097890  0.0003981837095428  0.5994859545195359
  0.8053740404713948  0.0014864829291299  0.7997626719915659
  0.7983508208377542  0.2001114299399530  0.9984516812314640
  0.7993015093404227  0.2012645714155554  0.1978187208550780
  0.7979282111307808  0.1997933136628775  0.4006716466744016
  0.7999576898305020  0.1980456595481048  0.6014440158656145
  0.7978268570690312  0.2031059583166857  0.7999995668053627
  0.8011070249777348  0.4003434616692686  0.9990162200812346
  0.7980324412261532  0.4033025944096224  0.1986488270925854
  0.8009298119444029  0.4003831704650936  0.4007682320305136
  0.8034246401017611  0.4003893579727924  0.6000425712881311
  0.8028865173913102  0.4020485936211164  0.8000722189086468
  0.8027694155863906  0.6024227965901829  0.0027265436115790
  0.7999236679592407  0.6026248988629960  0.3949740741136466
  0.8005865125028954  0.6027345941911439  0.6001903374183454
  0.7999003027057717  0.5998758315397821  0.8013574099999000
  0.7946867832280674  0.8012329488776837  0.9978842691072485
  0.7990211451389468  0.7958547861442973  0.2011575886627766
  0.7963388653492367  0.7994773302013994  0.4011560944389460
  0.8004290657096227  0.8007411591584903  0.6006156031431196
  0.7984390141541727  0.7984888525885034  0.7991443281567359
  0.2008594242194774  0.8001518351977440  0.9992938875902750
  0.9987795340155489  0.0023345077535253  0.0028967606940110
  0.9993735645840285  0.0003911012973008  0.1974062000209260
  0.0002871138344139  0.4010294413902101  0.4036251539000825
  0.0011597638327966  0.3997062863670727  0.5999680141534355
  0.0045487372908158  0.4025550705277808  0.7954695425578369
  0.2006259478974717  0.1997338717657691  0.9998207240077954
  0.2006940383143422  0.1971434396544388  0.6003024181239017
  0.1999199126241492  0.3978066098194513  0.1994256897780318
  0.2015598315271935  0.4012028059488241  0.8001241617058844
  0.1984949748350194  0.5989031468722613  0.0025309883636361
  0.4000440727147192  0.2034255604745264  0.7989206028418889
  0.4003905959353956  0.4013891644224029  0.9945454676456343
  0.3970191958462296  0.3995049967515877  0.8023427595783694
  0.4011896312818009  0.8000262707268471  0.3963278686891224
  0.4021918408926627  0.8036195457045148  0.8029115201558241
  0.5997208588243528  0.4000027021568261  0.2026501967637560
  0.5996092058263629  0.3999170682755397  0.3974346430614157
  0.5986566605199688  0.8010573035188110  0.9992159312758684
  0.8010836842205671  0.6002248780909865  0.1981258799321558
