Zr Ti V  Cr W 
 1.0000000000000000
    15.5633147981762434   -0.0105082892338306    0.0011052113616143
    -0.0105224976463168   15.5390273600018674    0.0056805954645976
     0.0011054290159095    0.0056800010957864   15.5617863503600393
 Zr  Ti  V   Cr  W  
  10   1 106   6   1
Direct
  0.0059112946040995  0.2830146105620786  0.8007242045628920
  0.0029249507892271  0.5365598951366922  0.7999013590409199
  0.1949713790010335  0.0034773569553126  0.8030546559396268
  0.1975894800948967  0.8012519494890862  0.3967164154082413
  0.3977348651556588  0.9983083856189054  0.9981957962660076
  0.3995204390783078  0.7734534650593031  0.0013087321017222
  0.5982521588329149  0.2029250186614155  0.2027879871971429
  0.6097717597072737  0.4110459420044083  0.3986520504244790
  0.6009791863626466  0.8023015779125936  0.6015481406828568
  0.7933682792775199  0.5936631091106636  0.4001870855828996
  0.9998637560101562  0.9951362264720153  0.2041004847908371
  0.9977060449397357  0.0042155659675991  0.9969843173020044
  0.9988790520637030  0.9999301424996916  0.4024910068297564
  0.9997126733371942  0.0017902196747284  0.6007065590696988
  0.9933981319334492  0.0039061678960224  0.7985596936197353
  0.9995011651956034  0.2019775873602158  0.0036695396616357
  0.0012292346646259  0.2027306094054119  0.2015738209531348
  0.0021902290461764  0.1993157494988068  0.3997605831954444
  0.0018553227129570  0.1999772177725925  0.5957419600842675
  0.0002379525167751  0.4026087365083832  0.0022219981735212
  0.0008725177661477  0.4017491203984018  0.2013528250572077
  0.0035235034329562  0.3999518852142999  0.3986451175357357
  0.0025663470121517  0.4005245162474074  0.5988850877162820
  0.0002190473813393  0.6001433957551414  0.0029475196838090
  0.0004857663090807  0.6009919560603887  0.2009261145512508
  0.0017988205887081  0.6001903471080062  0.3989373034829974
  0.0005858268977676  0.5993702347221127  0.5956203441085808
  0.9987596230099194  0.7975447434658623  0.9981266454999701
  0.9985252458181140  0.7986747020020780  0.1998256283508949
  0.9946032187717416  0.7994359899010542  0.4005671558106360
  0.9997831042467924  0.7977621844596742  0.6019601540397469
  0.9986928583712161  0.7910614522989817  0.7995064816835400
  0.1913435498699786  0.0026096227510404  0.0062691508195089
  0.2012963716783540  0.0026537265773920  0.1993970550561511
  0.1992979616857286  0.0048429131494217  0.3986508292746638
  0.1992030877774213  0.9993107791600042  0.5968051382719028
  0.2004501093953834  0.2023478332457649  0.2003359514626278
  0.2003349632940520  0.2014461858892372  0.3985174159962661
  0.2052745137172014  0.2001640886296707  0.5990042643696513
  0.2040249243979414  0.2076264355230402  0.8002046953975929
  0.2014552136443709  0.4020083725152697  0.0014844283746431
  0.2010970304071127  0.4021032770632728  0.1983158517509452
  0.2008358790932797  0.4000778419667804  0.3983393732870220
  0.2019605039577249  0.4010572932644988  0.5976312198762269
  0.2045253108937895  0.4033496170686927  0.8019034515312790
  0.2000777369577597  0.6014908136209685  0.0003861526150766
  0.2006283234029353  0.6002673678894435  0.1991583213439988
  0.2006668878131711  0.5975175125106784  0.3989656631027195
  0.2018889711113769  0.6003729587141474  0.5999889360249545
  0.1945172691851256  0.8017913146883816  0.9986216760447154
  0.1998190090471359  0.8007988820051031  0.1941675928484116
  0.1977658766122145  0.8008657260310102  0.6032433259213870
  0.1994313786874526  0.7957357161553876  0.8008600356138209
  0.3996886576860769  0.0019148050097875  0.2051436931839631
  0.4006428193968756  0.0015281490035057  0.4010990633138318
  0.3989168398667258  0.0054073332283533  0.5970119630617854
  0.4033341254707474  0.0007132184833620  0.7930420454879299
  0.3990143080566410  0.2048915184975719  0.9987225115936673
  0.3957937861580254  0.2023732342558756  0.2011317034004151
  0.4001816533014130  0.2025090349472177  0.4044036845693496
  0.4009459897662495  0.2024213428243000  0.7952542216394193
  0.3997968774667597  0.4006927925577282  0.9987133191339055
  0.4008372035856475  0.4023501321906533  0.2004345463430404
  0.4005541984565069  0.4019463667969533  0.3986042514861497
  0.4011472869515902  0.3973938524625416  0.5991686675804359
  0.4029747385575561  0.4029767755142469  0.7991639152038181
  0.3991037182698136  0.6018328093590358  0.2002271262712055
  0.3977381919794780  0.6011968743814642  0.4006536827467845
  0.3985233655818941  0.5990786504005178  0.5992657822937675
  0.4010396978558396  0.6011513940165921  0.7984648919254631
  0.3999380570528547  0.8019152504948225  0.2053772118911565
  0.4017910965785615  0.8021870951318939  0.4016987739314852
  0.3998157530238489  0.8002904678904434  0.7957902428818823
  0.6044546176398565  0.0016501446325043  0.0004226690612437
  0.5998810238826082  0.9980872636570949  0.1993696713424320
  0.6007627565252480  0.0016229982719584  0.3995933063080883
  0.6005935546263386  0.0048989274568290  0.6001133428625270
  0.6003848432139948  0.9999454357293787  0.8005297221932762
  0.5991090055661080  0.2007558903336648  0.9965463368433127
  0.6016256441552725  0.1998646785558824  0.4052480933697997
  0.5964107681323052  0.2026802802472696  0.6011038694477814
  0.5996774385321529  0.2010272225332024  0.8004906044723400
  0.6013459603521378  0.4008603477779445  0.9987739476816692
  0.6016511994752554  0.4010711689003330  0.6034321712901524
  0.6000315954737933  0.4028028346301081  0.8012088947038826
  0.5993789416418138  0.6010105463372731  0.9991089888679178
  0.5984609604684555  0.6038379634642651  0.1977164905371137
  0.5903071501568651  0.6125184868968502  0.3991696964525403
  0.5972904873152217  0.5981213600457762  0.6016142090576515
  0.5984712745889399  0.6016672956401956  0.8007755975035005
  0.6050338466943628  0.8017217340237757  0.0012244351156605
  0.5999335696408705  0.8014906599644632  0.1985683933636966
  0.6004256343855924  0.8051478958402145  0.3962215617235126
  0.5996898329918582  0.8011566806271351  0.8053720887609871
  0.8012412637325269  0.0007440186083822  0.0001807832669878
  0.7990371009086339  0.0008692770818144  0.2001419468525094
  0.7998661316555453  0.0008446925862600  0.4001960298039892
  0.7998315738794999  0.0008537283257322  0.5999762745096322
  0.7991943286036820  0.0014025853896269  0.7996526395324496
  0.8009217519500952  0.2001244063786639  0.9998811125534592
  0.8013228365971188  0.1978373316333328  0.4000946321432884
  0.8007863812444704  0.1991241770625381  0.6008453118304745
  0.7963134679909617  0.1995954076458208  0.7992459155934689
  0.8000990482709595  0.3999338258981870  0.9996224661269426
  0.8022936643835414  0.4004913036975962  0.1970812229307037
  0.8111907288118118  0.3904990035234129  0.3994825624139240
  0.8009651303366235  0.3977147296591419  0.6011232118262863
  0.7985477431907374  0.3999151420288173  0.8003897488791760
  0.7997256302799841  0.6003524047176979  0.9993876069562977
  0.7988709266277245  0.6011963498562856  0.1959119439390725
  0.8007687468000788  0.5991147888188831  0.6041338676963905
  0.7957427797055546  0.5999295880393751  0.8007846235333016
  0.8017949674195406  0.8013913700576489  0.0002668109159389
  0.7998241640033189  0.8004068901285732  0.1995980320640410
  0.7998453143099986  0.8023836181886934  0.3991658016399744
  0.8041240087372615  0.8005795924970760  0.6002099628128040
  0.8015810210425151  0.7988644054296644  0.8012552096038636
  0.1990041662280412  0.2027673002766159  0.0012978080460018
  0.2034693176040758  0.6000449289581903  0.7996378939513440
  0.4004037778467842  0.5906988680152093  0.0001490265098334
  0.3952377868226943  0.8009025868818956  0.5991954304674515
  0.6005537909852652  0.4069194713203464  0.1936402148319555
  0.8034768815187047  0.2004616456977813  0.1998651425117960
  0.4004891137815352  0.2020014345783562  0.5990902985626203
