Ti V  Cr W 
 1.0000000000000000
    15.3720038313806135    0.0023998420144863    0.0001449001601191
     0.0024007571799185   15.3633006247875361   -0.0006442210894229
     0.0001450310074229   -0.0006449824026597   15.3697544548857330
 Ti  V   Cr  W  
  15 105   1   3
Direct
  0.0054361621375214  0.3922889049260747  0.6027852673706826
  0.9912347533711175  0.8004322126448260  0.2038674126682554
  0.0092320924308972  0.7977572596051122  0.6020397904824391
  0.2004296053566703  0.2041996979119261  0.3933986660613095
  0.1963511254720754  0.2045646070528734  0.6056909405047709
  0.1984203374154097  0.3953951400384462  0.2019943864347915
  0.2026661846553959  0.7978973105006899  0.2009994860051445
  0.4068811606435110  0.9960987913896743  0.8062745319991939
  0.4019175516425098  0.5986880444052085  0.8016255000067910
  0.5935894274164238  0.9955883150170701  0.9947455254287888
  0.7952774057419767  0.1976463037757309  0.7963735135856979
  0.7993119274950468  0.4045093396616976  0.1930460956203456
  0.8014788093741908  0.5933737405330188  0.0032492554199345
  0.8066673346408257  0.7977476797091541  0.3915045009075409
  0.7985036522858925  0.7965467215493145  0.6040951008821409
  0.9989664192589540  0.0021331905578434  0.9996746937907843
  0.9984206545357410  0.0011908503354832  0.2015018987218908
  0.9982632820444787  0.0001552056369951  0.4005923892813345
  0.0000150753494211  0.0012685992595221  0.5994923582845522
  0.9994731406212845  0.9989069836447120  0.7984878087331754
  0.9981741575226549  0.1996380193955355  0.0009039820542233
  0.9984045079384068  0.1995101963034072  0.2002553089706254
  0.9976826999528313  0.1965242474180023  0.5971456538876533
  0.0997198148501344  0.1998615047395201  0.8995489958132585
  0.9970054015846372  0.3982631749315040  0.9998732582098748
  0.9998055009697230  0.3994341329261280  0.2010472739060234
  0.0002823657859350  0.3981995320691510  0.3979883970619391
  0.0001005040253178  0.3997661478926864  0.8014775781002524
  0.0021943424463826  0.6002273678850232  0.0021741534791839
  0.9996328584078791  0.5976315133402170  0.2015780373517886
  0.9999971933653590  0.5988961650934697  0.4007995035705020
  0.0009159828202764  0.5988916596975116  0.5988286818669322
  0.9993146138727814  0.6002441626081118  0.7995861789610905
  0.9995229682362862  0.7990107710183642  0.9999953495099054
  0.0033560868884499  0.7997945444589010  0.4013936234228196
  0.9992655098016691  0.8003820903443387  0.8029269826422574
  0.1973484550777310  0.9981530990720086  0.0003264509878808
  0.1975683631545037  0.0006013744405316  0.2006299280497587
  0.1992538258494470  0.9991091277503684  0.4003406016097688
  0.2004133516671298  0.9994465997792070  0.5996931830216106
  0.1981091707863890  0.0011964522211280  0.8009985904923513
  0.1991673815197676  0.1973779128193098  0.1991303808775395
  0.2026454402918329  0.1990640782509246  0.8006861596614276
  0.1985641840323179  0.4013398302311406  0.9994889063515259
  0.1994007676003955  0.4033793977659182  0.4050945533883180
  0.2041986183269935  0.4045809451515800  0.6023751038331464
  0.1992072496220117  0.3996255873237226  0.8020337611376306
  0.1989478554742549  0.5995844854827984  0.0009158982843618
  0.1990497333909241  0.6003384854950076  0.2019607608739561
  0.1986330137303634  0.6012791366978847  0.4006555106859222
  0.2006931937135777  0.6023694606892256  0.6011008744306587
  0.1976475910121346  0.6002971614025309  0.8000683667538839
  0.1992262435174658  0.7998708694858915  0.9982289967898677
  0.2006319979146245  0.8006352304763341  0.4038081312233234
  0.2054254822810990  0.8007781381448447  0.6022850118110253
  0.2005614986544569  0.7998463348486101  0.8001366971324775
  0.3944141339807546  0.0008686316197747  0.0044792255140688
  0.3980957938971723  0.0002000324635223  0.2013036455830302
  0.4022340048832047  0.0000712919138937  0.4002075135766525
  0.3997472069669312  0.9999501393678085  0.5984222108576960
  0.4005276459768869  0.2004166928422084  0.9999380838770439
  0.3988702724262174  0.2003078800327004  0.1970804198075045
  0.4016166351029549  0.2009491963336305  0.3998309295291421
  0.4003669164650494  0.2001214180401047  0.6000994050883331
  0.4033674809182335  0.2017276135889925  0.8011366634006979
  0.3979957211781331  0.4005961624799355  0.0012246593967861
  0.4019332948661754  0.3998822401644030  0.2007372849019210
  0.4002520213342669  0.4001644560339297  0.4001708737782273
  0.4014161496007939  0.4014215967272788  0.6003106392556932
  0.4008579610207499  0.3991875604019718  0.8010535164482731
  0.3992446774594469  0.5992406971814188  0.0038213857384688
  0.3994467820028376  0.5998760946457842  0.2013983549451265
  0.3995931203647812  0.6002377152767169  0.3995227660779819
  0.4013141305099834  0.6005137204636316  0.5969883685633084
  0.3989404232871801  0.7992814666435314  0.0005909891401035
  0.4011221403848416  0.7999256365285746  0.1993601877831426
  0.3995752793412021  0.7996614102610490  0.3990542786153150
  0.4008715056120781  0.7994695557301372  0.6013615820348237
  0.4013706063730404  0.7997298514080903  0.8011514235694076
  0.5986284720223647  0.9993207544592916  0.2042011550270964
  0.6010095884086307  0.9999707059961005  0.5939167668601274
  0.6050977365978779  0.0043572254691337  0.7934672613673179
  0.5987667310115219  0.2019263321031755  0.9945783270331556
  0.5989828019057627  0.1993320064309352  0.1975048570593579
  0.6001576928713657  0.1972013242796831  0.4003232635830901
  0.6006331563417278  0.2004963473914655  0.6027940845183455
  0.6041350889434685  0.4013055065513491  0.9996186859453782
  0.5973527748933359  0.4008315967030193  0.1999404480579067
  0.6009166458200531  0.3986845324026814  0.4001433784930689
  0.6008817710413724  0.4009722192840986  0.5997592890489958
  0.6008849174244407  0.3975609856372746  0.7993795767330438
  0.5968488768528993  0.6002574972040670  0.9996639516685363
  0.6000160475789402  0.6015077047832930  0.2016972140412101
  0.6018623761194445  0.6017938514376322  0.4000527701183501
  0.6010430239101962  0.6007432990344191  0.5988952870309807
  0.6034067502203408  0.6008773699914370  0.7989157482573016
  0.5992031934547448  0.7973659478433474  0.9982929598612231
  0.5987951500107225  0.8004570701985285  0.1978251924874194
  0.5987810161859898  0.8044415610934480  0.3999319839021458
  0.5990876197301814  0.8004609672738534  0.6001260975147255
  0.6007587941299342  0.8025918341283127  0.7995510146343771
  0.8007510373910333  0.9989604021009091  0.9997199486700444
  0.7984890345453342  0.0001829193725242  0.1983975537734128
  0.7963577863786914  0.0012995470052684  0.3986668427034737
  0.8018980561215022  0.9992070916785045  0.5972041966801950
  0.8017134399950201  0.9976279331022242  0.7988203108975144
  0.7994391487769148  0.2020945708397140  0.0011557059539729
  0.7975165740206537  0.1988587433093366  0.1981436663116496
  0.7991586612433123  0.2016260686481504  0.3971181369021058
  0.8010000875076727  0.2015486205552503  0.5967264684807269
  0.8002976977457343  0.4002563675510165  0.4002848617797385
  0.7998879938585650  0.4002543214071094  0.5996593558180958
  0.8013521796125532  0.4031671519041830  0.8017641221227018
  0.7989175305732273  0.6040634645151738  0.2032840115529974
  0.8016059891613946  0.5971996258677085  0.4002225519254249
  0.8019968677995729  0.5976097384073578  0.5993660227268579
  0.8008054299073428  0.6010280427344193  0.7977980327566191
  0.7988985794522500  0.8000729211939146  0.9989658059184771
  0.7949488758996933  0.8000266101620924  0.1936868245235514
  0.7998048020667380  0.7990522953533845  0.8027651759984611
  0.9959676543632725  0.1996934058167601  0.3987993776222833
  0.6000080310611652  0.0009670507571875  0.3989873604789499
  0.5999295843706627  0.2008363968899676  0.7972139737882066
  0.8002909574754493  0.3983345514501026  0.9960926506501764
