Zr Ti V  Cr W 
 1.0000000000000000
    15.5605004684825037    0.0303255126318240   -0.0385586955404674
     0.0302728279200678   15.5530849979154286    0.0655903308017144
    -0.0386454446837789    0.0657938000358750   15.5388918105482556
 Zr  Ti  V   Cr  W  
  13   4 102   4   1
Direct
  0.9508633867924497  0.9521067505336884  0.4257372345800135
  0.9804669647746791  0.8164399904815458  0.7873745349061572
  0.2473487706533543  0.1950838447723335  0.5969344192513533
  0.1959208938228533  0.6027188469642283  0.4014186814689411
  0.1947485734679671  0.6054032183113266  0.8406725921677500
  0.4052886621397713  0.8060951314395771  0.5966192271879750
  0.6068426952670609  0.1797898888278980  0.7944604715614627
  0.6362206625824673  0.8282123090046939  0.0037608719935740
  0.6185530689869690  0.8033741131737279  0.2359958122648151
  0.6007915160476356  0.8188458168674329  0.4518901810375800
  0.7420744437232417  0.9923583288715568  0.3731011722236016
  0.7930178004366641  0.9922519446102522  0.8036282302482509
  0.7763703138011622  0.6425347855992051  0.9973307315935662
  0.4241573560003487  0.0436396794850332  0.6146084125918538
  0.4020423660858934  0.3998222882022278  0.1995562626133454
  0.6205694336156710  0.1725243037459709  0.5842627782768881
  0.8179724424283762  0.7730842973827597  0.3678242438892188
  0.0037921055742941  0.0072468846000950  0.0019156812968436
  0.0005591274699248  0.9972113401022484  0.1962850036901177
  0.9977744371218203  0.9980655227646289  0.6220775965258705
  0.0044513119645471  0.0136355847092109  0.8086647200951915
  0.0008973252980093  0.2041284461181198  0.0007570291703092
  0.9998439528093778  0.1965546586879097  0.2025448741720679
  0.9990858499119454  0.1954036382782516  0.4020174768088902
  0.9987729030696159  0.1972349574047952  0.6002265848187814
  0.0031908706847959  0.2043659455182694  0.7996229289804390
  0.9980182881588180  0.4026986709967691  0.9999996329384169
  0.9986491785504988  0.3972598584853441  0.1994244657297496
  0.9975510645089588  0.3952060899249282  0.3997563772813986
  0.0008120053277454  0.3983278559881903  0.5990331413435701
  0.9997032680255996  0.4005640250288838  0.7967972632128769
  0.0024826620387637  0.6011220576599282  0.9950175745206830
  0.9993881239554462  0.5938263277134036  0.1919210399620175
  0.9897178654471822  0.5908435779126511  0.3984758643131021
  0.9958316386430816  0.6010418381629149  0.5986469416151861
  0.9914010107528638  0.5994499132558976  0.7972003973381551
  0.0113986070236780  0.7973474609334057  0.0007054005603557
  0.0057098221737524  0.7984693388233207  0.1961635652074621
  0.0163064062587997  0.7637859655265884  0.3880327503660804
  0.9995305430484276  0.7984396587081188  0.5821767900651025
  0.2021747462578415  0.0041300164844061  0.9996032218455249
  0.2001036336957775  0.0019992401900922  0.3990840689413158
  0.1888100444866354  0.9986200672289415  0.5979246789821220
  0.2007908344793069  0.2009725709448240  0.0011270775532351
  0.1997387011430622  0.1993483326355937  0.2004338994808609
  0.1958011537230751  0.1975953548518597  0.3966230433896488
  0.2018829432374702  0.2015547943823788  0.8022880095418599
  0.1995941369896470  0.3985283278578040  0.9998813399147067
  0.1977165755569303  0.3957072800663703  0.3996001656581677
  0.1991646726772793  0.4039520047505309  0.6008500826235769
  0.1993903821059377  0.3989357585754833  0.7997606648349092
  0.2010385490423626  0.7668209540142134  0.1638489739933542
  0.2005306033491998  0.5990974158516130  0.1943717982911306
  0.2001391756823789  0.6028606780539730  0.6113779480503075
  0.2029118492301020  0.8091392443254334  0.9971363637173729
  0.2039942023747699  0.8077067282536846  0.3994093342197815
  0.1976862807225088  0.8036507749103533  0.6005838592820049
  0.1992405475234999  0.8045677068239160  0.7974086435729569
  0.4010350551017195  0.0039008119086213  0.9983109884504345
  0.4009252157841494  0.9995461998826705  0.1918717847943617
  0.3921558234573151  0.0000914323443521  0.3835827440359422
  0.3973815306125397  0.9973916898611527  0.8074462216844415
  0.4005998029833787  0.2038099999605168  0.0015474499998351
  0.3998386236703592  0.1985430342734290  0.2010705690205294
  0.3973577302793785  0.2020794373642201  0.4045638446469637
  0.4451709946954761  0.2200685517287790  0.6131350991980065
  0.3968876385486865  0.2035862926560998  0.8024655640048312
  0.3982448610580357  0.4003914495204803  0.9985591856500289
  0.3981235903977411  0.4001126392536639  0.4012633719201087
  0.4006840956986787  0.4055491785255876  0.5994516587210609
  0.3998774057786109  0.4052094297653861  0.8004712980419404
  0.3969843761963372  0.6023552283745167  0.9955108527702405
  0.3988888643017254  0.6016855728104629  0.1963794022449968
  0.4016935561955347  0.5996668334794409  0.3991856566126359
  0.4017639015727509  0.6004942722821639  0.6033617978554717
  0.4005167657708823  0.8026609976776380  0.0013275151403714
  0.4049733411797225  0.7987218997716041  0.1963271174038528
  0.3989708462196405  0.7995249004700665  0.3898835013446466
  0.3955034514516073  0.7955443360663816  0.8043361366793333
  0.5973443538027606  0.0214572240192457  0.9947652597613703
  0.5985264826514746  0.0016249477828727  0.1917167725516395
  0.5664479089324174  0.0095074081738433  0.4044928033417363
  0.6094184470693825  0.9852210082877525  0.6049414907841676
  0.5889422348028408  0.9836262401740461  0.8035696147686243
  0.6003111012015813  0.2066713920859639  0.0025473179798998
  0.6009617877351238  0.1994157508327154  0.1998379377743897
  0.5966172000246740  0.1999838967094624  0.3945045646131041
  0.6018080304657927  0.3991772348372934  0.9988973300204752
  0.6039482517835824  0.3966814512139935  0.2009464616110990
  0.5977390482380484  0.3967561437308016  0.4004456304168931
  0.6032751544336523  0.4035520168606934  0.5986308881359744
  0.5990819440218733  0.3941610346033295  0.7985179256610124
  0.5884233454878112  0.5918689787174031  0.0004577492703155
  0.5995330602622220  0.5964740123144364  0.1985044358183753
  0.5962974408524158  0.5969281635175036  0.3969128122216017
  0.6024856315807676  0.6029035755933666  0.5937059140173330
  0.5973023526634378  0.5937970015788834  0.8024291697394829
  0.6128903904876311  0.7928538617366848  0.6324838578457005
  0.5897398219971207  0.7923884499985111  0.8040914957439852
  0.7972776158780434  0.0122383178143647  0.0002542709388861
  0.8025310858690797  0.9986638357828758  0.1870472529065303
  0.8015267874201679  0.9943736660804703  0.6006938557087794
  0.8024497319654454  0.2061135072595258  0.9992759210888652
  0.8017299529657237  0.1957105690168054  0.2014801985556753
  0.7967136249892315  0.1971037134095746  0.3993835678869828
  0.8081977742035509  0.1955506070238296  0.5972335225936155
  0.8062657570673457  0.2017686961546708  0.7983655641268969
  0.8007138288942884  0.4005492232764807  0.9985575382394063
  0.8001235722223127  0.3981056467330897  0.1981752486961817
  0.7964930910579653  0.3931311765541676  0.3998295550880655
  0.7993110320495089  0.3975327878144026  0.5994456059290637
  0.8018300227577640  0.5951421652915367  0.1996163223400268
  0.7943217175842895  0.5892550295263641  0.3988593930745420
  0.7981721399034215  0.5967215476660396  0.5975942711549964
  0.7949315949667083  0.5913317546915020  0.7943825385691715
  0.8318214520864433  0.8308170954420717  0.9680617688632576
  0.8109961331688780  0.7974501667832060  0.1678985538218313
  0.8060349459978089  0.7932023049450063  0.6149043486572204
  0.7813954952957615  0.7810377778466806  0.8134028679212187
  0.2002915522635048  0.9992681385435036  0.1976564589862340
  0.2001833463508055  0.0021272609050027  0.8012627073959763
  0.1968114892250387  0.3989424465534038  0.1996988476798922
  0.7987685008518460  0.3965005708509766  0.7983738022180269
  0.4090637277676784  0.6022339764253024  0.7947595969131462
