Zr Ti V  Cr W 
 1.0000000000000000
    12.6123060246146821   -0.0368126948996922   -4.4530651834682597
    -6.3036619766939070   10.9047906797021934   -4.3563236811892425
    -0.0123797559937588    0.0973503794640193   13.3239852141866635
 Zr  Ti  V   Cr  W  
  11  17  74  14   8
Direct
  0.0072945490982903  0.9999469592230634  0.9990708464488713
  0.9878848684634109  0.8017361337951613  0.3818370882240457
  0.2034148525341873  0.0051095290491843  0.6022751301671773
  0.2054176093040337  0.2330006222614418  0.0031193714190384
  0.1885299550810747  0.5922518862859184  0.5880542400456843
  0.2028779220761432  0.7925974956420504  0.3933085944102246
  0.4054561173491346  0.2054123696186372  0.2077628145793422
  0.3926441762132093  0.7845439115877421  0.2005376394738696
  0.4025758510791705  0.8128435498509944  0.7984146391545885
  0.6005184208559220  0.4035436567441165  0.0029446095212700
  0.7963788220970827  0.8053921944095648  0.6096884682539464
  0.9952983298783346  0.0030500731606103  0.2104885444964923
  0.0219096966688912  0.2345049165066460  0.8139932315132585
  0.9875904882395152  0.5883965545492102  0.3936482058924266
  0.1937414161580600  0.3914695482287719  0.3988160507745711
  0.4259796318458910  0.0099951451645679  0.6179358403029197
  0.4058967802789206  0.2013450464743386  0.9925739532649849
  0.3980638372946937  0.5947296421992975  0.3985721344274935
  0.6068735860004885  0.0133532323107422  0.0211938617313709
  0.6049969787127741  0.0078325098057745  0.4009021616473238
  0.6059419771333081  0.0048973499821500  0.8010709829359624
  0.6108533723521475  0.4069477414449702  0.2200262601994221
  0.5981946022467025  0.5967426758202982  0.6033102319218426
  0.6142059295877120  0.7970525148113363  0.8062216241730431
  0.7997610549939168  0.2132746157414656  0.0105634608766263
  0.8021425653745254  0.2046958146945657  0.7991476690186399
  0.7974418213473871  0.3965395613270714  0.4026778971356787
  0.8083521620612835  0.7770138777723777  0.8179978674618079
  0.9944996419673270  0.0191933173975436  0.4115236104771721
  0.9919946770511395  0.0094877851471148  0.6032138418801107
  0.0115843089149978  0.0171388802117451  0.7948431173583300
  0.9848706649051947  0.2012566448064350  0.9990544010506625
  0.9952590287142333  0.1984802812434888  0.4004441301454221
  0.9989711022651716  0.2058919850018151  0.6015026296427411
  0.0016687747937245  0.4028451111153278  0.9996926269766592
  0.9837148883147783  0.3788240924667479  0.3881891930948335
  0.9959256016434078  0.3963666363766347  0.6030800395232725
  0.0018404477829235  0.5975022070449415  0.9939555228977750
  0.9821388154215958  0.5792883590741041  0.1784355751942725
  0.9959297941696498  0.5978159264548250  0.6144506343949999
  0.9956788243645363  0.7918206766754325  0.1727353033872960
  0.0084754278902385  0.7919186534061452  0.8095980851963351
  0.2084336938835703  0.9926427531012674  0.9964566822680421
  0.2017160924088209  0.9992412223239178  0.2000437806923483
  0.1981222453352742  0.0062319229022513  0.3858217380441017
  0.2000046571619013  0.9988324137611372  0.8078732863490723
  0.2046367886518477  0.2002111839894515  0.4108921477792324
  0.2002099361639608  0.2094764543793758  0.6031133149102913
  0.2070703955054835  0.2026558692233268  0.7877241963506108
  0.2023645063177386  0.4074040864055855  0.8054182090967295
  0.1856192702865832  0.3972969709790337  0.1927379638500501
  0.1877031401106986  0.5652095292009063  0.9824018284589099
  0.1850141942988590  0.5878087900402794  0.1881210382509456
  0.1781167780541609  0.5707989428494399  0.3632132263125878
  0.1940448028470036  0.5966440986900318  0.8080487312089922
  0.1981835979097520  0.7918298087970101  0.9999025754812263
  0.1884470624678754  0.7999989978785986  0.1859969261677440
  0.1921138262997850  0.8012831264364012  0.6149427503459388
  0.1924532807858875  0.7966578382857079  0.8091073440443118
  0.3959717262811966  0.9971380750355542  0.0068826276675126
  0.4062688324048301  0.9992434964502996  0.2055729612600122
  0.3980204945672700  0.0051401872437157  0.3956690296591135
  0.4035613809095692  0.1979985417528823  0.4091062932529702
  0.4096231570698676  0.2008695901347116  0.7956575267352012
  0.3895995182665070  0.4175012712026664  0.9902294924492786
  0.4096995868625366  0.4196940682477043  0.2207046088228070
  0.4042803362067314  0.3945301105398267  0.4116902126659357
  0.4031623540030262  0.4044611954813856  0.7957994709008734
  0.3851996270198889  0.5690108871220165  0.1733521910995536
  0.4062047220516185  0.5889359573245402  0.6103163908648105
  0.4009190392101067  0.5965371128665589  0.8048017145635729
  0.4149689054113467  0.8050649304327127  0.4128319184773012
  0.4044378166366271  0.7886093224183383  0.5855287696917911
  0.6110657221268921  0.9984507334903117  0.5999984250681920
  0.6045759161482753  0.1888667317813400  0.2005972080283613
  0.6028753962363742  0.2073003668643073  0.4061681215567569
  0.6079242899630113  0.2031078597499295  0.6034466652892791
  0.6134361755141280  0.2192745766175757  0.8160450299430609
  0.6009374115566729  0.3944117217057655  0.6000188631669904
  0.6061447623632545  0.4039359674800020  0.7968609624602212
  0.5937923941614648  0.6051161878755479  0.9987050473483363
  0.5952252294689510  0.6043269504966179  0.1962381380411390
  0.5967365240144122  0.5888501481044860  0.3895956968400868
  0.5999597531934188  0.5914500914252684  0.8044694997177401
  0.6033116246199924  0.8010558075274934  0.0132427157763899
  0.5978874800922628  0.7970498541681733  0.3937749943202771
  0.5940479296452149  0.8110415238420257  0.6039001484450341
  0.7995447321296707  0.0038615868962608  0.3978821539238230
  0.8007127448792829  0.0151208830092964  0.6020901237006101
  0.8057830097047645  0.0062101139981868  0.8081227823633588
  0.8044754072550847  0.2018768472935287  0.2136622095744119
  0.7961540564889559  0.1953685968805506  0.4027321965081868
  0.8075392022450859  0.2104111064074887  0.6033939839883328
  0.7988773515570924  0.3922613812164081  0.1945951023348533
  0.8016572532190086  0.3957607398171394  0.6055957367801085
  0.8021029283249483  0.4050340723932986  0.8032721473647706
  0.7986934794087261  0.5939141057021892  0.9982512028841324
  0.7950383202030186  0.5953592677387848  0.2008942557265222
  0.7986477474237439  0.6069702683455751  0.4050101825209822
  0.8039442702722644  0.5856206740638227  0.8030527712871338
  0.7959226362117573  0.7934873859341022  0.0098110948297430
  0.7892248624897655  0.8042203402564589  0.1976277659214500
  0.9938101982003611  0.2002937327698250  0.1995505907743367
  0.9966634079114324  0.3944297707810571  0.2002742552019292
  0.9945403471028056  0.4059275954912717  0.7933718295614183
  0.0037898712399226  0.5899212448263246  0.8037459860164061
  0.9995417836577731  0.7860738823471982  0.9970638530118573
  0.4165737732926483  0.0288143321273552  0.8231744420336896
  0.4041926664937634  0.4011108445058291  0.6047506513028685
  0.4037186298563258  0.6007857413722993  0.9933634889758178
  0.6022161531234703  0.9972121618063214  0.2032718062962920
  0.6000215723257836  0.2031774332819981  0.0116067046665320
  0.6047333284899106  0.4039684021419601  0.4177031752764565
  0.6017151559213062  0.7986726170182001  0.1956337579612467
  0.7935447887899519  0.0009441883120523  0.2064761188504655
  0.8064311943309624  0.4071614548296261  0.9994533190838513
  0.0020210499003045  0.7997629572510854  0.6084553101941539
  0.1976786984260289  0.2111037254112073  0.2171735311569064
  0.2006967683007901  0.3972703733811249  0.6066492933369185
  0.4072540332229747  0.2061119286129701  0.6017995730713988
  0.4012518483826195  0.7977484120028401  0.0029405067364359
  0.8061146501061353  0.0050608751543497  0.0177715704188445
  0.8000775756514477  0.5884429432966665  0.6020895290263193
  0.7893199605392489  0.8040551932431712  0.3951703726457760
