Zr Ti V  Cr W 
 1.0000000000000000
    15.4708467865148371   -0.0457987880927962   -0.0198442725602326
    -0.0454938160247508   15.3995902028152862   -0.0270542228467451
    -0.0197944236660485   -0.0273036633962630   15.3709555907435735
 Zr  Ti  V   Cr  W  
  16   2 101   1   4
Direct
  0.9903910324142381  0.2164189454417334  0.1983896055183653
  0.0241290260278595  0.5840258999047738  0.3822300391447656
  0.1938133569022546  0.2316853180087551  0.9849412282341964
  0.2233555086334013  0.6234432191760234  0.0010364711436497
  0.1871482713509515  0.7915029478825101  0.1911947609169422
  0.2019630820207253  0.7964450131086260  0.6373061867047458
  0.3591320172759453  0.4366999131520368  0.9993916739775337
  0.4125330744873662  0.4091386861104636  0.7769994794828337
  0.5957054501771476  0.9954322482011783  0.3849368080959134
  0.6539546268849181  0.6192696182624559  0.2264369116980145
  0.5801484609375062  0.5802261469545468  0.6645237126165635
  0.5744772502369615  0.5645271203420007  0.8943800341485065
  0.5894083778159104  0.7556544846380517  0.0396252866869331
  0.6118196476079191  0.7750431629553287  0.8037490129290081
  0.8217134649186152  0.4543571667199055  0.1987111826973394
  0.7795203239250098  0.6083932808043462  0.0225364415843984
  0.0152446915256059  0.2032953647225927  0.8066057024282260
  0.7896043369763359  0.8078549066815014  0.1630304254358106
  0.9965874908687719  0.0030550206078966  0.9946116092393674
  0.9965845125379476  0.9997918803570118  0.1927819871320564
  0.0016163860749032  0.9975393619947799  0.3893020046223071
  0.9995142053960387  0.9985939852556773  0.5930276528543706
  0.0018338734109187  0.9987464294152137  0.7955086151675939
  0.9894360908945186  0.2016549336475609  0.9960066843856324
  0.0011953807973963  0.1960706190208605  0.4013249984120875
  0.9998867781806614  0.1965315823021593  0.5953077379452172
  0.9858983467662774  0.4049061555749725  0.0042112193242807
  0.0156797865970511  0.4171592499305449  0.2012267154830547
  0.0007043095717156  0.3969369840796664  0.5891897265044358
  0.0004516968225326  0.4008923795726699  0.7909273918428070
  0.9857191578822616  0.6036294984672175  0.9905904945644314
  0.0194981544330641  0.6094972575909462  0.1791454522275155
  0.0039502863146340  0.5970692680267091  0.5905386543012043
  0.0000395576345695  0.5961288869340434  0.7969210973143391
  0.9884480340382342  0.7992399359889506  0.9920693134696865
  0.9900839905198342  0.8041783664270598  0.1882259940079811
  0.0007762557838482  0.7974935245474782  0.3901714567183866
  0.9963578144728976  0.7961449642356238  0.5903899238255427
  0.0089226056495120  0.7985332935498006  0.7939376105912529
  0.1965488687619516  0.0009843701062808  0.9981770780994227
  0.1978422167036448  0.9913169694783744  0.3950588292125821
  0.2008918736872596  0.9998608422409477  0.5947529657502012
  0.1999431336528778  0.9980160446443552  0.7958941833064312
  0.2028418660886636  0.1963970922806468  0.1955174038423630
  0.2024562710851672  0.1959972427569155  0.3936247703724575
  0.2038635955217042  0.1977747747331876  0.5928164989967070
  0.2102920473042140  0.1983733567363977  0.7855241058737771
  0.1729852538545916  0.4262373425489723  0.9949784256132262
  0.2050000753114989  0.3965659440263208  0.1877153895890466
  0.1967241158568793  0.3981967123830864  0.3986537822564369
  0.2010989730239992  0.3941276634470516  0.5987662518592388
  0.1982410986645391  0.4000615940180237  0.7986874120477431
  0.2071970861957636  0.5961420734798122  0.2089242891899112
  0.2197181027370951  0.5945811721890393  0.4032302452358716
  0.2000065603741445  0.5928977309927238  0.5997220980700917
  0.1945320047894790  0.6030117402107942  0.7944068452997815
  0.1955237195896750  0.9137379149705277  0.1046985023690769
  0.1957483427330967  0.7903496877512177  0.4062033804159305
  0.1958607000068620  0.7984512581406741  0.8370259905006340
  0.3979437216965703  0.0006531440224105  0.9970010069071279
  0.4028859053780330  0.0013292726313597  0.1953308603775710
  0.3905218218473514  0.9943817818454685  0.3942732622772455
  0.4020607223633521  0.9961862846311278  0.5936225360854422
  0.4003338808460078  0.9962960402870534  0.7967604127769936
  0.4006682515526184  0.1982703059385764  0.9934547581548543
  0.4000996137308270  0.2014904104998651  0.1936297670427353
  0.4004975902285909  0.1987416354384071  0.3934031930305441
  0.4076918929808162  0.1987002856275593  0.5928698404609827
  0.4021399975187128  0.1989609367083193  0.7932505662277436
  0.4013328835581325  0.4008094801544000  0.2021934482812519
  0.3997940604254165  0.4053533844449344  0.3916897531950399
  0.3983996203719455  0.3966970846556217  0.5844714631666889
  0.4207991112791120  0.6290568797735507  0.0136122684312622
  0.3982393099933854  0.6068629481315402  0.2092782764293046
  0.3934987147623959  0.5989172623803524  0.6035268062325884
  0.3861623469647994  0.6062483826931472  0.8165873586083729
  0.3785917637322063  0.8078209566567505  0.0055928142255745
  0.4050431777304152  0.8033081040742944  0.2032180160614540
  0.3959298582117085  0.7921342697981429  0.4005402820499497
  0.4058434367570657  0.7986527774476766  0.6013924871865303
  0.3927525749370416  0.8019474356988139  0.8022042958852412
  0.5976618845358874  0.9962437432447125  0.9897282688518663
  0.6027998601572579  0.0022494617282005  0.1832700514864301
  0.6007471921384778  0.9986520332080661  0.5955872836591928
  0.5985265381206478  0.9906953558916060  0.7951958390408892
  0.5937046836167249  0.1973025032841757  0.9918800815547237
  0.5967657145896776  0.1988103089218407  0.1947658675944763
  0.5990335187558573  0.2018735326121327  0.3983004376506997
  0.6016490000928003  0.1913747746080196  0.7902338939253638
  0.6176783159303569  0.3894003935443873  0.0038051216008017
  0.5953563188754883  0.3904416835326517  0.2002122643324844
  0.6043521314285807  0.3991838025444448  0.3991486243373494
  0.6035435103279240  0.3862309706566765  0.5996758805614029
  0.6103296843873258  0.3823741636719299  0.8044439580058410
  0.5203425520792109  0.5202204146073808  0.1009252936535312
  0.5965462597330382  0.5946616252820234  0.4323541619677692
  0.5979294368512421  0.8199621374959686  0.2299050255627381
  0.6006323746645484  0.7906916547175928  0.4003368619315643
  0.7951389031121614  0.9998461901992944  0.9923023245426954
  0.8006238557507513  0.0079782543966455  0.1891829586315750
  0.8040587083648921  0.9977687081016563  0.3896563728066434
  0.7991476146121416  0.9923602695578295  0.5916137824594685
  0.8031571813112838  0.9982149535828684  0.7928073757282476
  0.7960046725984083  0.2016806584740284  0.9947033524399268
  0.7885827210205746  0.2067326811402929  0.1933877943517774
  0.7996766906898937  0.1999123976118426  0.3914729853734263
  0.7976830853340066  0.1954900815894165  0.5963226772748766
  0.8001664063016783  0.1974736789149258  0.7950083590914244
  0.7961182284881526  0.4026380610467165  0.9925069872380656
  0.8085289271391322  0.3985682449558617  0.4001753424451557
  0.8022199958458949  0.4013320131189677  0.5958349818943159
  0.8051183706792766  0.4014253908538709  0.7947822902984583
  0.8820619055103753  0.6854160113483415  0.2755476920612606
  0.7871834994866229  0.5951811958900630  0.3938462023773550
  0.8063932163022660  0.6022127730963118  0.5895785067983952
  0.8018908981493619  0.5995368467675022  0.7863220600594497
  0.7943414243965164  0.8091684050495891  0.9758524118931567
  0.7998660584198531  0.8009429661235158  0.4042037586889494
  0.8140912882786623  0.7980254617667114  0.7875565580663074
  0.6040686436114284  0.8018457247535977  0.5952494356492801
  0.9998875900424200  0.3841485887817864  0.3882315159684920
  0.4107512791833077  0.5991680956961773  0.4058043856606204
  0.6023935789868130  0.1924637962548423  0.5930800112129928
  0.8018317743562947  0.7952100526655521  0.5960845606723429
