Zr Ti V  W 
 1.0000000000000000
    15.3251724423404525    0.0070128769391973   -0.0004714545103314
     0.0070165878469139   15.3328247917111025   -0.0066220456422159
    -0.0004713462084994   -0.0066216079972265   15.3468382774047818
 Zr  Ti  V   W  
   2   2 106  14
Direct
  0.2295935288256701  0.6371245756361579  0.9990295616939225
  0.3998647815242189  0.7999020340626963  0.0019989435709102
  0.9960650757878269  0.0050816874862516  0.5922357845073111
  0.7941785856684568  0.4054865572410246  0.2048607076356403
  0.9990024511502898  0.9972021329115461  0.8026729024633440
  0.0006711726134104  0.2046526750374209  0.0022631413530203
  0.9989069031853992  0.1973530579347177  0.1996028623634285
  0.0046725843394642  0.1968066914068287  0.3999521777297494
  0.9999213703451528  0.2017335303701920  0.5979053381855618
  0.9997715383308721  0.1027438854441708  0.9015590622966811
  0.9984684031159324  0.4003618901218936  0.1967061119006207
  0.9990446630197173  0.3989782908118044  0.3967550638351591
  0.9952213055270009  0.3982206226946886  0.6032334004672104
  0.9983002869245333  0.4032625952519768  0.8035241015516021
  0.0079769843905200  0.5929548873477724  0.0026569890413362
  0.0040482730141549  0.6001039461265766  0.2021970138775612
  0.0034185226793717  0.5996217910808539  0.3985335765548669
  0.0010966346114013  0.5974565246360731  0.5956475464237049
  0.0014717193700158  0.6005734878942680  0.7993978916804361
  0.9997370430257578  0.7926363674717379  0.0007219601928115
  0.9951654703312943  0.7999972705916739  0.1982630348700636
  0.0008888872534398  0.8025506358033452  0.4012490602381713
  0.9988037682909130  0.7974499359908810  0.6011006350619783
  0.9980096743524440  0.7998763766899182  0.8025329706106863
  0.2003038926529734  0.0078474737612750  0.9996522599248837
  0.1972783341859676  0.9988492998143444  0.1979732106860102
  0.1964071271955909  0.0016548313374993  0.3989655760864214
  0.2011541812734338  0.9996502203623104  0.5990114990950255
  0.1968934047382604  0.9953580767423714  0.7982280050186155
  0.2001753276681589  0.2007285061478563  0.9967707872847860
  0.2026553146432351  0.1996366865468953  0.2057278582803006
  0.2038228788715388  0.2004666773921177  0.5973352849598215
  0.2014760610628980  0.1973804802727733  0.7959691496014963
  0.1957344169747966  0.3970440207308488  0.9979168734952570
  0.1983949116817788  0.4014011323339950  0.1982515533665059
  0.1969897998905635  0.3963070620901028  0.4013468294930195
  0.1976106801938519  0.3999734190962761  0.6021908966084744
  0.1985127828484403  0.4033110677273584  0.7997685342124879
  0.2042844902655828  0.6010784526100080  0.2047589826807368
  0.2036488023242099  0.6016153900805886  0.4006786623887216
  0.2015511367408593  0.5991331144675210  0.5990318262084484
  0.2002176316079356  0.6061541996669004  0.7937061233325733
  0.1892146579160096  0.8241641089711351  0.9932946313343871
  0.1985343877774651  0.7990566985089229  0.1930934279529225
  0.1990258308271791  0.8018023676175954  0.4045452645732721
  0.1993859528379041  0.8014606652684232  0.6069402977416247
  0.3994716081608240  0.0065626546669528  0.0016836801431421
  0.3989465225044386  0.9960114533649955  0.2002033546779421
  0.3980354097339140  0.9971036924001911  0.3969739340135013
  0.3999360180719110  0.0036086996401809  0.5962905419517174
  0.3996080330794848  0.9976406513754263  0.7999993541033191
  0.4001244208513228  0.2018202859305595  0.0007536882359054
  0.4004663691905985  0.2021257192053689  0.2011582587115775
  0.3960050783259094  0.2006653388440550  0.4014119572599698
  0.3981681906027276  0.1986298449512569  0.7952069997972467
  0.3970327400113554  0.3979140599219406  0.9996262858566425
  0.3995963076449913  0.4046786159717392  0.1981945457689931
  0.3997745269672749  0.4035096833093343  0.3991328576680181
  0.3999760706901230  0.3973131308048687  0.6008041219016421
  0.4023903036533357  0.4026382744331630  0.8010324546837386
  0.4170582349180519  0.5892280053493720  0.0079299090641749
  0.4000741127986436  0.5963069523998290  0.5915913118062504
  0.3980904851646948  0.6004760270904539  0.8065810575419670
  0.4021025645134719  0.7965746968354895  0.2064599214066214
  0.3988010966322720  0.7970192211630998  0.4017368235016124
  0.4011001058429415  0.7988221791432739  0.5993213830167879
  0.3996595120933816  0.7990382333067862  0.7936918014039595
  0.5992070781350596  0.0015759483017628  0.9995931441710330
  0.5994574941615228  0.9983451278584272  0.1999284389973068
  0.5996498904197499  0.9990303778524610  0.3992988104409157
  0.5999341812453349  0.0037819062294187  0.5996233916328210
  0.5984147300352500  0.9925538879630728  0.8004591259847947
  0.5997333914025280  0.1997755245274390  0.9983740468064528
  0.5986057187411500  0.1985804473586716  0.2007639195311434
  0.5985010050185189  0.1986935465555028  0.4032580235679121
  0.5990959281909047  0.2022708351482647  0.7971583998586521
  0.6047043528226111  0.3971067683715484  0.9943849100554746
  0.5992426154726000  0.3990671798441761  0.1989104804298499
  0.6015968792833161  0.3984149965754604  0.3997790472807560
  0.6043561597510672  0.3955622266382803  0.6060226975585942
  0.6062655091841286  0.5971680460100702  0.0012537273560511
  0.5956023218307965  0.6004594706147758  0.2004744366943713
  0.5957810225654367  0.5990638339911341  0.4012335302821382
  0.5978058829798973  0.5975712148513116  0.5995870702713254
  0.5978448470702497  0.6010761403489404  0.8005583933592059
  0.6053874576896254  0.7995140170606774  0.9948160126571102
  0.6035628968224214  0.7998946995585081  0.1978724378826681
  0.6014483698991352  0.8007549847633263  0.4053765588046511
  0.5999187275024217  0.8001050884571133  0.6056111671246288
  0.7991531735087011  0.0015647695466441  0.0002773881488924
  0.8013422930289446  0.9946282282381669  0.1985181944711184
  0.8042953581587492  0.9981377876114882  0.3999586806533806
  0.7977693461515485  0.9999845330861159  0.5980351791898677
  0.8017477415998370  0.9950095196222697  0.8010880840250890
  0.8014606886803136  0.1990598816372947  0.9991175629902651
  0.7972833420222575  0.1972914857642665  0.2023573984867419
  0.7995403325071226  0.1993936487570870  0.4001036903224173
  0.7963646279315858  0.2019912306717288  0.6000910424759244
  0.7977558735020359  0.1958972699434876  0.7987782010048896
  0.8037924114411469  0.3998399610599423  0.9967797492641773
  0.8009284086242245  0.4004382683829276  0.4059359652428504
  0.7967993546638247  0.4019710498214341  0.7970368083576964
  0.8044628313828349  0.5983048533364197  0.0025682900462873
  0.7974850280765270  0.6063974900712974  0.2014015347183545
  0.8002813956620685  0.6003412917963840  0.3987717284929181
  0.7999347694634503  0.5957983371326014  0.5971466995470318
  0.8006484394434705  0.6054321409844013  0.7991589161609289
  0.8029637731329600  0.8008910977922713  0.9987654152366218
  0.7993261305766067  0.7983618473066564  0.3984009544931608
  0.7994318581559724  0.7978796013077470  0.6050425999687798
  0.9994178389299809  0.9967837147835104  0.2010284165197799
  0.0008406355280393  0.0006431037027583  0.3909822412721640
  0.9998017305132754  0.3985148730502429  0.9996488682193233
  0.2013865395334385  0.2004119933574862  0.4008213203690529
  0.2034234862986686  0.7979040870462233  0.8047012534520174
  0.4027722273659713  0.2005142829484759  0.5972593436761433
  0.3975179129675345  0.6026498652653424  0.1986711158765154
  0.3998595861980415  0.5989237210046767  0.3957666311528367
  0.5965973674011721  0.2000737023572708  0.6002441719856085
  0.5993631209809757  0.4035171723698282  0.8006687141375883
  0.5997469810875204  0.7970622205795220  0.8011671769342722
  0.7994307792974614  0.3991934448279807  0.6016386565128249
  0.7989622362013536  0.7993548128611613  0.1987338263398812
  0.7971252975106827  0.7985388554331428  0.8014219173899494
