Zr V  Cr W 
 1.0000000000000000
    15.4863295998759050    0.0024137293282322    0.0105674120120943
     0.0024156779473548   15.5040449564505511   -0.0174543962439357
     0.0105707746262879   -0.0174578174046017   15.4782021514271442
 Zr  V   Cr  W  
  10 107   6   1
Direct
  0.0005510818385344  0.9650615480386704  0.7552132074213534
  0.0002623026395615  0.1925372074594939  0.6070735956375880
  0.0009914217984435  0.4373529063530171  0.0408721773414005
  0.0074839142369039  0.5780422257844612  0.2281651532902857
  0.9616726077160501  0.7918101085790855  0.1931934272216761
  0.0012744623149372  0.7807219233988407  0.6068067107201806
  0.1659829503791042  0.6017221243811599  0.6045715678922217
  0.3589336440245414  0.8052981895196678  0.1990829533711751
  0.8318598885592176  0.4315683423493741  0.3962425750727580
  0.7509534611748671  0.7925705235810141  0.1981370810756334
  0.0010241014120672  0.0081099085850931  0.9981026596631463
  0.0032007427043022  0.9971954230027368  0.3939625045683328
  0.0011529768128432  0.9905664527460173  0.5691616442746058
  0.0007716210737161  0.2000287615135609  0.2018330793866783
  0.0010048481181489  0.1995652621415336  0.3995429728211289
  0.0010074912881910  0.2039136197539012  0.8085623938681000
  0.0000051523666968  0.3873016993781531  0.2311841331016648
  0.0186983830402114  0.3981147945317903  0.4069027814221082
  0.0019107641378198  0.4033219747125136  0.5996816966525019
  0.0015873874577099  0.3983633898061931  0.7999730901919745
  0.0017221398497493  0.6249510698023365  0.0189727574287311
  0.0011465637706942  0.6030411649332208  0.4372354372220241
  0.2041889987073605  0.3962867873917475  0.6017004501804040
  0.0009781408406841  0.5907071455912984  0.8238224135402274
  0.0017646510625957  0.8142098196046403  0.9922408646440800
  0.0007144373987182  0.7995533564020902  0.3968016662379581
  0.9997267079279624  0.7793465856575713  0.8071764484205299
  0.1997015772406507  0.0034057557833296  0.9966560221708175
  0.1998134488960785  0.0028578814891935  0.1978442071193997
  0.2017413462811088  0.9996814784064414  0.3963157391411025
  0.2008835157112756  0.9994432918261481  0.5972289690472282
  0.2033670546224972  0.0000116316467377  0.7992325547675647
  0.2018803020869369  0.2021526644653763  0.0002398193572061
  0.2012225664271685  0.2012674527243330  0.1989197323713649
  0.2027096236745133  0.1980203062214669  0.3987793019694663
  0.2018035077562440  0.1987900494492011  0.8012509787168156
  0.2040039043917435  0.4005067445117059  0.9992217485331860
  0.1988909051152541  0.3994490313412925  0.1983876024254929
  0.2077425626881505  0.4014031316352234  0.4010051577692036
  0.2019370473120740  0.3998424976595085  0.8004125340651891
  0.2024341455591311  0.6025364350088853  0.0029157457694091
  0.2095876330780530  0.6009783712086926  0.1988152039661721
  0.2001293027200100  0.5989245037337528  0.3935896074483305
  0.2002997701690237  0.5989979892191882  0.8083186871922610
  0.1997581550215304  0.8033627796762000  0.9998474324900658
  0.1719472976028760  0.7976042508100646  0.1971135103856115
  0.1997896926345449  0.8001826358541555  0.3962112132774171
  0.2071888451103553  0.8030491190514005  0.5985323334721458
  0.1991524237222237  0.7998140437989423  0.7989747576711305
  0.4014344390354165  0.0012617508715358  0.9979476970307988
  0.4017929505693327  0.0052037441893564  0.1978447595030785
  0.4002334709580588  0.9990482893848552  0.3985201266566988
  0.4023286472605606  0.0001331770892250  0.5979542613635317
  0.4006069398123787  0.9992293118624578  0.7963600862154881
  0.4015088969927621  0.2008037397822779  0.9982869492764326
  0.4009297180725206  0.2014915364225892  0.1994039564416362
  0.4011182095583497  0.1987167007962351  0.3991390893435612
  0.4034825232514974  0.1986630770002503  0.5988231656951621
  0.4012739192468016  0.4009063922391862  0.9989223075838842
  0.4001584140331210  0.3986547210845936  0.1993106208996338
  0.4019412214304386  0.3988133529337263  0.3999790794087249
  0.4012780352134920  0.4004317110980030  0.6002648119448439
  0.4021061276787269  0.4002410104340918  0.7986862318465642
  0.4031677153881312  0.6017575737588189  0.9993935789715249
  0.4050709622056786  0.5948965288863602  0.1997665758265895
  0.3994110643592154  0.6008640107769090  0.4012943170812843
  0.3996730208123683  0.5995261975312366  0.5991330676891050
  0.3996106530905260  0.6001031227878495  0.7992807747308400
  0.3999201535287196  0.8018053069093862  0.9943357510153089
  0.4002528176157085  0.7996456349655117  0.4026772014393787
  0.3997555374304703  0.7988995198986664  0.5999474247809625
  0.4005554616582280  0.7985002815363951  0.7985599213887034
  0.6007064734040164  0.0002045744525254  0.9982509880031536
  0.6006729686310526  0.9974275979181256  0.1982206271482508
  0.6002718323813842  0.9981404430946822  0.3973183641883785
  0.6006103910391344  0.9992139323843505  0.5966451188556138
  0.6010799639482971  0.9979702013048586  0.7972691329771852
  0.5996814871293306  0.1993739906363920  0.9993634169676046
  0.6014963583447094  0.2013319188078185  0.1982965497852634
  0.6013109144360843  0.1993725330177249  0.5987406810545411
  0.6010199484872644  0.1999641852718006  0.7993452174348330
  0.6013960183249787  0.3997527551926290  0.9982235284318201
  0.6024056061337103  0.4011815349556359  0.1990883832345491
  0.5989353783501877  0.3984360453094976  0.3980018199531923
  0.6029099081811905  0.3995274647523535  0.5972639789620278
  0.6009432202671180  0.4006272711074393  0.7987416167278307
  0.6028022011216159  0.6006491504591867  0.0025456889381532
  0.6043335260746668  0.5995158992988884  0.3950575467546603
  0.6009967210995973  0.5994418578122616  0.5971220811972364
  0.6039544074044582  0.6002853313188012  0.8015194179569735
  0.6015522137975445  0.8014915573995489  0.9976744667394444
  0.5648579240488166  0.7911728129047921  0.1985347258071028
  0.5985751035325377  0.7999031993121013  0.3984320727729342
  0.6006894289189919  0.7991924759878939  0.5985437217470313
  0.6004434662128204  0.7980195040918970  0.7984299048682499
  0.8017433476558817  0.0021426727709219  0.9960912981175576
  0.8009937242656534  0.9989679727639847  0.1973877649994391
  0.7991976997404115  0.0013133861019081  0.3971640533579574
  0.8025751673561368  0.9990428898260107  0.5982004240787178
  0.7983315904399317  0.0001881860714191  0.7978715846986920
  0.7997139598670832  0.2013804308520583  0.9986827163844353
  0.7993340619869229  0.2004855059200072  0.1982656259199081
  0.7996705767909286  0.1968306056087682  0.3984881085478720
  0.7963768237071384  0.2020112722719315  0.5983567262199557
  0.8006991620175247  0.1993818705360396  0.8003586877431822
  0.8040739250607253  0.3986076065294093  0.1931539576662147
  0.8027340207846704  0.4023940253196887  0.6003106196813446
  0.8013866151615929  0.4008264537518881  0.7986801725867581
  0.8039018033681554  0.6020457105909723  0.9992776518930313
  0.7942996333940298  0.5949284331943905  0.2079086939572777
  0.8026755650131433  0.6187116557456680  0.4025115775147092
  0.8006553110357730  0.6008174553059468  0.5979949568549559
  0.8047071821689757  0.5995290900128021  0.7987944187485474
  0.8022644086173288  0.8032766153513432  0.9964807596853238
  0.8049553299070114  0.8070485603249979  0.4010939052654956
  0.7946254921116150  0.7997722291350440  0.6002495131777873
  0.8025014567936671  0.7994377708910015  0.7974603875449964
  0.9997475444486545  0.0037760386125978  0.1966486278333514
  0.0009030446011154  0.2027090985669601  0.0033026892275641
  0.2062917259878382  0.1992062364622245  0.5999090214554845
  0.4021192148795191  0.1999572821984137  0.7988441144986976
  0.6001595493443681  0.1986878515059063  0.3978281362822103
  0.7986114772317181  0.4006951061275599  0.9969595621104966
  0.6018810602235679  0.5984760405171293  0.1981110630780955
