Zr Ti V  Cr W 
 1.0000000000000000
    14.7071598367653440   -0.0722959076668471   -0.1407620477832918
    -0.0718583282393287   14.9361307179558249   -0.0723491441980377
    -0.1399372016868833   -0.0723427626617826   14.8364601065611943
 Zr  Ti  V   Cr  W  
  10   9  92   5   8
Selective dynamics
Cartesian
  0.5174213204378173  0.7128845668501573  8.0074716984629877   T   T   T
 -0.2798628865221358  6.4122367160104314  9.1408703921454979   T   T   T
  2.7591535591771161  3.9386969046393983  2.2534686325726034   T   T   T
  2.2904785845610007  8.4781869915503929  4.6829169556441741   T   T   T
  7.1981208954731279  8.1116177534119487  7.0442824806423756   T   T   T
 12.7401798124160912 -0.5381804104011267  8.3800146690480073   T   T   T
  6.1725799357450990  9.0338429404934555  4.7997369610101774   T   T   T
 13.3777533294058326  0.0156971065356591  1.4274624345236693   T   T   T
 12.5139592979444352  9.8344552692850140  3.5516603378745657   T   T   T
 17.4430011769533060  1.6985916031823760 10.1273172370204279   T   T   T
  2.6267331275993517  0.9225650528529343  2.3242560933312046   T   T   T
  2.2047535286004898 11.0033794723998088  1.3594185857978456   T   T   T
  1.8773474453844672 13.8562510757266679  7.9456269189808229   T   T   T
  6.3694821068564549  1.0508763761460811 -0.4081451801232729   T   T   T
  4.4825738752604334  1.4936492102352297  9.3483670160617862   T   T   T
  6.1297859181992500  5.4985995755103811 -0.1573485617178322   T   T   T
  3.1976850509895045  9.8601178112693457 -1.9451859178778448   T   T   T
  8.4460362523905399 16.6743883754896665  3.8715491224589815   T   T   T
  5.8355468999023348 10.4604463728021155  2.8076653678160075   T   T   T
  1.1016827049485911 -1.6424414011314346  4.9077556966489277   T   T   T
  0.7081212131902324 -1.8948940435062946  4.9793792895217699   T   T   T
 -0.7257312617039031  0.6309974105980025  7.9411532537512368   T   T   T
  4.6761402013543343  0.5225201046373238 12.8955710743370346   T   T   T
 -1.3011215351880805  3.4860198346848050  2.8271909769939381   T   T   T
 -0.7834832150650309  0.6940021845154442  8.8504309590263581   T   T   T
 -0.4644886412714451  2.7269967299172255 12.6812242365600412   T   T   T
 -0.5158136877853121  5.8664661362663448 -1.5954180200236854   T   T   T
 -2.4388466112384344  6.2999819339425462  3.3734665611676173   T   T   T
 -0.8196596963441249  6.0723150429295343  4.5169442413122010   T   T   T
 -0.4894722940015345  8.2481665270986273  4.7739226153246257   T   T   T
  0.9847100353257285  8.6007575894145347  3.6469956991331243   T   T   T
 -1.5968369191492799  9.4703475824995778  5.7049635648397095   T   T   T
  1.1660142527719985  8.3195553648401717 11.5065947451024133   T   T   T
 -0.8885763250143757 11.0727949586941783  1.1903773333833532   T   T   T
  1.5561357367535003 12.0328592883099326  7.3647066432833483   T   T   T
  0.9493144551523094 12.5900037233287136  5.1968797251592420   T   T   T
  1.2269172927676597 12.4722415024929258  9.8574025724846699   T   T   T
  5.3348216472352510 -0.4214643760349682  0.0463867675272787   T   T   T
  4.0846450229115021  0.9328031824883682  6.2869808285068736   T   T   T
  4.1602871045638903 -2.1417510024973150  9.8134771259715912   T   T   T
  3.9396485469712772  1.2449131115592058 10.8315490094721962   T   T   T
  1.5571228847923846  2.3922613579269769  4.2943891841977422   T   T   T
  2.7230028649966989  3.5433519175288968 11.0883652855291732   T   T   T
  1.7067848821962093  6.5162331911969513  1.4482234789886070   T   T   T
  1.4773959468325653  4.6892882208553024  2.6563512376716414   T   T   T
  3.1188717242601918  5.3668710776253477  6.3165826446708788   T   T   T
  3.7314614946981410  3.1030148886470053 10.2318582554537958   T   T   T
  1.8941756830712950  5.1717293902208947 12.8363715533379334   T   T   T
  3.9056435783642880 10.4983242789298110  0.9184531072744120   T   T   T
  3.4610260458076070  8.5715973218049797  8.5364326584195513   T   T   T
  1.7675090910771265  8.0436248867928466 12.1826233208936490   T   T   T
  2.0311134744802564 13.2455149923534243  0.7418090615947848   T   T   T
  3.3015220747932896 10.9994320652462747  2.8698611403037897   T   T   T
  3.0729262995737576  9.8231466895812165  3.9761510226373535   T   T   T
  2.4562873326849188 13.3292772838174969  8.4465153800372548   T   T   T
  2.6681950630240654 13.5544494708499723  9.4077484537526690   T   T   T
  4.7944120786892555  5.9756526008162556 -0.3856851031575706   T   T   T
  2.7186526958509547  2.6914480912837111  0.8485369024906215   T   T   T
  8.1235634997977311  2.0841999664870805  5.7936311991521929   T   T   T
  6.2921099797778517  0.3496456601324347 12.0470970048898405   T   T   T
  2.6484682001758473  4.5856224709718898  0.0094001863957880   T   T   T
  8.7893755395315303 -1.2703621619455800  8.3555788186214475   T   T   T
  5.1990118561202463  3.4535340441049089 12.5783401987173509   T   T   T
  5.7014288345725737  6.5455890646390049  3.0771981610831221   T   T   T
  5.3658414794812739  6.3888353489333669  6.2989783309909742   T   T   T
  5.6349811650626016  6.2806098853173200  7.5330691256726290   T   T   T
  6.0913179774721886  4.7709790538724235 12.2176610540964248   T   T   T
  3.4182602060863658  7.8306144863741656  2.0850844024021797   T   T   T
  6.6529654677091763  8.4285549220177476  5.2162463107391588   T   T   T
  5.8829838581338976  8.7402052317238166 11.0669983167879629   T   T   T
  9.3730669338253421 17.0414252048366706  5.5625594378553700   T   T   T
  6.2161119101450479 13.0471987314075708  7.1942253716071534   T   T   T
  5.2761515201832978 11.4291859088462679 10.3987915703717100   T   T   T
  4.4429102381668946  1.0160092423432823 -6.1198841478064558   T   T   T
  9.9276729338141756  2.5168709462570797  5.5400324940831442   T   T   T
 11.1043359448634629 -0.8231556447439528  4.8966467772619389   T   T   T
  4.9165262779676207 -4.0521888458115454 14.7612590723023658   T   T   T
  8.5011338437033750  3.9031024482953578  0.0215066085534400   T   T   T
  7.1106828343127511  1.5254947868704747  8.2779688972995693   T   T   T
  7.4892227236514417 -7.5349577272925030  7.5992724788264425   T   T   T
  9.5148553418060686  3.1215453460238716  9.9714374588962791   T   T   T
  8.1650674634839504  4.2916742424043957 10.4740627617636051   T   T   T
 11.5197641573489786  7.0337976802653408  1.3420050424316954   T   T   T
  9.3704810893568915  7.6883659253252166  2.5704468505417011   T   T   T
  8.0117491734760353  6.3284853112375945  9.6240269221822352   T   T   T
  8.8613309819147581  6.7616330257379538 10.2979635660596927   T   T   T
 11.7974584416364827  9.8967228620410648  2.6711444342492516   T   T   T
  5.1908265170428365 14.0996831472470703  2.6377333452207963   T   T   T
  8.8981781484495475  8.6601371006428725  9.1519263166230953   T   T   T
 10.4643483545952556  6.4720806220611715  8.5715523367511484   T   T   T
  4.6337588122471196 10.8232494918929767  0.8213873311244988   T   T   T
  7.6652956901011366  8.5585721727725002 -0.1614493097055701   T   T   T
 11.7871374488885792 10.8154259305133582  6.6402919216512171   T   T   T
  7.9396648015301627 10.4344912969924835  9.2757531571543499   T   T   T
  9.8826765556297804 -1.0531212579630547 -0.9622666387375093   T   T   T
 11.6615038499188266 -0.7150828995484237  5.2369872521729386   T   T   T
 16.3842709482468258 -3.2242709423802198  8.9127196627023384   T   T   T
 13.2782813496348968 -0.4306052552691131 12.7436461935323422   T   T   T
 12.7437484702925516  5.4977495784866113 -4.4837983451677568   T   T   T
  3.0406546303009501  4.6975338656273546  6.7240887891888228   T   T   T
 13.7934450090858061 -6.3858391530979812  8.1285532677734498   T   T   T
  9.5876644965765170  2.2076409538866377 11.2639282744567204   T   T   T
 12.1569114948876873  3.3706776305056296  3.4029268387468425   T   T   T
 10.7913216083554317  5.1727943686129976  6.2043825334584124   T   T   T
 12.0057386174511880  6.5589293553965708  6.9256428851361527   T   T   T
 10.4444341592130030 10.2220938192508211 12.5224060856543851   T   T   T
  9.5047567741052994 13.1567845935997880 -0.9561840130590689   T   T   T
 12.7286256496436696 12.7298298229162565  7.7061355825799751   T   T   T
 12.3309864741704160 10.6923399689917105  3.2937397482111361   T   T   T
 12.8281565051058823 13.8896030358159752  8.2742827811874466   T   T   T
 11.8306093779764847 12.1402747577469725  7.5350212825118845   T   T   T
  1.9269939031428147  2.5764985268378244  5.5162308073969530   T   T   T
 11.5937570765870568  6.5955079174201048 -2.1028143151437750   T   T   T
 13.0405654570266485  4.7928221237310984 11.4230789197444622   T   T   T
  9.0337282895030064  8.8530647504814581 14.3152890017349446   T   T   T
  6.7972516906743614 11.5352544278094662  4.4936543077873923   T   T   T
  1.3241722786109400  0.9627824346403366 -2.2526751297865961   T   T   T
  1.0488197529312211  6.9967268521051427 13.2506032814330066   T   T   T
  0.8500895574477983 -1.7447682843712955  0.9643805015937358   T   T   T
  2.7256083836274851  1.4317767169346978 10.7626356743866420   T   T   T
  2.9589130962028856  9.0868462909533942  3.0108030774565395   T   T   T
  4.4901066674408936  4.9572807864413404  4.9671963742355727   T   T   T
  5.1522844762667681 10.5123383108883584  4.4317367373049059   T   T   T
  7.9107682332857561  6.1623996670715284  0.7244501067824975   T   T   T
