Zr Ti V  Cr W 
 1.0000000000000000
    15.0078845484424495   -0.0371032033076331   -0.0568674409448642
    -0.0379816645485757   14.7700622615801169    0.0305603501006541
    -0.0572556391194770    0.0305298908615180   14.7652161918708131
 Zr  Ti  V   Cr  W  
   7   3 108   1   5
Selective dynamics
Cartesian
  0.9544615339158834 11.7417451525840750  6.0898120591554115   F   F   F
  3.4667232516280739  0.1120243360884910 11.8013297638689814   F   F   F
  5.8481970875793614 14.9599561783313710 14.6087422899256794   F   F   F
  6.2304353583246401  5.4619511055547143 -0.5395719092567620   F   F   F
  8.8217191214483925 -0.1948175123104829 12.2183466446975917   F   F   F
  8.6889467218328846  5.8438055286752641  8.5608390444541271   F   F   F
 10.9661918783306689 12.2328061067943015  6.6336980443438645   F   F   F
  5.0901138848298624  5.8189056110369251  8.2106149724610642   F   F   F
  5.6258584914005327 11.1593033464797440  8.6540901305986555   F   F   F
 12.3315505418227946  5.8196078388643295 -0.1922672809828887   F   F   F
 15.2408040519899046 15.7395714101389164 -1.1857723615586906   F   F   F
 -0.3371264784424965 14.1570996775538056  3.3832924948161565   F   F   F
 15.0713641512334480 15.4046382145835246  5.5434383582597109   F   F   F
 -1.0019752873529770 14.2479430822572635  7.8254742962473456   F   F   F
 14.6831069430020467  0.1756858900129715 11.2067136322576406   F   F   F
 -0.1657626569488104  3.3255975982694528 -0.5252013118781271   F   F   F
 14.8342220253021004  3.1573388554203277  3.2668240120774472   F   F   F
 15.2296768827717592  3.6257368646392076  5.7673442720255164   F   F   F
 15.0900981738752691  2.3123248214920551  7.7835525580597942   F   F   F
  1.0089383440722537  2.9848030905559022 11.5109536943266768   F   F   F
 15.9512953894113885  5.4694602341708620 -0.8492462864120535   F   F   F
 15.0105585491341156  5.5246159757585449  2.3270536135323301   F   F   F
 14.3584031201242173  5.8753509122567351  5.8276911473310484   F   F   F
 14.4726551713482916  5.7498017953012894  9.4017594567378602   F   F   F
 15.1967879131966885  6.7929098684290512 12.0174835094380654   F   F   F
  0.3696513956721492  8.9585525411730114  3.9034851972450482   F   F   F
 14.6983137757429976  8.2994990886228504  5.8700205997934756   F   F   F
 14.7286009858937739  8.6806921455647448  8.0675280853789211   F   F   F
  0.4128140014381095  9.8359815304472296 11.6815746872719419   F   F   F
 14.4278654617246520 12.4173003507475617  0.1311918727614600   F   F   F
 14.7487975086033813 11.5411456170985058  2.5368123287141553   F   F   F
 -1.0954163482324601 12.1911495805736987  9.0543720048186866   F   F   F
 15.5895507250632850 12.7187189288047175 11.5353200602630359   F   F   F
  1.9892295813059413 14.3164088228329565  0.1648536676453317   F   F   F
  3.2272451380219049 15.2829160585127113  2.3768150845980922   F   F   F
  3.2508269097818876 -0.3373640357854735  4.7948748006916961   F   F   F
  2.0669765800285589 -0.5829143214891763  8.5177725679028136   F   F   F
  3.4953111873412546  2.8763228214867191 -0.5147892683621057   F   F   F
  2.6517898217647367  3.1035723242078053  3.0896953562748388   F   F   F
  2.8986366621748263  4.0099146275265145  5.5916902552484764   F   F   F
  3.8713616733447656  2.4126137989508516  8.9762487391220809   F   F   F
  3.1135931915510024  3.5869013781560750 10.5593910752450615   F   F   F
  2.8273348263462408  6.5899474536238216  0.1869657123173050   F   F   F
  3.7564133713549772  5.5152050862939745  2.1870352166176783   F   F   F
  3.0138788346105758  6.5535668345927860  5.2233283960715440   F   F   F
  1.3963659953246985  5.5134984020819191  8.8071165039936119   F   F   F
  3.6099830871885916  5.6098119411317953 11.7278268077956636   F   F   F
  4.2853153841998006  8.8590182739647947  1.0719941587743873   F   F   F
  3.5510474548025734  8.2501316290079174  3.2401661380569826   F   F   F
  2.4917947898030857  8.3553096362804258  6.8323439097755081   F   F   F
  3.1692241859866814  8.5907429943833602  9.3783918932376675   F   F   F
  2.8761213887909483  9.0882660318978790 13.1060170609363329   F   F   F
  3.1373012225913408 12.4271620841110764 14.5675327967024977   F   F   F
  2.3170869795088005 11.6548762805346975  2.6240428566016232   F   F   F
  3.9467927258913673 11.5085001566516993  5.2389375684650981   F   F   F
  3.2367538843546710 12.2589123414032866  9.0640803508575178   F   F   F
  3.8958944331091314 11.0091503981924586 12.0639996891681278   F   F   F
  6.6802215959910409  0.0849844767305991  3.6919097553569187   F   F   F
  5.1956681377689033 14.5740597374838909  6.7985856604167081   F   F   F
  6.2030708225773274 14.6339969926963978  9.5804920123904438   F   F   F
  6.1574227781213207 15.3157240245527468 11.9423546804617313   F   F   F
  6.9783997365142749  2.9189215822276808  0.7683242466464184   F   F   F
  5.7730463706464850  3.0299973048804203  2.3340147279072809   F   F   F
  6.7669374723294009  3.3281852076452290  6.0357216318847788   F   F   F
  6.9323287837862324  2.6289463432385114  8.3196525741561924   F   F   F
  6.2545900617067716  2.6632354897167922 11.8942245730496197   F   F   F
  5.7566670461287677  6.8150595399760396  2.6291122391679207   F   F   F
  6.4953256426443220  6.4209996218800205  6.0157140460481804   F   F   F
  7.1347610708452400  6.0773823151325539 11.5054137531044329   F   F   F
  6.3542773534336545  9.1417097521425159 14.6444405301039282   F   F   F
  6.1096248682196519  8.5161949564827175  5.8986674801186352   F   F   F
  6.9488199630698952  8.7717269247997383  9.5644178617834097   F   F   F
  6.2466672540314612  8.3383908834928704 11.5133295161312024   F   F   F
  5.8600461712463066 13.0046524790881826  2.5850919312651199   F   F   F
  5.7885535779715163 11.3917141260680452  4.8024278474579889   F   F   F
  5.9732976180157893 12.1100682167086848 12.2900436101247053   F   F   F
  9.3691312424504929 14.6973056029199327 16.0781731029586226   F   F   F
  8.4324321996405267  0.1177591294044854  2.5803303795028314   F   F   F
  9.0176876858474184  0.3676850876475265  6.2764316914186757   F   F   F
  8.5918772258730058 -0.8115512314140407  8.3212245445819839   F   F   F
  8.7517602052073986  2.6550773429142320 14.6653206315614320   F   F   F
  9.2549999360825730  2.9229632314136298  3.4946098497575973   F   F   F
  9.0273305234575076  2.1647263650601634  9.3792418869397913   F   F   F
  9.8071772617953261  3.3119771562011620 11.1994661734492365   F   F   F
  9.1448530903226004  6.0939278503234942 16.1649560757691333   F   F   F
  8.0603972339125320  4.8733807142271139  2.7653404284012661   F   F   F
  8.8276225374052455  6.1686717965393161  5.0829201430156292   F   F   F
  9.2886550698763433  5.2732107696853650 12.3011182226982463   F   F   F
  8.6039403888682617  8.3343186356879357 14.2262341056890378   F   F   F
  8.3783526857963952  9.3114210779531348  3.0109154604513808   F   F   F
  9.7735972067787067  8.8104422532025701  6.1841933888555340   F   F   F
  8.8383783279636798  9.4602637647219119  8.2420487434377954   F   F   F
  8.5391822510751361 12.0811974784892850  0.1799832674484317   F   F   F
  7.7379046444077391 11.8224493766899936  5.7000855748476162   F   F   F
  8.9768954409800656 12.0293249651868557  9.6784240109151423   F   F   F
  8.9230778806711921 10.8040476116110380 11.7229341179473874   F   F   F
 11.2145681202729328 -0.1025691139460893 15.0170030408379898   F   F   F
 11.8847378352097781 14.6424571517320707  4.0456019044073717   F   F   F
 12.6319062841699949  0.8630451107780467  6.7205363647120864   F   F   F
 11.2805326677995108 14.7737009014947986  9.2476296264112108   F   F   F
 12.1396474170124353  3.2368788274748912 14.5594910082116460   F   F   F
 11.2318085021879970  3.1236472168374361  2.1422983018973589   F   F   F
 12.0928016965515344  2.9837365265148845  5.9073758132881089   F   F   F
 11.2891616337851666  3.6677468660584274  8.6187631970341467   F   F   F
 11.6542666680999378  2.1663850192122975 12.2831331362972431   F   F   F
 11.5865077974182782  5.9008229865260722  3.4675373894312109   F   F   F
 11.2134138093339804  5.1847005798876911  5.7745237473812949   F   F   F
 12.3950484474098026  5.8564589995893179  8.0938028290168695   F   F   F
 11.5906805815458505  5.7399472665797777 10.8165295668442649   F   F   F
 10.7488842360096370  9.2151151882868554 14.8656232723362596   F   F   F
 11.9283202565545050  8.1508473264554180  2.6965725592057428   F   F   F
 11.8555164040102881  8.7554498139685091  5.6973176795549776   F   F   F
 11.7664618090601873  7.9416741832077964  9.5820870950945949   F   F   F
 12.3992925430410974  8.8389373238911872 13.1224255492216457   F   F   F
 12.2570833514137316 11.2602563574229926  0.8580687721077936   F   F   F
 11.1162036771657640 11.8659057668143895  2.9459593227291236   F   F   F
 11.6102082082766120 10.1828491132505761  9.4492447090904648   F   F   F
 11.9750601996247568 12.5245780249931293 12.0805663816780271   F   F   F
 11.8342064657129900 -0.0558419761452049 11.5248179718004877   F   F   F
  6.0359236401353158 10.0238095469293675  2.7384405634948106   F   F   F
  5.3970912626088356 11.4852702386883045  0.4655452920019347   F   F   F
  9.2858634875955985  3.3756135113663581  6.5166592015608220   F   F   F
  9.3558786138107273  8.0032123023959016 10.9629326811922923   F   F   F
  8.3879232480366319 12.3581624189213404  3.3756185043112454   F   F   F
