Zr Ti V  Cr W 
 1.0000000000000000
    14.9295970875328319   -0.0579205173356371   -0.1168567097762796
    -0.0577481194497152   14.9295375314715013   -0.0207892862030969
    -0.1172507061835388   -0.0209773452344547   14.9305611757679557
 Zr  Ti  V   Cr  W  
   2  10  99  11   2
Selective dynamics
Cartesian
  0.1908530426779986 12.1863744132268970  6.0389990249268690   T   T   T
  5.5138969428809261  5.8343889336640506  5.3870365436571230   T   T   T
  0.4361647639694936  0.0815671314370843  0.0873256702892653   T   T   T
 -0.2380230739453274  8.4271193960010109 -0.5157992622560507   T   T   T
  2.6649416299429700  6.3681863433086532  8.1730307087462410   T   T   T
  6.6520208819635540  0.3645738905428464 11.9771363996673159   T   T   T
  5.5413985308680136  3.3662313722595849 12.0717112862291494   T   T   T
  7.9055640991072291 -0.3220781023386848  9.2748639897325216   T   T   T
  9.0467147509238597  2.9366701793389143 11.3990646267795217   T   T   T
  8.7253582533392517  8.7041985409416025  0.5019520027914924   T   T   T
  9.3195838534311441  8.9631411342776133 11.6369012757719084   T   T   T
 10.9047565007079061  6.2667158276185067 11.2800654939054112   T   T   T
  0.3626242105811384 -3.3531413252758138  0.9711669788345194   T   T   T
  0.0393236426473198  0.3536896228742955  6.1726245352591826   T   T   T
  0.6910500990208005 -0.5261181397517194  8.3744485443662420   T   T   T
 -0.5990646533396369 -0.2692405531116712 12.3970363553082059   T   T   T
  0.3646385843474805  3.0332837633798415  0.9236479424713784   T   T   T
  0.4086053556692981  3.5881933067586429  3.3432980669748558   T   T   T
 -1.0519930062023379  2.7236116757001074  5.6862349853424128   T   T   T
  0.2835144045089803  3.4333897302159069  8.3820996423163674   T   T   T
 -0.2664625465440709  2.4021612043988281 11.9731815960313916   T   T   T
 -0.8788796790055525  6.8773186457262225  2.1642501176268856   T   T   T
  0.4550619191695516  6.5418918927480316  5.9855945985488299   T   T   T
 -0.9163938256767683  5.8652768361805210  9.8540152575973945   T   T   T
 -0.6449850475439169  6.0263807921589789 12.5980208658903692   T   T   T
 -0.1517833525242486  9.3032170524110711  2.7844746695226075   T   T   T
 -1.0311246334952378  8.4889023157413401  6.1686800200395524   T   T   T
  1.4324322524440161  8.9809276226839927  8.8766870705843832   T   T   T
 -0.0945056457131004  8.7353534901798842 11.2784433526607266   T   T   T
  0.1199816841268437 11.8373926646308156  9.2798413584786896   T   T   T
  0.1486205658020979 12.3705162781469973 11.8714412220329049   T   T   T
  4.0295864197395090 -0.9861406787654108 -0.4383667665863679   T   T   T
  3.3996983602056448 -0.5430789911226764  2.2335944461719368   T   T   T
  2.2404182682585896 -0.5628046571142654  5.7069008507752663   T   T   T
  2.9596955861947079 -0.3407663923919360  9.7195445444761361   T   T   T
  2.0713864574126526 -0.9593463337676589 12.3637506258330134   T   T   T
  2.8218211720919548  3.9252154174175971 -0.0809047607558177   T   T   T
  3.3524967374387091  2.0894836236502212  2.5729538224992008   T   T   T
  2.1544414881271710  2.8406550243964404  9.6617368578795055   T   T   T
  2.2981803289523737  2.6472525416924308 12.2867987442870437   T   T   T
  2.7384784286018435  6.9987130477841637 -0.4388881311627082   T   T   T
  3.0150029839061325  6.9537108435931625  3.3883127763281924   T   T   T
  2.5835676715596398  5.2753811244178248  5.4906808197561165   T   T   T
  2.2156061621117691  5.4610367821852748 12.5088656740458166   T   T   T
  2.6268952157887431  9.4320961959761203  0.1914875739580999   T   T   T
  3.4182139125246600  9.4864693900945678  3.2498583176988189   T   T   T
  2.4470694919637173  9.7248272978635004  6.3680481562235434   T   T   T
  3.6745388171835032  9.1359051879570909  9.6690905392656923   T   T   T
  2.4142899560647608  8.0063693238812306 11.8211533533529884   T   T   T
  2.2503607081565073 11.9303696222748741 -0.7774256251743953   T   T   T
  2.3803168427823831 12.0914673453987742  3.9038415912841011   T   T   T
  2.4685353800943006 11.9789340780236806  8.6938635483956865   T   T   T
  4.1523164103779333 11.9584514166755778 12.3351195282900719   T   T   T
  6.4272602641040759  0.3509151014265264 -0.0605951310000288   T   T   T
  6.2620020199091506 -0.5936038689778345  2.8289250950762965   T   T   T
  5.8872059703628530 -1.3447418778843823  6.1425486296451997   T   T   T
  4.8563722481543614 -0.3289206273357463  8.1852237684449936   T   T   T
  5.3044054865391450  2.7767586323273754  0.8831550370948350   T   T   T
  5.1499946038413347  2.4388028025236328  5.0352204904157718   T   T   T
  5.5169023351238948  3.0843061435565096  7.7493749743519471   T   T   T
  6.3985522741861152  6.3129252766526358 -0.7897242519033628   T   T   T
  6.9717577376302371  6.3564958951087034  2.7044056293665082   T   T   T
  5.4950789603914716  5.3343910375424102  9.1093460623185400   T   T   T
  4.6842408348488709  6.6367857533859924 11.3349849207834534   T   T   T
  5.8409379584207857  8.4550889248588472  0.6594477848159608   T   T   T
  5.7817374083165127  8.4719768349046429  3.4470906937419619   T   T   T
  4.8208738808668210  9.3678423438639555  5.7658877470619530   T   T   T
  5.9899920229791022  8.0379911610859640  8.5484293199149040   T   T   T
  6.3179649208130728  8.6951579645013464 12.3368112947498325   T   T   T
  6.5528853353296999 10.9478465065025716  0.4792723718770107   T   T   T
  4.7740039075845351 12.4779028245075541  3.4745173545424968   T   T   T
  6.2280517870639152 12.3967145100031040  8.7410741143027320   T   T   T
  6.8553243397907782 11.2420109766202838 11.3853288581912828   T   T   T
  8.9455538545778968  0.4094931119875432 -0.8582384869594816   T   T   T
  9.5999382340764150 -0.2537411610224793  5.5437609280707196   T   T   T
  9.5062060313856112  0.1629006649978082 11.8502322850028730   T   T   T
  9.7086235219013464  3.2020059472892397  0.2453003831725151   T   T   T
  8.4393094832853262  2.8750765109433587  2.3949378809461317   T   T   T
  9.0058884853307379  4.3442814795062210  6.0830511681694803   T   T   T
  9.2096377719675342  3.8558988033560646  8.6924539864797215   T   T   T
 10.0852298463454577  5.4610842801219182 -0.9406779572206609   T   T   T
  9.5266325850142159  6.3187220470748287  2.6894996018527899   T   T   T
  8.5621149375315149  6.6952743833136248  5.3408405338378184   T   T   T
  7.9502626098430165  6.1415933430766847  7.9775521772927984   T   T   T
  8.1167288022527604  5.4829413200555281 12.4464719022269534   T   T   T
 10.2211049889325007  9.8038895354973015  3.9958019149193875   T   T   T
  9.1133880669041289 11.8542364311846438  0.2121454659341134   T   T   T
  8.6183390401200057 11.8656402955783733  2.8490586214913134   T   T   T
  8.3830279100115774 10.8918412867469083  5.4269300079128282   T   T   T
  8.4480483917539786 10.7978703914251568  8.3759407919448599   T   T   T
  8.9570539189111127 12.5572150628002124 12.4415334701820761   T   T   T
 12.3752630156733154  0.0820706718232710  0.8966959371654147   T   T   T
 11.2891399686931848 -0.2614709174663997  3.4384489377036513   T   T   T
 12.3940650025324519 -0.4550190290102117  5.7982743904255534   T   T   T
 12.0752694377824632  0.1664017555276964  8.4329367236764199   T   T   T
 12.2235982959814926 -0.4674495028331341 10.7301292364774472   T   T   T
 12.3117195125932231  3.5037366366894234  3.2977842838656173   T   T   T
 11.3762122643488155  2.9889379075658082  9.2793096649450675   T   T   T
 13.1711579068598308  3.5483089044696441 13.7011762938388220   T   T   T
 12.7235883474847178  6.0402042846067481 -0.3461976152976562   T   T   T
 11.0569242980394655  5.9226726454160463  5.4945679060687773   T   T   T
 12.2128111850822094  5.8719278877717258  8.0358545344109338   T   T   T
 11.2538242362373868  9.9204582697475345 -0.0381712435993995   T   T   T
 11.5641268459190449  8.4668554332099202  2.3066006693316337   T   T   T
 11.9131721853134138  9.5242925257680042  6.5242446200029480   T   T   T
 11.1463749842924198  8.2983133645884841  8.9764983675360224   T   T   T
 12.3843854829660902  9.7418095171743389 11.4266009694609529   T   T   T
 11.5715516563174852 11.8865461445200662 -1.2349004614761998   T   T   T
 12.5344683238501435 12.3402967816246942  3.6144139553501748   T   T   T
 11.1172750754744456 12.1460504374185803  6.0271171553371676   T   T   T
 12.5018983742874816 11.2880036788729576  8.6803810907006795   T   T   T
  0.0966257419180663 11.5655793335983645  2.8673293832747957   T   T   T
  2.7935732156799764  3.2055983380208493  4.4462966064255376   T   T   T
  6.0898279598130429  3.7823672249570905  2.9162124572251864   T   T   T
  6.1711050569748620 11.2736595692151607  6.4847176284174752   T   T   T
  8.9230606400103341 -0.4822723906614882  3.2100009074078324   T   T   T
  9.3680659806552882  8.4683698186710235  6.5625147939057973   T   T   T
  8.5968662535429754  8.2417759454629280  8.8190544245310214   T   T   T
 12.0563573450897366  2.7541825727609384  0.9413177597943543   T   T   T
 11.4143155815541348  3.4582854439722364  5.6528505096360178   T   T   T
 11.9408087083708185  5.9928911463230925  2.5422708398493592   T   T   T
 11.2931233760353678 11.9568548754681192 11.1079146669174733   T   T   T
  0.5842270305090262  5.6071261975280757  0.1658996762787951   T   T   T
  3.5034964247568610 12.1741325059034509  6.2468397578511823   T   T   T
