Zr Ti V  Cr W 
 1.0000000000000000
    15.4243531601052801    0.0069213360103042   -0.0227130969377285
     0.0069117328085832   15.4243730448160701   -0.0099851585265742
    -0.0226677546087976   -0.0099574154515165   15.4321734753061364
 Zr  Ti  V   Cr  W  
   7   3 108   1   5
Direct
  0.2041979604465693  0.0022677206600999  0.2119517719258967
  0.1707782755369620  0.7669867135863364  0.5975296725359259
  0.4023600624293422  0.2016532978947024  0.9975807217240127
  0.3645192866336533  0.6336469084414433  0.5996757499278326
  0.6377225859433445  0.5989493415686222  0.0388904530108508
  0.8049849950058342  0.5981167947487618  0.2079896870183628
  0.7598969712893741  0.7998842066832638  0.5989364202682819
  0.9891767068079420  0.6006048163430563  0.3872327978410099
  0.2033242130645983  0.5991509934643051  0.0049361458151118
  0.5591996561489745  0.7868312531759205  0.5972715324400616
  0.0032464321858425  0.9974015557880916  0.7900144545532519
  0.9978778455769794  0.9991795751696392  0.2060802175108400
  0.0049599946386074  0.9972358129764463  0.4043198972207164
  0.9998353499024798  0.2029586364831060  0.9996565824368311
  0.0012909715583109  0.1987175675748777  0.1972704505547907
  0.0003185357581830  0.2011865590550517  0.3986243250973013
  0.9985553172978302  0.1952732002782795  0.5982091891706079
  0.0060842389692739  0.1989244530228986  0.8005785130298451
  0.0016641944614104  0.4019716455286698  0.9991606009351245
  0.0014043743009116  0.4016375832783466  0.1983460803203233
  0.0011046294936916  0.3988541453760190  0.3986251989725361
  0.9962634406471421  0.3962502511403772  0.5982490033424319
  0.0035509702001022  0.4014308397265262  0.7986243565995720
  0.0099331810060534  0.6047823941017325  0.9968871393285282
  0.0094010565462667  0.6004046349992218  0.1952582458483174
  0.9917968000596269  0.5994011295959114  0.5997215641628120
  0.0039994502073450  0.5981218539514258  0.7978455618308234
  0.0004937823649993  0.8003812708593031  0.1925764863274625
  0.0017004230788498  0.7976948084296309  0.3993245814304748
  0.9747837533658510  0.8033107106312569  0.5981838575394083
  0.0036754219082371  0.7984570904435071  0.7995853430450914
  0.2068539798191479  0.0007574155004653  0.0014070573913397
  0.1963728595946575  0.0055647701525139  0.5996402226252454
  0.2033569114825070  0.0033610356037210  0.7995173574038813
  0.1940228568967113  0.1979248379053639  0.9964298630909857
  0.2011072845971284  0.2058472413517670  0.1984040138372885
  0.2013418833085929  0.1968429146925693  0.3977739464821660
  0.1978382697372299  0.2004524331615584  0.6038987136536061
  0.2005133738934038  0.3999390816564521  0.0001117066989538
  0.2022801497495819  0.4017442399607470  0.2003213678893224
  0.2013374638772258  0.3976293853629512  0.3999110971563904
  0.1976693597804232  0.3958581544941038  0.5975794995171073
  0.2076633342405611  0.3948620781220818  0.7993441698199777
  0.2032505689449464  0.5984846533928014  0.2071249744396180
  0.2006290831590111  0.6012384454196901  0.4050990944845303
  0.1742666706291988  0.5790731925006936  0.5966659367081539
  0.2038882274032576  0.5999041854530578  0.7917539992211439
  0.1962896943458406  0.8055296783350658  0.9992135439420936
  0.2010911541888558  0.7943222349239847  0.1976991010845101
  0.1997837352087530  0.8039471069554939  0.3933807476578089
  0.2026510939864678  0.8019809548941998  0.8047311183846924
  0.4039401310761241  0.9957326727156347  0.0000119452132600
  0.4086010519715064  0.9977687501512666  0.2006604077373677
  0.3984362580733667  0.9999065080307826  0.4001475868632624
  0.4018698185584464  0.0049877447707261  0.5998165290200902
  0.4037132567949677  0.0005666175087542  0.7981861189247960
  0.4034505469878169  0.2031839096206016  0.2016603175890943
  0.4008844903009130  0.2007288993392059  0.3997299798096189
  0.4014982824108743  0.2030695602750755  0.5966386808343153
  0.3974469734877945  0.2046648782651344  0.7934148022165588
  0.4027279587919634  0.4079146166293304  0.9962346899487642
  0.4015493960544503  0.4023425433167072  0.1979599689098550
  0.3996156516857575  0.4021682495944593  0.4012164113547860
  0.4012231529729897  0.4044371825599773  0.6040768697939902
  0.3999552902618368  0.6041363741463798  0.0013703201582038
  0.4007408040567275  0.6011776045129625  0.2008373620268515
  0.3979979937128153  0.5997211293444663  0.3981810961915449
  0.4047640274467889  0.5961374335256824  0.8070707417878311
  0.4023883801912421  0.7991405380760064  0.9992798517325280
  0.4009826761375759  0.7988269072647178  0.1975526462972410
  0.3994156598295933  0.7997279060472167  0.3990022750021253
  0.3741511897440528  0.8219014145038904  0.6013425537146249
  0.4001349584098658  0.7995833409242336  0.7992316301366634
  0.6051509897180157  0.9971368858737396  0.0006582893728730
  0.6002598408766320  0.9977864129572062  0.4005180715916670
  0.6020550283165238  0.9976085376099367  0.5999935134479821
  0.6010767802376202  0.9994168429061550  0.7996669841679872
  0.6081203477189170  0.1987228854346450  0.0013921876779476
  0.6025176234375823  0.1999737158465937  0.2011482396698481
  0.6004187307710571  0.1992303458482367  0.4000216172933066
  0.6022618283821273  0.1975402260917086  0.5995272447795660
  0.6020089612460968  0.1984663218029913  0.7988005720779697
  0.6030793548858265  0.3976443784373274  0.0005486909769206
  0.6001111013738915  0.4020732593559824  0.2000884997960747
  0.5990564058533632  0.3992935620479370  0.4007076076019651
  0.5991022154408879  0.3990196585569779  0.5989953712147041
  0.5961141403513730  0.3989606195252535  0.8013668204359492
  0.5951499346909317  0.5991856471531206  0.2227612072585949
  0.5966610569372154  0.5993259247148001  0.4095529766520221
  0.6039753959826890  0.5971389090444782  0.6039624890843606
  0.6015722763873351  0.5986186324757011  0.8011484175087802
  0.6012983844412126  0.8003798932004651  0.9999208852268762
  0.6004542286416299  0.7966606499286955  0.1996344238508227
  0.5992748856895475  0.7996740527084986  0.3991774532968035
  0.6002756575376721  0.7980581913283920  0.8025742227136068
  0.8020182634164746  0.9987691402394591  0.0003240012173698
  0.8016877355860433  0.9998240931923775  0.2003610533319112
  0.8011758998058253  0.9995522916562907  0.3996793557345558
  0.8043453123528146  0.0021300654706302  0.5981712684058196
  0.8039920745332166  0.9995127382184354  0.8018569720761900
  0.8052610308681248  0.1975790243076578  0.9993009875945166
  0.8012718779232911  0.2001614143346886  0.1992112672091189
  0.8006240612353620  0.1995870740766431  0.3985011655544358
  0.8005874371927474  0.2007695801023034  0.6003478774559505
  0.8021711961264811  0.2009147173038590  0.8007939255566905
  0.8021745128357896  0.4020719143005641  0.9989585604799793
  0.8013728669394763  0.3952026267027646  0.2002345048548761
  0.7984187914626999  0.4004862104076463  0.4002640112249857
  0.7991206512674229  0.3978696582598823  0.6004575097738076
  0.7997279430782404  0.3991124861877572  0.7997976061152769
  0.8225146203744327  0.5987623592548079  0.9953919728118831
  0.7955017447010312  0.6003448961045713  0.4101226820500720
  0.7994074093442393  0.5955269949757146  0.6034837179900038
  0.8020837560635352  0.5976621006982124  0.8008362512809654
  0.8052565131130422  0.7984990067368637  0.9992138410346759
  0.8007918972283509  0.8032888162479092  0.1976810445920500
  0.7999215127670650  0.7975658098787370  0.3936267660852173
  0.8006460587898567  0.7965403072753764  0.8016317413930227
  0.6034673584973331  0.9991856648864943  0.2012962078813016
  0.0012118679933544  0.9954969366029198  0.5987973267034991
  0.0019404653115050  0.7959286673370290  0.9965721470880738
  0.2021354871929914  0.9987600419605207  0.4107140678039978
  0.2030518779741729  0.1999719934538398  0.8015658190500798
  0.4014101186090560  0.4021572842787095  0.7988413821009082
