Zr Ti V  Cr W 
 1.0000000000000000
    15.4863295998759050    0.0024137293282322    0.0105674120120943
     0.0024156779473548   15.5040449564505511   -0.0174543962439357
     0.0105707746262879   -0.0174578174046017   15.4782021514271442
 Zr  Ti  V   Cr  W  
  10   1 106   6   1
Direct
  0.0022203179214066  0.9691667217711214  0.7613315099298690
  0.0073030417548336  0.2123955768843876  0.6043845146864562
  0.0001500385414686  0.4365621541619121  0.0364472778793230
  0.0041735131290824  0.5759891621776626  0.2213459796289035
  0.9611583566133577  0.7881750568559873  0.1951325659557772
  0.0024500973343793  0.8006228426450174  0.5982917175250629
  0.1914767477597708  0.6262625868396401  0.5967779839778039
  0.3590937783143667  0.8017678589499234  0.2023669911225799
  0.8328556027113921  0.4304264715325568  0.3976730986835669
  0.7507976787910799  0.7924790418342199  0.1987363224999383
  0.1892953553899928  0.3880852529928267  0.6006055220842954
  0.0656289099574327  0.0060278587313626  0.9988163826857333
  0.0039134815813515  0.9987423690127508  0.3943611311665949
  0.0001406215468142  0.0079627934856858  0.5755952900248236
  0.0009220533231629  0.1981598684964972  0.2007779600287398
  0.0010072660034634  0.2009501936934860  0.3975528266236141
  0.9999539293217155  0.2045064785230380  0.8090194412816226
  0.9990726551934311  0.3854936288888776  0.2271073873579127
  0.0202946772135087  0.4000212211929789  0.4097757098709412
  0.9925098234208856  0.4103604401660418  0.5999927536594333
  0.0007409818491293  0.3971679608150286  0.8006309705090031
  0.9997872839295373  0.6260313376391899  0.0135365868938735
  0.0065629577943227  0.6037224681702600  0.4185220588551085
  0.9905305454661829  0.5991367242944503  0.6104955109218986
  0.9987381462992009  0.5909791740721031  0.8103947049223716
  0.0043182191661908  0.8103037413345001  0.9919341086232853
  0.0029929166035165  0.7993963218045678  0.3962183370138621
  0.0011938563761841  0.7816802059337383  0.8028044619850786
  0.2000346942313637  0.0001363835148479  0.2004810865364078
  0.2021182617537793  0.9992375111565533  0.3977058077580592
  0.2025530825317911  0.0038756173955332  0.5980202594867471
  0.2030429628795785  0.9994201278524164  0.8004567498813209
  0.2001398419073750  0.2012947276738812  0.0010321356728990
  0.2007756767164262  0.1986050276514052  0.1989116399484389
  0.2042165770177412  0.1988124718777200  0.3994929922990869
  0.2030822239685154  0.1970082243834032  0.8028098763057905
  0.2032079596943377  0.4000866848897637  0.9997494714814295
  0.1976185296137485  0.3986615459215925  0.1987933509594798
  0.2062106167455835  0.4018288233703347  0.3979227379472060
  0.2003383707314513  0.3983907748013772  0.8024041609916722
  0.2009510118709684  0.6012644657473232  0.0009594438850422
  0.2065935465047470  0.6008602199424006  0.1989664294272671
  0.2025198703180447  0.5999952103838750  0.3930135058624840
  0.2003132640900474  0.5974840350049326  0.8039405137306268
  0.2004231521789505  0.8004325792006832  0.9996659408010590
  0.1719847705663289  0.7980745413002679  0.1978842684273915
  0.1991092180525504  0.7997190328787585  0.4003757409606354
  0.2083739680973741  0.8141564666777180  0.5998659084657899
  0.2003212248255434  0.7982013457192568  0.7995712767379690
  0.4029557692667782  0.9994315421516506  0.9987528339412501
  0.4017073518662829  0.0032996655386650  0.1981633415140503
  0.4006228118832325  0.9985824435998619  0.3998519885306374
  0.4041258369283803  0.9995495666792696  0.5987650786927894
  0.4002820617088982  0.9989365209828310  0.7980691745949325
  0.4000166623013096  0.1988850573839501  0.9986359935341718
  0.4007089979706021  0.2000539552797874  0.2001095653456736
  0.4018085250079539  0.1992734179222317  0.3994434479406045
  0.4048549895125415  0.1986107263208739  0.5995851668790807
  0.4003959152558425  0.3997636299213435  0.9997401336755514
  0.3992406198380579  0.3968801580296981  0.1993018509914397
  0.4011008000384313  0.3991907109811161  0.4008350222067157
  0.4007392798033987  0.3975668022551134  0.6006566418971970
  0.4006501445168217  0.3993760305189443  0.7986937376844110
  0.4023298513491226  0.5999251475294285  0.9996253080583116
  0.4041129520652860  0.5932163007447766  0.2000238305278271
  0.4016102762772294  0.5996371823440955  0.4002270406066908
  0.4008087531749327  0.5968504962731679  0.5987843829392271
  0.4004282668872213  0.5983157885907303  0.8000572526898940
  0.3991806107535301  0.8005681406763425  0.9952026564653125
  0.4002475440405500  0.7986191577093437  0.4041598980005342
  0.4011610056112281  0.7998277197355513  0.6009805099115781
  0.4000428208998036  0.7974887669673963  0.7987684117257677
  0.6004273216339051  0.9985999709839603  0.9985869099440996
  0.6009649755445562  0.9960021416579293  0.1993870052642154
  0.6011511300858690  0.9974013623404167  0.3978302406928853
  0.6012235322021842  0.9990216243560985  0.5969781490861616
  0.6014265842521415  0.9972291279046442  0.7974212934069603
  0.5990615964860001  0.1985899802298750  0.9997174038931239
  0.6013722599805453  0.1998753377472516  0.1987759900693499
  0.6020853058390474  0.1990349936095666  0.5987219047756418
  0.6009981178827993  0.1993965559255332  0.7993370483986771
  0.6001963265888686  0.3986253923405630  0.9987683274907951
  0.6015489753125893  0.4001805406542818  0.1996178005564354
  0.6013712347844005  0.3981857885460717  0.3981131064624035
  0.6010609268600230  0.3992286417069599  0.5978463431123004
  0.6001809427370756  0.3998186172165574  0.7990022129843661
  0.6022678041906400  0.5993053941960760  0.0037590020277785
  0.6044293308657301  0.5989626633855686  0.3956821171556546
  0.5997018205453098  0.5994006525335183  0.5967975336011596
  0.6015030091392251  0.5992419208134140  0.8009770655245884
  0.6013848698730321  0.7993741583389402  0.9981441297051493
  0.5652455943392808  0.7898347130072420  0.1991593637281779
  0.5992155642850697  0.7990705995150813  0.3988934711036508
  0.6005764970396023  0.7986516777124775  0.5985981542818102
  0.5998281532227939  0.7975509980342024  0.7984761386759472
  0.7998585669374513  0.0005572205054067  0.9973458282625349
  0.8021314770336844  0.9972907712136793  0.1981176944517789
  0.8008318082884601  0.0003204615731057  0.3984713438195525
  0.8011198679319680  0.0008864377678042  0.5984343780071594
  0.7994483603896342  0.9998353026238085  0.7985385412580852
  0.7989042283178734  0.1999637111765960  0.9990399905869632
  0.7991428054767309  0.1988388900290922  0.1986322624512043
  0.8009217391492716  0.1965459981324456  0.3987235584988839
  0.7992101973679434  0.2016374486183971  0.5995748669134657
  0.8012384605276396  0.1989706210245673  0.8003341461219474
  0.8034768109571988  0.3971722071610119  0.1941699954762497
  0.7974668342836535  0.4000291362531773  0.6007526544434727
  0.7995045015033682  0.3998378422773008  0.8002363457519006
  0.8027662639716848  0.5997294747405412  0.9993785770476235
  0.7941573559200947  0.5942135259979424  0.2093628771724344
  0.8030375305332497  0.6177838120424830  0.4044887936779706
  0.7964554876901163  0.6013651371438855  0.6004398807294506
  0.8001548444391297  0.5991235762253885  0.8017762523556862
  0.8032569363699401  0.8017137284791234  0.9975295115997866
  0.8073185551687496  0.8058708202081460  0.4015636274546940
  0.7957876983645961  0.8011133698566677  0.6007670806916523
  0.8014248480876222  0.7984303489666588  0.7989645237059242
  0.0003681006755289  0.0022465111178984  0.1964885939601369
  0.9999444152627123  0.2022529956993266  0.0033543512004569
  0.2095324411284838  0.1953183833576950  0.6007105484256283
  0.4024344981875750  0.1993971166913761  0.7998299275094828
  0.6008203368794305  0.1983801546168147  0.3982948177518488
  0.7977818437954111  0.3992791049817919  0.9979610537689730
  0.6016202684055065  0.5975396802439941  0.1990198411284485
