Zr Ti V  W 
 1.0000000000000000
    15.3704372863088707    0.0041087699184726    0.0045828320708022
     0.0041071823098185   15.3593176205705255    0.0049868964281650
     0.0045832368054306    0.0049883200619353   15.3853693029952101
 Zr  Ti  V   W  
   1   2 107  14
Direct
  0.7917846952199170  0.4016369020519155  0.8101308815557341
  0.4082812197851967  0.7990022126166030  0.8060712720554155
  0.6135000334443361  0.4015573838600602  0.9888677399375880
  0.9999048848737250  0.9977696835872222  0.0017084343800700
  0.9939147491569625  0.0022809057399080  0.2006272283294998
  0.0010613913444226  0.9968396666221461  0.3986838270978986
  0.9944981035360021  0.0000426491009136  0.6018402815840669
  0.0023443125306493  0.9984565985131347  0.8010290256503801
  0.9997285170882413  0.1993475602968078  0.0006470515683836
  0.0015776812873103  0.2021761705615790  0.2019894275989590
  0.0006475025204764  0.2000526607305417  0.4005501265706284
  0.0026614170720529  0.2007948540186398  0.5990273375160919
  0.9991300335629671  0.2011252380905461  0.8014684777088930
  0.0039256660263842  0.3992827651386919  0.0059680860867452
  0.9986699898689797  0.4011974848333201  0.3968850281655179
  0.9975381814674636  0.4001327694264493  0.5999890687199984
  0.9994290154141129  0.4011164422779592  0.8026641901598289
  0.9983611875689464  0.6050360120994334  0.0001185922675237
  0.0029670201919909  0.5964553461930484  0.2005095470944513
  0.9997906222139582  0.6029713094079283  0.4020210556964460
  0.9994559861090414  0.5996424379470651  0.6013261122893011
  0.0026053108765594  0.6006792732059100  0.8001537829395374
  0.0037806222219371  0.7995842463100634  0.2009566239352023
  0.9990220311044253  0.7996482485726060  0.5945614951468098
  0.9992459470441774  0.7990825544988041  0.8061443779878917
  0.1987253073157383  0.0014644747599818  0.9934513024543922
  0.1983912206174845  0.9990694737772824  0.4056681642363741
  0.1981413177503373  0.0029046917381357  0.6057663645621340
  0.2003182256680234  0.2020498226390629  0.0000528234586748
  0.2005142355945855  0.2007318672109671  0.2007651040146074
  0.2024924143131395  0.1984334050896592  0.4030410365773302
  0.2006183907450380  0.1963700371870852  0.7954608605319253
  0.1963187345523074  0.4043726062823410  0.1954415241658387
  0.1994496832798892  0.4015966553416888  0.3998356640577386
  0.1977641533441376  0.3966460982910888  0.6009342081183775
  0.1977685463403687  0.4041341855495552  0.8047175669477032
  0.2002557707481619  0.5961029134493745  0.9961321273882652
  0.2009656319295934  0.5993910482906253  0.3998850713616157
  0.1996156096584191  0.5989170481783458  0.6048961643623130
  0.1962556477018177  0.8006361036051584  0.0023692952024892
  0.1962474405321279  0.8007499596586053  0.3987457870782088
  0.1993606297410452  0.8001383726123762  0.6000193457422717
  0.1980384249240674  0.7988883055468815  0.7997576760968874
  0.3329708342806301  0.9996962640492848  0.0657941985613708
  0.4039270813311174  0.9963092188267964  0.2002419417512003
  0.3999026867201279  0.0024496676208966  0.3989645774161191
  0.4009460166085295  0.9987965987772502  0.5999422918232103
  0.3968741922554936  0.0004447615593254  0.7992411373723852
  0.4008136160756482  0.2006104788180325  0.0021006439390160
  0.3982644480774570  0.1964841962130776  0.2034337760997104
  0.3962439073270637  0.2003696493953947  0.5948413863349253
  0.3996561456317586  0.1998911227438203  0.7997241060848016
  0.3958035438922010  0.3979143338836583  0.0003736609810782
  0.4024810005176238  0.4010207058754561  0.1983223335886528
  0.4001147179788906  0.3969039843366954  0.3977766582554346
  0.3992380974987634  0.3998164564196620  0.5983807097581736
  0.3965835376646929  0.3992332588132207  0.7996012225779520
  0.4013541547479669  0.5992435457093467  0.9990838962125279
  0.3981783889714381  0.6026349901906000  0.2006273411815779
  0.4003099548537012  0.5988854679650001  0.4009769997652843
  0.3985596219889713  0.6000288664868288  0.5990044141413930
  0.3957284494436039  0.5991839591970358  0.7997561343900397
  0.4013764987415993  0.7997561191760704  0.0073082174855534
  0.4013743523529347  0.8012673601413777  0.3963997136498689
  0.4002234211394773  0.8009035118958868  0.5938887068962063
  0.6018290394793675  0.0003236015399328  0.9976375231418461
  0.6028572313577512  0.0000821079427846  0.1978847792549160
  0.5996629140170756  0.0004208420677969  0.4018026590707046
  0.6021414273445387  0.0008555499428086  0.6025550395690149
  0.5969632822136082  0.9991587907210855  0.8013037818444239
  0.5987930000382644  0.1986832936103414  0.9989767098823842
  0.5985438608110358  0.2025825059739602  0.1989035012064126
  0.5948371108754807  0.2014466213190148  0.4010348695710209
  0.5979366169839141  0.2010120294126487  0.6010180964139460
  0.5965766988830880  0.2013501777103420  0.7998131410109305
  0.6024873334462039  0.4012421306912401  0.1991777522053501
  0.6012694531150076  0.4013012915174525  0.3985897756609698
  0.5998576653073947  0.4006693648573624  0.5991100070034154
  0.5898407866095721  0.4009837661719066  0.7943916322342899
  0.6003092414368146  0.6014418982068644  0.9983210060057118
  0.5984460498694695  0.5986578817060533  0.1978838555601826
  0.5994388232614239  0.5993371262808783  0.4018509327969969
  0.5984889443858148  0.6000466311970285  0.6020049594586910
  0.5957252143014856  0.6006586242595646  0.7999284022696426
  0.6010150249400318  0.7999271019828749  0.9994514366020143
  0.5963776865842928  0.7990131627456648  0.1997893527727005
  0.6035761821001343  0.7986122250841757  0.3992726788926602
  0.5998097640355744  0.7995302144481303  0.5999337006756100
  0.6028766447264381  0.7993363622952263  0.8004628724216156
  0.7991293178110822  0.0003113671565669  0.0042537328333801
  0.7984537429610763  0.9972878185291523  0.4015507238948713
  0.7995465691605483  0.9995663035481854  0.7971194525073618
  0.7997701031114499  0.2000142857619839  0.0010767538364089
  0.7980203712139556  0.1970637309532462  0.2028398014913680
  0.7984467785558174  0.1989290023573701  0.4017745295635414
  0.7992739032055454  0.1965980796672868  0.6002077128117570
  0.7993811044213368  0.1955802573695761  0.8005868424256821
  0.8082581667838823  0.4001367661419714  0.0108910415984600
  0.8043767605292316  0.4001279157885637  0.2047221547875856
  0.7998780692431084  0.4004170653929220  0.4018270117584527
  0.7993740505332332  0.3988394853261648  0.5993205468158765
  0.7997231588312617  0.6014215167385251  0.0012185057590344
  0.7980168344939342  0.6009089717246281  0.2011613330208704
  0.7984794628960602  0.6049613147011634  0.4016986469696598
  0.7987257520514470  0.6001802979098528  0.6028324351949158
  0.7993522502215222  0.6064556809947634  0.7994156788962147
  0.8036587245213268  0.8012418698506671  0.0031567750297264
  0.7978163304882790  0.8038171133530849  0.2050123653064194
  0.8000265522416284  0.8049590866693759  0.5961532687677691
  0.8005823450455352  0.8016567525254313  0.8001081996101965
  0.0007318365277436  0.4013922687982256  0.2017977608629982
  0.9982954143182395  0.8000750158426905  0.0041431855698199
  0.9981575055617837  0.7989698014949878  0.3981251907603723
  0.1999583320694428  0.9982777188380996  0.8000624391369701
  0.1993530913452889  0.2005645121133315  0.6008858629528534
  0.1996392908180820  0.4004208838326454  0.9995347651392715
  0.2021611866261065  0.6021085021342057  0.1978240879826977
  0.2005183364449745  0.6008974084931886  0.7997008559767437
  0.2028665493568060  0.7905840419128236  0.1998364306776342
  0.3987702474023026  0.1996046876283717  0.3986476838714926
  0.3978692748903109  0.8003963122931499  0.2020208680917069
  0.7987062426981146  0.0017576926197934  0.2019567536009072
  0.7986587196610198  0.0009283730767269  0.6008032451835987
  0.8035541110640598  0.8010364106106801  0.3997302969848765
