Zr Ti V  Cr
 1.0000000000000000
    15.3990340272275770   -0.0170018773457157   -0.0022529018582575
    -0.0170107766548915   15.3787801482628375    0.0165544931564424
    -0.0022517709109467    0.0165430754876648   15.4057927644380346
 Zr  Ti  V   Cr 
   3  13 107   1
Direct
  0.1944394030561011  0.1978048319898637  0.3722866775127899
  0.1981043020553415  0.6301851162295187  0.3978359526833742
  0.3728668902854214  0.7997366889006623  0.3986132258496992
  0.0018246955517065  0.0061173722970386  0.9956784112220464
  0.0008333323948755  0.1942486822016915  0.8084065447475562
  0.2031817093944763  0.1986691664130281  0.1746221907988477
  0.2007119042622469  0.5804917965331805  0.1907696741263847
  0.2021300666959744  0.8036717036228127  0.2240144942600806
  0.3928005503987911  0.2050208656760418  0.6048618511757661
  0.6106763359077608  0.0151039219462015  0.5928995468298939
  0.6057275232561737  0.1931953325907155  0.4131072438917080
  0.5908738533564282  0.2032355971210724  0.8129131210170233
  0.7954096527117680  0.1977281382557851  0.1957112564159440
  0.7858407916198367  0.1954412109279809  0.5935103801060213
  0.7980758931222814  0.1987235687480811  0.8025102534848533
  0.8003478140917130  0.8026854651974011  0.1974768149551786
  0.0031796030702478  0.9991941614266316  0.2027897979135031
  0.0025910620607613  0.0005326468566086  0.5992555487907424
  0.0020362324170789  0.9969168198166705  0.7967485148190879
  0.0008781437865442  0.2028147143725786  0.0061415772922839
  0.0016238575711251  0.1981848912420162  0.2020189967691985
  0.9937950521943855  0.2011478934637288  0.4007408505884855
  0.9989441150493406  0.1986517537788826  0.5972913434891260
  0.0004668805363577  0.3997620560874063  0.0011435959935058
  0.9996056743201829  0.3979299856398826  0.2011506895389906
  0.0004408460311735  0.3996577814954115  0.4003754748582066
  0.9996467206775620  0.3982658105636716  0.6004444592740668
  0.0008724350054550  0.3998069530828348  0.8001701611348560
  0.0008475109948487  0.6001260779301109  0.0011299036017242
  0.9985655535125050  0.5974608330093492  0.1987030703785301
  0.9940684527107171  0.5985156956756383  0.3986710015635275
  0.0020808147200145  0.5990061115631330  0.5982602367695298
  0.0000100299864671  0.5991658004496944  0.8007106675081269
  0.0020103476938376  0.7989034083784515  0.0009999792225668
  0.9999876576491059  0.8003907095254812  0.1995685718326791
  0.9961345287635986  0.7958578198155812  0.3987407919414739
  0.0021100810796937  0.8007729289627369  0.5980197357182727
  0.0003633009182546  0.7982680212327665  0.7990084331863674
  0.2034168201629600  0.9994992844132244  0.9983909617363476
  0.2018918090456897  0.0043063162694668  0.1996025838469562
  0.2035811255134673  0.9963058761694310  0.4008608705404825
  0.2016648512631033  0.0016751417905769  0.5979118769226018
  0.2027864615318331  0.0000378460459000  0.7969265816203114
  0.1992865619255007  0.1991202241776050  0.9864276524461756
  0.1966137208993322  0.2003510390225693  0.5949670706668396
  0.2016908474575967  0.1988635890365452  0.7946643895459620
  0.1999149454189960  0.3973961046308984  0.9978623506023307
  0.2009617365760914  0.3898958250117482  0.1996053026160151
  0.1998560319592849  0.4069165617245541  0.4002258288140392
  0.2001872878516445  0.4011003407264743  0.5980816715818849
  0.2001703982530914  0.3990223612967770  0.7991130106371741
  0.2004056281981266  0.5992375155224087  0.9966467482793478
  0.2006158944293478  0.6004310160601475  0.6048782941137957
  0.2009357290107383  0.5990434358101987  0.8003478529386999
  0.2000736915418199  0.8002500328523411  0.9975068616333148
  0.0938593742020402  0.9087364164472042  0.4033532048842613
  0.2017245383739834  0.8015818162516902  0.6026733037549046
  0.2006749749361760  0.8014714013493215  0.8005073576178103
  0.4015859499896504  0.0003952068015463  0.0017854187898201
  0.4029433333512211  0.9994115753422894  0.2006728108026368
  0.4017649233885333  0.0065768132200541  0.4003803891318373
  0.4028449934197483  0.0006698967304444  0.7986335807714470
  0.3995519467924962  0.1990082058784950  0.0018862577667865
  0.4016879685715035  0.1995104482461051  0.2019117764714043
  0.4008665665730441  0.2007970625673318  0.4010435393035346
  0.3965116381580458  0.1995391496380865  0.8056423228388908
  0.4003012508990836  0.3989695049451242  0.0018561936155557
  0.4013934263664893  0.3984480483076399  0.2014774218305648
  0.4001624361883723  0.3975036539720003  0.4012799917274161
  0.3998733305402331  0.4020394307992031  0.6009423443814226
  0.4009816953402201  0.3991774575034406  0.8004378243064294
  0.4001053297049227  0.5995766247149260  0.0014323200153430
  0.4026221229819925  0.5977036406719464  0.2003309251245632
  0.4054416219892372  0.5941232624155883  0.4013019590412413
  0.4011057969291658  0.5993996294510031  0.6010412843239230
  0.4013136958332126  0.5999510561758843  0.8022741388403568
  0.3989121993215416  0.8003090546053163  0.9998480690620459
  0.4036546788667260  0.8007991568898075  0.1948470145798729
  0.4020978918718832  0.8014904373670299  0.6055305791832968
  0.4012488942220256  0.8003835339548195  0.8015003609111716
  0.6017197921437154  0.0006504017499200  0.0001408563568192
  0.6029989749111311  0.0004600269495987  0.2021811500220131
  0.5979202900776293  0.9953744242664903  0.3983425848667892
  0.6015468225504079  0.0007930019253660  0.8010946947752013
  0.6001236637643362  0.2001379923061770  0.0075313355682056
  0.5982452659132820  0.1988314671869469  0.2020835632676053
  0.5929990112921963  0.2068817422040524  0.6093444368593721
  0.6012529020857742  0.3997653943584160  0.0012507389472131
  0.6004014104124208  0.3979398455230489  0.2028039404981326
  0.6012985238348851  0.3998413756043455  0.4020021245359526
  0.6000105204670185  0.4028059337883962  0.6018924711560412
  0.6007871145843562  0.4024265857423634  0.8019176782471409
  0.6008783652938238  0.6001028997737813  0.0014267410035680
  0.6016809039491492  0.5996459829266949  0.2005008688177837
  0.6005199299330101  0.5999679576727950  0.4003834772323426
  0.6009025193177571  0.6026344963761027  0.6011192554167994
  0.6010732515385645  0.6006718711011356  0.8012388490912433
  0.6010997547131220  0.8007201066988170  0.0008566532589505
  0.5983779329422716  0.7994251801921542  0.2005404155478655
  0.5988963859336502  0.8006412722056480  0.4003250262527020
  0.5996056654696172  0.8018216617323310  0.5993706461764080
  0.6005970962279759  0.8022611509002348  0.8005964393530781
  0.8000663795748995  0.0003047807476022  0.9995165820216861
  0.8024432277980328  0.0001834631961151  0.1993276457379773
  0.8207012527243884  0.9968225019720004  0.3964438068587885
  0.8066600740827775  0.9965582223759974  0.5981102234280488
  0.8012217115183431  0.9978335762497608  0.7976840080286246
  0.8010254225673529  0.1995513376042203  0.9978098728992458
  0.8020433084517433  0.1973416543306533  0.3962455900731030
  0.8011380230020091  0.3984375515982841  0.9999503384166400
  0.8006301809822763  0.3987945195794290  0.2000168140364622
  0.7997867103755313  0.3980497986128154  0.3997718655657342
  0.8001596652381603  0.4007357414678753  0.5995158032600794
  0.8007082980611002  0.3995123549094826  0.7983171288049981
  0.8010209292131873  0.5987505349467426  0.9992262288499011
  0.7993758380501249  0.5967276137985137  0.1990301694831617
  0.7984224398759751  0.5999711769202732  0.3991383795638870
  0.8005778191013510  0.5992434193322516  0.5999141730170864
  0.8007631385492726  0.5998704795296601  0.8001422490903516
  0.8010266494483907  0.8002711377471847  0.9964993012090746
  0.7986570750805186  0.8002791543565815  0.4019265356604618
  0.8006762860973508  0.7990452466441776  0.6006332613012009
  0.8008545467783444  0.7999831946541222  0.7992050103657071
  0.4006589385431660  0.9992470934732957  0.5994499224351204
