Zr Ti V  Cr W 
 1.0000000000000000
    15.3960504026614231   -0.0029059402776773    0.0109527228615838
    -0.0029019596058232   15.4211892961187402   -0.0178703021294289
     0.0109643357546517   -0.0178836246684765   15.3929296075496413
 Zr  Ti  V   Cr  W  
   3  13 106   1   1
Direct
  0.3850439020014651  0.4146256656346022  0.8016272734372218
  0.7914911191013906  0.9696293621032124  0.2130117378370862
  0.8098611407625670  0.2083099084264259  0.7796505464999666
  0.9833272480507764  0.3887171550954428  0.7971170049236194
  0.0061800251146307  0.6045172025675728  0.9890914699122944
  0.0022974842731649  0.6377790377452510  0.1980741119634211
  0.0124020442387496  0.7951426738292090  0.3906341714564928
  0.1975919757561524  0.9994834875443247  0.0311240824157781
  0.2002873710011266  0.5846793218812623  0.8080250496777238
  0.1871474667768429  0.7996644876772994  0.2117907279613735
  0.3965132007714931  0.0031860715485780  0.8086776846930858
  0.5961864179897541  0.6036654001629477  0.0000127455379333
  0.8195659972080015  0.9993976235699544  0.4181589239544198
  0.7969299509757450  0.1945039643486654  0.1876907286229542
  0.7974691898908607  0.1958597971206826  0.5762741950765115
  0.7970316153625246  0.7720878195230327  0.1938818817009697
  0.9982312685916542  0.0033774306699581  0.0025967736769159
  0.9938670971259306  0.0070484542076864  0.2000021868238800
  0.0012314356370200  0.9975347608840970  0.6017677075116455
  0.0006718251900450  0.9982311437261563  0.8028570004403444
  0.0011247511433610  0.2024010957508707  0.9950177937847244
  0.0022877809070829  0.2005772156606698  0.1985293787646188
  0.0010255930712536  0.2011077031759252  0.3991826341902667
  0.0038027081193999  0.1981611545314051  0.5987746169100993
  0.0090616810097161  0.1924100695387554  0.7992210630864008
  0.9981585422148629  0.4010272903127644  0.0031007552595913
  0.9980274951575555  0.3975149306037705  0.2000100502734875
  0.9992496229833789  0.3995962522189219  0.3992421282354418
  0.9992747844861130  0.3991403164599068  0.5975410393505197
  0.0005331632572134  0.5972815359819423  0.4025716349257052
  0.0007254939833561  0.6004444002922276  0.6003067370873717
  0.9967473696950210  0.6008162981143074  0.7966922944050225
  0.0009450614481356  0.8064988811482663  0.9950534280885135
  0.9917528159058330  0.8170942826488098  0.1942920852276329
  0.0014616078873428  0.8004305110982733  0.5999034322416453
  0.0006522186344791  0.7994324574512327  0.7984992419568471
  0.0678802023592605  0.0014527855288700  0.3347672479461390
  0.1966927837354900  0.9947741235884774  0.3985440561267860
  0.2001429556526390  0.9982811265192454  0.5986298705738170
  0.1977182331063738  0.9974550403324896  0.7985563255446916
  0.2004044368571214  0.2034543721981877  0.0002421989200099
  0.1997380687056133  0.2036646196617887  0.1988840945041809
  0.1997668115893823  0.1966953380350994  0.3981367800474270
  0.2013443872142502  0.1980928689893337  0.5987958188267900
  0.2030573906003922  0.1960841276906445  0.8000031743984779
  0.1981863668535740  0.4014336344925408  0.0007929886456102
  0.1968550783330135  0.4025712078216099  0.2010535078031843
  0.1993473180295722  0.3977196419680966  0.4001638157239589
  0.1980943211451518  0.3982456439614608  0.6012445162529593
  0.1867767892530233  0.3912656943452697  0.8010301589378054
  0.2011872673777944  0.6006725111962617  0.0067604505408704
  0.2002102383621973  0.5993642619247718  0.2023051378076537
  0.2025248996601341  0.5943494541199080  0.4037806044405911
  0.1998615456940405  0.5986672820917278  0.6017734184424302
  0.1995998046379986  0.7989857593700753  0.0010641757537990
  0.2075548652227349  0.7970571730056504  0.4076380657358502
  0.2013966218516425  0.7969251528339353  0.6041454092129311
  0.2002977972988750  0.7998570144936187  0.8031025000093430
  0.3966059133686524  0.9995473266925435  0.1978671133436788
  0.4003193719451510  0.9996962876367413  0.5981411939576011
  0.3992153716124486  0.1984836098636839  0.9983091155197692
  0.3971190385010274  0.2009738501742136  0.2000434420318992
  0.3994943913928260  0.1990259434310975  0.3980690445061427
  0.3997545525267681  0.2003034291839344  0.5986756445788530
  0.4002222121548787  0.2038412180485144  0.7991449559569710
  0.3995287501007727  0.4013178768211256  0.0053870299648719
  0.3987665090862934  0.4027338395347578  0.2000291674711497
  0.3997976956348516  0.4000883934479547  0.3988550689253562
  0.3996039422203266  0.4013442101849740  0.5963480727758709
  0.3973213374238365  0.6041806210220175  0.0012965098475884
  0.3993050309384061  0.6042627646711916  0.2002574155476353
  0.4015413637515435  0.6008669151362631  0.3992927076701014
  0.4002981622629923  0.6019237879466314  0.6004664323525977
  0.4036188239312673  0.6121316676003425  0.8022788675283744
  0.3986077541685490  0.8052596147329995  0.0015195685509237
  0.3986810585290031  0.8012946448602519  0.2011733808468358
  0.4020776202643533  0.7998216598774281  0.3994321177069400
  0.4020450549769442  0.8017073607127775  0.6015246954724651
  0.3995560611623397  0.8026810624830174  0.8010620821279950
  0.6020907664073613  0.0032096535892516  0.0006300909977863
  0.5924264921048535  0.0034940967671506  0.2006588406380578
  0.6012234370500558  0.0006148283380161  0.3973638865793404
  0.6013033722422126  0.0012884152980530  0.5992143549589880
  0.6042526191921386  0.0030355894365987  0.7999096331845549
  0.6013304090957705  0.2028068990638864  0.9981091374546789
  0.5959302133287762  0.2016738265002062  0.1982351570546858
  0.6005791638778618  0.1994485300346359  0.3982434983132904
  0.5980590173206870  0.2002670985276504  0.5981333198973441
  0.5982697159830410  0.2027606460763170  0.7977340764997626
  0.5987014869803552  0.3996885397860626  0.9996385754011307
  0.5993111941530826  0.4014068247659867  0.1999341105036005
  0.6011595383603593  0.3996325475588109  0.3998641401686807
  0.5988857263378228  0.4005128790209371  0.5999224699495023
  0.5975699484335693  0.4021450053491960  0.8001667230548745
  0.6003100783451025  0.6023120636702999  0.2019832764111281
  0.6007471057275074  0.6003529202711276  0.3995402748134164
  0.6016222314915883  0.6009795887529318  0.5990124023134410
  0.5998050323695653  0.6022556827402090  0.7977219224826351
  0.6004474671515446  0.8045828908573035  0.9994523800178982
  0.5997676063933950  0.8020627724938789  0.1992648158047937
  0.6013670954723254  0.8016064527560697  0.4003497981504623
  0.6010737284686913  0.8023656052188135  0.5993272716257593
  0.6015017440619370  0.8024256318014478  0.7991857488491343
  0.8001488126948294  0.0034512477658579  0.0010517833509744
  0.8020527207093615  0.9987025952498122  0.6091851001158036
  0.8013175652987524  0.9979362376217201  0.8032040366807930
  0.7999619284254974  0.2024605755661938  0.9937108767415526
  0.8017813455453729  0.1990935805387279  0.3880522405974434
  0.7996031297899545  0.4036428913689270  0.9991767966612805
  0.8003527539771471  0.4024616774928954  0.1985014847294007
  0.7997516105159276  0.3985063140564106  0.3991239799883980
  0.8008117183657287  0.4016707160645672  0.6007522892642764
  0.7920327776685949  0.4104620086471787  0.8015028987881367
  0.8031789033924079  0.6015601396060137  0.9995426480049749
  0.8004551718260405  0.5912284451966366  0.1985615151218119
  0.8019791305309283  0.5979321458899202  0.4002271173178663
  0.8007239421452016  0.5997287034270200  0.5992930562971749
  0.7988531455058961  0.6042319900023028  0.7990096571284279
  0.7996781410753914  0.8013820641623843  0.9967211664340245
  0.7998835565958347  0.7958715989362168  0.4010777974784535
  0.8018349751889504  0.7988324089859209  0.5991894962229224
  0.8009763106537974  0.7997649211105949  0.7999472374219911
  0.3998173844223965  0.9995473364877331  0.3985450086497217
  0.4103185866487344  0.0016309892936514  0.0030805252405319
