Zr V  Cr
 1.0000000000000000
    15.5176564344983579    0.0055358052127085    0.0009235349890332
     0.0055289702635454   15.5339659065587714   -0.0041197367383691
     0.0009253811786535   -0.0041210125583897   15.5341853465245965
 Zr  V   Cr 
   5 117   2
Direct
  0.9996536113707820  0.4001084469572620  0.0011403513914002
  0.3749639517062021  0.2026055311285346  0.1973385708436113
  0.6005135414849838  0.2005406796838803  0.1998684708323173
  0.6099504955908077  0.7929971165282318  0.7998893778855325
  0.7942185048982912  0.6080060704758843  0.8001170424230092
  0.0012978511389696  0.9994323648487132  0.9999644698831069
  0.0007927959037093  0.9999899998084211  0.2009828267813746
  0.0010890313983547  0.0010456457712833  0.3998030623841420
  0.0006979122323749  0.9993248391126578  0.6009856794275453
  0.0015310834610456  0.0023522445937162  0.7998492543958100
  0.0002564126085103  0.1963074110588951  0.9998845243010090
  0.0016641074813773  0.1996008381664237  0.2011417210655439
  0.0005785989181106  0.1997940087514042  0.4009661432489954
  0.0009000616902412  0.2002746869969687  0.5991570970058867
  0.0011988894284231  0.2003365521234354  0.7996403692209697
  0.9999132391136903  0.4011593321120402  0.2046508441229285
  0.0007145700464783  0.3997331931789433  0.4005716889916878
  0.9999104950193255  0.4005038893022606  0.5986994894631250
  0.9998153639687961  0.3998100617580351  0.7958426734613722
  0.0000414429729343  0.6058099879843412  0.9987980985500081
  0.0007097263210239  0.6004455671047277  0.2008173750898056
  0.0004635024432265  0.6001868308414130  0.4000478165713606
  0.0000681596217697  0.6011300009094792  0.6003633341767939
  0.0026666925114670  0.5967359279597867  0.7994296064657181
  0.0014102987372343  0.8010256986112653  0.0023957200596210
  0.0014810829241832  0.8008766912133465  0.2011393815015412
  0.0009046527636329  0.8001120522490867  0.3998076749477646
  0.0015316255869713  0.8002720638173396  0.5969615411742621
  0.1354174010876273  0.8006857917981374  0.8001489080371321
  0.2016174863570102  0.9993538348654705  0.9998024499690205
  0.1999196532599789  0.9997085725265789  0.2007690607507263
  0.2011100780764696  0.9999569969455194  0.6002921846104314
  0.1999856439533455  0.0012035296198534  0.8009318114899264
  0.2007190083200829  0.1992240918336519  0.0007982511723608
  0.1996693626957445  0.1996657179512724  0.4009624961838793
  0.1997769130542131  0.1999161644557565  0.6003181873913369
  0.2002353834036918  0.2004915355089782  0.8001307911688156
  0.2041651415283950  0.4000971444150768  0.0005174010860354
  0.2004015887483751  0.4000589705894853  0.2011086856236061
  0.2009171194269643  0.4000886347143311  0.4004212541315166
  0.2005975406989918  0.3997561467876318  0.5990708357447246
  0.2013018031177467  0.3988182591477903  0.8000313776098383
  0.2013741494649633  0.6009413700791340  0.0004738953256997
  0.1994274778111466  0.6000033674132309  0.2000908977347055
  0.2003652323808789  0.5991592905074845  0.3995369031328939
  0.2002196964087018  0.6006439071517933  0.6002072858029196
  0.1989183868477408  0.5993822204465219  0.8001281473331376
  0.2002748462559727  0.8008645060675228  0.0013669477494038
  0.2006408549908944  0.7998013839242009  0.2009071209299350
  0.2014977159151867  0.8006143010266794  0.3993860799864659
  0.1995480686890581  0.8002798900987936  0.5994142220736254
  0.4015895354592428  0.9999135826221611  0.0003584005790256
  0.4010173391639875  0.9958980703173879  0.2002761378398289
  0.4010496729872140  0.0002722220805920  0.3998378420246518
  0.4007597388288595  0.9994689930922058  0.5999289766056235
  0.4009244288093990  0.9989256688739044  0.7997374522253784
  0.4018297462095913  0.1994464259886672  0.9936063590266400
  0.4004857354329243  0.1997295330251688  0.4040637494220990
  0.3995348162499622  0.1994152243806283  0.6006302199211755
  0.3992587222455374  0.2000493832619140  0.7984213170467508
  0.4016192483646177  0.4000387830226172  0.9999012677879133
  0.4013250723675730  0.4063753492022732  0.2002557804110139
  0.4009039450922229  0.3996828920745034  0.3998516473404127
  0.4005683182230562  0.4003360197198714  0.5999970902805006
  0.3998975693786850  0.3992847649634449  0.7993303636774387
  0.4001213369514217  0.6007689914313289  0.0000189491124951
  0.3990904962186390  0.6015215537369810  0.1998033220125787
  0.4000456988885417  0.6002100802561415  0.4002502607870084
  0.3996216629233431  0.6002486676264972  0.5995227282861103
  0.3966079308306923  0.5996074722930700  0.7998971706263552
  0.4012878863326494  0.7999353380057025  0.9992973304918462
  0.3998048907166722  0.7993429262661397  0.2006145514860379
  0.4006747270128058  0.7999727544491618  0.4000617387371825
  0.4005947602461150  0.8000376903443090  0.6001134847957716
  0.4002452980766392  0.7999113858560728  0.7998456902572318
  0.6006638626422047  0.9994429872298980  0.9999591189658035
  0.6014409840188332  0.9950682115810021  0.2005327472544640
  0.6008152486886214  0.0000029543432941  0.4000604204251640
  0.6005037720784487  0.9994932841014904  0.5998446352339356
  0.6003638722089097  0.0016564979549705  0.7997614394710502
  0.6013276704181055  0.2000303094132807  0.9945666393344165
  0.6010480970784875  0.1997991039301042  0.4051833542177799
  0.6011149211332251  0.2002702730936635  0.6011527722362716
  0.6005980830428486  0.1995952607034138  0.7981482063059521
  0.5994069011907655  0.3998648083198211  0.0000718858693910
  0.6010072364319993  0.4057617360429154  0.2002393030714196
  0.6003205996605753  0.3999709483522115  0.4002579664016799
  0.6003181770925811  0.3998099060548301  0.5993774809739673
  0.5992387603335937  0.3968420374751053  0.7993660708924339
  0.5985360721204178  0.5991087845342332  0.0013238516533034
  0.6004226684144747  0.6013119068549404  0.2006180333813825
  0.5996412990084725  0.5996102332082333  0.3993800745084876
  0.5988814843842581  0.5986772472787389  0.5980994393144974
  0.5907373093196167  0.5901932413628567  0.7999120165543674
  0.6011129782268653  0.7995700079647012  0.0044363808322092
  0.6014013257829393  0.7981832946024813  0.2009515937182291
  0.6007423022730483  0.7996404738710913  0.3993529530213257
  0.6013882475587328  0.7992211852711483  0.5954038898443236
  0.7998425342120383  0.0011879568204276  0.0007727909993910
  0.8014089428784396  0.0008399386159845  0.2001534344246406
  0.8001753211853747  0.0010290413932421  0.3998920902122703
  0.8002988525358775  0.0012582734025580  0.5992623261444271
  0.8017043670707319  0.0050236012829405  0.8003853941642924
  0.8004233762617277  0.1998805364441475  0.0003391519920609
  0.8052373949260304  0.2010663693088207  0.2000334365116709
  0.8012690509446071  0.2006345377493399  0.3999637955805769
  0.8011044396258008  0.2004914303713990  0.5998411978598986
  0.8012644155962487  0.2018227485105640  0.7997774888757706
  0.7955487785186308  0.4009410233573925  0.0001473577845048
  0.8002435413377185  0.4005887636396632  0.2008461038725278
  0.7996501383242404  0.4000307457611765  0.3997281127137440
  0.7999518867743495  0.4007622662849131  0.5991894100936526
  0.7995576219174561  0.3990219753398420  0.7994584095429309
  0.7988156862059355  0.6016334492542305  0.0045251095267185
  0.8008900024933282  0.6009246838085952  0.2006924575877199
  0.8001809546700791  0.6002831038709338  0.3990034049148580
  0.7996795021979861  0.6008556616497718  0.5953838986824247
  0.8026200393298640  0.8027129505598147  0.0024219087083082
  0.8015304553850883  0.8007184619380054  0.2010552802309871
  0.8008287916119063  0.8012922237342771  0.3987795681306186
  0.8028633601989196  0.8019727019798570  0.5977471520850778
  0.8126260068256156  0.8106521280076834  0.7999647100096550
  0.2006688231529788  0.9997049251367582  0.4010033261889179
  0.1918801083243109  0.1999791555861097  0.2006168993360367
