Zr Ti V  Cr W 
 1.0000000000000000
    15.4774007178547244   -0.0057270445464663    0.0060485456842571
    -0.0057275938548885   15.4869400142696509   -0.0016006725836938
     0.0060484205712483   -0.0016004018593464   15.4828342852602923
 Zr  Ti  V   Cr  W  
   2   1 107  10   4
Direct
  0.0025214586240572  0.3996976777160907  0.9996758319874224
  0.4009794128007995  0.5969173516872814  0.8028864495587004
  0.8036787288979631  0.1957197622737430  0.6018497985683665
  0.9997779421480260  0.9995473593576791  0.2016131615731059
  0.9998862397758267  0.9993482853537107  0.3991555785261536
  0.9970429517760142  0.0007637570797778  0.6009505127942816
  0.0009820508384877  0.9985438356030776  0.7995639810746383
  0.0005241255356315  0.1935365984680468  0.0041400251893051
  0.0003196684551936  0.1989883844472784  0.2001503874015639
  0.0003583121908400  0.1995737320456356  0.3984529180224503
  0.0030373129522906  0.2002687960416392  0.5953663136016145
  0.9996181617459110  0.9963973688785864  0.9987460902687270
  0.9994839267418588  0.3994872286741410  0.2049419430583261
  0.9999853583626672  0.4004438098877372  0.4011901052559279
  0.0022835576976858  0.4000331896804528  0.5985380915499404
  0.9948806333899937  0.4049184767027075  0.7942316121208829
  0.9999506305347883  0.6078190234481945  0.0005378948611281
  0.0001130435846091  0.5998800027671403  0.2007095104702353
  0.9992663743786705  0.6006453197787599  0.3995734759835617
  0.0004143032660131  0.6020172529822637  0.5985896261226313
  0.0002182212446595  0.6016005431581969  0.7983016741011666
  0.0002910818989843  0.8003530380302676  0.1965692766715456
  0.0002559139589392  0.8006034287559006  0.3985176108162807
  0.0015788110945283  0.7988835559652960  0.6005035880407992
  0.9995043424041077  0.8005721757538795  0.8028978270357781
  0.2009088997896872  0.9994445127083000  0.9991995638930127
  0.2007442456564134  0.0004197884253134  0.2000059356193789
  0.1995397857596747  0.9999559599988855  0.4008692195408872
  0.1986715788204985  0.0018806377232174  0.7986245348825064
  0.1996183419899982  0.1991059259440182  0.9990113716251695
  0.2011139936293304  0.2004210947265408  0.2001061261235129
  0.2004305300819973  0.1996506654338518  0.3994602439078467
  0.1984527155472622  0.1987567592054230  0.6014248111385135
  0.2002389084740056  0.1997223928915644  0.8006857373281828
  0.2059245324990952  0.4006860720028779  0.9997324267287040
  0.2020554279260121  0.4001716838606934  0.2013680114945547
  0.2001570286472677  0.4003887927404191  0.4007768892234744
  0.2048829642281104  0.4003863331625500  0.6003278433588353
  0.1958972879077702  0.3975352467436763  0.7990065660595189
  0.2006281631446092  0.6010471395782621  0.9997766708363307
  0.2001962026633201  0.5989160041912027  0.2002104361738274
  0.1990728364828513  0.6005627361491268  0.3992561152798768
  0.1968203675522017  0.5998378852031214  0.7996693334462056
  0.1977940102686332  0.8005047471046788  0.9991119767624723
  0.2010869567150247  0.7996813225245640  0.2001117460726619
  0.2002202968686608  0.8002807217318910  0.4003220230415397
  0.2000391479077764  0.8005153859667625  0.5997125828017342
  0.4004250435203835  0.0005032029199661  0.0002760339588039
  0.4007926819790323  0.0002045511446911  0.2006445932267565
  0.4008305198094367  0.0004128502693942  0.4010447865244543
  0.4005503860555225  0.0005449376869332  0.5994718706181741
  0.4004287526576598  0.0002848296049065  0.7983582774199077
  0.4005534244352066  0.1999581196871484  0.0008589841158093
  0.4009710041543186  0.2004649002478581  0.1999976370277135
  0.3996804302031413  0.1996963102066001  0.3991056705082731
  0.4000589210937707  0.2024963593910059  0.5992435950667059
  0.3997734841197915  0.1987373937924691  0.8011770756441424
  0.4016125412454201  0.3984214733568325  0.9997786627829998
  0.4009449357732034  0.3999529566589328  0.4039602536143636
  0.4032792306843525  0.3941047149013148  0.7952918605826271
  0.4001575514822289  0.6011589449792311  0.0056216175140118
  0.4001551573046178  0.5995125687456566  0.2018285607320655
  0.3997770866141651  0.6009022984931953  0.3995266809731463
  0.3999249584908744  0.5967686233999907  0.5964843237550022
  0.3992685699200782  0.8017818408694817  0.0011032162772551
  0.4000299425633688  0.8005519485664543  0.2000068338725900
  0.3996693106103354  0.8004464579438878  0.3999210004344093
  0.6010647940443153  0.9992434828401164  0.9993625545131841
  0.6011224066696771  0.0006568912889808  0.2000864013854329
  0.6007440422206362  0.0004041488132838  0.3993431004115346
  0.6033576103086824  0.9991745912301848  0.5997742515001095
  0.5999337605620920  0.0002828074475203  0.8003476828297188
  0.6005070464850437  0.2001548349673651  0.1994374006287293
  0.6010232564685136  0.2002000946215204  0.3983455212205578
  0.5984146837675891  0.1985527434156490  0.5989568348815965
  0.5987091327523426  0.1985092344576255  0.8012184891077213
  0.5984433476621938  0.4009316639367908  0.0002015263195652
  0.6005062428985121  0.3994886165600457  0.2000969567886857
  0.6011876759000743  0.3997485465757092  0.3996227955438557
  0.5963628841077362  0.4005950662722031  0.5995139440974907
  0.6068482392608011  0.3993517971069871  0.8005004329375351
  0.6005957556777575  0.6016273619494051  0.0015179730835820
  0.6005184669628706  0.5996093632248186  0.2001955979393062
  0.6010791478643499  0.6003727873680389  0.3991628936351995
  0.6004982756727774  0.6022850426657762  0.5990633043388662
  0.6047586840613359  0.6017770007313821  0.8002304470632383
  0.6007382739107322  0.8002353350413898  0.9999256286217605
  0.5998153607521762  0.8004112291330352  0.1993524252734984
  0.5994530229030265  0.8006233754778987  0.3997827066879631
  0.5986036186866611  0.7987855737785975  0.6004131412366847
  0.6011238731528700  0.8012208201231982  0.8005570315392136
  0.7994256474299811  0.0008122256770680  0.9990867440912610
  0.8003241685028223  0.0003844967246298  0.4030990543462882
  0.8016259098082862  0.0039708737900407  0.7957501104854241
  0.8011314870360648  0.1969392768372192  0.0008904163072871
  0.7996036956919176  0.2004383453437308  0.1995867315630970
  0.7962250230534759  0.2018868058282365  0.8033353160522126
  0.7957081945059830  0.4002251510159166  0.9950566850108508
  0.7996938070560178  0.3997238307910295  0.1987246610257175
  0.7997099182163794  0.3991730644171522  0.4018891613496424
  0.7989933147470929  0.4014014084744391  0.6037151652505588
  0.7997689688091586  0.6002621709459419  0.0004526857754137
  0.8000769737833134  0.5985759863662223  0.2003986802166385
  0.8003561150034204  0.5998040120770993  0.3999675037653460
  0.8000641993045607  0.6004766485011157  0.5986984781886144
  0.8021693417041897  0.8014362058025218  0.9991818125484545
  0.7991973365321601  0.7999383293823293  0.2009467990656997
  0.8000427084027645  0.7993204324850059  0.3988470629541836
  0.8005079268089553  0.8011867996545573  0.6003690486219162
  0.7995634193760535  0.8008265731454370  0.7998617455703967
  0.2000800764501491  0.9994022631091700  0.5999927284626647
  0.1997189044885065  0.6007836687849999  0.5996337094215246
  0.2003422547946501  0.8007770247239412  0.7988908866647139
  0.4012921310276502  0.3998885271183264  0.2017300249757563
  0.3993299648833246  0.7997916703524238  0.6000873052986134
  0.4000253372453032  0.8029894543271302  0.7999660460090053
  0.5996485474458408  0.1996899283444569  0.0008831325190017
  0.8001401631981419  0.0001477444151071  0.2003754570487069
  0.8006244034699864  0.1999765159413647  0.3976247266256506
  0.8010411787073283  0.6014725731222872  0.7991931017440880
  0.9986741576831210  0.8013006439084334  0.0005493685355038
  0.4005631616580546  0.3993046241369549  0.6005582399831397
  0.8001579779761289  0.9946637158913798  0.6004603657180220
  0.8014858223583066  0.3929236507563920  0.7997061067152047
