Zr Ti V  Cr W 
 1.0000000000000000
    14.5389912424876915   -0.0374494556866657   -0.0589183043242261
    -0.0374453500442430   14.6354780942986213    0.0461660729105062
    -0.0592018380882507    0.0471780306618269   14.7165872119283581
 Zr  Ti  V   Cr  W  
  30   9  49   9  27
Selective dynamics
Cartesian
 -1.1987430108134496  0.4653694534119905  2.3232419225085348   T   T   T
  1.1172468320204352 -0.5789689811973625  6.1081394611756936   T   T   T
 -0.5561916981826185 -0.4709483756836839 12.4158346573918763   T   T   T
  0.6741056810320865  3.4258905056509246  2.6303351352875608   T   T   T
 -0.2945843379338505  2.8338808323674245  6.2495562056072256   T   T   T
  0.8021961110514593  3.3975560165240504 12.7798630058444633   T   T   T
 -0.9915394627704488  5.9867595678778649 11.9926523912647802   T   T   T
 -0.7811667869639883  9.6446299931915682 11.9453711948736547   T   T   T
 -0.0429738568773634 12.0492699840930655  3.6124734129725704   T   T   T
  3.6320715056470716  2.4804996692483572 -0.2660355525088000   T   T   T
  3.4166637107954463  3.3735875274868667 10.6349890060626890   T   T   T
  2.6436470754099841  9.6307447624110267  2.7938613966676562   T   T   T
  5.8412708005272291 -0.4968612649885886 -0.4992358204068041   T   T   T
  5.6322857667780282  7.8709314963586294  3.7036970385517733   T   T   T
  6.1104834995406758 10.2462467947968072  6.3254438388143157   T   T   T
  4.3948925102992193  9.9270787075484819  9.6118290063305043   T   T   T
  5.4593393794856393 11.8992684383953833  2.8330692926938021   T   T   T
  8.8003956838876061  0.7127422871689783  6.0669634635648082   T   T   T
  9.0365371742127376  2.2051878494337207  9.2896247207373932   T   T   T
  9.0226608150035972  2.5967194014061343 12.7192874565858958   T   T   T
  8.2192618216135305  5.8118859313634088  2.3063499334728008   T   T   T
  8.2230230444107697  8.3621461153542267 -0.3498947261581774   T   T   T
  8.4673342493990980 12.1462857183560917 -0.1677152306006591   T   T   T
  9.4726731854297910 11.9264424266623177  6.4881876204685440   T   T   T
  7.3626564099374399 11.0181208073881294 11.5629371059408488   T   T   T
 12.1702520198341304 -0.4497988982539730  5.5156994173928613   T   T   T
 12.3266328401826222  2.4566815861046867 10.8325236651803216   T   T   T
 11.1125602112250821  7.9077146559924616  1.9962204691584988   T   T   T
 10.1338278717621204  8.4787935623258779 10.9435583464124981   T   T   T
 11.3193669127042682 11.9845817178612641  2.4739199548677560   T   T   T
  0.2078389839474355  6.8302281105180676  2.5696759829887941   T   T   T
  2.9965889032715469  2.6365270343038438  5.0360382361329892   T   T   T
  3.2777262407693213  8.3191863954261613  6.3474131026509726   T   T   T
  6.2088619996487333  1.1419874741000322 11.2492803192251323   T   T   T
  5.2692357577536804  5.8490614456996379  0.0975414191371556   T   T   T
  9.3110219772216229  8.5474358543615931  7.5849950193207887   T   T   T
 11.1280387346509286 -0.5877416290885671  9.0799495686237339   T   T   T
 11.2496135126524841  9.9625683541448939 -0.6499732818689496   T   T   T
 13.0082785340208247  9.1160194298167614  8.5944445577077246   T   T   T
 -0.0188211946110699 -0.3817956983188710  8.7699650572562184   T   T   T
  0.3304355411623006  3.6449736520614788  9.2421648927281286   T   T   T
  1.0179828001861440  6.2631833261301466  7.7663399744224133   T   T   T
  0.3346179313886066  8.1881623297001926  0.0060622296453274   T   T   T
 -0.5005029161080344  9.5873011875961485  1.9409727422785110   T   T   T
  0.4510806458848690  9.2941481758133158  5.8533724430686878   T   T   T
  1.2173234614691204  9.3440624624659563  9.6549256795600975   T   T   T
  1.3281277028028085 12.0424345739585412 12.8505936459257128   T   T   T
  1.8250294044638808  0.4782890749558064  2.6856674738046085   T   T   T
  3.5328613720132198  0.6094448896514184  8.2173528106218345   T   T   T
  3.6965291328402836  2.6792179502890745  2.3972011975714915   T   T   T
  3.3980755540496772  5.3687088844077877  3.1191312658956631   T   T   T
  2.8652224000280273  7.8012272808724052 -0.4093100693499221   T   T   T
  2.5073906309187883  7.6841582566239870 11.3948346613194200   T   T   T
  2.8293867590917672  9.9590495185883441 12.5753207897109061   T   T   T
  3.3755880545274244 11.9704585148912379  0.0561146464216551   T   T   T
  3.5166447576901154 12.2049541894740035  7.5742910734413460   T   T   T
  2.0531873987801665 12.6675302814173136 10.4145680098457198   T   T   T
  6.0092784540765205  0.1226512190119560  3.1890624300353485   T   T   T
  5.8497860934722841  1.4554966797275251  5.0698160589815311   T   T   T
  7.1637236602129111  2.5643462584827144 -0.0737632108826419   T   T   T
  5.6986298190342737  3.3504228455413956  6.5294295274239715   T   T   T
  5.6545498554103037  4.1785831021194184  8.7880061802024425   T   T   T
  5.8900043934078354  7.0870064063346820  7.9915592957486759   T   T   T
  5.0536037301059960  6.0477720035411684 11.3680750463107643   T   T   T
  4.8494353694251711  8.8508436743536869  0.6772140311873762   T   T   T
  5.8715746990077591 13.2916411784141957  6.1614245218456158   T   T   T
  9.9857414500444630  0.0379842321274350  0.1667782558251719   T   T   T
  7.8924829941502370  0.4248016799635607  1.4218139294360503   T   T   T
  8.6181158102490976 -1.0210182852922824 11.2440981654486762   T   T   T
  7.8738533581327834  2.3000746911288257  3.2705467205183174   T   T   T
  8.4018666482805493  4.1137157280705310  5.1060792391163927   T   T   T
  8.2091457146973514  5.2811016474123651  7.4869017983621342   T   T   T
  8.0568083466944085  5.4835148413423251  9.9671689766942180   T   T   T
  8.4426662384799336  9.9857882758562297  3.5011003505817500   T   T   T
  9.1018564987250450  7.8522570254351978  4.9591595767507508   T   T   T
  6.9538944855398039  7.9779236765731270 10.5708619842130780   T   T   T
  8.8037148867701749 13.1501340156929469  3.5078171836567127   T   T   T
  7.6104111842973472 10.7474809687892492  8.8182030651513692   T   T   T
 12.4472887022557561  0.8735356257407276  0.1632716534859390   T   T   T
 10.9470165214996200  2.9598131322857175  3.6396433949342288   T   T   T
 10.8108427620638210  3.3317106535069865  6.2296704339560218   T   T   T
 10.8318083228941138  5.5634385078461248 -0.3438187845633878   T   T   T
 11.8895698398016592  4.3133132380097514  1.5250277906325831   T   T   T
 13.3764777773029433  6.0119750294532892  5.2701829874620021   T   T   T
 11.6511882373789852  5.7427745738984237  9.3093528622057278   T   T   T
 12.0760993006171873  9.6811174206189516  5.4511573257255490   T   T   T
 13.0304642764510916 11.6567838534325929  7.1633071146459901   T   T   T
 11.2730819950280363 12.0065793646927368 11.7210496592458746   T   T   T
 -0.4731814041880644  4.6782487803656281  0.1850439259344394   T   T   T
  3.5245634041706895  0.0429666208704192  1.2640771883977480   T   T   T
  2.9983440074664158  5.5967017840769007 12.5758430638020737   T   T   T
  2.6999513334440373 12.6485282704934168  2.4947069738405556   T   T   T
  4.3203663654105435 -0.1311709374473168 11.0313554209304581   T   T   T
  5.9424403520608777  2.6984180789403966  1.8376938870230104   T   T   T
  6.6667872761258842  5.9426445585550605  5.9189208702648699   T   T   T
  7.4631113168949010  6.4267929682952278 12.2378505564834903   T   T   T
 11.4769453884743200 12.8330335854861470 -0.7153079369018757   T   T   T
  1.0773365030997657 -1.3294215778734964  0.6316407143751352   T   T   T
  0.9899400822340974  1.2370486018688815  0.1268145662146281   T   T   T
  1.5755715776186210  5.3831344421545619  5.2509798498164661   T   T   T
 -0.8737674764113137 11.5414295285105979  0.0321022922664437   T   T   T
  1.2111156052341534 11.0438216090885284  7.6201421811407517   T   T   T
 -0.8180215724350919 11.9956577536371025  9.8107980604270804   T   T   T
  3.6095748912638843 -0.3734454416144636  4.4831124845175365   T   T   T
  2.6778658713916861 -0.2868466208955377 13.1692845538708845   T   T   T
  2.6475974115545631  3.9266180593857123  7.7810996759895410   T   T   T
  1.9435534297797314  5.4169794985748592  0.3435418655332378   T   T   T
  4.1687582513745012  5.4893883581680702  6.2795986623092235   T   T   T
  3.6486619522049217  6.3347374859093559  9.0627112346111645   T   T   T
  2.9719120829773242 11.6521196892883143  5.1566770981969423   T   T   T
  6.2078275870447621  0.8905380377402992  8.3713205214083040   T   T   T
  5.6833858155205803  4.2975575436020623  3.9032142027849988   T   T   T
  5.1217301091942122  8.5214384108457129 12.5933583009809471   T   T   T
  5.7456931429474221 10.8594918285612234 -0.7298028834513228   T   T   T
  5.3519932471611424 12.7917177863444280  9.3863580932104824   T   T   T
  4.2890030122902534 12.1429305676935595 12.0752963989519149   T   T   T
  8.0521064368616102 -1.1721798792162688  8.7047296289726876   T   T   T
  9.5511859844194760  2.7265469521218000  1.1815324677114192   T   T   T
  8.3638652789656138  4.8688057219962237 -0.3820236771597070   T   T   T
 10.3894863537154478  0.5112967869923103  2.8331355157729035   T   T   T
 10.8637008369353012  0.1419996088911294 12.2889763414294393   T   T   T
 12.0570942280665676  1.7712560338875227  7.9870699625831749   T   T   T
 10.1380539446999460  5.3721086551247303 12.0473826827126835   T   T   T
 10.3659972583991049 11.4103384623393627  9.3494060383780724   T   T   T
