Zr Ti V  Cr W 
 1.0000000000000000
    12.5634754236892725    0.0381978830787378   -4.4472749023781493
    -6.2548040355349883   10.8086996653888576   -4.4644645366758642
     0.0113771979427540   -0.0014472780863937   13.3739241919914473
 Zr  Ti  V   Cr  W  
  13   2  82  12  15
Direct
  0.9924741617365448  0.1919274256056853  0.5963120617364240
  0.9990085332989120  0.3895293655765218  0.7967829477271380
  0.9948500487661528  0.6016154746107125  0.0025033107628101
  0.9946534464455943  0.6169126537196576  0.7931788177639321
  0.2002877296588478  0.0024431364255838  0.3968015685085458
  0.2058131450929105  0.2069742858928649  0.8044175904512627
  0.2096973887205391  0.8026532891196123  0.4084020410664406
  0.4024176601971881  0.2006324175954933  0.6073072976285330
  0.4053994495010795  0.6007180589309163  0.0019310388297130
  0.5919751299843811  0.9935964950572217  0.1722567264829366
  0.7895394426881517  0.1865789157681892  0.1808979068877689
  0.7956652455458322  0.6005066341815712  0.2054679291444358
  0.8025945660996959  0.7913000633863257  0.7944737894381295
  0.5969820841223706  0.5988293085812751  0.4077815694915983
  0.5952405775721947  0.5995651229904775  0.7929857231942163
  0.0056084923655639  0.0062094629125729  0.0026502669578751
  0.9950498826880270  0.9986352783473550  0.3992746704609331
  0.9986075273099076  0.9840853586185134  0.5998133936648037
  0.0037704654636601  0.9983443693237725  0.8045375006923448
  0.0008031917731282  0.1988074104164169  0.0054483913159247
  0.9868544599093684  0.1830703852533402  0.8150190505426573
  0.0002018311888086  0.3899503497432776  0.0070372672947330
  0.0024117720339499  0.4092659640091991  0.5863529638668626
  0.9973068577418500  0.6022925265281852  0.5917044329334790
  0.0132351695124590  0.8181331397754602  0.0037321780467759
  0.9957328219258280  0.7971101757455483  0.1956844272547845
  0.0056855826665554  0.8102017704931691  0.4158909287028152
  0.0046372215583228  0.8031325318158282  0.6069978858081901
  0.2039381758629543  0.0045342800812982  0.9995284490631445
  0.2052446620417873  0.0070540719917285  0.1955540077072414
  0.2045138550796398  0.0017612554444909  0.6139507005525864
  0.2116268811261401  0.0031144879108526  0.8075962973205058
  0.2045282072363288  0.2028793646558301  0.0084113972260617
  0.2047068786730945  0.2129185308423718  0.3994429592987636
  0.1993137431543562  0.2082452569667617  0.5922129773174842
  0.2022428748465420  0.3996354078292459  0.0106390503752318
  0.2034874358496664  0.4026903447406204  0.2033094303712256
  0.2015537500468061  0.4034773249308495  0.4016008219979808
  0.2018401062947858  0.4048756898920951  0.5942510518156205
  0.2127006811493772  0.4110890351427346  0.7880976766547089
  0.2028962896816034  0.5970270677127235  0.2041544899221766
  0.2059763207259274  0.5947809726688152  0.4053059269892735
  0.2007891528049232  0.6026393908723596  0.5966815958541328
  0.2116766357763633  0.8157691090289307  0.2019792036300794
  0.2075015241749728  0.8065765086440416  0.6145072928940831
  0.2034705640176021  0.8094226110950737  0.8022918483324074
  0.4012667046202077  0.0114772557662808  0.9963098910164627
  0.3935114059727821  0.0028013881181452  0.1937409542066856
  0.4165878001361643  0.0045092341109686  0.6216307269889932
  0.4018142755344812  0.2024704740812971  0.1963051880550161
  0.4055553848297947  0.2015326342551473  0.3940167353614374
  0.4087175625954030  0.3942685573059770  0.0110960075770073
  0.4013090466601816  0.3992906417391975  0.2011196902934087
  0.4072026677690446  0.4067740090955431  0.4049107930453376
  0.3917618126590313  0.4039144728242308  0.5919536610086626
  0.4043980947414965  0.4033675394717004  0.7996958491165391
  0.4016349334178205  0.5973735644227155  0.2127242620091624
  0.3976466116400243  0.6009497756960068  0.4035164354120850
  0.4067054896900148  0.6040787691307493  0.6012151387812322
  0.4003160294780670  0.6082957013622537  0.7919622676162662
  0.3833274301274452  0.8026314286290502  0.9909394745763362
  0.4105243930128897  0.8040108654764392  0.4077858343231633
  0.4097331657575137  0.8173323225134406  0.8126685528136747
  0.6000865533191021  0.9989175518603564  0.6064699206851817
  0.6000224668379895  0.0073611603394056  0.8138095133409462
  0.5931726427911009  0.1921340682999507  0.9971084297162350
  0.5941894623908173  0.2179905335271338  0.2026910947453924
  0.5965286993923085  0.2015688813700554  0.3959591030605901
  0.5982080285978612  0.1927838966991106  0.5952344181126951
  0.5929016994025645  0.3873398231340062  0.9990401798752028
  0.5984572498806495  0.3948753704447188  0.3945466828514916
  0.5945853475193151  0.3973857410258294  0.5931297113562000
  0.5891530805984511  0.5910187606307951  0.2024768152397061
  0.6059842335166060  0.8030339710854161  0.9915280648832228
  0.6085749648240454  0.8031329500521265  0.2097166522427573
  0.5985250258379832  0.8027949915794582  0.4086235039206892
  0.6013916057998246  0.8015418495411484  0.6049862482913559
  0.6022213874850370  0.8079963816129134  0.8036312697659885
  0.7632579218858586  0.9959016740307985  0.9931424182434369
  0.8064494418307698  0.9881265260572983  0.1972977488569748
  0.7888552968288348  0.9904875899173168  0.3916181241172027
  0.7929655784907121  0.9949976371134557  0.6062472931020250
  0.7961617588977740  0.0041764567624494  0.8055789747852905
  0.8015081694144928  0.2084165847499516  0.9943509859788466
  0.7797386167468648  0.1929001681040153  0.5943768500994571
  0.7901159453683055  0.1949447276841446  0.8031182193219322
  0.7885007802700658  0.3916449324855057  0.1937611444072246
  0.7986614715467135  0.4004805015349315  0.3975036532316939
  0.7852215759383218  0.3929971978972243  0.5868232651326568
  0.7816020170757730  0.3827158884714951  0.7899405976138976
  0.7889948901114071  0.5927791500717482  0.9938635261951462
  0.7973904273731418  0.5944612688244283  0.4063554621920859
  0.7888486145342061  0.5927250081121507  0.5878497205896848
  0.7777686868939516  0.5691134488673223  0.7828670765042274
  0.8054448097135208  0.8041423094352890  0.0055477313049971
  0.8023531292838229  0.8062217168252261  0.2001613574036113
  0.8004575916384931  0.8050617338900995  0.5981593760482790
  0.0061620166626813  0.2015846006061580  0.1996134940400387
  0.0010103583953363  0.4028498052198005  0.4017300714617592
  0.0160982796676184  0.8231904985026969  0.8012390708730660
  0.2080934263926744  0.8165886496245900  0.0079030328253834
  0.4104198472357546  0.0037701470913076  0.4002901700592211
  0.4016392648091437  0.0049756256796065  0.8065951115440809
  0.4044794165662642  0.2044717425049700  0.0038260386272549
  0.4143439228248565  0.1993972013510129  0.8170819069380604
  0.5984829169179472  0.1955421552284609  0.8076196746797755
  0.5955839738809089  0.3950906460488894  0.1981806116909242
  0.5905778638398598  0.5874005566195463  0.5897050438535220
  0.7941856538789709  0.3907220186824465  0.0006203701484233
  0.0028199253718877  0.0029319083997112  0.1974097709519633
  0.0005204287197192  0.2039266812577264  0.3925129439926132
  0.0019511930714346  0.3952916432153455  0.2043709739640018
  0.9989916113239432  0.5937458683925370  0.2024800343251536
  0.0001508082416479  0.5979868654352968  0.4036678400138427
  0.2052981199895430  0.2067201228619747  0.2023545021411880
  0.2043272196823746  0.6056724551194121  0.0064327653408847
  0.2048479031768545  0.6068286643807582  0.7947436219562518
  0.4014947300672210  0.8019928881973926  0.2031613159138321
  0.4058762552107367  0.8028375637878672  0.6097851108545456
  0.5971344241098008  0.0006900328961515  0.4007211296802792
  0.6037485772703441  0.3976655199285168  0.8070734839402026
  0.6054682471311098  0.5996860175504635  0.0013838935167501
  0.7985068497786391  0.2036043458092430  0.4012496875503516
  0.7980279227304855  0.7996486845155649  0.4055483221783009
