Zr Ti V  Cr
 1.0000000000000000
    15.4889002550493640   -0.0195313770937778   -0.0155534076795571
    -0.0195267745976093   15.5102089440028070    0.0059105293967036
    -0.0155475950656657    0.0058984254639578   15.5083315327291498
 Zr  Ti  V   Cr 
   5   5 111   3
Direct
  0.9973661482273948  0.9949912925067941  0.8042574699239787
  0.2104178720896578  0.8014786612808207  0.1952538811313994
  0.2158443553842603  0.8079261308895451  0.8029475408630187
  0.3906474998909126  0.9649474170571010  0.8361402374329855
  0.3836951479690009  0.7947982565136656  0.9970240964074427
  0.1990186143526383  0.4006974849750327  0.9994572486901193
  0.2103495460610241  0.8130811871589253  0.5927402919203093
  0.3980244085328942  0.0133469141188462  0.0258274885336339
  0.3904213023388716  0.9888707069807112  0.5967115997392917
  0.8020471377655486  0.8026786351444916  0.1969314211638561
  0.9975998989756173  0.9998483612462080  0.0064395582894837
  0.9989071290822452  0.0011472686633305  0.2015560089519156
  0.9994697249784453  0.9998338957914135  0.3991373242831364
  0.9975299155089811  0.0001888935289622  0.5960408405701025
  0.9980698292222344  0.2002559254696257  0.0001197555978114
  0.9988107166085839  0.2007573916446834  0.1989347771937824
  0.9993298730361629  0.2004396177807962  0.3988903941935917
  0.9986963195162843  0.2013899332425538  0.5995424653241039
  0.9982073454975591  0.2035351368961659  0.8001034973886497
  0.9975281982297164  0.4014609365967664  0.0003876004995575
  0.9992981406861392  0.3994476221511837  0.1999019583019126
  0.9996608576458217  0.4008592366412095  0.3994612905313654
  0.0000037283804450  0.4009870485633850  0.5985975148269634
  0.9997194242369621  0.4009382141463390  0.7995623360209506
  0.9984895241601813  0.6003150209899369  0.0000048917536120
  0.0013647846361562  0.5996923371042460  0.1995203575722387
  0.0007044211334086  0.6005785602959092  0.3993540519263297
  0.0022814479992211  0.6011306663618704  0.5995791288392680
  0.0027426544234207  0.5996510782878516  0.8002780349495582
  0.9947723910366200  0.8001318002573123  0.9999868804985153
  0.0005445715235711  0.7995673857474122  0.2010562424195526
  0.0006450710725903  0.7992439402378824  0.3995049423150674
  0.0020463441434772  0.8007576422715517  0.5996795094177683
  0.0024521978052772  0.7935765466385341  0.7979029256295437
  0.1951967892100868  0.0032525375117560  0.0006403113448826
  0.1999983251330154  0.0043981922425346  0.2001608553774826
  0.1982248324606253  0.0017294999804436  0.3988640867979504
  0.1942484512436597  0.0083789832038215  0.5983109303441504
  0.1959953785947207  0.0126994418843953  0.7989174493702070
  0.1990820511093844  0.2001885293131568  0.9985033346344206
  0.1994740106801941  0.2013086837312971  0.1995663277815384
  0.1997997410588120  0.2003341031991095  0.3998654189258108
  0.1988500648342859  0.2028661687180983  0.5990519989958546
  0.1998545685545120  0.2040744973932349  0.7992171314451888
  0.2000504877348998  0.3997521094928586  0.2016168572577602
  0.1995164578023567  0.3994132365415629  0.3997613246870261
  0.1998861479509619  0.4008225289348668  0.5988544457746087
  0.1996949690289678  0.4014139106205408  0.7975963752719573
  0.1988304752281752  0.6025382552408720  0.9992537041475280
  0.2007416032527468  0.5960770839939535  0.1997842097944699
  0.1995792405247025  0.6007457061432657  0.4000873265860516
  0.2016147860156296  0.6009453683068676  0.6006779831614631
  0.2014830367192117  0.5983837086543403  0.7996234677563041
  0.1844301943510767  0.8012166060296477  0.0024403548700114
  0.2003239509524300  0.8010261668588683  0.3987878509984364
  0.3994952278526488  0.9993450912063686  0.2096851682593481
  0.3983201838626527  0.9986098985602332  0.4001232098413646
  0.3979703162051543  0.2035107685478392  0.9983129817665273
  0.3996743125203217  0.2012559487741279  0.2010992090019453
  0.3992287767801698  0.1989265756305965  0.4005235545879620
  0.3989001530404321  0.1979600040466432  0.6012961110127019
  0.3995789063345371  0.2024016161417377  0.7985671142215769
  0.4012782639505786  0.3987685555701208  0.0007568622949706
  0.4001276153147104  0.3988722799698495  0.2008671677616696
  0.3995901977705219  0.3993964532566947  0.3995849722971900
  0.4004444904625714  0.3980178385256587  0.5981448950671241
  0.4010190504413358  0.3975103415119592  0.7981200681937721
  0.3988255237514725  0.5912003688066682  0.0002158143693471
  0.4002490224046915  0.5978729267201855  0.1993559189275732
  0.3993159006248105  0.5984812425464922  0.3988836906565316
  0.4000146019955222  0.5953765707371462  0.5975795753905375
  0.4013220520798860  0.5907747783440689  0.7996710501298632
  0.4097186012164836  0.7975264995239300  0.2050516377737336
  0.4018461288944491  0.7970818522592559  0.4007644562235256
  0.4080911956248719  0.7916396366772741  0.5950369996040318
  0.4176522788736018  0.7766188959134674  0.7884066330625751
  0.5935264752590841  0.9990783325810159  0.9996257070218967
  0.5999160067057338  0.0003869665991172  0.1982057983649346
  0.5987142318542938  0.9997215312628523  0.3993618653325432
  0.5988781146418659  0.9984967670512481  0.5990305844613073
  0.5991788211446960  0.9996201499062218  0.7998451127568006
  0.5987784017576753  0.1984860166923466  0.9982874119267864
  0.5993189356438398  0.1997494158681467  0.1991902558242291
  0.5984469020108065  0.1983453612020007  0.3995932866610958
  0.5990353138739505  0.1979485381869829  0.5995691690908702
  0.5995612550844394  0.3986167618334051  0.9990238747267518
  0.5997060756606861  0.3987473518438732  0.1989433567154777
  0.5998597958985186  0.3991911288448577  0.3991484901780940
  0.5997121802698292  0.3983650201935631  0.5990347713666816
  0.6013326021844035  0.3983832182153676  0.7994118183656996
  0.5988337534266995  0.6005262415704433  0.9988257036833043
  0.5992854135604252  0.5995372645471895  0.1983917657855052
  0.6000977484314181  0.6000497411195557  0.3986012086797948
  0.6013207837534337  0.5985173462216246  0.5993500240975196
  0.6023919026985400  0.5972531453305674  0.7997093948107646
  0.6007719492251937  0.7996810863639582  0.9981102241310271
  0.6004319088148168  0.8006717925140590  0.1964317362485215
  0.6010968363453854  0.8001747713135763  0.3986723203233364
  0.6041804784169285  0.7991556180040060  0.5984138608609334
  0.6062623337866477  0.7986993498095460  0.7994485287183322
  0.7986289250935820  0.0030464768124976  0.2020524959712492
  0.7992197333789043  0.0002914662515558  0.3992829570670375
  0.7986366708743026  0.0006500339342781  0.5985511258541855
  0.7943590504248447  0.0000410128692818  0.7979761753710832
  0.7985955128523173  0.1999475253180890  0.1990022699701611
  0.7990563834053031  0.1999508195246431  0.5992045373038427
  0.7989648052246587  0.2001947000740094  0.7998456330025639
  0.7987303776007285  0.3978741971055191  0.9992186842157810
  0.7994343637332496  0.3990905426893361  0.2001494007931946
  0.7995172093749315  0.3995923048330414  0.3993590114649966
  0.8000185686234306  0.3992521876244086  0.5990593322403156
  0.8004002457091387  0.3999393075796027  0.7989858360542575
  0.7996149956226019  0.5981281673766685  0.9992650034317826
  0.7995901277024484  0.5971751090863761  0.1987653927407620
  0.8006185648218642  0.5998626410342210  0.3989639367775352
  0.8014060435449722  0.5992975107911928  0.5991609947954593
  0.8013304045922088  0.5989364905372018  0.7993741478563383
  0.7980382128461484  0.8656012744584015  0.9975607419261308
  0.7999852722050724  0.7998846498953367  0.4005721716239447
  0.8021578692577985  0.7993307555120595  0.5983550812414798
  0.8025132553762924  0.7991425946198037  0.7977462098622845
  0.5992562097424522  0.1985790494736349  0.7993363799859970
  0.7978435453734986  0.1986964649177200  0.9991854111822012
  0.7989135299128345  0.2002246613278894  0.3997984346185208
