Zr Ti V  Cr W 
 1.0000000000000000
    15.3185418189025757   -0.0058579337440910    0.0011531853961578
    -0.0058580518235424   15.3152820885503385    0.0003427542276612
     0.0011540796390519    0.0003423374486165   15.3446139054441577
 Zr  Ti  V   Cr  W  
   1   2 101   1  19
Direct
  0.6015996816828157  0.9996736332946085  0.8008734906489637
  0.2002890443032421  0.7915689184898325  0.2097758150281605
  0.3994345836071380  0.7993933696401211  0.6097091372138046
  0.0001919958386501  0.0000380699515599  0.3940105930024192
  0.9993841761164561  0.0012309255317386  0.6645739850533666
  0.0039971100573915  0.1992075140590351  0.9978004917068161
  0.9988958970809217  0.1991682894006127  0.2010432458798901
  0.0002480694023377  0.2038286559917529  0.4005094349805520
  0.0039473296105457  0.2029184050255184  0.6011619177573283
  0.0008430585486538  0.2091623022945563  0.7989297962439638
  0.0000503170030893  0.3994770228008848  0.9946831039868083
  0.0025781485062065  0.3988881132382806  0.2054926018854617
  0.0035990243700612  0.6025409813585383  0.0006987349904704
  0.9962465156011607  0.6007283024820458  0.1990050986646175
  0.0002814284883392  0.5974579017595365  0.3993342171403605
  0.9994551061298583  0.5972089286696733  0.5982151428141457
  0.0006414859877257  0.5983815399135920  0.7999094548582166
  0.0004140745772833  0.8040838458474870  0.9977756214170543
  0.9994463880520542  0.8015968138801476  0.2011019718618387
  0.0024215403294048  0.7998342119455629  0.4015194189185355
  0.0000937705891537  0.7997063002378465  0.6011394657583505
  0.0017716188578116  0.7971932286031483  0.7986790949301713
  0.1958858097553943  0.0022088978533181  0.0024462852861382
  0.1962220974264807  0.0015460878714609  0.2022063621936142
  0.1992639422155415  0.9998975997535768  0.3997124653248171
  0.1939855471202222  0.0034343772633907  0.6006527531279626
  0.1973971800391874  0.0001829053446925  0.8006431136120763
  0.2008033623636483  0.2036154622711414  0.1948967837117654
  0.2034590130831177  0.1996055779623281  0.4061109488809230
  0.2033753669169640  0.2031245147691183  0.8020441778921097
  0.2036291180466129  0.3985764785339462  0.0011755435460275
  0.1989614147812225  0.4000824605032154  0.3946918595957130
  0.1976817574175150  0.3958452979071951  0.6048394347095791
  0.1983340711690101  0.5921247170545930  0.1954275665924767
  0.2007483319005358  0.5998124723300098  0.3981924625219697
  0.1985439787487074  0.5999280377901234  0.5975364674361421
  0.2006311140517179  0.5972952931273889  0.8068457309964667
  0.2057577829257520  0.7987178964725905  0.4055621161006855
  0.1962785864163460  0.8000611640551532  0.6021162490488203
  0.2039010387619873  0.8008544056945199  0.7999987649149342
  0.3971289224633201  0.0001719222918022  0.0016903072831307
  0.3976000339404948  0.0003160348224899  0.1989780810975796
  0.3997473820429060  0.9948126474295992  0.4000248271527005
  0.3987333107788791  0.0013593294997714  0.5994978482314361
  0.3936659746511109  0.0014371505322463  0.8002361068935113
  0.3959507521004340  0.2007530026996748  0.9928510796497588
  0.3998893652896247  0.1985170495120528  0.2002700708712978
  0.4000106064604332  0.1978776243095183  0.4018046721233201
  0.3956537287887658  0.1982820240049316  0.6052718600449458
  0.4007769823932872  0.4002058127449164  0.1950625558082919
  0.4027076059424065  0.4012776942496777  0.4022503708074792
  0.3989025291488084  0.3998029097479706  0.6026650129529815
  0.3947832560103107  0.5989147427458629  0.9994414663478882
  0.3986747661168072  0.6009619722634443  0.1979882792439960
  0.3998538365547192  0.6034084868228420  0.4005852511870659
  0.3987409825873426  0.5969379918255584  0.6000908806216035
  0.3998751655081501  0.6032646216739196  0.7975477119693166
  0.4026972543161468  0.8012675998803130  0.9968335759729574
  0.4022398349318827  0.7990032778595662  0.2003026911434144
  0.6003557314505088  0.9968669102751592  0.0086327002585280
  0.6026216066250084  0.0020172353171862  0.2027222025941917
  0.6000474853357849  0.0004081054130552  0.3973243801700702
  0.6017331487744916  0.0007139739498299  0.5931012523202919
  0.5994651475981834  0.1983644809434560  0.0001967341467908
  0.5995829790674633  0.2036634453264749  0.1996242901519908
  0.5982934337455263  0.2035573858219724  0.4002195972008008
  0.6006084568862556  0.2005418318773512  0.5989494923341371
  0.5945535781108495  0.2058184846702452  0.7992770040833724
  0.5949476462594967  0.4019370834301040  0.0043706103037613
  0.6013114806427252  0.3997273078380793  0.5954695799940743
  0.5975841173333770  0.4024648277511621  0.7992789993822128
  0.6010774578243310  0.6046942607333925  0.0015642400899130
  0.6044069542471761  0.5954489122942224  0.2000185568640514
  0.5993648814777126  0.5958052860306908  0.3988268609467141
  0.6025549696512089  0.5981092458574501  0.5975074052086345
  0.6001084558100840  0.5968126009053404  0.7997688902745480
  0.6002585062624002  0.7988638168929657  0.1953881128920205
  0.5943668324681229  0.7983653853394560  0.3997614123780110
  0.6022852109997282  0.7984590944592352  0.5995384368415863
  0.5953100019619745  0.7929008474993681  0.8037890516184844
  0.8028640630020262  0.0001812862158486  0.0008500455833542
  0.8037636282867937  0.0004180062652526  0.2010890016909705
  0.8002526451367119  0.9993035212420116  0.3989367636371777
  0.8031487508879164  0.0003308387900314  0.5992191732694117
  0.8048978857837489  0.0014334855011606  0.7988751219286345
  0.7983670738805311  0.2006348129753651  0.9984035120376883
  0.7999333085091940  0.2010552259392209  0.1976706153710867
  0.7990627645286039  0.1994436943342981  0.4006281230050118
  0.8007026810164836  0.1977489364600649  0.6013246397253409
  0.8005292684775890  0.2024475653004005  0.8002906719416155
  0.8009276411793362  0.4005338032341339  0.9992061169995896
  0.7979003017295285  0.4033909801074669  0.1988555076919371
  0.8007806210069334  0.4003445615211382  0.4004967428176722
  0.8032283897900103  0.4003492644004171  0.5995801004399096
  0.8023912502981198  0.4021476163489070  0.7999692090030068
  0.8025534971861211  0.6023135769539274  0.0027834817206596
  0.7996911702779291  0.6025130585930641  0.3946386094553037
  0.8004257592976768  0.6027783994989561  0.5999551833932645
  0.7998080173020340  0.6000687702185560  0.8013194974955690
  0.7944403816715959  0.8009799958922083  0.9983276322664102
  0.7992908165205191  0.7963649178588476  0.2007782418959773
  0.7968855202898715  0.7995200867558684  0.4010427664847886
  0.8004798067718689  0.8008758952384467  0.6005682703884674
  0.8009799533192585  0.7994348704777258  0.7998426482063593
  0.2012960951050748  0.7995622668655933  0.9991734776223340
  0.9990130295220094  0.0021806257767876  0.0072509369847219
  0.9997052497439147  0.0003386548958886  0.1976117837647225
  0.0004452061473362  0.4010302416269440  0.4031914552196333
  0.0013713414622529  0.4002081147637536  0.5993837782536644
  0.0047712961932814  0.4030059191667864  0.7955751568178698
  0.2003201296019921  0.1988328745381686  0.9997066210464860
  0.1999926759108190  0.1977964972452844  0.6020349746100614
  0.2002355211986529  0.3971792862735737  0.1992742417842689
  0.2018905426300443  0.4015444410278811  0.8006908472008332
  0.1987837281879096  0.5984608705771118  0.0023631991004085
  0.3993604058356053  0.2035476672826681  0.7990718618110225
  0.4003116047858608  0.4013283493044217  0.9948581193466003
  0.3969533647117627  0.3995320751867117  0.8023157602705362
  0.4009596165953935  0.7993453416763491  0.3952448739429241
  0.4019395004108191  0.8032084765403746  0.8028749857305197
  0.5995205852226050  0.4001593106716023  0.2027493853526704
  0.5991548989195782  0.3996453164056170  0.3973631414455857
  0.5985165553314329  0.8008959347604990  0.9995521372514731
  0.8012325765028396  0.6002726208690711  0.1981049653026541
