Zr Ti V  Cr W 
 1.0000000000000000
    15.4759761583231921   -0.0117366079554953    0.0050420112375745
    -0.0117382705328058   15.4638317269542895   -0.0006798090525287
     0.0050607535930454   -0.0006880630623193   15.4980063975636977
 Zr  Ti  V   Cr  W  
   5   8 107   3   1
Direct
  0.9999297792067458  0.2034273511754492  0.5991139093782860
  0.9765220854408804  0.3800347338259397  0.1986768195243328
  0.0021624931110155  0.6018647156272713  0.1992175692265151
  0.6003141179627871  0.3860765279751081  0.0234598035111468
  0.8033687334372095  0.0024380314607702  0.0848254176602490
  0.2002133975269029  0.7931084699124586  0.7995876240585540
  0.4056317893720108  0.8032226547697811  0.1988699046461814
  0.6228942942364735  0.9936639240005191  0.2043214392225239
  0.6019729935766115  0.2193001736378800  0.1983234931375161
  0.5999150741742193  0.2094979668895627  0.6060426739327700
  0.5994362804269481  0.3909648117358330  0.7889591285566679
  0.8202563404506392  0.1844478738074033  0.2070613605641410
  0.7657604493738283  0.4042230027075180  0.1998328311503325
  0.0076024466077576  0.9993245979109138  0.9987375074019307
  0.0067823472540853  0.9958846399328869  0.1980648419316468
  0.9990895892213003  0.0001976242953765  0.3977291420439378
  0.0019991962958913  0.9983054843859431  0.5980430032198786
  0.0007021367785316  0.9991231837907593  0.8008001036273934
  0.0030919996459105  0.1986773717237211  0.0004519196362862
  0.0104442357699349  0.1865060584603163  0.1986253345143428
  0.9999472960002547  0.2011491571783906  0.3934410892504239
  0.0011558555117235  0.1988761422130843  0.8037889505858642
  0.0019249043036518  0.3984429126767945  0.9953904680929787
  0.9977568808531037  0.4011555354964768  0.4037124970081539
  0.0001394896527812  0.4056763869054789  0.5993509140523789
  0.0007037999113564  0.3981418615462754  0.7977469870515818
  0.0010972477977542  0.5992751236600796  0.9957063448108123
  0.9986283598266636  0.6011129148269218  0.4038624827605249
  0.0001952317649163  0.6026695983936666  0.6002339351547313
  0.9954214853975961  0.5999782874764834  0.7984874530482201
  0.9998253302155149  0.8010979780704244  0.9990582095382636
  0.9994469484180765  0.8046620978172784  0.1998101795863326
  0.9989108257858654  0.8010523682556694  0.3979481751236043
  0.0008184417223894  0.8018342275698470  0.5983333169813874
  0.9991010295511163  0.8004740354820447  0.7992736914070534
  0.2037646201848417  0.9997428922554968  0.9984766103507776
  0.2032908074538034  0.9980663063944216  0.2003330157271225
  0.2012541412149425  0.0000887792108417  0.5995543916125543
  0.2036450664086660  0.1998736573797965  0.9998472747899803
  0.2017166794380001  0.2004926770795311  0.1990612357464458
  0.2005581355671360  0.2004231128977896  0.3994095657882563
  0.2050654161943299  0.2008432903249482  0.5989074630264414
  0.2019555873552396  0.1996656322504340  0.8007886902885788
  0.1982739246821091  0.3991477127592957  0.0001569819157222
  0.1952042775178486  0.4007358771988189  0.2006974464209236
  0.1976863768890733  0.4001047918676877  0.3993721927696023
  0.1998615529538560  0.4016489344995432  0.5991258663141785
  0.1991728387945934  0.3996135125106574  0.7982521370375167
  0.2008483954770264  0.5990563210211677  0.9994234659537611
  0.2055742023177030  0.6003741644914777  0.1999133678898535
  0.2002834067217706  0.6000888069943990  0.3996288612410622
  0.2007083932878642  0.6006146328071684  0.5995506024738267
  0.1995448428302204  0.5966451474614339  0.7996316649601565
  0.2012728179453014  0.7988061411770371  0.0013203831907629
  0.1993377865931811  0.7996651198953206  0.1994481233084107
  0.2003470696071905  0.8005346499269118  0.3987635811017899
  0.2006149710035297  0.8002736660255486  0.5973245692794243
  0.4022971393452680  0.9995105154176385  0.0006223772304683
  0.3984140605408348  0.0030456706558901  0.2000027382584759
  0.4016303663930603  0.0022863957183827  0.3999568769944301
  0.4005713032207497  0.0013160077013856  0.6002880054255255
  0.4005163797313637  0.0001287056296814  0.7992259747141491
  0.4045227015505529  0.1999898961303459  0.0006924580068115
  0.3960970988138440  0.1998926832767503  0.1998546310540499
  0.4023579204275355  0.2005580027391448  0.3984480692452585
  0.3997277925133967  0.2008921039995315  0.6004509138445151
  0.4020840553874200  0.1994293393131457  0.8019004578973854
  0.3942695938449113  0.3994468350943409  0.9996838670537749
  0.3922686868103327  0.4014718492630173  0.2006368767899780
  0.3976200374995867  0.3994010730047108  0.4014749119624996
  0.3985898858989034  0.4015785008212186  0.5992032037659959
  0.3981453679768326  0.3989334735134976  0.8003630143712813
  0.4011153831354948  0.5978269118397121  0.9982244798149001
  0.4000051330902383  0.6003217232575655  0.1987813403832383
  0.4002894496949274  0.6001924567498864  0.4001241806531011
  0.4005869001164034  0.6005433113408685  0.6013842854605876
  0.4028487158334130  0.5982380158110211  0.8002542884932433
  0.4004554185580095  0.7997048847830256  0.9972800248356106
  0.4004255223339575  0.8017106906081700  0.4012715394391234
  0.3997075729361203  0.8007748244661106  0.5997693962876293
  0.4028646468907313  0.7994473798275549  0.7994719116561281
  0.5988778231982254  0.9953787081660583  0.9986478153943416
  0.6011960926753829  0.0024575341243718  0.4027273084824154
  0.5998535498404417  0.9994434279255786  0.5995409545212366
  0.6026603338772775  0.9973950493039158  0.7993067881459877
  0.6031901790163776  0.1868877694023458  0.9987562664078333
  0.5999960654790960  0.2022995716655610  0.3989490383286862
  0.6015820464957092  0.1955032831834876  0.8038797151416952
  0.5808544372185681  0.4121790375507979  0.2158436025865317
  0.5988788296711726  0.4014929474207236  0.4024118036495639
  0.5979343555606081  0.4058567488303458  0.5952216709739692
  0.5993739749036252  0.5989868929226314  0.9991928124628864
  0.5980465943835207  0.6029625273095710  0.1999474855494112
  0.6003845589277333  0.6026537803733187  0.4007615512417791
  0.5988451484916743  0.6027656380112928  0.5986255602546806
  0.6039909682711115  0.5995849217693267  0.7996071245272397
  0.6001741993129700  0.7985460807034750  0.9997474846508068
  0.6029640167527077  0.7969157523592448  0.2007072958535421
  0.5999808817985974  0.8016120790284033  0.3989094674422089
  0.6000741222045466  0.8011465290891979  0.5988805167086745
  0.6007591439835858  0.7995727940694305  0.7985685340284316
  0.7997220099299009  0.0033597654476762  0.3997949387809381
  0.8002963165356162  0.0002103617959057  0.6005260101296059
  0.8010009875149624  0.9986247299528673  0.8000376636725441
  0.8024213601795558  0.2021484425079695  0.9966029841197751
  0.7986327840171550  0.2002383776277810  0.4025422278456612
  0.7969267820102015  0.2021156393107584  0.6004436429224722
  0.8016819754637429  0.1986397663258768  0.8017290013748791
  0.8053271963033722  0.3995393733769279  0.9969316063234251
  0.7976005883486711  0.4009674804031131  0.4019086851865513
  0.7983724417686040  0.4022758135679488  0.5995789715602952
  0.8018152240349194  0.4029640384363641  0.7977112011835408
  0.7992027183956155  0.5973304647932233  0.9948246437223285
  0.7985516464207547  0.6004890217353898  0.4005190754833740
  0.7992303876586320  0.6010329328114595  0.6039749341616956
  0.8003936664603774  0.7956734530724079  0.9996850249991552
  0.8009978316238008  0.7991086166967784  0.1973039793079588
  0.8005318330318044  0.8033676356910966  0.3976983589974920
  0.7998153615409651  0.7998754527979538  0.5971606209226009
  0.8001527851737729  0.7968304004844041  0.8007516869753929
  0.2008946285273425  0.0008570305308853  0.3996111145054037
  0.2019275485022498  0.0012209832473384  0.7992480482551623
  0.7949711632616893  0.6024489645417807  0.1987955255334823
  0.7997573436492750  0.5984492489240034  0.7989925446225036
