Zr Ti V  Cr
 1.0000000000000000
    15.3990340272275770   -0.0170018773457157   -0.0022529018582575
    -0.0170107766548915   15.3787801482628375    0.0165544931564424
    -0.0022517709109467    0.0165430754876648   15.4057927644380346
 Zr  Ti  V   Cr 
   3  13 107   1
Direct
  0.1994184251944364  0.2034691277781976  0.3693642619249045
  0.2045266357737132  0.6224833244658876  0.3848625260162646
  0.3888157511196089  0.7948955966990577  0.3907123886504354
  0.9998553640504322  0.0021274640599520  0.0046321980418711
  0.0011264490805554  0.1984023489198777  0.8018188302999324
  0.2027540623680248  0.2011308156886045  0.1726464914322566
  0.2029086996560321  0.5943054321023586  0.1846075428376522
  0.2120995076481828  0.8050522953880578  0.2170341539417604
  0.3868478025437166  0.2056785077402041  0.5994201575643805
  0.6082415695135799  0.0132629601598746  0.5936342975159699
  0.6040457213710626  0.1924890601546129  0.4128641250908222
  0.5883648559132029  0.2031410076046290  0.8120953996945804
  0.7970862178113660  0.1983486474873650  0.1981303149957991
  0.7829348607053991  0.1954141606310030  0.5931810662736182
  0.7971743375793364  0.1986615363261136  0.8031212582489761
  0.8042408965816070  0.8023011682377507  0.2015199623175249
  0.0013474933977156  0.0000077470404928  0.2028749708045860
  0.9977340399604986  0.0013922220430855  0.5998356346221915
  0.0012254492135996  0.9986991344069057  0.7983957760169816
  0.0008485582593982  0.2022090387384695  0.0043612740137749
  0.0041818056069404  0.2006807031501786  0.2019506850048041
  0.9952040129850378  0.2011645548923021  0.4010175830982836
  0.9982814362512439  0.1999532754424737  0.5981958001972955
  0.0004383833757517  0.3996940829875804  0.0021379358339769
  0.0006457784042121  0.3998486817565163  0.2025346865838217
  0.0007379288518804  0.4008073077051231  0.4012085576221123
  0.9982558040898206  0.3996736233707072  0.6006537374326755
  0.0007623687029394  0.4007756357481396  0.8007265171675129
  0.0013162601247523  0.5994353946491396  0.0018514482587103
  0.0009108898403558  0.5999071933268180  0.2002140037984739
  0.9964731953193721  0.6006681368460319  0.3998966919014326
  0.0009981244391890  0.5995932611658256  0.5992578928198816
  0.0001033672077174  0.5998710051626529  0.8018982075851930
  0.0028335686021553  0.7982975678893669  0.0037193260900488
  0.0034040064939476  0.8004414498612642  0.2028017406987213
  0.9944369284396555  0.8003250453813112  0.4020723659482485
  0.0009215182432833  0.8008125450521842  0.6023268327879001
  0.0006112985214113  0.7996212440768100  0.8016187919148896
  0.2022966129030268  0.0000581264279643  0.0001152282223766
  0.2025510910778461  0.0063349430721975  0.2013003801981288
  0.1997289579974859  0.0011309406203908  0.3992180098080387
  0.0002850344365333  0.0028679075387450  0.4015564620625953
  0.2001191803630854  0.9997897589491201  0.8010615717245742
  0.1993703135384847  0.1997360736148933  0.9856146136407212
  0.1939205269584092  0.2012712759496762  0.5953969948287988
  0.2013580702371079  0.1971502852946156  0.7936651678862811
  0.2002349155167585  0.3984009149955512  0.9990283000757813
  0.2016656081873293  0.3981584833942854  0.1998076125076688
  0.2000759784445715  0.4075346878856676  0.4008360984154589
  0.1987996978863988  0.4008003283887724  0.5987240507039071
  0.2001579756129687  0.3990766053454197  0.8002081430289106
  0.2009264811766862  0.5995602418983254  0.9942870548362547
  0.2003722471093529  0.6004430320292861  0.6005206413077249
  0.2012864649253246  0.5991576085384324  0.7990898646708018
  0.2016626181129085  0.7997374782479698  0.0010601415352773
  0.1875657331011080  0.8228634391391265  0.4140341940877819
  0.2001758623783632  0.7971228335637933  0.6044349462499277
  0.2007404625373330  0.8030921409077780  0.8017493282288102
  0.4010048268793212  0.9995060778342224  0.0022663469681826
  0.4017788327137543  0.9969728961218386  0.2007307621965652
  0.4013218195256509  0.0043786953144674  0.4008332495117493
  0.4005538526164938  0.9994956691881771  0.7973486611033530
  0.3994644322190568  0.1985416706197966  0.0015502032840513
  0.3997451397851058  0.1987156886916352  0.2012037348153435
  0.4023406229780152  0.1978405600978495  0.3998208142092206
  0.3956511843750419  0.1988780923578849  0.8040686357442022
  0.4009386545804027  0.3984868691455125  0.0021422154795507
  0.4021495637804005  0.3979630588842109  0.2018191027675136
  0.4013378752325752  0.3942362385398367  0.4010377180930098
  0.3995262291634902  0.4008809242273604  0.6007312582947107
  0.4006834430731383  0.3989860549531307  0.8006624957464412
  0.4012156466235267  0.5985096104029132  0.0008376555956691
  0.4046378388756907  0.5971041802857422  0.1999455071278049
  0.4090371529634219  0.5894957971170787  0.4001059632938103
  0.4011708557974228  0.5973163760074088  0.5994127444313767
  0.4014070401152527  0.5996223851078437  0.8014981606088437
  0.4005481626901514  0.7990504892538678  0.9976984413790644
  0.4065293118010657  0.7992285332348011  0.1911589864135911
  0.3997050294349359  0.8003013162198324  0.6020489980187754
  0.4013563417649736  0.8002660176295281  0.7987381566204896
  0.6009585628989212  0.0001475450136741  0.9999375554853489
  0.6005886239518643  0.9999404298923835  0.2004577656008296
  0.5993113900731424  0.9943849542167131  0.3979027802771553
  0.5999473601911918  0.0003223602088758  0.8011841921812503
  0.6001614628766823  0.1996357732377047  0.0075576910263124
  0.5976177841515434  0.1979055979359679  0.2023053890859432
  0.5899330675604861  0.2057726555301871  0.6090569168037189
  0.6018009456475519  0.3989993446279929  0.0014365389403930
  0.6010377284847592  0.3969734474589580  0.2029079072128434
  0.6020329240669955  0.3988813463906645  0.4023527558572663
  0.6002023488414880  0.4020337492106430  0.6025073528761082
  0.6005152278302858  0.4019716896872997  0.8021133858093288
  0.6016338742647943  0.5991846612294403  0.0014532187210259
  0.6032467786847316  0.5993308489948983  0.2001564844522604
  0.6028667508170292  0.5982443102238998  0.4000786072284605
  0.6005086177863247  0.6019858021769864  0.6009484072526141
  0.6010063565995696  0.6003328204110111  0.8012161776450235
  0.6021965018515489  0.7996841428868862  0.0008657654201309
  0.6009246979529189  0.7992822616300083  0.2004100224597639
  0.5999590911743743  0.7986912041679824  0.4002303939313385
  0.5990007534482638  0.8015345202655617  0.5994911419482953
  0.6006671052612829  0.8018317104666021  0.8002363106219310
  0.7992776580244224  0.9994918094136817  0.0004957447636748
  0.8003392249104063  0.0004496935921141  0.1988874404580945
  0.8040520771555791  0.9959280067396999  0.3948031086794670
  0.8039829244683323  0.9961494010736216  0.5990841339845495
  0.8002950474880429  0.9983038763032355  0.7997240364114143
  0.8011480219547035  0.1989974139743830  0.9992554045263067
  0.8015895758204378  0.1976671365707655  0.3964586151628117
  0.8014472366785246  0.3981482441663891  0.0009092983972636
  0.8015094013647782  0.3991265322234580  0.2007161075093658
  0.8006386797476768  0.3975893225384087  0.4003051606698692
  0.7993727431464080  0.4000840290237528  0.6001622326957536
  0.8003496101086518  0.3993791230500910  0.7996158527807214
  0.8017932966890158  0.5986655608610459  0.0003912965055108
  0.8012478673121516  0.5970143164978171  0.1997072897747908
  0.7997425394049237  0.5993866786894435  0.3994040897185663
  0.7999047041713776  0.5984826395826829  0.6003876845761306
  0.8006884567218685  0.5997720755989852  0.8007952108481275
  0.8021302152348512  0.7996134573272408  0.9979019950374844
  0.7983552471147252  0.7989573314943562  0.4035097607602758
  0.7998528212399811  0.7982790118051393  0.6019962875818322
  0.8007636548825062  0.7999236613722827  0.8005264788501210
  0.3939188826680213  0.9975576673792249  0.5977682759442858
