Zr Ti V  Cr
 1.0000000000000000
    15.4866812533483102   -0.0138389071891856   -0.0042650055420354
    -0.0138393523722023   15.4879634038831639    0.0014184031787679
    -0.0042741725747290    0.0014267905633447   15.4705250654031623
 Zr  Ti  V   Cr 
   5   5 111   3
Direct
  0.9987723958965568  0.6004599780505077  0.9988682514990692
  0.4333047685168021  0.7956329211141679  0.4130816951872618
  0.6022260358090107  0.6010736803630929  0.5943372960116533
  0.7857890101545005  0.9661568071832959  0.6005638460260221
  0.7849765753519427  0.7511296406131439  0.5999943938924808
  0.2024554040296084  0.9996157458225470  0.5967569932886945
  0.5967469094075899  0.8017025597411963  0.2272580739275939
  0.5850472761789175  0.8336167786743560  0.6029546135450106
  0.8012789759894782  0.2040771418063350  0.2024092905370616
  0.7967619389851074  0.4016898316974096  0.3937696397847296
  0.9996054087734234  0.0000337227916468  0.2020419088573940
  0.9986696587170076  0.0012176219742049  0.3994354899126631
  0.9984819391524602  0.0009135028612260  0.7984520477821324
  0.9999464755578313  0.1997534628819994  0.9993521356183217
  0.0014433119802610  0.1989786329233687  0.1993999551322083
  0.9997556638576993  0.1994935397283177  0.4009001622487607
  0.0004269961536931  0.1984404866697946  0.5991764562097293
  0.9991777396559571  0.1990805934265246  0.7989034202090887
  0.9993240030504258  0.3951802970702311  0.9992484031341713
  0.0005577904047431  0.3996870352805822  0.2002785294878051
  0.0023827393652243  0.3992381508756762  0.3996426428809843
  0.0026567359925397  0.3982496189259430  0.5985685397042564
  0.9995539940024664  0.3996930409139769  0.7979542699485433
  0.0002363663669487  0.6000709400622479  0.2044753377115830
  0.0004872718494395  0.5994784701774458  0.3997584882778463
  0.0009402957087366  0.5995590322848948  0.5969729001790753
  0.9997200792714556  0.6007492843974304  0.7938019423017720
  0.9996177454813140  0.8053306110837886  0.9990074066434028
  0.9998536707705677  0.8015286600312207  0.1989743340377456
  0.0034804786999241  0.8006116986606044  0.4003579518741759
  0.9960248947287336  0.7990020318499551  0.5989580994544432
  0.9990589217123351  0.8012169514371393  0.7987549989666106
  0.2020186301783321  0.0007820769310357  0.0002946966106292
  0.1984753010470298  0.0005119214731304  0.1990330502871548
  0.2000568678780423  0.0001501024129296  0.3979066974894401
  0.1980945388142502  0.0008066999299741  0.8021354331097958
  0.1995739604168802  0.1998014011279037  0.9998005948519304
  0.2001758242794175  0.2008959408018250  0.1998816144361794
  0.1999993357662215  0.2015697183569588  0.3993193163626211
  0.2002054079765821  0.2035675514885657  0.5992580146773225
  0.1997091881906489  0.2013461403780731  0.7997903749606409
  0.2008476151878320  0.4005490071152046  0.9993429456316276
  0.2004834772723234  0.4010250315678512  0.1990030309298392
  0.2010715567640761  0.4010684202324717  0.3988670582292578
  0.2005250839420011  0.4021901070452798  0.5991299673587295
  0.2003131640103531  0.4017895395508277  0.7998498289408840
  0.2045165343044051  0.6012036934059417  0.9991515642594958
  0.2004781876089392  0.6010382322640101  0.2002704856338796
  0.2019044890626666  0.6008069575673792  0.3988820892871579
  0.1995971101962079  0.6010311975887865  0.5979423466194197
  0.2003420226809535  0.6013113070367607  0.7979722768764435
  0.2000886934223316  0.8021150831581564  0.9997158033154099
  0.2003194221460567  0.8001561249809248  0.2004520396409500
  0.2015776328697950  0.8005682933439499  0.4003634184129941
  0.1973795403351190  0.7992799343187468  0.5999524926321422
  0.1984419184842514  0.8009449974101670  0.8002483813072927
  0.4007873966666233  0.0012856569209755  0.0008039919311852
  0.3987305959967605  0.0009595771847373  0.2000238695418414
  0.3990729605671315  0.0049425753432635  0.3991352686163709
  0.3958017656374627  0.0042147432234051  0.5999387928067035
  0.3990296656140313  0.0020490056547113  0.8017398054106575
  0.3989920227595852  0.2015958546724777  0.2000297682197958
  0.4011020048316085  0.2010846053893404  0.4007454014094896
  0.3985333337122516  0.2042757812962503  0.6003393299923498
  0.4000784123844790  0.2016691130399137  0.7993465477194933
  0.4008385901859962  0.4009513241219548  0.9990764721921824
  0.3997138593633320  0.4005200079417042  0.1990002544727086
  0.4018599577672400  0.4000498931362937  0.3996633488750474
  0.3999040638002262  0.4029515051168904  0.6000839985667142
  0.4002598788801007  0.4028130982381848  0.7990750452692357
  0.4015088505403158  0.6015414556751615  0.9993034859949643
  0.3999603218734085  0.6000765151523703  0.1984503755994832
  0.4006878535512888  0.5949003513552605  0.3990830521531867
  0.3963278984193882  0.6030912849572799  0.5977053308855381
  0.4012903006781167  0.6025718665779961  0.7981491318995357
  0.4014899660245067  0.8011742961556207  0.0009585032821104
  0.3979718253667696  0.8006252343533313  0.2004941404309085
  0.3924756601076169  0.8038192419252838  0.6094300892917168
  0.3993149450876632  0.8010727259014773  0.8013667397213952
  0.5983637881052739  0.0011551234667619  0.0015810489345896
  0.5987244328549826  0.0036689707195951  0.2007089714566110
  0.6000881589731689  0.9997665907913255  0.3999987477915349
  0.5904263943687585  0.0177647618703209  0.5997851281929552
  0.5991401100272853  0.0033440367771318  0.7977643574845631
  0.5992371776503914  0.2011605967293277  0.0003882422331489
  0.6011476793220978  0.2006146459265579  0.3989509744383022
  0.5985533627987389  0.2045642004333819  0.5985524272256127
  0.6001965033617856  0.2020791473876876  0.8005101307461596
  0.5998469885748337  0.3996764979208359  0.9997617570681103
  0.5994349421655621  0.3998695529363458  0.1994565881330945
  0.5991443953753008  0.4000290810451488  0.3985237546854908
  0.5985509741207524  0.3986811702677939  0.5985113267848372
  0.6003783496262715  0.4015190318499968  0.8003297842436141
  0.5990797420132812  0.6023911340354887  0.0004038755751747
  0.6004952875832114  0.5986761546028257  0.1987222757677296
  0.6016581869698272  0.6008255435660492  0.3924598875188636
  0.5996283393086523  0.6019850256428331  0.8001390202872702
  0.5991250196477563  0.8019946899173606  0.9926979793511160
  0.6250435099806587  0.8014796960647327  0.4198396384434609
  0.5993223086796560  0.8021130625975518  0.7979698340508204
  0.7954461456392634  0.9989568226613095  0.0024221646372049
  0.7986370446442410  0.9976585053807826  0.1977759309588991
  0.7998183346203901  0.9984142494744509  0.3953031917970823
  0.7995366949485914  0.0002559429075757  0.8061268510391333
  0.8656691545264671  0.1335042134110298  0.9997670391635715
  0.7991093536007058  0.1949860967577318  0.4008495250985773
  0.7995790161429261  0.1968478752890069  0.5989577574069623
  0.7994603108200602  0.1989565828295679  0.7986588218926517
  0.7984035478945051  0.4016206084275322  0.9981615546700537
  0.8003799014957363  0.4019554748169102  0.1956210312365368
  0.8018954908388057  0.3934461708019800  0.6004790665951649
  0.7995389759000268  0.4007536685710304  0.8003607656651071
  0.7945236148695427  0.6010456193631757  0.9990482645697587
  0.7994735957910416  0.5999660604549110  0.1987043303252661
  0.8015223902309255  0.6013290296442623  0.3982963040904106
  0.8070113165616375  0.5681324737326584  0.5966455597371478
  0.7997194151240233  0.6006695953506254  0.7976497983108447
  0.7971468913813736  0.8003736854114373  0.0010673326181296
  0.8016062301933256  0.7982439282575404  0.1995920960585208
  0.8100243843495020  0.7999709015659943  0.3963182611889699
  0.8002973541608477  0.8022685015865918  0.8000035835078354
  0.9965513847728540  0.9985768492368340  0.5985141575211830
  0.3995585953329447  0.2011543677373661  0.9994812293503695
  0.5971188403220196  0.2005550461770784  0.2002660445912893
