Ti V  Cr W 
 1.0000000000000000
    15.3947628529237015   -0.0004726939770559    0.0021267196503963
    -0.0004726263884090   15.4017912768726095   -0.0008921615345846
     0.0021270963932924   -0.0008941263393480   15.4191178141427301
 Ti  V   Cr  W  
  13 101   9   1
Direct
  0.9967056671599535  0.1911754440165396  0.4000317427511065
  0.9998959067203084  0.4044701316786781  0.4013083273022993
  0.1989472552702226  0.9964450398505590  0.4402861160100888
  0.1976818557947805  0.1969503770455155  0.0027700900259195
  0.1965426458217375  0.2031665575110252  0.7927932739961475
  0.3947898475529283  0.9977728698130732  0.2113479507701774
  0.3932290489339827  0.1925412636214340  0.3995050790871276
  0.3999881068510515  0.8093620288829988  0.3949770668739807
  0.6056437151823966  0.1944896358928707  0.4000346696080096
  0.8011848038481408  0.0094331406757091  0.9970587858308295
  0.7986869279986210  0.0081826810334285  0.3994435980584166
  0.8003218676671464  0.1918204512147059  0.8042757060822506
  0.7995218356504390  0.4027220680376281  0.8015226646981919
  0.0025167049363020  0.0013241683286216  0.9968192680843381
  0.0010100241697256  0.0003567324441978  0.1995937011404540
  0.0001945713457077  0.9977552364714941  0.4006641873982215
  0.9969899175534785  0.0023775844817313  0.5997441243282784
  0.0020005992828889  0.9987404750337411  0.7978858501149999
  0.9977258143784021  0.2003192821715968  0.9995218374547871
  0.0003802082556457  0.2004951429874927  0.1974661069720243
  0.9999852733010811  0.1998094327871948  0.6014323840356338
  0.0019086055216163  0.1984196038055016  0.7986789804864776
  0.0014476449236617  0.3998392638192795  0.9991337081046708
  0.0004250995634818  0.3994634514626575  0.1975261728987616
  0.9999484289358765  0.3990497022602073  0.6024514839871894
  0.0016980312809570  0.3994976775716168  0.8009597772396632
  0.0002405448337318  0.5992558157356231  0.9994976435755468
  0.0005438128464918  0.6014776273055180  0.1992783242727223
  0.0000180211167000  0.6023445944513460  0.4004514187489527
  0.0004167440264877  0.5997686787856719  0.5996426916418216
  0.0003562107549609  0.6008667260104774  0.8001785219523140
  0.0003794328198288  0.8008845976431100  0.9998676639301107
  0.9993877438569009  0.8019793850080048  0.1985006750616321
  0.9996542424629765  0.8008700907952851  0.3976019236237679
  0.0011049232748832  0.8026251691423018  0.6008917507748542
  0.0012626247952952  0.8014317096163276  0.8002464694121904
  0.2015907357554355  0.9989469697332820  0.9983041378763673
  0.1983731861132028  0.0032572889426312  0.1968797466136179
  0.1962595984653634  0.2044567310705403  0.3960453061608489
  0.2046883658369007  0.4023104094978840  0.0000036080482320
  0.1998771063269437  0.4000615312446338  0.2008615329842272
  0.2025472612588196  0.4009821059340085  0.3990790124761197
  0.2012714311818447  0.3980114288580711  0.5980375645132091
  0.2004409641875586  0.4015014020927200  0.7987518459457827
  0.2001383666676642  0.6012780144613923  0.0010993490557939
  0.1996243608595961  0.6010824709099959  0.2015201073204483
  0.2014794691331173  0.6001340852810096  0.3997825550804393
  0.2006191354163772  0.5983805557277374  0.5985797913374946
  0.2000181111220389  0.5999768033157309  0.7981745099675672
  0.2011410273661998  0.7996190868861427  0.9992278618302899
  0.1992532750261332  0.8029781057531429  0.2005196074333870
  0.1997325353376822  0.7980675534513775  0.4006501807021905
  0.2017086875516104  0.7955269934334790  0.5985539118297479
  0.2004918595142460  0.7995215300091525  0.7981203900430747
  0.4010798006785961  0.0005835828487328  0.9987548669707740
  0.4026039686460877  0.0016183009929867  0.4072493906913898
  0.4013435259969612  0.2016200620088647  0.9993447805330073
  0.3989299642680822  0.2006292995770801  0.1988002614060156
  0.3986881447040210  0.2000398203344025  0.6023371418217244
  0.3988032617495523  0.1981252372363939  0.7983252315458831
  0.4004535769022187  0.3988513947860858  0.1979792998421930
  0.4015916426595391  0.3995002219592281  0.4003457461370922
  0.4010141496688573  0.3986034855133310  0.6012099786893700
  0.4009590330532480  0.3996743433567689  0.8046506916615180
  0.4010003553739219  0.5953916572262636  0.0001839037348463
  0.3997277787702943  0.5999917621493872  0.2017807493069940
  0.4012071353705577  0.5983522140404774  0.5998587114009463
  0.4004227029888414  0.5997281454942605  0.8000757542949011
  0.4005446470559978  0.7990874911890263  0.9997326757600590
  0.4004187913815416  0.7976907199534561  0.1965225947298969
  0.4006584380205434  0.7989741530063231  0.8002210312910639
  0.5977291111637268  0.0006859576399643  0.0008954994024147
  0.6014605873308018  0.9993145135857391  0.2009249755506899
  0.5989818189122934  0.9975437021675739  0.4027501151241537
  0.5986252008873196  0.0002755456127410  0.6018356846411272
  0.6003629380724882  0.9985671323425791  0.8002700570706943
  0.6006177282800523  0.1996926051823707  0.0011015460311914
  0.6003624984533439  0.1986123919607052  0.1995720319859873
  0.6008231472505179  0.2004906609594486  0.6019515069059488
  0.5995370163515473  0.1984613564921321  0.8005435006001168
  0.5966878417607620  0.3991011123463878  0.0013704048436749
  0.5999830577856338  0.3994390593365942  0.2022377307484025
  0.5994978819781164  0.3990007645480155  0.5998246308869490
  0.5997383069770374  0.3987474924755327  0.8006341814192526
  0.6006089265123455  0.5993072901628539  0.0009665998267099
  0.6011170476987836  0.6013302188535867  0.2015997298212585
  0.5990984968522176  0.6007637101736508  0.4008007133572287
  0.6009972161879682  0.5993083607893079  0.5995208071401190
  0.6011109895750333  0.6009220707980856  0.7992662422538580
  0.6009433680486823  0.8003830780741993  0.0005682692435080
  0.6015389406843880  0.8005567805612366  0.1991863230468772
  0.6023806895787296  0.8000060861851190  0.3998253608246465
  0.6017222589562063  0.7998651613259606  0.5997942554507720
  0.6018986823973014  0.8003692341441961  0.8011159536086803
  0.8003558109787199  0.0021991521654501  0.1987336501520093
  0.7996142127180562  0.0018163887802993  0.6017547153979461
  0.7999775717658140  0.9966860191273457  0.7983253549992605
  0.7993999610491956  0.2058772656967041  0.0036480349057051
  0.8015914865672644  0.2015989032348743  0.2019566256253432
  0.8008351114872274  0.2065471363340138  0.3999783738317000
  0.8003440393638372  0.2013857766476242  0.5981234185508847
  0.7988577077122248  0.4011176798356463  0.0029897054249302
  0.8001564735899158  0.3999542504254369  0.2012935598547455
  0.7969906605434365  0.4030753883811943  0.3998940650729517
  0.8002390572249723  0.3988169860429758  0.5985948014545788
  0.8001957757535715  0.5998414255636438  0.0010918553544794
  0.8004781608235270  0.5997599979124614  0.2010788631050389
  0.8004938505532970  0.6016438585709092  0.3996363166486617
  0.8007569210241482  0.5996607970102258  0.5990451213045560
  0.8011304350308206  0.6017902992962618  0.7994892057413212
  0.8012816725421344  0.8020938163857702  0.1991431713564801
  0.8002005710189964  0.8001756371014482  0.3997090652831798
  0.8016116815023722  0.8012633834847780  0.5983444114773715
  0.8013184863602050  0.7995596508668567  0.8004639653101434
  0.2024699829114444  0.9965701770248474  0.7932562362358908
  0.1985619329230996  0.2005436548600280  0.2003994467252353
  0.1990759550341969  0.2002945134745280  0.5937231057432621
  0.4003101967555807  0.9991289163084497  0.6043608791885133
  0.4002984500218881  0.9990295634381757  0.7999790193148894
  0.4007744441482333  0.5992642769805625  0.4004646292683571
  0.4015948827839737  0.7993172168995339  0.6018735518642648
  0.5994427847881599  0.4015992753678058  0.4001950317775078
  0.8004861731395562  0.7988548500238811  0.0000757778432290
  0.4006694961123534  0.3991192137119309  0.0015019876610470
