Zr Ti V  Cr W 
 1.0000000000000000
    12.2882735461728885    0.0000000000000000   -4.3445607757035454
    -6.1441367710433559   10.6419570608175889   -4.3445607757035454
     0.0000000000000000    0.0000000000000000   13.0336823299999995
 Zr  Ti  V   Cr  W  
  11  18  73  14   8
Direct
  0.9976306669306392  0.9987932929240907  0.2023243099825542
  0.9833869800994217  0.1857951322290537  0.3933873205057606
  0.9903823550024520  0.6001406296997592  0.3864317168892916
  0.9973673071601982  0.6056167157816016  0.6013891199359507
  0.2111187747449150  0.2133241668801727  0.2074698628725490
  0.2041055996816986  0.6023733562840878  0.3958211667909586
  0.3823021903227094  0.7909523320215296  0.7921306825790374
  0.5935372615279761  0.0048028253900831  0.8026971089916085
  0.6965683200700195  0.8828538929184545  0.4062118194848809
  0.5996537859604650  0.7932845928170352  0.5846684165819195
  0.7907456520253522  0.3959584999430608  0.6024086194318303
  0.9945403511227227  0.1900606108516510  0.6078818257659818
  0.9996863771645901  0.3972454633511685  0.0048857494537462
  0.0000710378891124  0.3953665070957973  0.8016735867953358
  0.9933616030876752  0.5985241115177993  0.0009038612233144
  0.0140865282860206  0.6183579342859638  0.8224090881277180
  0.2077045188731434  0.0011265316767538  0.1961240789998714
  0.2029692615699245  0.0046965426648468  0.4009104405216346
  0.2015851448750521  0.1993059451999218  0.7997075619832258
  0.2099944152590091  0.4008398091195119  0.6147606036803249
  0.2022603229526789  0.8077823525851043  0.4056313433528301
  0.4048391993119794  0.2021469522773700  0.6076379935013168
  0.4173552088039047  0.4073881306616034  0.4115726750282802
  0.4041356658702693  0.6012620269010062  0.0069253552911671
  0.3994060438924517  0.5880610810042245  0.3788255382071661
  0.5955153764731217  0.0002169278448727  0.1947753584687727
  0.7969409648776908  0.1975560911972383  0.1984521804558185
  0.7997047153434009  0.6012402768992956  0.1967381372675773
  0.8020626971770701  0.7952358173651389  0.7967983993118366
  0.9916094571402496  0.9842889596030445  0.4065275597400905
  0.9911494758229098  0.9898619801307568  0.6018498500997488
  0.0080691455087675  0.0002054381857704  0.8045925060867716
  0.0009835341206664  0.1989624362453420  0.0009790902666076
  0.9978170866135427  0.1951811776251067  0.8096746384104987
  0.9888847173884946  0.3841312015031487  0.1958343503206917
  0.9947633928729059  0.5870745589735331  0.1828759417831727
  0.9986839801478279  0.7982015601483973  0.9929047145214651
  0.9951228801215637  0.7880905186824033  0.1944672705879092
  0.0036596127448682  0.8162220050519962  0.4046781189935530
  0.0045668623046799  0.8108029840892645  0.6069589742346367
  0.2058283444118466  0.0014816386204180  0.9983419090783789
  0.2029003940939560  0.0086640418952523  0.6082879351025260
  0.2087916872298678  0.0052226423491706  0.8078277964619499
  0.2101618644789990  0.2015060683337671  0.0002548367672503
  0.2173067690595422  0.2138277939871435  0.4211741311585648
  0.1975507437155005  0.1901536323153677  0.5955524590909418
  0.2037999493747160  0.3962491227300218  0.9974002713734047
  0.1970270869967122  0.4029323169354292  0.1848245233932116
  0.2062760483591934  0.4041206158637995  0.8159094566631608
  0.2052104073067919  0.6020163185251108  0.0040361170833387
  0.2118850479064324  0.6067144643755039  0.1923515956976164
  0.1885636675983620  0.5848323257266604  0.5905428877866983
  0.2013507278605794  0.5952296265004581  0.8061158187979409
  0.2045486495740825  0.8151579341297183  0.6123608319705603
  0.1928345462586066  0.8098072695938431  0.8140110733693176
  0.3996804559065055  0.0069013764487369  0.9993481169321631
  0.4003346089014909  0.0024784119018236  0.1971451466453519
  0.3981099304015938  0.0054650577447364  0.6031420399936929
  0.4065864429771170  0.1997809217131117  0.1942457824568116
  0.4119666478965255  0.1978105525379872  0.4046381589909019
  0.4003777503922508  0.3979025767901622  0.0031101010856748
  0.4113576143876143  0.4047782080559308  0.1976896698603111
  0.4065945651389322  0.4006452136731183  0.6073617456844174
  0.4001157045350652  0.3937181881509409  0.8028583871125973
  0.4131323321705920  0.6107312935332460  0.2051629243347395
  0.4015328933840102  0.5912327235103308  0.5987521106744501
  0.4074229846938178  0.5937978640097121  0.8074236212732896
  0.3882185569882949  0.7998971156952641  0.0026920850901268
  0.4047122405701940  0.8059023498600785  0.1991274399067814
  0.4081852756193282  0.8146017971444410  0.3969805229309262
  0.3921773655322795  0.8060031785335483  0.5871784296972488
  0.5925886170206046  0.0028906902684053  0.0012343964933645
  0.5870874447726743  0.0113819402219686  0.3973112778660112
  0.5939204425694451  0.1996022415312035  0.9983196641524955
  0.5934416649925383  0.2031501330901645  0.1973213060376845
  0.6002836257664091  0.3917551446966674  0.3924831766989231
  0.5950556163756388  0.3969668831129028  0.6037366773964407
  0.6005698181186737  0.3987721980732550  0.8038890638770633
  0.6025806311430821  0.5975415013356297  0.9996247129988736
  0.5984535668440544  0.5930254544428512  0.1981603239880870
  0.6111937660865677  0.6011325497495346  0.4003298916519883
  0.5992125049999745  0.5940316433635378  0.7987237976703719
  0.5950273408205804  0.7945759722103459  0.9965975479503197
  0.5953532602479743  0.7914416315450347  0.1894526441689840
  0.7768706241080614  0.9731226037437276  0.1808535437397302
  0.8068030132527264  0.0077864692896119  0.5432726297641824
  0.8107963917903500  0.0115384017812014  0.7977914623629052
  0.8021153037277304  0.2094618977018718  0.0006980005620388
  0.7825094631035796  0.2006977232445242  0.4045787962903685
  0.7901323697378126  0.1859251257470003  0.6007360364879261
  0.7948275712341928  0.2043409777083896  0.8010284904446063
  0.7832166275047641  0.3892824347470556  0.1846156056728513
  0.7890616355869076  0.3893548120566078  0.3841831074740629
  0.7871085406315168  0.3913034463123464  0.8069217323244722
  0.7934680566653129  0.5943791325695748  0.9953747536087627
  0.7831803741662051  0.5892097870233377  0.3937816303912163
  0.7863728480758811  0.6009745699562997  0.6011433559171352
  0.7978308799019330  0.5953030595250732  0.8058385480996937
  0.7935805191315235  0.7871033961296646  0.9954492837938979
  0.7942585571743375  0.7944735335646792  0.1936747155967070
  0.8050682473406429  0.7872671222538014  0.3954575237855316
  0.8161953071908998  0.7972990410587618  0.6007489191132621
  0.9947769487059643  0.2035897987574881  0.1920836543685423
  0.9973504171991410  0.3967696294247742  0.4021411575009107
  0.0073274124632796  0.8057973871344367  0.8052373965067549
  0.2066879973108920  0.8090696803531707  0.0066788406159261
  0.4022539250303561  0.0050958071937488  0.4001586168441514
  0.3934088769968976  0.0141856146763982  0.8042504581540240
  0.4010943174637930  0.2042393681816581  0.0015038492642621
  0.4021887744252473  0.1978231562642001  0.8048834390277216
  0.5913882339409868  0.1954555529263206  0.3937431125804464
  0.5982657764207617  0.2027790690047304  0.6019975635788285
  0.5955487355056300  0.2072812160992919  0.8019177465961105
  0.5942485538721671  0.3969813832035025  0.1956632744654391
  0.6056863717771477  0.5924696780785925  0.6017320927656987
  0.7925357332247613  0.3957290925101903  0.9977098592222599
  0.0024244980479046  0.9987540514473600  0.9942770018850804
  0.9984950225556725  0.3924896829366722  0.5960708288510214
  0.1958574240496541  0.3943735353167556  0.4003012154408380
  0.2048057159317951  0.8036522515621205  0.2005647384113538
  0.5984598262044653  0.0131075868337902  0.5996300188859672
  0.5940621980143733  0.3957748821442909  0.9978273205889133
  0.5960710413199183  0.7882395437505801  0.7969552027045637
  0.7960277945935695  0.9983565033331304  0.9959284657029330
