Ti V  Cr W 
 1.0000000000000000
    15.4171836946855763   -0.0006458025225840    0.0021743795697675
    -0.0006464432342440   15.4108214600062574    0.0048957167363750
     0.0021730867805691    0.0048939939426410   15.4267125679285311
 Ti  V   Cr  W  
  13 101   9   1
Direct
  0.0010128954308791  0.4010269684257727  0.4003737117367061
  0.2071240141676365  0.1984100054818222  0.7907633965803600
  0.1995678611084599  0.6083739623670061  0.0045319306970069
  0.1986534895031937  0.5972437644672931  0.7919207551587260
  0.4010776165328753  0.9947022188073323  0.5993209406997935
  0.3961866041282957  0.2047744378900948  0.6079890394117207
  0.4027154551494713  0.6024257263084158  0.4010210556943028
  0.5977213786189322  0.9987729732279490  0.9944020357955128
  0.5955610181690381  0.3999097200721690  0.4046317226787738
  0.5911926613223418  0.7977728381126861  0.4019816250843730
  0.8026958393370319  0.4056951160581150  0.9901233090833440
  0.7976434724265490  0.5932558845663243  0.8047654681993205
  0.8046876392186000  0.8014374985251124  0.4021472932928944
  0.9999541300434889  0.9996619895171688  0.9994995488486472
  0.0007528444771816  0.0008961787889279  0.2003270483360907
  0.9997094933741627  0.9992733661323175  0.4003902489344932
  0.0003434603880925  0.0005276535646408  0.7995359168876029
  0.0030880412822394  0.1991545016196752  0.0000296391147498
  0.9957028639750389  0.2008263206415164  0.1994429600407920
  0.0009073817842389  0.1980522367686232  0.3983879853794355
  0.9983878437387141  0.2006947905268857  0.6003241953288676
  0.9994637523885154  0.1997131229239512  0.7998239665299887
  0.0040477636975314  0.4003492584736196  0.9985392863810536
  0.0011976955815141  0.3988644108842328  0.1965329832169296
  0.0011737429395948  0.3989833936000393  0.8002449994700814
  0.9968998083054654  0.5996099964391940  0.0003695846949404
  0.9972729814810715  0.5984959607523974  0.2012490392454739
  0.9990899872297447  0.6013079734014645  0.4001138727559044
  0.9975366583663924  0.5990157458225477  0.5998957175160804
  0.9992027064857527  0.5988471260562102  0.7998104268225834
  0.0022780886153613  0.7992077318953517  0.9995070833102522
  0.9975986315557798  0.7983435554294931  0.2007368351764846
  0.0028699913468804  0.7994369221906987  0.4010844291953713
  0.0007869218873569  0.7985914098941949  0.6023232911655384
  0.9993798681290156  0.7985738692516610  0.7998031092896543
  0.2001944759847945  0.9981077331820449  0.0014285766276099
  0.2005689770052456  0.9965890591525878  0.2013307934114502
  0.1996674150293909  0.0008282193082487  0.3986358351080381
  0.1976617657405563  0.9983317631613617  0.5996366937400697
  0.2013423587614251  0.9982286592785954  0.7985922668708888
  0.2010928406900599  0.1984263925550612  0.0036442360085129
  0.3986817357285001  0.1999357805118958  0.0033115522412583
  0.1992451036953908  0.1996874888276114  0.4016776548595168
  0.1970995662766849  0.2000111461679839  0.5956576626526412
  0.2006530114116560  0.3973839754357794  0.0012692087188360
  0.2002405117629865  0.4019696156736809  0.2010412487183535
  0.2018556119585727  0.3991119995942271  0.3994066032343799
  0.1980816371426553  0.4012933657842307  0.5997335600315763
  0.2015485664692204  0.4003407561634948  0.7997582750590605
  0.1999125018485608  0.5994214045496258  0.2043059374487960
  0.1980953961598276  0.6005480128374421  0.4008221796686360
  0.1993201099190306  0.5999272013412394  0.5962581176898467
  0.2006577406275299  0.7989160193337309  0.1971814666275590
  0.2000179413291912  0.8005554398053774  0.4008309713344966
  0.1997500583082781  0.7985914767497615  0.6020038979521903
  0.2014565597462139  0.8007997475389553  0.8037991081319426
  0.3990915685036907  0.9996640830316551  0.0009418884209846
  0.4004324982280883  0.0005817291970057  0.2000810950532444
  0.3995644130360108  0.0005399386888225  0.3992404924105494
  0.4025385726914923  0.9984179817686892  0.8026757615819610
  0.4045689383648478  0.2001616704546494  0.2002301392218536
  0.3989080876066393  0.1994688898631105  0.3968587886973922
  0.4047318425815045  0.1996597664350148  0.8044705823104571
  0.3985862789773612  0.4003632879151451  0.9985238822533103
  0.4000933096050260  0.3996206368731037  0.1992685539079068
  0.3976332307777941  0.3981414681611449  0.4007489502707418
  0.3990653887531097  0.4033107177323256  0.6013004549762815
  0.4003540643492053  0.4003011811519049  0.8013933366466316
  0.4017688743107553  0.5994642655668901  0.0001430793801207
  0.4021570861421820  0.5994812663467499  0.1989711803255614
  0.4004926465114880  0.5999778832712148  0.6021985030159114
  0.4026167758128223  0.6002244677570714  0.8004240529929501
  0.4017224889174527  0.7987222016697048  0.2013856200445503
  0.3958868945136230  0.8018153518520720  0.4009451632966896
  0.3992741771913655  0.7966418387112069  0.6024329861533801
  0.5999629851708412  0.0008297150949508  0.4003251994920426
  0.6024237601170315  0.9991447846658258  0.5987912213341998
  0.6009666765393019  0.0002248536882841  0.7956777091848031
  0.6008714677904551  0.2020334375485434  0.9991117798316049
  0.6013642298351455  0.1999495000911274  0.1992738228537866
  0.5990881794951586  0.1983854627440464  0.4004967836128692
  0.6016033850250605  0.2003269269372401  0.5999714055048962
  0.6013259420603791  0.1999158621831910  0.7996173120261063
  0.5978369601819811  0.4010154488434959  0.9991103764796362
  0.5994943948440133  0.4004125296109932  0.6020372549427455
  0.5995581939243638  0.3996097394428038  0.7984045439593741
  0.6005537033905317  0.6004899631134617  0.0000437957645582
  0.6008750653498718  0.5989242882763738  0.2013186852324126
  0.6017054718393146  0.6001414234018253  0.5987516677999185
  0.5987907276055484  0.5992480611156933  0.7996623297705991
  0.5995164801281979  0.7980489621754088  0.0000088525899824
  0.6000610863112752  0.8006834078503350  0.1985513700662420
  0.5994712900786718  0.7991251027914512  0.6028839921491730
  0.5993649568761635  0.7992755218391051  0.8005743564177246
  0.8021154539339167  0.9993124275966102  0.0005388408472211
  0.7998064387156043  0.0004174711115772  0.3995759764784901
  0.8006482029315073  0.9990538757044383  0.5989117398128250
  0.8000572972446426  0.9987780351399358  0.7989696204822563
  0.7995943411643028  0.1981700863739500  0.9994488896514307
  0.7992182462919009  0.2007006297244774  0.1983794213857755
  0.7995459786666385  0.1996766631980400  0.3993735788661136
  0.7999727851473420  0.1992422174893878  0.5987521236531812
  0.8005942008346827  0.1982797334957407  0.7988986708258431
  0.7980586699899384  0.4013921606773962  0.1993429281985665
  0.7995204900527362  0.3990098252547122  0.3981709653371653
  0.8010384058305196  0.4002398742973878  0.5985212035879873
  0.7993057229414936  0.3955573114267626  0.7956534809106260
  0.7991762783193733  0.6032365917044737  0.0046740272465848
  0.7989143938407259  0.5980770244752704  0.3988195785526018
  0.7998839700192327  0.5994361464523497  0.5974104628832176
  0.8007478470948365  0.8006664271429795  0.0000660598242492
  0.7986991950668714  0.7994541961059904  0.1993901210127436
  0.8001931994571289  0.7982218574053069  0.6032511562631054
  0.7998616132008862  0.8011394794694859  0.8016276680412957
  0.9994715294778511  0.9989400710257386  0.5999239829255726
  0.0000448724994029  0.3999344751784848  0.6023290819741103
  0.3993147252898467  0.7997478636226207  0.0002644407794834
  0.4001742866135315  0.7986609527390848  0.8018000712324920
  0.6010024947856958  0.9996944135391381  0.2020871187014418
  0.5997314609170001  0.3997168185085822  0.1970986922159395
  0.6023247603264822  0.5994806140755665  0.4000649499966515
  0.7996142321743970  0.9998074345479413  0.2001496674639729
  0.7990776980518507  0.6001614482323888  0.2005997497393687
  0.1970411159793167  0.8019692204066232  0.0005152666101915
