Zr2 Ta1 Ti3 V111 Cr3 W5
1.0
  -7.5249999999999995    7.5249999999999995    7.5249999999999995
   7.5249999999999995   -7.5249999999999995    7.5249999999999995
   7.5249999999999995    7.5249999999999995   -7.5249999999999995
Zr Ta Ti V Cr W
2 1 3 111 3 5
direct
   0.6002895063972959    0.8044490866479963    0.0035511935733079 Zr
   0.4017914807943750    0.1990615238907901    0.7983293765871645 Zr
   0.4029216127951237    0.6061561346237780    0.2017557279265853 Ta
   0.5993158215734229    0.3989737045657807    0.1999827247344588 Ti
   0.6031528299594491    0.0015996618817325    0.6015754817722183 Ti
   0.0084358032619705    0.4071889142738283    0.2057982014313283 Ti
   0.8005622479163705    0.9989841903722139    0.0013889592200845 V
   0.5999952554326602    0.0018180063987474    0.0025868442446910 V
   0.8052804555555414    0.0048469334936019    0.2076928404094224 V
   0.3983180361576781    0.0040177289246519    0.0014828165601080 V
   0.5999161052147945    0.2015151499277901    0.0006715152287556 V
   0.7990870855612573    0.3986658879519971    0.9987277563872649 V
   0.6042931632842253    0.0024481703729237    0.1989775811187320 V
   0.8008248134301210    0.9967164731841809    0.3992299942757149 V
   0.1976898680971653    0.9956576688038824    0.9986734076424914 V
   0.3999932560564612    0.2022748693421379    0.0020056526092452 V
   0.6013762800126705    0.4006873011915723    0.0011154503577802 V
   0.8000109067679795    0.6015131468556835    0.0001363351771869 V
   0.3995326904107295    0.9986032437021084    0.1974416621717804 V
   0.5998590542235234    0.1995170227015464    0.1979660610201272 V
   0.8004034839531333    0.3990668852976890    0.1985121234418185 V
   0.6044803216104246    0.0007515321455517    0.4016311916520061 V
   0.8061520073739037    0.2038009454661502    0.4021038190420891 V
   0.7971486291588525    0.9916971257090581    0.5992263381597072 V
   0.9986918768356486    0.9989314112057527    0.9989406786335050 V
   0.1989643930109705    0.2023865856531410    0.0058347179297536 V
   0.6032167670287940    0.6015468444597989    0.0079080083660514 V
   0.8003738433381289    0.8000688426539401    0.9992843000888140 V
   0.1977898477115509    0.0014374253707002    0.1983404206200719 V
   0.3970071702701017    0.1984310757883807    0.1957508202499461 V
   0.8032565289616935    0.6040715517330082    0.1981969627915550 V
   0.4001196861592072    0.9986265382697394    0.3998126595986942 V
   0.5946536771606834    0.1975810126850293    0.3950363213826937 V
   0.8015148098274850    0.4020829281221565    0.4068352967491909 V
   0.7993710576019546    0.2003195350074740    0.5974833827513015 V
   0.8021632759163145    0.9957352848975741    0.8021485890482329 V
   0.9975030107937026    0.1997226017442544    0.0004505575272161 V
   0.1990437535753777    0.3994156730635481    0.9990519101756794 V
   0.3967592117485071    0.6029863628804715    0.9951583332955992 V
   0.0026911027027556    0.0001546582348894    0.2034818570474355 V
   0.4011718235629902    0.4000808133940904    0.1998420422993207 V
   0.8044526224596035    0.7987643979981791    0.2064238168425408 V
   0.1991448361010960    0.0060035453749983    0.4021567985152555 V
   0.3986675101818985    0.1976937060268948    0.3983246770554467 V
   0.5957806824968858    0.3929249020079537    0.3937394381940192 V
   0.8002867805873577    0.6012632646954230    0.4004673044900887 V
   0.4017110530990363    0.0009903230053248    0.6017200063360255 V
   0.7994556679368678    0.4003615087105143    0.5987277079202791 V
   0.6064009440416520    0.0002036671272464    0.8000798856130222 V
   0.7994986306446676    0.2041322089648967    0.8004657788464804 V
   0.9993690901968549    0.3962635004277899    0.9973109981773211 V
   0.2024139741161284    0.5993428881545233    0.0002233877950925 V
   0.4008558757688486    0.8011331856233815    0.9997748682995400 V
   0.0005362380442985    0.2020047962437416    0.2025395877226418 V
   0.1976213618881428    0.3967422627005723    0.1974091455521606 V
   0.5985754816879977    0.7922192531221107    0.1954940737577150 V
   0.0020356110908087    0.0000311121350861    0.3979679844281860 V
   0.1978875322020086    0.1986961297031774    0.3960670071296161 V
   0.4034795713248612    0.3996427842882623    0.4077980459286341 V
   0.6044339643753072    0.5999706263482967    0.4028904084010123 V
   0.8049176854885667    0.7987968804121340    0.4031525085224091 V
   0.1980138277802719    0.0026529621350947    0.6043911431097132 V
   0.3997710086857056    0.2028738569423783    0.6027735370774394 V
   0.5938973726301476    0.3999444021315632    0.5993227459529202 V
   0.4049758351619913    0.0027478098751545    0.8043303141582330 V
   0.6021740745306311    0.2014678905886505    0.7968352174988578 V
   0.7974835928478481    0.3994676432677470    0.7990855449369570 V
   0.0012723122258183    0.6012139755504387    0.9994508412961083 V
   0.2024203131221712    0.7998353421985643    0.0025386864170112 V
   0.2003586177003174    0.5990632476522753    0.1965468785178580 V
   0.4016146386112062    0.7996008218327595    0.1970903580681821 V
   0.9975666144530414    0.2002799292301173    0.3968636610261979 V
   0.1977871071161983    0.4005080025433150    0.3980994539563760 V
   0.3970526692080515    0.5956692271257490    0.3938845571483962 V
   0.5999043714094145    0.7975763239105049    0.3977577334713774 V
   0.9998360171503073    0.0028687846200267    0.6075125043383629 V
   0.1940847025394110    0.2000358707989235    0.6022545682531949 V
   0.3993751430352558    0.4009955577186596    0.6021636101184720 V
   0.6022957135008505    0.6024354109293368    0.6077046327437948 V
   0.8007431061125383    0.8037243387340627    0.6033706636335296 V
   0.1936323962554377    0.9957542315460659    0.7937972177599075 V
   0.6026725072820338    0.4009649358541111    0.8031871720716224 V
   0.8013840607390812    0.6017728138729190    0.8023102737772962 V
   0.9992578794148642    0.7977632516186164    0.9996322533849429 V
   0.0008314143731653    0.5961445791846907    0.2029429354981916 V
   0.2012373385487228    0.8023422846306002    0.2017340827198450 V
   0.9988804416027957    0.3981937935542584    0.3979890590401575 V
   0.2021892226312536    0.6003741746307580    0.4002762973333054 V
   0.4027256352647903    0.7959022006292709    0.4015190105396703 V
   0.9988649279495714    0.1984551059558835    0.6006713626561644 V
   0.2001079112886775    0.4006939131221455    0.5993582004162955 V
   0.4024876329732975    0.6021439101281649    0.5967340119384763 V
   0.6062524162178947    0.7993631020355256    0.5999510067817033 V
   0.0043719075237456    0.0033294401604073    0.8048377433187517 V
   0.2019332015185494    0.2005729005759670    0.7986032212568950 V
   0.4043719776425856    0.4048947776562614    0.8027282933696414 V
   0.5991285561743787    0.5934649637065601    0.7963231409011056 V
   0.8005068355402452    0.8005318554059461    0.7982641724503121 V
   0.9933021074343966    0.7993668060651478    0.1964465099352644 V
   0.0029142701413301    0.6036083875883338    0.3954187486749320 V
   0.2002960825767233    0.7998510107369157    0.3992211026959318 V
   0.9999230262108030    0.4020380192260996    0.6005949090481750 V
   0.1988373477215696    0.5931039759424963    0.5973346895613594 V
   0.4019340312923874    0.7977772464838024    0.5968725628559799 V
   0.0059985177813376    0.1999568864818579    0.8014107787116058 V
   0.1998678296812987    0.4015683072937286    0.7996953223922637 V
   0.4029496019463908    0.6010850783150232    0.7956317949374111 V
   0.6041177114974163    0.8027339558264101    0.8046512565796068 V
   0.9983465599735846    0.7981181147439629    0.3955139285966967 V
   0.9993043812121417    0.5996359462501385    0.6032676106666549 V
   0.2011307893898696    0.8007767730888110    0.5985674438068376 V
   0.2010935406936284    0.6037245563164267    0.8029189085100650 V
   0.4034445254806098    0.8015157636503879    0.8015203914139220 V
   0.9951575108045785    0.7989775140550830    0.5995329027581864 V
   0.0003962893505770    0.6006157208822472    0.8013221198352880 V
   0.1928785715167965    0.7914197929406946    0.7941205092109720 V
   0.0029647043399546    0.8066594942758086    0.7997049167674551 V
   0.5992284673610175    0.1939074386758548    0.5987817999960816 Cr
   0.8011477374613274    0.6039133168227198    0.6013393057754023 Cr
   0.0062112648997986    0.4066915363133919    0.8022823737897411 Cr
   0.8055823829265983    0.2006830133035936    0.9979690333818116 W
   0.8028953132982306    0.2023144597852085    0.2034379824494004 W
   0.4051869164202112    0.4035525463892869    0.0009154476961748 W
   0.1988931816321070    0.1979366140082829    0.1982610076252518 W
   0.6052765488907937    0.5986158986048598    0.2024483491830177 W
