Zr V  Cr
 1.0000000000000000
    15.5176564344983579    0.0055358052127085    0.0009235349890332
     0.0055289702635454   15.5339659065587714   -0.0041197367383691
     0.0009253811786535   -0.0041210125583897   15.5341853465245965
 Zr  V   Cr 
   5 117   2
Direct
  0.9993727143102616  0.4001693125223071  0.0008298839179412
  0.3746294726107685  0.2023144839897427  0.1970210365634352
  0.6003252427264599  0.2003139473915247  0.1998551563461681
  0.6093292507083152  0.7923817338736531  0.7998559657020353
  0.7930363689173496  0.6074055265302958  0.8001179081969393
  0.0014841611514715  0.0000312867860244  0.0008472775802082
  0.0007197689461205  0.9997470643755759  0.2008895602070441
  0.0011777751154509  0.0007705401385296  0.3999055101633260
  0.0008116419018849  0.0001306015716251  0.6001992258697127
  0.0015678823162302  0.0013900250329230  0.7997485152307544
  0.0002788691289219  0.1965003541822630  0.9994646307599365
  0.0013359223833854  0.1995235982826718  0.2011394401036191
  0.0004203287843525  0.1996629325589108  0.4009758366151140
  0.0008869016406129  0.2003518567645584  0.5995455503629695
  0.0008799522683299  0.1999175213214078  0.7996383039202859
  0.9998720403345309  0.4013653622853010  0.2043443813418995
  0.0005901326926590  0.3997384992175669  0.4008378040470335
  0.9997523005787825  0.4008007804673677  0.5992326843363260
  0.0008316429415467  0.4024577918965698  0.7959374344741132
  0.0010231010995687  0.6048728876517084  0.9986451408566613
  0.0002907809203442  0.6010058065072382  0.2011749040762170
  0.0000549870411815  0.6007862407672340  0.3999255367154907
  0.0009516276595176  0.6007641143225867  0.6007862893837744
  0.0004979662467582  0.6008316373182832  0.7997430666134243
  0.0012080711158334  0.8012795583818952  0.0005928485034674
  0.0015771573534049  0.8010786857780146  0.2006370850267063
  0.0009832743775449  0.8004310257713670  0.4004643070992253
  0.0013810088606923  0.8007984000987453  0.5990647090369835
  0.0054023697457885  0.8000928799423953  0.7998506683975347
  0.2017039646931073  0.0001295833394954  0.0007092666640858
  0.1999162957723009  0.9995135634339184  0.2007524776268244
  0.2013504224863683  0.0007214511876710  0.5992891559772008
  0.2012770026165446  0.0014457442498910  0.8009123146704011
  0.2006948179417680  0.1988308819116213  0.0011233076153205
  0.1995197445724882  0.1996176531881846  0.4009928726735696
  0.1997428014462073  0.1995248303085846  0.6000679154762742
  0.1998048029203110  0.2001618792019838  0.8001397971293760
  0.2039031521977769  0.4011541783470788  0.9992219854799229
  0.2002974805212106  0.3994632413630441  0.2015078277679642
  0.2007516161258470  0.3996155387723042  0.4002328052181120
  0.2005611297560609  0.4006989825776843  0.6004285286797880
  0.2003734843324218  0.3962796184965569  0.8003922556509668
  0.2009554968044690  0.6001380854925065  0.0037931688209623
  0.1994288493284754  0.6001796205477318  0.2002158746437723
  0.2003448671516951  0.5993509642193717  0.3992309862330984
  0.2002433921167153  0.6001337639250774  0.5968030553899353
  0.2014621057418780  0.8038409574501122  0.8003064015176664
  0.2013233659977126  0.7999725841774460  0.0001399456549872
  0.2001923139528292  0.8002636587882399  0.2009092771520399
  0.2011203776590245  0.8011147547310420  0.3994903834427401
  0.2006025099003124  0.7991752009734711  0.6006937652226736
  0.4018737617539788  0.9996189011650799  0.0002878317665685
  0.4011882993970853  0.9957037695636219  0.2002755781347255
  0.4012433345254357  0.0002250716753846  0.3997081669214869
  0.4011151983991535  0.9992020676800883  0.5999317596960817
  0.4016146449646253  0.9994384294145935  0.7997104662038594
  0.4018836484555852  0.1993626814547761  0.9933511428800631
  0.4006241597478357  0.1995378905662510  0.4039662370626022
  0.3996300046572521  0.1993774286983186  0.6006614789836959
  0.3996007925777250  0.1994279999175034  0.7983735280551691
  0.4015845858432895  0.3996554812805194  0.9999906139665085
  0.4013499127598664  0.4062467061000349  0.2001615454285737
  0.4010181627665925  0.3996181154916523  0.4000813771802026
  0.4006174885803097  0.4000096096055459  0.6000056162238669
  0.3981562897375960  0.4002861437395546  0.7992566026327348
  0.3988337806291350  0.6008858766057615  0.9990474886755846
  0.3994780886823734  0.6016328608656144  0.2002162903041486
  0.4004790466266954  0.6003734523876110  0.3999050247939674
  0.3984389909718272  0.6002410582867830  0.6004691376864940
  0.3984162782995652  0.5993517789724483  0.7999173088596270
  0.4016239719870238  0.8001115467249655  0.9996856985802359
  0.3997560199897786  0.7993826606554210  0.2004150963429339
  0.4007054743570654  0.8000680424304245  0.4002337231432292
  0.4008891187505708  0.8001894917332617  0.5997918647679440
  0.3982869682298171  0.7991810652364701  0.7998350707519253
  0.6009735444258983  0.9993697874919990  0.9997720582140895
  0.6015795425185573  0.9949339338574732  0.2004628789555536
  0.6010021265739623  0.9998754891473065  0.4001141986446408
  0.6007829286572992  0.9994211964166524  0.6000001019102210
  0.6006370963305299  0.0010134024798032  0.7997343442312600
  0.6015192677654907  0.1997958919852330  0.9945106117161084
  0.6011939578510730  0.1996189884919687  0.4051596544610072
  0.6012850011685366  0.2000130063463414  0.6011543323420866
  0.6008414839452545  0.1994054068209543  0.7981404216504399
  0.5992000524048300  0.3997564200097415  0.0000318041529574
  0.6011822096688048  0.4056335995585035  0.2003399905618974
  0.6005103214353356  0.3998148319663919  0.4001365445444346
  0.6000681084658495  0.3996552139490618  0.5993748101114422
  0.5995092417326734  0.3963537437205110  0.7993610768338756
  0.5985518565369924  0.5990209772933494  0.0017292074500752
  0.6004242884533263  0.6014022684917428  0.2005328571486966
  0.5997356702801586  0.5997349199719185  0.3993837647953217
  0.5988920495327958  0.5986164181592157  0.5976734115813266
  0.5904203382042187  0.5899982902194625  0.7999487866140207
  0.6010388141667158  0.7995694057087275  0.0041626448505640
  0.6017953128774457  0.7982989997534773  0.2009634438478037
  0.6011138559725014  0.7997920958802804  0.3993248744224703
  0.6012592333922134  0.7992616291136405  0.5956720840333584
  0.7999975681881660  0.0010858713156312  0.0006748699560314
  0.8014954716869981  0.0007163115108284  0.2001562272135317
  0.8002877562012587  0.0009159620635244  0.3998279830068687
  0.8003962421561371  0.0011343185566030  0.5992986288691641
  0.8017045233723309  0.0041173202790538  0.8003416412854469
  0.8004060186422330  0.1997740547465852  0.0001846067569266
  0.8051581790728124  0.2008837015705289  0.1999187888322255
  0.8014044656806496  0.2004471670467927  0.4000675732546886
  0.8010035089217685  0.2003763008685617  0.5999816551076900
  0.8018057710072797  0.2012711299812488  0.7997881247985961
  0.7956905618669211  0.4009456720146160  0.9999352346435899
  0.8002701629430028  0.4005562819583675  0.2007247946010597
  0.7997256264480200  0.4000531642248658  0.3997863079607055
  0.8000380681272737  0.4007187547198449  0.5993138981503134
  0.7995701680807793  0.3988768928069238  0.7993840099281563
  0.7986243609301499  0.6019386356798435  0.0045353696242625
  0.8009171825883521  0.6011022891423171  0.2006180904296385
  0.8001989089704178  0.6004781640605673  0.3989695568850747
  0.7994512528376568  0.6011606795550400  0.5953400150037587
  0.8022130889546623  0.8028610388935562  0.0020624656477148
  0.8019170503803995  0.8008107861701561  0.2006698073702088
  0.8012076556689924  0.8013758944533966  0.3991051389031824
  0.8023832752790767  0.8021724540421402  0.5979462084214038
  0.8114412634120954  0.8106566760825721  0.7999634131359334
  0.2008231740465362  0.9996909784058884  0.4006731684132761
  0.1914942315935083  0.1999353171023052  0.2005643993576766
