Zr Ta Ti V  Cr W 
 1.0000000000000000
    -7.5249999999999995    7.5249999999999995    7.5249999999999995
     7.5249999999999995   -7.5249999999999995    7.5249999999999995
     7.5249999999999995    7.5249999999999995   -7.5249999999999995
 Zr  Ta  Ti  V   Cr  W  
   2   1   3 110   3   5
Direct
  0.7986410023456413  0.9982303977842644  0.8002772532454281
  0.8021067588501856  0.8026634277844904  0.4033323004746177
  0.0006224017074026  0.8000125591834016  0.9992647688302024
  0.6029584162761999  0.2032783083137087  0.0037167774209904
  0.0005190336034640  0.4023706329619702  0.6037433348167739
  0.0015754050845057  0.7977563675197493  0.4019531921915309
  0.5978175190917168  0.9969006860575721  0.0003673259999255
  0.8009653230336173  0.1989753301835089  0.9994306794987295
  0.7985112232919107  0.9996593865232091  0.1999935027709486
  0.3985303409711525  0.0011579946642035  0.9992604603702763
  0.7962303359050585  0.3983406613637156  0.9962689156552313
  0.5992814107080774  0.9989725722161306  0.1987851767038299
  0.8020195930266940  0.2018342574003582  0.2023092939647187
  0.8003222724163586  0.0015220102497807  0.4019629094538238
  0.1995179669131796  0.9996708391931528  0.9984492400001589
  0.4017627542739288  0.2041637013746257  0.0032189886426759
  0.6028926737691565  0.3997209652245756  0.0013331596659022
  0.8014592775402702  0.6015681200927178  0.9982531042288947
  0.4009785945927180  0.9999993704854212  0.2008209074497722
  0.6023007381200216  0.2018951688162596  0.2018719073897565
  0.8019429093956887  0.4008651922503077  0.2005849157280761
  0.5963012534889917  0.9985075713655830  0.3960780194968445
  0.8001825355085068  0.1999531374422659  0.3994192991279477
  0.7983136192763099  0.9988315687643209  0.6004332550288453
  0.0008611527973378  0.0014829351418043  0.9994398874078656
  0.2035690814760497  0.1996861323001279  0.0018802151197029
  0.4035689384831804  0.4020990824595506  0.0023986122629438
  0.5998781364830964  0.6005248086771589  0.9996487575183755
  0.1977661597585393  0.9984280632722563  0.1990464166209421
  0.5997102344216295  0.3971502528846184  0.1995734736270418
  0.7994622736640735  0.5995220132340746  0.2000576102902320
  0.4020879460976391  0.0025513427089076  0.4004833932640212
  0.6002486827637048  0.2017140132990535  0.4020496590460879
  0.7982840056944276  0.3996408114357852  0.4006715630726436
  0.6021453542700457  0.0016159634446952  0.6039042218751034
  0.8024148221671696  0.2029241804086714  0.6010036596845130
  0.9999059090835765  0.1993294712472445  0.0003817014505951
  0.4013750068845657  0.6003023440932223  0.9995585964180336
  0.6006099899737917  0.8000497471989316  0.0007275301027034
  0.0002155797096315  0.9996879437896209  0.1994188143757001
  0.1995827352039455  0.1981529144284814  0.2017498670908303
  0.3991238895577595  0.3988176123586948  0.1979751246211432
  0.5989403068707915  0.6004366489413564  0.1995901466591616
  0.7989726425157074  0.8021196181417158  0.2002454212549051
  0.2010038143179885  0.0011168794750320  0.4004456027373138
  0.4027645468818102  0.2022406898620029  0.4017319694972422
  0.5961721737202788  0.3982172648290638  0.4000060116266841
  0.7998980168902198  0.5994758728466204  0.3964347744386644
  0.3977549105729636  0.9978564966308149  0.5976209217942751
  0.6028227262757012  0.2007612714037374  0.6000569331107279
  0.7996967935695474  0.3978432249393312  0.5999201729466713
  0.6012156044154410  0.0016736142354726  0.7996599493148571
  0.8010625765506590  0.2017949771448373  0.8001092058719276
  0.0030563468530397  0.4018464745948140  0.0020848557922463
  0.1996152591658397  0.5988113463807282  0.9994039128363474
  0.9986030571376068  0.2007744129407986  0.2019628652404505
  0.1987772659557873  0.3966319996805884  0.1982203015387611
  0.4006310374152785  0.6041580995619482  0.2007479074323440
  0.5982294614543032  0.7990371305128997  0.1997581198106899
  0.9964022761599287  0.0000176876088421  0.3996302505370908
  0.1965753016285474  0.1974980441293836  0.3974723197458759
  0.3974297786378454  0.3977697074121678  0.3998722453010902
  0.5995062597587643  0.5975361249671748  0.4004468263622296
  0.1957894624791486  0.9984070256089477  0.5986977398111359
  0.4013418349636860  0.2029000429440591  0.6015536010795975
  0.6010257750484310  0.4010229427939204  0.5991922042632924
  0.7989367800619105  0.6003857325375954  0.5972598777135694
  0.5958787890635496  0.1964471047705779  0.7965322631293381
  0.7977037229833915  0.4002575289081193  0.7993378496185654
  0.0000999360423155  0.5992520669025754  0.9982094737538361
  0.2009135336538358  0.8029673888333996  0.0002765383206840
  0.9993422824505842  0.3987265097044019  0.1994692603330389
  0.2000001025059932  0.6009974940645807  0.2002359379952347
  0.3992153157100014  0.8002016639112731  0.2009072886821180
  0.0006461325060261  0.2022908532779349  0.3983056267372969
  0.1996574040857085  0.4007181175513981  0.4013336179163128
  0.4005674298825305  0.6000701435159119  0.4014827263523864
  0.5997757073255775  0.8024913060826541  0.3988097878972538
  0.0018279399539975  0.9997257246272998  0.6013807650642203
  0.1997031230777630  0.1996188708041846  0.5992173561717362
  0.3978584825955224  0.3955771870636473  0.5981536483081685
  0.5994053566247053  0.6020794265093217  0.6011999942643564
  0.7974473005764845  0.7974867315879985  0.6002376755896890
  0.2010094374314482  0.0018420067425805  0.8020016729086129
  0.4004981660401633  0.1999778481364523  0.8009447538086812
  0.6011581290633486  0.4024004682495733  0.8026253696090633
  0.8000257655413912  0.6006782801304087  0.8002907463040965
  0.9996342995007005  0.5999200886853675  0.2000760127488794
  0.1992985661894909  0.7986318031182782  0.1986542507588020
  0.9993056429265926  0.3995774257411411  0.3996445801586656
  0.2019384985692237  0.5999099176134816  0.3984836848664080
  0.3976827854518062  0.7998078616243569  0.3990699364613293
  0.9987433451820066  0.1987489917621413  0.5961255607095868
  0.2030520605112529  0.4003169147091449  0.6033381613731400
  0.6020298994679274  0.7993880448356496  0.5974923780555331
  0.2000413826702052  0.2006449531782563  0.8003452718820764
  0.4007109890430289  0.4004619283600894  0.7999840838443384
  0.8010318810281427  0.8005950388056098  0.7987698183654103
  0.0042697300219510  0.8018950541481092  0.2032434967343435
  0.9998114567746478  0.6003505217451480  0.3999252331633571
  0.1984372700631690  0.7986454099839491  0.3964013065201139
  0.1987867208155163  0.6019584011304564  0.5999245194511753
  0.4003525162860432  0.8000602261045515  0.5998987172664823
  0.9998281881744577  0.2008123208704569  0.8003791824046292
  0.1998676072025246  0.4003467970893347  0.8009603045130236
  0.4021147214027756  0.6013900074562961  0.7989915020868187
  0.7478971315931118  0.9485418580698532  0.9478116076470657
  0.9990135656006200  0.6002470534126065  0.6003152877985645
  0.1989551951332026  0.7989289182415218  0.5996695111052693
  0.0009852209218290  0.3985438686494984  0.8004704096623982
  0.2017646586383685  0.6029733047633551  0.8039221799106996
  0.4008229941979513  0.8028566579900308  0.7995906093472561
  0.9996196679197820  0.8007598697514869  0.5967172964988506
  0.0015038034030567  0.6014012890141901  0.7999357225561492
  0.2006347239262474  0.8007629230380874  0.7990616753749380
  0.0012811746712927  0.7990871935952503  0.8011862072980750
  0.3996092448942647  0.1987346633276345  0.2011890339536499
  0.3978847032672485  0.7978672819958434  0.9974314599224461
  0.4022246556040884  0.0021737253222777  0.8002889716682828
  0.7987132576924952  0.7987703058063979  0.9989076137621113
  0.1969630618510558  0.4003522736241273  0.0007923138510090
  0.3973178545317986  0.5956527266041276  0.5989488919134710
  0.0002963174718368  0.0002756608798287  0.7998203988829891
  0.5976777411815540  0.6000618944868175  0.7976546673573163
