Zr Ti V  Cr W 
 1.0000000000000000
    14.6602524187900922    0.0215172646834932   -0.0716507703750515
     0.0215146668373380   14.6497123791080810    0.0354822022612672
    -0.0718080800254052    0.0355544640000473   14.6377508731826413
 Zr  Ti  V   Cr  W  
   2   3 100  12   7
Selective dynamics
Cartesian
  2.5139672294997024  0.2558640125240103  5.9012522882918015   T   T   T
  8.8726133703311394 -0.2812758916686421  2.4812420128039587   T   T   T
  2.7510571011786711  5.8143573105665940  5.5078635639299840   T   T   T
  6.6282254982698126  0.0071073472174799 11.3738996085001318   T   T   T
 12.4592417839188467 11.6406107554482556 -0.5279149444493192   T   T   T
  0.4125875197452247 -0.7670203503988884 -0.2088165399577184   T   T   T
 -0.1703519506088151  0.2419021018900934  2.8153462650693504   T   T   T
 -1.1732158276876044 -0.3083898719945709  5.8819610574761922   T   T   T
  0.0524427890248257 -0.9120864336257533  8.4263199604861345   T   T   T
  0.3693855424982617  0.6790838994033011 11.9474527195650868   T   T   T
  0.7977751863144584  3.0926494024204088  0.3129032356933577   T   T   T
 -0.9215107974172312  2.5747164046689694  2.7750947263344963   T   T   T
 -0.6857731575417905  2.3492548808512006  5.8906352882126534   T   T   T
 -0.9079597619573929  2.2515619534461204  9.8866990953814025   T   T   T
 -0.7818235519062995  2.9784181044975777 12.3854539898864608   T   T   T
  0.6065808455212066  6.3748297391359623  0.5021571684924672   T   T   T
  0.0575570934042349  5.0313897489210238  2.8255639245840976   T   T   T
 -0.9310392384329684  6.8415400634257217  5.3797289124611183   T   T   T
 -0.1525834080311396  6.3392249019376417  8.1407671425185093   T   T   T
  0.4487930627951518  5.4265899588634507 12.7665416974957324   T   T   T
 -0.1864545995879907  9.0146051734521038 -1.0804989404249454   T   T   T
  0.9946353810460208  8.2826347125875710  2.3134318104024758   T   T   T
  1.3170940109611815  8.8115489739347819  5.0604305721972906   T   T   T
  0.1003667238240440  8.9734949823903047  7.1862007688607399   T   T   T
  0.3054006622427499  8.3666345060728791 11.3186604487891529   T   T   T
  0.7585240267278327 11.2870903533265814  1.7633954554379137   T   T   T
  0.4563222154532037 12.4563354533494728  5.6525441161813159   T   T   T
 -0.2642639238523330 11.3620634262473885 11.7130127649623308   T   T   T
  2.4855803398669396  0.1035289583665821  2.1860083264887828   T   T   T
  3.0809983038044408  0.1439619124215637  9.4940930633179939   T   T   T
  3.2105873309815802  0.8054138034086926 12.0713125104416523   T   T   T
  1.8264263135784584  2.4418992188583477  2.9930758561404867   T   T   T
  2.9550040148996612  3.0118537238827443  5.2594491297174297   T   T   T
  1.8169161484516096  2.4732180812245250  8.8218254180613265   T   T   T
  2.6560298519864287  3.7047486084762786 11.5554556742565548   T   T   T
  3.0953351619478595  6.1133814524162000  2.1891372137007812   T   T   T
  2.9131944947501265  6.8222213988704246 12.0261055103654595   T   T   T
  2.6005284955445633  9.1501297567389575  0.3424511600939728   T   T   T
  3.7927912726173068  7.9877723857024607  3.6979210908887494   T   T   T
  3.7169793237060316  8.8287789991108649  6.5299989322167837   T   T   T
  2.7404150864961290  7.5051337517633891  8.7904809794912691   T   T   T
  2.9570149922516400  9.4849330686752094 11.2806759324511532   T   T   T
  2.6926773507138941 12.0144996162475124  3.5472582987574750   T   T   T
  2.8890572674170700 11.1683544028337369  5.9081110271057566   T   T   T
  2.3514501288341552 12.1427119444136959  8.4448631514334291   T   T   T
  3.9126586056358712 12.9923327417059102 12.5316903855139774   T   T   T
  6.1457293573716809  0.0656195933251552  0.7608529438699564   T   T   T
  5.3411265219548349  0.1194807372171006  3.2795264286980377   T   T   T
  6.2641172831500089 -0.4980723918090359  5.5192965730891812   T   T   T
  5.5323463793815870 -0.2319297897427388  8.2322699015919714   T   T   T
  5.6494689769181639  3.8952433536599114  0.5855859751318138   T   T   T
  6.3921666273181250  2.6467930703285689  2.8246416350804480   T   T   T
  5.3117127077097095  2.0602689204061289  5.7467595399860176   T   T   T
  5.5065028293068146  3.3175475489049320  9.8470024211113056   T   T   T
  4.7426472803946256  2.9908541961476485 12.7035837357449939   T   T   T
  5.5217747998992275  6.3277318675261700 -0.2875763981565463   T   T   T
  5.5332478704378039  5.9712923988587328  3.5958183403395330   T   T   T
  6.4576425030355225  5.6441376482260956  5.9991188311818426   T   T   T
  4.8170054018571928  6.0227374425556333 10.5825757444606872   T   T   T
  6.5807566030583349  8.7948277125837038 -0.1349109430778304   T   T   T
  6.3927286901978357  8.1861595425621445  2.4286044036348069   T   T   T
  6.1420693195814557  8.4208301442303544  5.1104473335919511   T   T   T
  5.3636069097239529  9.1411131785825521  8.8620227144956587   T   T   T
  5.4581215755390460  9.6121735978888871 11.9960683117102782   T   T   T
  5.2635686669753614 11.2256904203027279 -0.4665795477318653   T   T   T
  6.3905951695109060 12.3241814837654271  3.0956584843300856   T   T   T
  5.7201270758782696 11.8712742768564752  6.2435276434685694   T   T   T
  6.9724288743761624 11.0071302053016726 10.2517237102127119   T   T   T
  8.3372701076628140  0.6379213474352355  6.5540477249279308   T   T   T
  8.4742979350398642  0.6404295352453854  9.3887155860430305   T   T   T
  8.7120076786254153  2.2194555077297022  0.3469282108486346   T   T   T
  9.5902220317663076  2.7670141404328947  9.4936530688276726   T   T   T
  7.2033074906001211  2.2690875073059771 13.2043310840038970   T   T   T
  9.2192540847123965  5.3554158498459605 -0.3133515247418317   T   T   T
  9.5046577468131268  5.7530677610592811  3.6386703861311358   T   T   T
  8.8356937648793998  7.5743427059518016  6.2600930793525817   T   T   T
  8.1448088233191029  6.3117067700153191  8.4033123923807427   T   T   T
  8.5983434512147419  5.4938987562779991 11.8609396292062783   T   T   T
  8.8867118356206785  8.2096822155866302 -1.3186344607227087   T   T   T
  8.8139293826913736  9.1320049599481781  1.3217091950024744   T   T   T
  7.9857904969406492 10.0658583630964742  5.9910659136478914   T   T   T
  9.3610039534977805 11.8985494796341218  0.1698562293891606   T   T   T
  8.9453104713607861 11.2273326817684680  2.9670307352910750   T   T   T
  7.8587535286069521 11.7157384342703015  8.0262271426982679   T   T   T
  9.4317025471987304 12.7391043474465668 12.0863908506920890   T   T   T
 10.9909832282582993 -0.3482587823586363 -0.2021204027282671   T   T   T
 12.3883963936987342 -1.1002081089580162  1.9903629485371070   T   T   T
 10.8178110882158212 -0.5819597319280685  5.7823502710512296   T   T   T
 11.0741432740634274 -0.0785008963563144  9.4661958992710655   T   T   T
 11.9005216162889358 -0.1618806602044918 11.8019522905830669   T   T   T
 12.9670380526048454  1.8669934097391629 -0.6735370230125844   T   T   T
 11.1667262959395099  2.5442183012803654  3.2992913754691049   T   T   T
 10.1908892480076645  2.4296151428630433  5.9783165367104738   T   T   T
 11.5607239682790546  4.1361196738753234  8.9404549383445389   T   T   T
 10.9871712517480269  3.3391297265619326 12.2654970691511718   T   T   T
 12.0133778214647080  5.3867776320796130  0.8787493911101339   T   T   T
 12.0440304858519731  6.5703430917720551  3.1967668667185642   T   T   T
 11.1470566544773391  6.2905310858487908  5.5950781833197887   T   T   T
 11.9190293897126622  7.1389539141592193  9.2279509305317848   T   T   T
 11.6966460514624675  5.5089215898017834 11.2376866201822363   T   T   T
 12.4469663682182183  7.8133027407088953 -0.0112105950743147   T   T   T
 11.4772865232612169  9.1653339416067023  1.8098041270339480   T   T   T
 10.5962786708223700  9.3964419245827191  6.8289145542604031   T   T   T
 12.3512863603126242  9.2769836865253694 11.2444381499409563   T   T   T
 11.8359799278519109 11.5269173826398035  7.9402255648132680   T   T   T
  0.7451881282483850 11.3683495221877955 -0.7065036042090300   T   T   T
 -0.6409195434126863 11.2172682863359920  9.0265758039317809   T   T   T
  3.1074381885612219  0.0275535199235172 -0.3048641774418548   T   T   T
  3.0713783577943343  2.6097949789273174  0.3963848856852635   T   T   T
  1.7059769987127991  5.1577766949318713  8.9488136132882516   T   T   T
  5.9718627548594529  4.9519114434930023  8.2155368380300136   T   T   T
  6.7780948806607020 12.3471670375982789 12.4493878300200560   T   T   T
  8.7191710209421061  3.0454357539698695  3.1345622521443421   T   T   T
  9.7986980949972651 10.2193845424866776 11.3316299193072911   T   T   T
 10.9733213185438228  9.5198307428517843  9.2809585230280423   T   T   T
 12.7095196586061974 11.2150534738310430  2.5267064406610720   T   T   T
 11.1843110859188126 11.6348648881244134  5.6199985667301808   T   T   T
  3.0747208892081668  5.0766807305827433 -0.3909569028794674   T   T   T
  3.0408886770841543 12.2825092094759238  0.8314238329263504   T   T   T
  8.2336248194889645 -0.4102512232324043 -0.7798873118200419   T   T   T
  9.4543203523900932  1.1258478375065670 11.9241440858384493   T   T   T
  8.5594849480013924  8.9801031274895227  8.8164020374715388   T   T   T
  8.6494638725062458 12.5451926175720150  5.3072078964756253   T   T   T
 11.8451646999991009 12.0244082770743308 10.6155836443476019   T   T   T
