Zr V  Cr
 1.0000000000000000
    15.5277836321495606   -0.0011014415353407   -0.0036444284316418
    -0.0011015311309700   15.5268057001839015    0.0012045176117796
    -0.0036459540422085    0.0012051907892001   15.5242636607114743
 Zr  V   Cr 
   5 117   2
Direct
  0.9993552737935082  0.1992227469631721  0.4010980223263818
  0.9879068734097164  0.4309565904947044  0.9926035239310101
  0.5995741646119311  0.9997745435732057  0.0022750147883126
  0.6006267470538958  0.9998084046053834  0.7783052505588057
  0.8035638481598910  0.3992036385095408  0.8066391774515157
  0.0008794147452871  0.0003748829695093  0.9994481028201542
  0.0000960234566547  0.9982246438310096  0.2002529651184257
  0.9998230184525642  0.9948684152174964  0.3998039100148306
  0.0001614828527738  0.9981296346235772  0.6004811714173458
  0.0019733212073003  0.9986363878206075  0.7990220973878823
  0.9987811553431784  0.2042600150067641  0.9989527966639190
  0.9991801816673409  0.1998715889101755  0.1958439157502287
  0.9992369716361555  0.1981625585102103  0.6042057683287861
  0.0020687734566762  0.1994439273703148  0.8004865675630947
  0.9993510060682250  0.3998084245170077  0.2004934895692363
  0.9996890502401992  0.4035087323022147  0.3998041518926206
  0.0007656916659085  0.3989204150064293  0.5973938061771150
  0.0006062685426514  0.7644301812624786  0.8345172522130333
  0.9992571315868383  0.5981017647339660  0.2017903405681865
  0.9995524346651247  0.6002905063155560  0.4007164811090461
  0.9998153423395595  0.5996679203240525  0.5998375929683973
  0.0017231921427675  0.5982256966289090  0.7972970761326800
  0.9997162931031948  0.8009394336072756  0.0000138595084882
  0.9995160291976727  0.7971192343861010  0.1986195451410289
  0.9998820422339042  0.7983006929357128  0.4002433374586215
  0.9996136731256994  0.7993662445435459  0.6001044383444015
  0.1984124211532997  0.9991055452998764  0.0005966952061962
  0.1989214359394545  0.9993405698659775  0.2005327890948498
  0.2005677296016977  0.9985806010923425  0.4002445434747783
  0.1997089467370997  0.9994324585725243  0.5987565484012574
  0.1987885262355696  0.9988743553250764  0.7992077349008335
  0.1986830938771077  0.2005060786288057  0.9997598787029255
  0.2001231750613020  0.1988415444499703  0.1993625393545524
  0.2040486840606202  0.1992610063570923  0.3997872996116508
  0.2009221275304721  0.1990977512263256  0.6010903260483074
  0.2011519677089490  0.1985407437758882  0.8007041771419867
  0.1997684355634620  0.4001518152397337  0.0003245742610289
  0.1990571256026903  0.3983120096738383  0.2004683206576981
  0.2008298111984727  0.4000719453343488  0.3997783321467741
  0.2007280626166001  0.3989704297417524  0.5985744647737296
  0.2022111171690048  0.3982734264623214  0.7983357832727793
  0.2019824890626379  0.5984905808814945  0.9997613351479494
  0.1989004571168577  0.5996715359865123  0.1996308732845261
  0.2005993534576008  0.5996303031776448  0.4001422494543326
  0.2003668516841910  0.5988052248014186  0.5995326188463905
  0.2008369483908800  0.6004730305081982  0.8001670403099784
  0.1983247406419050  0.7974835613025303  0.9999705881917851
  0.1996353915626055  0.7991597636215148  0.2000220722573520
  0.2002042819048376  0.7987630864633958  0.3998692789645929
  0.2002330022814267  0.7998328212990184  0.6002661723113589
  0.2007173573729860  0.7990596030160911  0.8000650620423542
  0.3940541429033193  0.9993567360787037  0.0008476506341797
  0.3986634633694651  0.9993648010933764  0.2009871461962972
  0.3991730410362300  0.9989626255471521  0.3999337965101706
  0.3996196519756798  0.9994907843311656  0.5995202394626268
  0.3956896731473465  0.9993455789559359  0.7997424014796101
  0.3997329672877815  0.1992661030302989  0.0000962844737726
  0.3996892647603759  0.1988910191902242  0.1994891192520891
  0.4009884208897953  0.1989363765453835  0.4005381477686076
  0.4007949045643119  0.1990510258350190  0.6010428139987155
  0.4000204892735676  0.1992338407094574  0.8014735435888978
  0.3982485281552671  0.3993140198989352  0.0005009624947570
  0.3990536635214751  0.3991634017988320  0.2011746088816228
  0.3998246718145871  0.3997176129504165  0.4003628748653098
  0.4003906818820890  0.3988152436110002  0.5994644921883306
  0.3992426830000054  0.3994924152111511  0.7998016193285403
  0.4001452935724731  0.5997640223497620  0.0004035708214230
  0.3997874695682336  0.5992633887689611  0.2009060919238468
  0.3998803870945618  0.5995524482644190  0.4003746481961667
  0.4008029690395672  0.5998046271357331  0.6001528743559360
  0.4000766368671820  0.5991868382980049  0.7998183743934755
  0.3996571083859057  0.7997076984240468  0.0002066522918440
  0.3998838336865493  0.7994014264991111  0.2000157055458014
  0.4004280934744102  0.7992968525597737  0.4003595150553574
  0.4004309180285334  0.7993360524403615  0.6001405946502953
  0.4000409983071812  0.7996357360418100  0.8008910541748078
  0.5994023511582661  0.9993246692618810  0.2054842557827669
  0.5992481024312551  0.9989244869818286  0.3983853313475011
  0.6001371068863787  0.9993732800112474  0.5870346866555650
  0.5988204040009300  0.2045400184204091  0.0008021584285291
  0.5992551147010609  0.2000669992222731  0.2008066999594158
  0.5987258913502436  0.2003353976333484  0.4006581291892272
  0.5999479256173643  0.1992427287538572  0.6009389274470602
  0.6002146166006146  0.2043878125967179  0.8008311343729961
  0.5947222436625489  0.4008969931993119  0.0016200882081198
  0.5982167760817225  0.3998635520818955  0.2023589660071366
  0.5984832795894323  0.3996118273338852  0.4009511836948384
  0.5996589973502131  0.3994066230349120  0.5995830677614929
  0.5968647189106759  0.4010503972040378  0.7990879703203354
  0.5991447459313486  0.5981797037103783  0.0005880567982984
  0.5991199571134156  0.5985003092142602  0.2015499315874306
  0.6002957084272759  0.5989317166156490  0.6001570842354200
  0.5993699054568884  0.5982744565543237  0.7993175128561896
  0.5995220649694492  0.7943452539688032  0.0010369827665901
  0.5997088935499429  0.7982325642290706  0.2009995752931052
  0.5995036857757871  0.7980016672756293  0.4000806542798762
  0.6000949273823754  0.7987129218087913  0.5996396842445263
  0.6000046367666212  0.7949633454417350  0.8002404818800883
  0.8045360638077371  0.9980771615056727  0.0017442394155274
  0.8006441861543344  0.9989362812247642  0.2011612293766569
  0.7998193035697967  0.9983547644105830  0.4006019508233278
  0.8000848709592648  0.9991127375898290  0.5999219098645829
  0.8059663485602423  0.9978855780462637  0.8007649543575341
  0.7992795864002522  0.1985075647577693  0.0013577419751247
  0.7988801605256920  0.1978409986246890  0.2005940245265065
  0.7947028620327508  0.1981993502299382  0.4007320198313090
  0.7993647291486261  0.1990084476352513  0.6020084181048633
  0.8002912187643785  0.1943655153809225  0.8020081217406134
  0.7886110340284346  0.3973830279542576  0.0102776774179742
  0.7980839520340572  0.3976543045694823  0.2043016996397507
  0.7983809577663720  0.4001878487699618  0.4007439158598617
  0.7990648035961292  0.3986422280539284  0.5979995032432117
  0.7967474170101609  0.5984748196133385  0.0015971432848110
  0.7994833625114625  0.6000853724994122  0.2014274576842263
  0.7988106032996799  0.5997033563569679  0.4006559789949912
  0.7993889395387654  0.5993954811614390  0.6002243971950247
  0.8006348032677527  0.6044934325998915  0.8010658994456510
  0.8013207956119877  0.7971804379194593  0.0007904234223748
  0.7992653341670026  0.7991170640260380  0.2009130270347216
  0.7987942127898109  0.7992406262699160  0.4006704020482645
  0.7999691722358571  0.7996671916730207  0.6004810541781184
  0.8001021992947236  0.7996748563372056  0.8013903729934724
  0.0069343500419197  0.3985007244197598  0.7921992225716589
  0.5994296395407274  0.5991730119814327  0.4011339458958326
