Zr Ti V  W 
 1.0000000000000000
    15.3704372863088707    0.0041087699184726    0.0045828320708022
     0.0041071823098185   15.3593176205705255    0.0049868964281650
     0.0045832368054306    0.0049883200619353   15.3853693029952101
 Zr  Ti  V   W  
   1   2 107  14
Direct
  0.7913707851890542  0.4016620029977296  0.8100332644678385
  0.4090278555947694  0.7978033200576952  0.8042972105429719
  0.6125185291575863  0.4005257727647524  0.9889451689965776
  0.9990130207440946  0.9972240801167700  0.0007737016843270
  0.9962765850573614  0.0027889497966980  0.2002955941773690
  0.0001050184435487  0.9965972976504148  0.3994591559955220
  0.9947727526701582  0.9999991730325906  0.6013331665402025
  0.0027182022836068  0.9983827411729147  0.8010243640954104
  0.0006879794563766  0.1988887839585933  0.0013005105241291
  0.9997035835214897  0.2026244581116836  0.2017153356183468
  0.0016761848943780  0.1996238585382566  0.3998687779113690
  0.0023365989015420  0.2006695594994720  0.5994092308698863
  0.9988953992437659  0.2009064214896179  0.8010350428416145
  0.0034894494737456  0.3993308070062297  0.0059519984554950
  0.9987375147323069  0.4012364592225932  0.3973771090384051
  0.9976341577688209  0.4000470330327111  0.5998650516219343
  0.9992354829403133  0.4008363305061526  0.8029111617351955
  0.9977841498327148  0.6049273654164032  0.9996919054924994
  0.0035330504268716  0.5967334933771783  0.2004392768622000
  0.9995918400273220  0.6028158425429216  0.4025524632909319
  0.9994260444877288  0.5996954795150059  0.6015502245355115
  0.0026239546916924  0.6007641406093488  0.8000199330986799
  0.0037906804175324  0.7987364323308009  0.2009792743452869
  0.9990546605620688  0.7995929341455997  0.5947207656436803
  0.9994464890750626  0.7991697969085216  0.8059226991666730
  0.1995915779359385  0.0015396106610353  0.9952825324435104
  0.1980909737569832  0.9993075678627782  0.4022968569436901
  0.1983436404284044  0.0022544332830798  0.6059052432028008
  0.1998147747416125  0.2024848677741338  0.9966999749166996
  0.1995266527045874  0.0629721565714707  0.1987763686110260
  0.2021621284880248  0.1986811739248115  0.4055537717191084
  0.2008527546091357  0.1950791507765512  0.7961374200514607
  0.1973455634345048  0.4075877513880471  0.1955966089405760
  0.1993996545740636  0.4009313599876389  0.3988666335502233
  0.1979555218081092  0.3966538130279275  0.6019220321997676
  0.1977815110916848  0.4049266137603645  0.8050829196031201
  0.2003912230080022  0.5966673861232197  0.9962975970942466
  0.2008821224383643  0.5995437499468079  0.3998848164246095
  0.1996282405296345  0.5988572150778627  0.6048174676714955
  0.1954555172482896  0.7990790425303205  0.0027434591304589
  0.1960860094419775  0.8001346967198851  0.3984918061557087
  0.1994662886290527  0.8003536338009463  0.5996144250737635
  0.1985155645842188  0.7990432262198138  0.8004469969540887
  0.3994563989360426  0.0004927895116583  0.0000303142909065
  0.4008757489698115  0.9968217186087464  0.1990664126821387
  0.4002425878847923  0.0024830729968746  0.3993225502806239
  0.4005295912766114  0.9982556014381818  0.5997242424329082
  0.3969321747309371  0.0003700143274428  0.8003834080641100
  0.3997433610215261  0.2001572632357565  0.0029592987203571
  0.3994635442279109  0.1976971170176314  0.2031643987263954
  0.3964549655194223  0.2003080446709765  0.5953907801884040
  0.4001290501590572  0.2003167443252282  0.7983254171783243
  0.3960597009032866  0.3983073673267902  0.0003300422630438
  0.4015189861734991  0.4007084436259839  0.1981206736574769
  0.4000510198319251  0.3969124642798593  0.3976588312002473
  0.3992282962936656  0.4002202140665605  0.5982352969445285
  0.3968053773892181  0.3992520393897618  0.7997723236639949
  0.4018726014297152  0.5994019671999795  0.9988577871089953
  0.3983560070959714  0.6036855990224174  0.2004336550491560
  0.4004020354007111  0.5985887296219057  0.4008597993297500
  0.3985718161780786  0.6000420014558148  0.5988001809503399
  0.3957923235998338  0.5993026732543106  0.7995768558692679
  0.4017997100794855  0.8009568335933934  0.0070964855648160
  0.4013247595903074  0.8016061250544937  0.3963833991766100
  0.4002617109932849  0.8006835643075767  0.5939541447479123
  0.6004564680464423  0.0003104969490759  0.9974729119837745
  0.6032432442803070  0.9997554287521403  0.1981294863316853
  0.5993825505031934  0.9999321802211918  0.4011003009797228
  0.6020353496461374  0.0007164960906194  0.6023702102226344
  0.5976857874166671  0.9990485093848475  0.8006100922380264
  0.5990655851546799  0.1990050294172708  0.9987306783024921
  0.5982375824337606  0.2020766189086655  0.1987459717772631
  0.5944286900872300  0.2013100816195832  0.4010067715935677
  0.5978990289411427  0.2007717194207886  0.6008535607058737
  0.5966538171212168  0.2010389407682754  0.7998412446243265
  0.6029094852862654  0.4014730930216359  0.1992825201539686
  0.6011989965776448  0.4013423320655290  0.3985238194381297
  0.5998862236997907  0.4006090455928192  0.5991888494314191
  0.5898239284169279  0.4010832740076478  0.7944565431608674
  0.6003892071237540  0.6014041153104173  0.9981930540704981
  0.5984553072813584  0.5987978474552649  0.1978257505957098
  0.5994773768935577  0.5993330632482448  0.4018037969766137
  0.5985182247289161  0.6001352284996166  0.6019636962782904
  0.5956309060129130  0.6009852253637017  0.7998887462878362
  0.6016969534806780  0.7994361654898470  0.9995371843631226
  0.5960543460966475  0.7992596616559766  0.1996227954770318
  0.6034635761598028  0.7982473470572525  0.3991322692388268
  0.5997025122250388  0.7995660386013659  0.5998695562341375
  0.6029194239934361  0.7995602609284239  0.8005048006798730
  0.7991914907532774  0.0003500324157579  0.0043466011718906
  0.7986469542658609  0.9973215927382593  0.4012084735824505
  0.7993422784812805  0.9994461912824538  0.7968694779892044
  0.7992735325704473  0.1998152425373478  0.0008360618196959
  0.7987924540607125  0.1966052343508866  0.2027613461904872
  0.7975295786206991  0.1989414966507845  0.4018042781658099
  0.7993255478783317  0.1964775663106665  0.6001500475531452
  0.7994951416754428  0.1954314458200191  0.8007249334452589
  0.8076670505813983  0.4000264000507847  0.0105063665982477
  0.8049454248729683  0.4003826515976935  0.2046410643818733
  0.7999513149824293  0.4001150657339871  0.4020458120251174
  0.7993383257160007  0.3988963161505382  0.5995056006341344
  0.7994734664834785  0.6015766923431887  0.0012362066718900
  0.7982551943690781  0.6009197013171196  0.2011650815466678
  0.7984281469940164  0.6049274450216190  0.4016353642477041
  0.7985909494074884  0.6001986867084346  0.6029232974476720
  0.7991930272029463  0.6065275384327977  0.7994276376723179
  0.8033274818780102  0.8014853849496552  0.0031329587061462
  0.7987476954711836  0.8040624682461058  0.2049810656839137
  0.7999070688933542  0.8049714868678584  0.5961682733870299
  0.8007793223342610  0.8017618656437575  0.8001461111313213
  0.0022832780298809  0.4009156746654628  0.2022062300645072
  0.9980965861226708  0.8001511977674637  0.0040606088283218
  0.9980774266256364  0.7990230934960750  0.3981998796618939
  0.1999138553237073  0.9973765052497912  0.7997831645430729
  0.1991210077506697  0.2000318670667377  0.6010914220985957
  0.1997400933470264  0.3998093993771833  0.0003427782681179
  0.2025983741968777  0.6027769598735222  0.1978407935580034
  0.2006345318426669  0.6011743849936717  0.7998810181979528
  0.2023617204043798  0.7935070584288638  0.1996841474668432
  0.3980996333694814  0.1993971648920640  0.3980379709093989
  0.3976493881550402  0.8002251917056992  0.2017593126728519
  0.7984606237855937  0.0014025187529573  0.2016199697662225
  0.7987272372298455  0.0008474110757278  0.6007294752135723
  0.8033220347925977  0.8009755546851728  0.3997823711199494
