Zr Ti V  Cr
 1.0000000000000000
    15.4866812533483102   -0.0138389071891856   -0.0042650055420354
    -0.0138393523722023   15.4879634038831639    0.0014184031787679
    -0.0042741725747290    0.0014267905633447   15.4705250654031623
 Zr  Ti  V   Cr 
   5   5 111   3
Direct
  0.9985132993157125  0.6209699296410616  0.9989303412455577
  0.4330213453790329  0.7947067132429754  0.4149004078402234
  0.6023967277757506  0.6012861431840190  0.5936580519064876
  0.7845052835822822  0.9686474000140278  0.5995771857803298
  0.7845289064023367  0.7522486375875227  0.5989948142407472
  0.2009958203145758  0.9985345410997640  0.5999107218611155
  0.5956647009073783  0.8014408348579274  0.2281128938008766
  0.5846263573381459  0.8340411392425395  0.6035855267770526
  0.8017149976639100  0.2056411971504984  0.2054726848629246
  0.7967818370977606  0.3978930176855308  0.3919142126992756
  0.9982845467772231  0.0018348455942232  0.9998201014226796
  0.9997245257487503  0.9986267393402100  0.1985570381440763
  0.9988000106822190  0.0008019785884693  0.3993095284459042
  0.9987161028045588  0.9991332865491419  0.8001213492886605
  0.9992536095761034  0.2005424538248701  0.9992615295882888
  0.0017015866396026  0.1994663146943342  0.2005316407635938
  0.0000344580796033  0.1985110316583668  0.4009828597022098
  0.0002673496765764  0.1981952108318087  0.5995654765954230
  0.9991885308038309  0.1994687847791019  0.7978054509429184
  0.0000174083006816  0.4022083188729589  0.9990516994707301
  0.0007090216425900  0.3999993678167268  0.1992093444861244
  0.0023648353995800  0.3985525061540567  0.3994123386171813
  0.0024487251891599  0.3980815615635671  0.5982755352093821
  0.9993747117005617  0.3998148141837727  0.7988002611975541
  0.0003286830440015  0.5997578091994147  0.2039146469996520
  0.0002845429219658  0.5987531682133526  0.3996553576487200
  0.0007852392203156  0.5990448940391405  0.5968137448780380
  0.0004770389513409  0.6011697827351635  0.7943393944233175
  0.9997885598437682  0.7994509863548421  0.1996778652371772
  0.0031817611312370  0.8006201661777859  0.3995576151751338
  0.9970986633254270  0.7979338995959556  0.5991370367649508
  0.9974212890872083  0.7998703797028027  0.7977749691208457
  0.1985259823997773  0.9990408966237422  0.9997627986938036
  0.1993447935523990  0.0005724884406093  0.1998645227200893
  0.1996330252420420  0.9997902313788098  0.3980687608772171
  0.1984195638642137  0.0019240878945221  0.8011066653389161
  0.2003559201448201  0.2004846284925440  0.0000119063796185
  0.2000059738624766  0.2003907573089184  0.1997698876514608
  0.2002023824873385  0.2009955543884843  0.3996418649568689
  0.2002393696369273  0.2032183443684694  0.5992915002298318
  0.1996023852755408  0.2013047850259229  0.8003412936288148
  0.1999909705051831  0.4005978891931688  0.9994358198482287
  0.2006622737579680  0.4001758707363510  0.1988593640868399
  0.2008168008440952  0.4002140848578946  0.3986024153290891
  0.2004334233715814  0.4014302986429895  0.5988855926361034
  0.2004524139252835  0.4010710860422551  0.7997672567838544
  0.2040706529084904  0.6013361745957991  0.9984106937177729
  0.2006178522642754  0.5996140045182058  0.2001300010381492
  0.2018543613204558  0.6000381235339929  0.3984164105616363
  0.1996239081265686  0.6007547177492767  0.5981995651282030
  0.2004931835943543  0.5991806068489705  0.7976208182581765
  0.2020278426002838  0.8000921948563413  0.0004572216920358
  0.2004527977288372  0.8005727751215266  0.1999611394442174
  0.2021150024261153  0.7998181765354446  0.3997391194021699
  0.1970105177347562  0.7986468989804988  0.5980192380543242
  0.0997914398363574  0.8031469311644043  0.8991703588429063
  0.4004824627850206  0.0015150741057131  0.0007544782392177
  0.3988746048476864  0.0011855459255226  0.1998692655222546
  0.3989323803278792  0.0048524199361391  0.3993818259339553
  0.3955471483311790  0.0044299607417987  0.6000397614442498
  0.3983323278704929  0.0018288210883213  0.8023234626327572
  0.3992964752199124  0.2015723291229166  0.1999099821435462
  0.4011424018881196  0.2009070050268251  0.4007318435066041
  0.3984671032568322  0.2043224942320760  0.6004580194639306
  0.4006529000620705  0.2017309128914458  0.7997293750385094
  0.4012235471153525  0.4007912803786980  0.9989785642333601
  0.3998163996441080  0.4000414201448270  0.1988407110948425
  0.4019396149774950  0.3996678560393686  0.3995130927539468
  0.4000096758100528  0.4031115064087870  0.6000593356298271
  0.4004794830766652  0.4024085590245146  0.7989790722140991
  0.4018523901804210  0.6014653286869086  0.9992812166110197
  0.4000871050066522  0.5997559437112333  0.1982165687367927
  0.4006783028575255  0.5939901088738988  0.3989147348507113
  0.3963671290506117  0.6035684735658380  0.5973806283945123
  0.4009777822716978  0.6029362302199803  0.7983158734006901
  0.4010905272078379  0.8015386927468136  0.0010986830160788
  0.3985927141981133  0.8004615854624482  0.2016757684962460
  0.3908266469903340  0.8044748275408190  0.6113920987880542
  0.4007473595653576  0.8011508423625344  0.8020438265386578
  0.5984737695301091  0.0010631942837056  0.0016811144067236
  0.5990883704076847  0.0040423872689810  0.2004398305370662
  0.6003574840119057  0.9997626918495113  0.4000514826948422
  0.5896691368701105  0.0181704305347758  0.5999405157579629
  0.5993380759015987  0.0037181493537060  0.7983935002698648
  0.5998647591788044  0.2010112354525977  0.0004217023526101
  0.6012621074296917  0.2003697120512206  0.3991773496821227
  0.5985830579406883  0.2047468155424366  0.5987488060041932
  0.5997078671801560  0.2019806849843370  0.7997796040743517
  0.5996382994935250  0.4002559206560563  0.9996822372007738
  0.5996736144875137  0.3997094962111146  0.1989793168544273
  0.5992517765927418  0.3997230884461220  0.3982783988308335
  0.5987842458634424  0.3988576347277284  0.5982048848923900
  0.6006707676382058  0.4011974796913625  0.8003858876561369
  0.5995455301020551  0.6021850090352706  0.0002505631473173
  0.6009001867916411  0.5985874676100243  0.1985474728931220
  0.6017876879340970  0.6003072358532304  0.3921014441913497
  0.5998155711837796  0.6018988875622157  0.7997088089865814
  0.5994188813377160  0.8026667299147726  0.9936824932315307
  0.6250511441415428  0.8019621414370056  0.4199168036325594
  0.5993856655695352  0.8022357504060622  0.7986409377800251
  0.7984563515984188  0.9999860835497877  0.0021599242638655
  0.7980330604114573  0.9976162466372450  0.1984971307299697
  0.8004239973233988  0.9983942373895905  0.3949448139599614
  0.7986783591506051  0.9998763312842445  0.8041948594540622
  0.7991792585787110  0.2003638922396150  0.9992684872800744
  0.7991445707952577  0.1942638092081518  0.4023924585719121
  0.7996573300400464  0.1963412184431026  0.5995257669954364
  0.7992703063320618  0.1987932458982456  0.7996755922070079
  0.7992009151965525  0.4005372611127783  0.9979122117951863
  0.8004618084221110  0.4019446072616257  0.1956567839594086
  0.8018442580243635  0.3929242754646288  0.6000669729802273
  0.7996610361987552  0.4003166837232028  0.7996195260527591
  0.7956215688154866  0.6005515258234599  0.9986395837514010
  0.7996956411244808  0.5990007660319868  0.1983176134291576
  0.8014205146973251  0.6001696913762182  0.3979506792049085
  0.8070993121851724  0.5687176170115726  0.5962105474779701
  0.7996876745273508  0.5995451957109452  0.7971950280678729
  0.7954263063992283  0.7993851638295746  0.0014595467920602
  0.8016253351595316  0.7989473518371458  0.1993070430600513
  0.8096918791523734  0.7993728910382157  0.3956336875224357
  0.8000020250742064  0.8025727367111931  0.8012141100218562
  0.9959920249199827  0.9979718066099135  0.5990833160641819
  0.3996304272738657  0.2009491485130805  0.9996399769466108
  0.5970230808257940  0.2007216489741392  0.2004958881739737
