Ti V  Cr W 
 1.0000000000000000
    15.3720038313806135    0.0023998420144863    0.0001449001601191
     0.0024007571799185   15.3633006247875361   -0.0006442210894229
     0.0001450310074229   -0.0006449824026597   15.3697544548857330
 Ti  V   Cr  W  
  15 105   1   3
Direct
  0.0054217991330365  0.3921003729056015  0.6017069759724589
  0.9910228326197934  0.8029928614214222  0.2044647093523717
  0.0089978359275379  0.7982427261108416  0.6035842055625998
  0.2010183231288481  0.1989314488294832  0.3935202524454036
  0.1960590962492843  0.2049475753178327  0.6019689184932644
  0.1993063060894323  0.3642658367862185  0.1963870468203210
  0.2013942063197106  0.7972393951545145  0.2005659946145761
  0.4069140353885733  0.9975140459912455  0.8069356606717335
  0.4011378492661785  0.5999907781802327  0.8007374323405565
  0.5931658963991823  0.9964845865446531  0.9947601467181948
  0.7922920386693009  0.1977988657412372  0.7961722266644371
  0.7991138435384421  0.4035493143705554  0.1923303205129364
  0.8018667735520474  0.5938331309387839  0.0027414888801032
  0.8064692765048631  0.7978186525200204  0.3925639675417755
  0.7985161008690481  0.7971055542956599  0.6053072322594861
  0.9992210779157723  0.0007107370466339  0.0014102895381347
  0.9994326099057748  0.0048086901075939  0.2016532097175346
  0.9982626792581706  0.9991660812392754  0.4010428903749703
  0.0003557873273098  0.0003367507387817  0.5994755952260427
  0.9997517080825834  0.0000693215490872  0.7994596867754201
  0.9992319243880847  0.1997133737815224  0.0003725556184560
  0.9944115809958146  0.2012970517282104  0.2015401958703160
  0.9976441819588204  0.1962387096604488  0.5979020378487868
  0.9999782898211655  0.1995280490741160  0.7991435187551280
  0.9961306431501552  0.4015375566292167  0.0002331777550166
  0.0011770167902387  0.3990237854150939  0.2004513550502053
  0.0002490110772748  0.3995416697183788  0.3972878479406239
  0.9998954833545501  0.3987101496259874  0.8015757018390891
  0.0026872889004150  0.6009706125079284  0.0012952208136852
  0.0005044593837108  0.5970879156433992  0.2016638006047592
  0.0001389187045727  0.5990992153562104  0.4011980804696061
  0.0008779597687046  0.5987130048385768  0.5990970704742212
  0.9995264063250461  0.6008150424825578  0.7990832814895399
  0.9994351500832129  0.8000031001350194  0.0003250567640267
  0.0031321908293116  0.7996881877789586  0.4015567714554586
  0.9992225904249010  0.8004510158378016  0.8033466532958998
  0.1974331428916246  0.0017056598942427  0.0018157364962003
  0.1984450496565662  0.0175962763025674  0.2022351192602520
  0.1997179008318892  0.9998385968305674  0.4012185219117067
  0.2005826891461498  0.9983964292597508  0.6011932666086441
  0.1993010480280350  0.9999767510550756  0.8005313157966621
  0.1985525158250252  0.1998518882528851  0.0288127978567588
  0.2006992576144796  0.1993888254669318  0.8002201775785749
  0.1986153331124858  0.3985263732129343  0.9981330528837337
  0.1997382758696662  0.3988848106438600  0.4023562599755455
  0.2038674002083599  0.4037794867915416  0.6011011240882799
  0.2002091586102572  0.4009657451985494  0.8001845537198807
  0.1989522832203383  0.5986846477529166  0.0014219678733622
  0.1989736023152693  0.5996155781027206  0.2014544171593804
  0.1989303145442410  0.5988592270761648  0.3994961923152852
  0.2004324482073150  0.6013959919654347  0.6001157393633192
  0.1974338509389816  0.6001408814892087  0.8001282443013793
  0.1989837324296911  0.8019251588722544  0.9995625978197371
  0.2005815702847286  0.8012782322645214  0.4026994178300660
  0.2050174534404033  0.7998117182564196  0.6018789050182723
  0.2004250233491560  0.7998956110644772  0.8012214429067864
  0.3946473952747369  0.0001885611667030  0.0055940164844118
  0.3981375934356658  0.0026540097085972  0.2019085762381373
  0.4033242094093361  0.9983719081288415  0.4010109954912479
  0.3998764212251369  0.0000862402820272  0.5990632525836064
  0.3987316466534749  0.2006700641252676  0.0009204075540032
  0.4021667862443165  0.2012372252752428  0.1986862827024388
  0.4018607667186247  0.2002047823272534  0.3998356645274325
  0.3994984776652591  0.2004087602644116  0.5992097271923710
  0.4026743903794071  0.2021226336718047  0.8002551962872817
  0.3992875184423696  0.4031419260239849  0.0004849852229590
  0.4022997120376774  0.3990586155071382  0.2000927486197369
  0.4009938628758113  0.4016719001677579  0.3998129461236814
  0.4016299258185681  0.4012349049643708  0.5999844480203210
  0.4008130820844059  0.3991407599747432  0.8008488443015300
  0.3990925477392760  0.6002911497050363  0.0035040614817792
  0.3984320159187685  0.5990977159331163  0.2014261739756489
  0.4000239589242450  0.6006895382040126  0.3997393732334018
  0.4010732437476309  0.6003261125707772  0.5972674033410597
  0.3988489760294622  0.7999378849354301  0.0008807906264658
  0.4000914177327038  0.8017982337172486  0.1997246221517698
  0.3998479832755316  0.7993324215118369  0.3995318273986523
  0.4006086663609699  0.7992660185588294  0.6021288250185376
  0.4013919086834796  0.7999205074876704  0.8015153071795026
  0.5996015226800739  0.9997006847939786  0.2044945525864857
  0.6009056714056237  0.0001808949670568  0.5946871583042610
  0.6052624818061590  0.0046010200537056  0.7938227567155671
  0.5986465905906019  0.2020781391790401  0.9940568435332066
  0.5993799966027837  0.1997754481905226  0.1973908928017244
  0.6003174601040924  0.1970797873889780  0.4010368344348900
  0.6005590271520423  0.2005635272686239  0.6029944961559102
  0.6038150971177046  0.4012180448761700  0.9992826338844916
  0.5980736156726354  0.4009691805528361  0.1998060032116965
  0.6014014285069162  0.3986653246270211  0.4003070739231743
  0.6010262178771059  0.4009477483858525  0.5999555471671186
  0.6011558110938494  0.3975891415003791  0.7991113251100788
  0.5969974861681427  0.6006907152893048  0.9997340419648357
  0.5999094715257391  0.6017413926469047  0.2016953886297292
  0.6020651011856776  0.6021518224871013  0.4001524586214188
  0.6012072095287109  0.6006370324551862  0.5991551773190132
  0.6033525692517722  0.6010059684927735  0.7991216270769674
  0.5994033906822837  0.7977841283473928  0.9986458793849157
  0.5981786441224300  0.8008124738467521  0.1981091212332800
  0.5991219306452169  0.8042187042563077  0.4004718678789272
  0.5992176590616614  0.8007403579064797  0.6006677030783839
  0.6006706689268185  0.8028940672833040  0.7999801494220711
  0.8013250888906729  0.0000514368211693  0.9994531930183007
  0.7984007130206561  0.0002085673173169  0.1985607344816056
  0.7966750343842006  0.0013490001552576  0.3993254570107031
  0.8022214757230098  0.0002982012441804  0.5984334598771226
  0.8014249984576306  0.9972674472265786  0.7992743534015067
  0.7988207633754154  0.2021014054248543  0.0008329233461887
  0.7977330738974078  0.1988805658904249  0.1981349891365120
  0.7989981450821706  0.2016629907076682  0.3978926909935118
  0.8007043762833410  0.2014542131712022  0.5966647817034501
  0.8004509952231841  0.4001568741236072  0.4004179882209043
  0.8005780732743814  0.3994412630272591  0.6004349924696810
  0.8007264046024002  0.4039720858119432  0.8016586207119635
  0.7996697651923951  0.6038421803302916  0.2029215474273521
  0.8015427816630106  0.5972919692204026  0.4002195503856969
  0.8021546452720167  0.5972675398777215  0.5994726844352146
  0.8010525199808455  0.6012077984092442  0.7976344157046740
  0.7985897097329032  0.8004473807033452  0.9992286755454747
  0.7951700568252950  0.8001990792764667  0.1940791853630993
  0.7999147729699877  0.7993672950725930  0.8033206646852077
  0.9957423913745568  0.1995062848827267  0.3997644825835537
  0.6004023835871513  0.0010110652091209  0.3996266709385402
  0.5976233179230112  0.2009361083580399  0.7970632056942205
  0.8005037875436998  0.3979528382973033  0.9957151143950055
