Zr Ti V  Cr W 
 1.0000000000000000
    15.4774007178547244   -0.0057270445464663    0.0060485456842571
    -0.0057275938548885   15.4869400142696509   -0.0016006725836938
     0.0060484205712483   -0.0016004018593464   15.4828342852602923
 Zr  Ti  V   Cr  W  
   2   1 107  10   4
Direct
  0.0026895780607006  0.3769403165589213  0.0007183891688802
  0.4015114969677125  0.5972164388923619  0.8025613704123513
  0.7983560172591451  0.1938828012066668  0.5982128403547261
  0.9996221263648281  0.0016280807701889  0.2018448252148946
  0.9998189487006655  0.0003436575202972  0.3993328460454627
  0.9969846762966422  0.9993763215674393  0.5992374284265510
  0.0006795297970950  0.0011559364720472  0.7984528339023937
  0.0002079384524388  0.0938730443836491  0.0004394120596936
  0.0004327704329012  0.2000504679853095  0.1977780473794221
  0.0002570880061862  0.2005627655527667  0.3989618367305259
  0.0035818581052308  0.2000160068503814  0.5987700029025663
  0.0019527687131407  0.1990125237646279  0.8007582552455963
  0.9994748493158386  0.4001363072865372  0.2039685710430114
  0.9998577614102699  0.4000129518869123  0.4016469416478697
  0.0013683913120297  0.4006060407217453  0.5985088033268363
  0.9949607326947375  0.4005401240182000  0.7953408133987067
  0.0001044523718370  0.6047668089442387  0.0006190842257392
  0.0000732877677776  0.5993987605541472  0.2004605882329147
  0.9993193931416040  0.6004841462641382  0.4000162668822513
  0.0005347207985340  0.6013748020465812  0.5990802822633277
  0.0006841196732479  0.5999780589240856  0.7990293824303834
  0.0001694314416631  0.8011805541090201  0.1971374813993855
  0.0002383483605778  0.8004269154067870  0.3988233686021878
  0.0014278483990713  0.7988438596332422  0.6009484554671578
  0.9996156694760270  0.8008579337925926  0.8024596159743236
  0.2013160594654837  0.0008518487179177  0.9990565953369581
  0.1998299122786329  0.0005949811757118  0.1995726012306915
  0.1998039411859056  0.0004138410408081  0.4010410644972596
  0.1993033771540859  0.0006841462292857  0.7992438487146130
  0.2005971727100079  0.2001381285970206  0.0001115046605340
  0.2011125932527321  0.2003514271107132  0.1998805695214980
  0.2002283137521962  0.2000962533325670  0.3995812655335056
  0.2001071508470151  0.1989950025835286  0.5999666294683923
  0.1997088229530410  0.1994874366418970  0.8004026177353964
  0.2048762458821533  0.4012207151801768  0.9992568005732766
  0.2022063274164430  0.4015058190311185  0.2019835478348723
  0.2000280820815312  0.4006440355427630  0.4010865832840621
  0.2048533111066359  0.4006101111061404  0.6007032287290480
  0.1981596188522811  0.4002232991939645  0.7991918637182888
  0.2001075282574450  0.6007214479111319  0.0004448700733195
  0.2001640223631352  0.5998855181830356  0.2004919717626774
  0.1989638821602288  0.6009737573867839  0.3995261159970869
  0.1962705925773784  0.5999638590163030  0.7999434673510307
  0.1981567009627109  0.8010443556352017  0.9990585410741196
  0.2008172062470188  0.8003515818479764  0.2000303072957706
  0.2001316631857874  0.8007603607710042  0.4007167283223062
  0.2001143606117431  0.8005888344605162  0.6000972348310589
  0.4008130252147021  0.0007240278502731  0.0001336827758949
  0.4005648646749763  0.0005605270116551  0.2006956571798028
  0.4005541577496873  0.0009123831783912  0.4012465996884567
  0.4006898326714042  0.0009429696028752  0.5996999951702532
  0.4003935295714862  0.0008073902844161  0.7982734239988569
  0.4004257248339188  0.2005389913316556  0.0003290387655042
  0.4009721596411445  0.2008498163039325  0.2001696997621766
  0.4000585740279293  0.2000845709198912  0.3992321206390838
  0.4001272615647941  0.2028842775196218  0.5993829542653289
  0.4002953955193908  0.1988174664615113  0.8006082322148312
  0.4018854401153187  0.3987402958962371  0.0000618131388856
  0.4009337317408435  0.4002001204234106  0.4042126440335135
  0.4021416873859794  0.3940069024964269  0.7952424909779676
  0.4001222373672151  0.6010775189778911  0.0055671399247999
  0.4001510755344990  0.5998859698445839  0.2020071549636048
  0.3996783543923767  0.6010375742560431  0.3997042212497847
  0.3998407484744331  0.5970295921068650  0.5965752076738153
  0.3992218976523915  0.8017050173729822  0.0010646771827733
  0.4000290169214049  0.8009029396751283  0.2003239643701128
  0.3996933940735084  0.8006453598095168  0.4001999277320678
  0.6006442091997539  0.9995339079643289  0.9993870615354952
  0.6009158047701726  0.0008246516112162  0.2002033242254226
  0.6004228663345197  0.0004584270051202  0.3994083006259447
  0.6030302108946065  0.9993637755134543  0.5997152633876501
  0.6000195506241429  0.0008058867571021  0.7999866063742916
  0.6004164631016803  0.2004230057059987  0.1992510853161547
  0.6008786557203072  0.2005191566612626  0.3981184541969858
  0.5985112730251400  0.1989540847752380  0.5987565757248674
  0.5995601013964721  0.1990577003915972  0.8008310370626821
  0.5982607177703972  0.4010989691987809  0.9999445129104918
  0.6005503887552303  0.3996567408678193  0.2001929692587310
  0.6011693450958274  0.4001095738682027  0.3999833515930207
  0.5962677376297590  0.4011169212170997  0.5998281673217372
  0.6063568907141249  0.3989700589533611  0.8002582548483875
  0.6003486650172924  0.6015524713454014  0.0016119495041526
  0.6004710894913066  0.5999834630331475  0.2003358785272603
  0.6011367609435835  0.6004603505692803  0.3993381845756261
  0.6006050919343916  0.6025267790041801  0.5992050886160730
  0.6052234476112387  0.6016355328824021  0.8003406702849424
  0.6005551573115160  0.8000364727794460  0.9997436434695565
  0.5998405062183115  0.8006196419209174  0.1995446062968993
  0.5994945196042101  0.8007921701511018  0.3999153061784815
  0.5986096605685443  0.7990650024614818  0.6006354951053061
  0.6010908111123499  0.8011953659519852  0.8004418072589015
  0.7984893514521468  0.0019614579230041  0.9986943026775990
  0.8001750300561515  0.0007468656551462  0.4031606152250689
  0.8008217995870736  0.0021653763004251  0.7964312921309373
  0.8012446934307689  0.1980780646213854  0.0007511927916195
  0.8001646791948567  0.2002221393050487  0.1986518476094743
  0.8005389023873244  0.2024627125513198  0.8023250376148374
  0.7960621489091511  0.4006164216885044  0.9946213492646998
  0.7995031176953185  0.4009357271218480  0.1991945120226379
  0.7997264345386158  0.3993290583446253  0.4019345808335026
  0.7987284216501573  0.4012065838990595  0.6038169556762861
  0.8001853200870366  0.5996251164468451  0.0006146166030430
  0.8000709096792107  0.5993009858746737  0.2004959691049401
  0.8004914774666804  0.6001027439681678  0.4003524655512788
  0.8001202053346381  0.6009255144875970  0.5989871437607153
  0.8019251203431873  0.8016610295166300  0.9991904672409456
  0.7995515840626105  0.8003794059260292  0.2007447429814421
  0.8000187855306590  0.7997528095161170  0.3992203941817933
  0.8003046473983237  0.8015225339434977  0.6006585827767807
  0.8001669182101435  0.8004031506977050  0.8001652905495904
  0.2001977523390993  0.9995946786637737  0.6001386443039165
  0.1997376872504704  0.6011375184752504  0.5997229368431741
  0.2000660619904458  0.8008408676435281  0.7991987626671442
  0.4012658342997701  0.4001464000740627  0.2018933934971011
  0.3993776841868332  0.8001247381337778  0.6001655496143801
  0.3998434956037054  0.8032903282942220  0.7999600965777829
  0.5998578661281232  0.1999931770821171  0.0004241123809812
  0.8001174098797847  0.0002305886423783  0.2001632671634443
  0.8004421089167105  0.2003469602543051  0.3968103923651922
  0.8016774072158436  0.6005792772091020  0.7995621618120822
  0.9985506763593386  0.7975772742867354  0.0001026398016303
  0.4010590437705567  0.3996084410419991  0.6004244840868416
  0.7999137141294367  0.9957535137573572  0.6004946800257354
  0.8005378942769208  0.3965292346818368  0.7996266875425886
