Zr Ti V  Cr W 
 1.0000000000000000
    14.7599612393950821   -0.1201241434023047    0.0016164903087045
    -0.1190207030370000   15.0058640207688114   -0.0097088728568478
     0.0011634827638536   -0.0101254639965802   14.8636416169307370
 Zr  Ti  V   Cr  W  
   2   2 106  10   4
Selective dynamics
Cartesian
  5.9319860241571165  2.9789019884782304  8.8659206369631676   F   F   F
  8.5558294419930760  3.0345518324249876 11.6533131231852352   F   F   F
  8.8554924446315493  6.8383976648738161 11.2234462521233826   F   F   F
  8.5435522012227896 10.4277086123239133 11.9425307480026923   F   F   F
  0.3580028827586811 -0.4962959411178863 14.7441385810733596   F   F   F
 15.2007598648353532  0.0462887319744951  5.7713390188644969   F   F   F
 14.8313690694142633 14.9759289885918978  9.6448588925436241   F   F   F
 -0.4183168053066832  0.1021653932677072 11.9564084159965205   F   F   F
 15.0649336427303915  3.1439313699847418  0.2738818661407992   F   F   F
 15.9369210171200439  3.0240061251380586  3.2522875386961210   F   F   F
 14.2174944068496654  2.7543123971893091  5.8848745066440280   F   F   F
 14.9091851202767689  1.9516541132223200  8.7270671408552918   F   F   F
 14.4130897422785935  2.3948669113598080 12.4977311523771455   F   F   F
 14.3862668796493072  5.2180062686465813  3.1928630906183941   F   F   F
  0.3240493999911908  4.9749297400478207  6.7200452138615656   F   F   F
 13.7675873087380332  4.9673640704736579  8.6798927949589135   F   F   F
 15.0858186041514131  4.5500473309447624 11.4381483999039961   F   F   F
 14.2484867139720741  8.1441213064126590 -0.1916347531895335   F   F   F
  0.1624077687848742  8.9560323883314563  2.6615825459158136   F   F   F
 -0.6897194565409377  7.8781812790241315  6.2016288879148496   F   F   F
 14.7522105228784124  7.6830898875804836  9.3064772373025928   F   F   F
  0.0368398226005832 10.3639019641536922 10.9739606824598965   F   F   F
 -0.0068567773797949 10.9615702165672140 -0.6497830883684249   F   F   F
 14.8044154960042871 12.6620888309303474  2.8437646464792325   F   F   F
 14.2800934231802827 10.4228681237974392  5.9522284951379039   F   F   F
 14.3587645181572672 13.1421171892324278  8.7088284042185826   F   F   F
 -0.1346407143779110 12.7044517241624852 11.6260087245472423   F   F   F
  3.4715478799102599 -0.2939900603399769  3.7673568316922230   F   F   F
  2.9132119469707902 14.5882777224047988  8.4952852797291598   F   F   F
  3.1706452828402112 -0.2484927624165755 12.4627055612758717   F   F   F
 15.9395905677194722  5.7509227161193781 14.7050030973144601   F   F   F
  3.6287343145609259  3.4068192352151883  2.4781786789541740   F   F   F
  3.0684319941574274  2.6780482331457378  6.5026344574366579   F   F   F
  3.1091285737413568  2.4762802568592557  8.5308377013768801   F   F   F
  3.1237282345510362  2.3793840071732686 10.9442390264170637   F   F   F
  3.6150855093425123  6.1120456024623175 14.3935347754204397   F   F   F
  3.2040296391203960  5.2473327027811267  4.2595532458636267   F   F   F
  3.0064952030580536  5.4948751453707763  9.0166358108670703   F   F   F
  2.7754214440793930  6.1404491681054960 11.3450316441774337   F   F   F
  2.9362667859187703  8.8812249807476693 15.3077205568689081   F   F   F
  2.5875537998497915  7.5779043513722408  2.8409289089739298   F   F   F
  2.9877180783279083  8.4405870874602993  6.8255597919983222   F   F   F
  3.4129184358026832  9.3643118704374881  9.4312845258231057   F   F   F
  1.7797686852502508  8.0986678630787132 11.7083199342964974   F   F   F
  3.1765061080070360 12.4840540472880352 15.6232023543779324   F   F   F
  3.1009173202425031 11.0649928288870640  4.1474752981625960   F   F   F
  1.9410347867323423 11.7786573772045955  6.1968307767384756   F   F   F
  3.2756367717983284 12.1336006028315886  9.9463816733308459   F   F   F
  2.3261996798822122 11.1178552557172008 12.3691288644169539   F   F   F
  5.4595757854248070  0.3850055644714782 15.4707920239725212   F   F   F
  5.8246896012371590 15.3200369571765496  6.4367769521583504   F   F   F
  5.0416375451650621 -0.6141668637243075  9.9115655278809260   F   F   F
  6.4195994028840682  1.1311915302756874 11.9412746061891024   F   F   F
  6.3037101228474075  3.2441020397160933 -0.0787584881432962   F   F   F
  5.6358880917796474  2.7284381102654471  3.6064331041267317   F   F   F
  6.3080047684651683  4.1052708302517722  5.3439070633063706   F   F   F
  5.0420078160402610  3.0307475791877740 12.7975404435199458   F   F   F
  6.1103907669216060  6.2050131054933031  2.1245724700333573   F   F   F
  5.3667358523867135  5.6573248193588253  6.4146551414621653   F   F   F
  5.8819239386538928  6.6742628472646386  9.3061919511248536   F   F   F
  5.6431216841375980  5.1330657390535288 11.6141416635145536   F   F   F
  5.5985269984272508  9.4060920800806365 15.0418483419166691   F   F   F
  5.4211245224684603  9.9327415979736600  2.6149579036265362   F   F   F
  5.6008472569100158  9.3766132303982026  6.4596024830701975   F   F   F
  5.9830651091539844  9.1682281976284141  9.1970384748367255   F   F   F
  5.2635264710827823  8.8301741210158244 12.5363060034376463   F   F   F
  7.0797616720253806 12.0534689320000101 15.1878980547135036   F   F   F
  6.2989295273534305 11.8365866379147242  5.7561323855759756   F   F   F
  6.1698350811217919 11.8752001252564359  9.4684148967984427   F   F   F
  5.7474140866808527 12.5232791798069503 13.0820630993618074   F   F   F
  8.5594893867394628  0.5533977545313238 14.7242435733744621   F   F   F
 10.0142218879449096 -0.9270058570506857  3.2235781637305347   F   F   F
  9.3822998059857667 14.7694828610225919  5.7220979794667395   F   F   F
  8.4203233411242735 15.2761662613131541  9.1262083497007609   F   F   F
  9.4656828073577337 14.7794463078276710 12.7600166258672498   F   F   F
  8.6949508276962053  3.7651600524559807  2.8399012491544298   F   F   F
  8.3907459865347249  3.2700447180933336  6.0905245902143665   F   F   F
  8.8520919696217142  1.9470804173125804  8.0093279535235844   F   F   F
  8.8589160195817591  5.7139694011671223 -0.3429560942078523   F   F   F
  8.4248202300870503  5.8067444305379583  4.0795033101205584   F   F   F
  9.2134352320255175  6.3665718111863079  6.4829663639403146   F   F   F
  8.4530011544209813  5.6323337588056859  8.8023769699371286   F   F   F
  7.9691444972933496  8.5738629828000921 -0.0268688712336312   F   F   F
  8.8931384665212558  8.6608295842070966  1.8688317969180632   F   F   F
  7.6922431986948538  8.1486766924878165  4.9204008393490604   F   F   F
  8.9039725071072713  9.5274428924642915  8.4498291384963782   F   F   F
  9.5016265122750276 11.9440364973018749 15.1660109581625093   F   F   F
  8.2705507031418559 11.9875325676427895  3.7970925326926483   F   F   F
 12.1242704428059316 -0.1437074664416101 -0.0609797645097242   F   F   F
 12.1560974996121907 13.9937512429947368  2.3918839441174944   F   F   F
 11.6889176141018467 15.5190348038654999  7.5704626009094840   F   F   F
 11.2466376864867073 15.6546523262528368 11.3625941919441669   F   F   F
 11.2998708697923860  2.7875285032886703 -0.5064882702635098   F   F   F
 11.3118800619062316  3.4793829789268456  2.0589331706028657   F   F   F
 11.7844230583446485  2.8797165898224479  4.7051595029064970   F   F   F
 10.9632875601193067  3.0017972835618374  8.6741555986265428   F   F   F
 12.0178447533099710  2.8385005754147037 10.7559367646141286   F   F   F
 10.5443059133976735  7.5388110425016466 -1.2826561239522105   F   F   F
 11.6098073547758318  6.1953292802860824  2.1710340010440512   F   F   F
 11.5404328416597792  5.0441467258757653  5.6309815238685337   F   F   F
 11.2733493545995636  6.6146109247139595  8.2600153391695095   F   F   F
 11.4053796887834942  5.5052709271653102 11.7259317709838538   F   F   F
 12.1832290594112163  9.5859349211925533  0.2032997929265972   F   F   F
 11.9178509441494285  8.8400865932106836  5.2217492788346789   F   F   F
 11.8010733052186296 10.3332949694923748  8.9401404002241378   F   F   F
 11.8399337481524576  8.4605868652469400 11.5115830583568943   F   F   F
 11.7249917111826196 10.8316059922205969  3.0295815154847427   F   F   F
 12.4319048439905266 12.3473677198956473  5.7489698670109304   F   F   F
 11.4386776207881447 13.2806680759239857  8.5413369332118485   F   F   F
 11.9222271003932256 12.1198476812009286 12.1786617492411082   F   F   F
 14.2409214043339514 14.9248419192562078  3.4479394667087266   F   F   F
  2.6112505379055220 14.8134177224929964 14.6680499386184895   F   F   F
  2.4748079864759238 -0.8811465121583152  5.9584667584004425   F   F   F
  2.4571377115295778  6.2093616914422034  6.5900005675716935   F   F   F
  6.2620331050092854  0.2618189486040262  2.7631319236965579   F   F   F
  5.9260721699609604  5.4998286151034002 -0.3499895258880099   F   F   F
  9.1650472776236995  3.0337354828952159  0.6417688417570357   F   F   F
  8.4129675478282557 12.6791957377534370  6.4989960066547390   F   F   F
  9.0302029506208097 12.7689585686353979 11.7171452261112172   F   F   F
 11.8156316809518191  8.4665284864972357  2.7635809144096410   F   F   F
  5.6277470095834614 12.8953953920436675  3.4340933684467823   F   F   F
  9.2748777407971836 11.9693139090074698  9.3966496019673471   F   F   F
 12.1536905668106670 15.2014241289767682  4.8945584020452415   F   F   F
 12.7943545376028798 12.2724055575950501 15.3580472302150710   F   F   F
