Zr Ti V  Cr
 1.0000000000000000
    15.4889002550493640   -0.0195313770937778   -0.0155534076795571
    -0.0195267745976093   15.5102089440028070    0.0059105293967036
    -0.0155475950656657    0.0058984254639578   15.5083315327291498
 Zr  Ti  V   Cr 
   5   5 111   3
Direct
  0.9999184185947093  0.9945109616681453  0.8012559010719990
  0.2069220205563079  0.8026351332904139  0.1974393148874241
  0.2148457874131269  0.8094963674723044  0.8020573127584721
  0.3919185282985028  0.9659761060269456  0.8364662706802294
  0.3849254396801949  0.7968206344099167  0.9968904886321838
  0.1967533687091968  0.3989687613183643  0.9994626400452243
  0.2094734295853169  0.8135477379982067  0.5927949870053982
  0.3987932265139035  0.0142449518510614  0.0261887601414827
  0.3899618195457024  0.9892565821073654  0.5966753463564285
  0.8026829865044606  0.8007539563840393  0.1999097798528800
  0.9964615932108579  0.0001083509840958  0.0052714053954250
  0.9988739070311624  0.0011046455381434  0.2011274407851130
  0.9990567240137562  0.9994789915198812  0.3984286777978755
  0.9977055183780685  0.0000306478483980  0.5951789597724896
  0.9979337810452386  0.2002522649686329  0.9999232800555948
  0.9990401335807516  0.2004884123087651  0.1992677706440718
  0.9990730424096219  0.2000180791038584  0.3988537890604954
  0.9986108316018519  0.2010597909875662  0.5993495829831049
  0.9984138758715672  0.2029611528079893  0.7997426704504381
  0.9972524368680653  0.4005980990377707  0.0003096998011778
  0.9991301866077856  0.3992115549914984  0.2000495262700539
  0.9995926520532865  0.4005461321318915  0.3995001742660349
  0.9999045134756316  0.4006463979258536  0.5984598820976091
  0.9998880207221483  0.4005604626775452  0.7993758368363327
  0.9994118415549208  0.6001860617554881  0.9999805825455048
  0.0016507408018319  0.5995051887202922  0.1998669531897727
  0.0008192196004567  0.6005548813969138  0.3994687252970625
  0.0023800466050487  0.6010290382729785  0.5995430446068744
  0.0033533291749160  0.5993290821889792  0.7997753654233032
  0.9951186074043062  0.8000742433742080  0.9996736795487167
  0.9990924880293158  0.7996803099882861  0.2012012761825271
  0.0002329283365294  0.7992808748903313  0.4000780532135613
  0.0019293056967188  0.8007049163783263  0.5997147877251070
  0.0022755752226151  0.7933604400596642  0.7977748501350339
  0.1949662982456686  0.0029131437136365  0.0004291560503058
  0.1996590932080806  0.0047542131432358  0.1995486872201654
  0.1979608289051251  0.0017780827402503  0.3985329160873822
  0.1939582044809831  0.0087430877772764  0.5979130862765994
  0.1974264940813741  0.0130807245415552  0.7989624066406167
  0.1983277064784160  0.1993985045313261  0.9984700582076648
  0.1993366065312435  0.2013012064651410  0.1994696065728405
  0.1995378092531394  0.2000180244829719  0.3998341831547502
  0.1986529791140020  0.2029175832456820  0.5989203781766894
  0.1998330608360495  0.2042791030001883  0.7991771427816843
  0.1999773005382817  0.3998172250526404  0.2016743780381064
  0.1992864658477757  0.3991098846875369  0.3997525197481244
  0.1997711148326198  0.4006412454165178  0.5987809923183828
  0.1997828014528686  0.4015068248327198  0.7974849601294414
  0.1983304819141959  0.6024517255530830  0.9991732986545518
  0.2006261308813544  0.5967041003931222  0.2000517775930085
  0.1997056543781111  0.6006531484713225  0.4002179213093278
  0.2016368765478440  0.6009211781749552  0.6005981471884616
  0.2016702903274275  0.5994019897048576  0.7991758737861681
  0.1854656286064550  0.8014881505366070  0.0024868796311209
  0.1999621949235325  0.8012908436503002  0.3996852656748618
  0.3992616957309779  0.9996423760727178  0.2096377131896370
  0.3980994114653292  0.9985734919004035  0.4002805178154555
  0.3976129060291890  0.2031573240844104  0.9982959936021043
  0.3992562150196250  0.2013796159869923  0.2012692839356818
  0.3991037602616093  0.1986097239935232  0.4006873901951968
  0.3987957805744033  0.1977700217584719  0.6010844235153521
  0.3991593657324578  0.2021998317711977  0.7984271253967641
  0.4025916714804172  0.3992740340572147  0.0007651821699005
  0.4002236528373460  0.3988444960991516  0.2006272350274425
  0.3995463440587205  0.3990879529682433  0.3994653544271084
  0.4003452269618669  0.3978576141589278  0.5981677141352465
  0.4013737650313574  0.3977220103603776  0.7985187164607157
  0.3952181141984376  0.5917893076947484  0.0002768286503227
  0.4015232963064639  0.5975334583528906  0.1987902788569706
  0.3989685553181886  0.5985127767544952  0.3992553024899211
  0.4000489874040727  0.5956363233699495  0.5975529147910115
  0.4029535322674297  0.5912356324340914  0.8004978252649462
  0.4082824996513584  0.7977472103701931  0.2041528489096505
  0.4018377406239139  0.7971616266741171  0.4003993717744436
  0.4078582619253079  0.7919726975680120  0.5952887945864352
  0.4164498327345860  0.7772889769219837  0.7893583114346937
  0.5976883731396121  0.9994614004659362  0.9989933891239434
  0.5986255892616875  0.9998938598828964  0.1992548356787794
  0.5991556107406424  0.9993438623015656  0.3993513964433420
  0.5993359897724906  0.9983895808432922  0.5992251028383808
  0.5986093068756471  0.9992331291047458  0.7979240623089948
  0.5983545697315650  0.1977055194189018  0.9981084578770791
  0.5988436291936282  0.1990288869923429  0.1997926606058073
  0.5986807299562531  0.1980091881023477  0.3995482602513594
  0.5992769859786455  0.1976179221069279  0.5993482853295085
  0.5996669946387779  0.3952591348003935  0.9987195470784351
  0.5998910908690747  0.3993508124483344  0.1978043633718682
  0.6000161266747724  0.3984827143255406  0.3993664168740642
  0.6000197133320451  0.3975931437623254  0.5986102518811939
  0.6015123013627974  0.3985868574014249  0.8001059341598038
  0.7990145029875086  0.5974000067424921  0.1984134139485728
  0.5997912555109740  0.5999117291465866  0.2003725363177382
  0.6002447264296203  0.5998471859950411  0.3988217201900644
  0.6017530842044422  0.5983251075809926  0.5990623768919656
  0.6035556803663499  0.5962540323209043  0.7975013526685730
  0.6005439355324967  0.8030720381076800  0.9979466464609401
  0.5994183724510873  0.7991674734976634  0.1960291593993769
  0.6010952440379526  0.8003699697080069  0.3993433838856338
  0.6042713603587899  0.7993590629149201  0.5985850568105929
  0.6053191785868245  0.7963275026381150  0.7995080389255607
  0.7983666091621653  0.0015638275607153  0.0003219368933722
  0.7979947273134952  0.0031150528718455  0.1997985901058162
  0.7993402153920207  0.0001228198520435  0.3990803481984420
  0.7991507024398061  0.0005710179533105  0.5989937967317109
  0.7955305094132915  0.0006056609452962  0.7998475793667164
  0.7984786697520853  0.2002765910375228  0.1993040773259647
  0.7992421705176264  0.1992775518610157  0.5993561662524999
  0.7990755934111312  0.2002163350140419  0.7998432637702790
  0.7978864568688162  0.4002357525516756  0.9992443002758530
  0.7995774328220591  0.3990093390099638  0.1996910282173320
  0.7996170193424613  0.3992487812322325  0.3992222236086290
  0.8002738737381693  0.3989179752541485  0.5993869207613611
  0.8007948769931393  0.3995507366403953  0.7994171522618072
  0.8025631138094030  0.6004976743558222  0.9994529142806303
  0.8011356120044877  0.5996741100753239  0.3997558969263241
  0.8020606860863528  0.5995359515379357  0.5992994200187248
  0.8010897879595327  0.5990949678986034  0.8000686402748013
  0.7980619097621683  0.7996037211363114  0.9967003851124954
  0.7998393242270265  0.7998757809185376  0.4014836328496846
  0.8022510012543914  0.7999771643636776  0.5991576194717407
  0.8021384755383533  0.7989850108286277  0.7985154450174710
  0.5990164148752301  0.1979064039662560  0.7988885946055904
  0.7979283715332877  0.2003773422744821  0.9994463835042217
  0.7990272826441942  0.1998113723456319  0.3996598211979356
