Ti V  Cr W 
 1.0000000000000000
    15.4557498811443548    0.0004941212289126    0.0018267395804492
     0.0004939353714327   15.4692164812837163    0.0004600942864290
     0.0018268799168668    0.0004596930157856   15.4533924520731851
 Ti  V   Cr  W  
   3 114   3   4
Direct
  0.0052771732411034  0.7936388329685317  0.5993038438864781
  0.5565402340653156  0.8070937462699466  0.2010569437885672
  0.7975230568853700  0.4058714451770074  0.7992585191828514
  0.0001743724572294  0.0002857865079626  0.9998901075546427
  0.0012019800391314  0.0009485180763658  0.1986249376815492
  0.0000801543231895  0.0000344016384333  0.4002482399229781
  0.0011239271139050  0.0025826054275171  0.6006989449831411
  0.9957407115139775  0.0000067183984993  0.8001886489690336
  0.9998681635758763  0.2005207489992203  0.9998275306311006
  0.9995865755721960  0.1998179260558579  0.1998259897670710
  0.9992039322504277  0.2001545483225419  0.4000974807852596
  0.9997182580232253  0.2010439323537281  0.5998534079276784
  0.9999384649362804  0.2008324218434515  0.8003560697326525
  0.0000345634056707  0.3992702649125499  0.9987610701412856
  0.0000518384665786  0.4002132331214836  0.2000467897088295
  0.0000585630499157  0.3997087082612458  0.4000229212988932
  0.0001802196657400  0.3987199103758202  0.6009202985035492
  0.0024051048793707  0.3997528834284261  0.7997902498354605
  0.9997230566229807  0.5993532731051902  0.0003793248948303
  0.0007289989820078  0.5973925445775492  0.1991461175785423
  0.0000938519569151  0.5985940277969561  0.3990118710020775
  0.0002149290461273  0.5957835497537505  0.6005936546992011
  0.9999079320817893  0.5991714678965471  0.8004118404877194
  0.0008122007751395  0.7995309988770137  0.9997966475453078
  0.0007914005376923  0.7989314996473038  0.1989055864653669
  0.9963183984860157  0.7993930706104002  0.3985542106704970
  0.0004268688778837  0.7987293601308416  0.8020937068026550
  0.2017416217186707  0.9983726942392449  0.1999207407372638
  0.1998680870771240  0.9987870102838522  0.4001939339712414
  0.2003522903504172  0.9998791286038441  0.6004339580575224
  0.1987553132965142  0.9999046189504842  0.7997332778331999
  0.1990339682633722  0.1992621380679944  0.0000466958444069
  0.1994257992152153  0.2003312167187321  0.1999727997152539
  0.1995821135139156  0.1989274447664676  0.3998359158085401
  0.1995765491714375  0.1995641429211693  0.5995687118856642
  0.1993979356056135  0.1981121224430434  0.7999503065442263
  0.1998524941589812  0.4006208997564455  0.0001931567516049
  0.2006588403012696  0.3998381868248456  0.1996179027872387
  0.2002263953882687  0.4003606851273133  0.4003459884578955
  0.1998380277384478  0.3998114364577871  0.5994266729294407
  0.2032470370289116  0.3998179441063603  0.7995646288508416
  0.1996139969773858  0.6005246844318395  0.0006195235233558
  0.2040500987404134  0.6013996933932343  0.2000710175746423
  0.2003863109679798  0.6007396068224405  0.3992287141335311
  0.1997616208386937  0.5999365956154027  0.5991612867037388
  0.2000282776673630  0.6008141475811569  0.8002452637961899
  0.2017209538913659  0.8001254200331073  0.0012722725081122
  0.1999042017031138  0.8000080195890622  0.1999369366021282
  0.2008822368819811  0.8003891361427290  0.3983534667847662
  0.2018106609791025  0.7997252593552915  0.6001353574005249
  0.1997431425025199  0.8008605817152370  0.7997755917197533
  0.3995645858875820  0.9994197236709441  0.9997729054266854
  0.3987654807090993  0.0045060107166346  0.1997506906774714
  0.3998406664388161  0.9986819273903016  0.3997189881285217
  0.4002836982671615  0.0004160768496435  0.6012700237686746
  0.4001027133567949  0.1988459678123940  0.9993900807438194
  0.3995149025477424  0.2011631007154184  0.1997673258487894
  0.4006437524716758  0.1999694340720322  0.4007488926958392
  0.4000087855494613  0.1991254022249614  0.6002271628613537
  0.3997208780187055  0.2022857320900609  0.7999810237769214
  0.3995387947524726  0.3996571544989738  0.9952001359547822
  0.3998022288887552  0.3993437290779008  0.1990161002687577
  0.4001028206819830  0.3994924360856983  0.4022476256668337
  0.3994611845511264  0.3998169754548174  0.6035297664781155
  0.3999265754614492  0.6021433181884080  0.0011508084523802
  0.4048954880883935  0.5971751179429269  0.1998291316993253
  0.4002028910077353  0.6014014036104887  0.3995533618067855
  0.4011102375322544  0.5991649296681779  0.5997203354280930
  0.4005284295194380  0.5959264178849407  0.8000173784745328
  0.3992017664473115  0.8004238947947153  0.9947362972216766
  0.4005063554207891  0.7996748716740357  0.4049962066626541
  0.4001403879538852  0.7997130641558475  0.6011726728874088
  0.3997376848340692  0.7993430368534191  0.7991102841349117
  0.6010380963995933  0.0008744306518627  0.9991062136651502
  0.5975751854700060  0.0017536911358489  0.1995405740726254
  0.6013670874386763  0.0007961871389610  0.4015781284085827
  0.5984533045515253  0.0009865691117251  0.6013976544240784
  0.6031642498319396  0.9999837645914106  0.8002097767621866
  0.6003773618058391  0.2000232431092910  0.0001919260055794
  0.6005161651508594  0.1999356196456027  0.2002839545493204
  0.6008984096630486  0.1998097471769291  0.4004324003779296
  0.6006638858173133  0.2001472441857427  0.5998049398373730
  0.6002041179326651  0.1997718796454052  0.7999276788358644
  0.6004013056914306  0.3984672942869458  0.9990223985641441
  0.6002986108309613  0.3958878193144690  0.2000647234290582
  0.5999353622001724  0.3989230256402163  0.4013704683119095
  0.6009295426781467  0.3993350996427023  0.5999935055467556
  0.5951482812577638  0.3998997434156210  0.8001718899444271
  0.6022331783503588  0.6000464391895552  0.0036958035592132
  0.6013764740067623  0.5988073404778209  0.3969125914154501
  0.6001581480181784  0.5985539467336320  0.5996460707532685
  0.6006212839315054  0.6002069321434892  0.8010716955598576
  0.5980771853495266  0.7990990960312991  0.9993190259346666
  0.6020182656936645  0.7991744086639969  0.4026052289716676
  0.5987988794637980  0.7986584949968510  0.6016030006076329
  0.5986276437754308  0.7984775904788424  0.8000686565275649
  0.7998592321175875  0.9989325470787436  0.9962802813717097
  0.7991093486310528  0.9989413865807590  0.1981290136454437
  0.7999912146497672  0.9958891411553978  0.4011916964240696
  0.8008402301991502  0.9995284941360989  0.6050369695738440
  0.8003795987894290  0.1998530694801850  0.0002613564799840
  0.8000838154054385  0.1987320304069690  0.2005526331466485
  0.8003819400123904  0.1974004306799961  0.4000323387806725
  0.8001965331131506  0.1997938494807690  0.5998515939706563
  0.8003612310577958  0.4000820409388152  0.0002061486553076
  0.8011238415740964  0.3984358570469324  0.2004591191768208
  0.8009265590717448  0.4007329486357363  0.4007512866212073
  0.7998095087846553  0.3998857482984597  0.5988310133482182
  0.8008949251115181  0.6015845584367459  0.9996607067382025
  0.7962336205390781  0.6001264931819170  0.1996740918622305
  0.8009832636185733  0.6046163657161348  0.4004555113940217
  0.7999991974567578  0.5995744533233143  0.6003068069220985
  0.7998928453086461  0.6046643649517313  0.8000994152108210
  0.7990610831417422  0.7993837200187147  0.0039579711343716
  0.8025570003679632  0.7992367136132382  0.2038521981080219
  0.7982724123567690  0.7990065817162961  0.5950109182947843
  0.7997147666413713  0.8023035107318228  0.7983486574575845
  0.1998445052091296  0.9996520173425100  0.9992453612667050
  0.4005296006336977  0.0006752556979356  0.8002358910015027
  0.7997114331564498  0.1981007816482195  0.7998412974464112
  0.3994835229946656  0.3996068732797935  0.7994136842239749
  0.6017894950972138  0.5858392674222116  0.1998108285981605
  0.7997221102418821  0.9954356122442874  0.8005942915972284
  0.7977351969084023  0.8007092742964327  0.3985616000334146
