Zr Ti V  Cr W 
 1.0000000000000000
    14.8243720250353253    0.0364331646835319   -0.0048077270791467
     0.0360726360644600   14.6535921876343505   -0.0210146583999431
    -0.0053616735155131   -0.0212382503122032   14.6186128305967351
 Zr  Ti  V   Cr  W  
   6   2 101   3  12
Selective dynamics
Cartesian
  3.3402995041583292  5.5889788155588640  2.9885633224421810   T   T   T
  2.9310351739211682 12.6751815373256829  8.7134326136098696   T   T   T
  6.2384467961727035 11.4503677052883308  8.1208388870701906   T   T   T
  8.5627964938953571  0.3386112085323059 12.4745884857070557   T   T   T
  8.5772176236425040 11.7317567155016214 11.0268665554800034   T   T   T
 12.2015957465431484 11.8809760778512210  0.1690257846663905   T   T   T
  6.1651408189046695  3.1472481498126972  3.2805846725601278   T   T   T
 11.9634738872493198  5.8223092702643715 11.6625278524822100   T   T   T
 -0.1223189470897737 -0.8720456870293112 -0.4972773588268179   T   T   T
  2.0008131661536677 -0.0998848261599402  1.3815801543368564   T   T   T
 -0.3391671529560995 -0.4222200970515474  8.1206291408358915   T   T   T
  0.8377644736422537  0.1284388741445985 11.4443691340915450   T   T   T
  0.3640470448478963  1.9894775684028723 -0.4942679235564558   T   T   T
  0.7356398710314869  3.0627373772341264  3.0454724697610023   T   T   T
  0.5014076772544342  2.5568444125273326  6.3671553225475748   T   T   T
 -0.8678888078943192  3.4899354294330167  8.3784941805729041   T   T   T
 -0.9971550281324303  2.5400450201113309 12.1364404870844318   T   T   T
  1.0921435655079339  5.1786014776600666  0.0220824227002384   T   T   T
 -0.3503548013587613  5.6221485827649200  3.4121262986127481   T   T   T
  0.9433915056249399  5.8160495385772535  5.7898823297125555   T   T   T
 -1.1790806344752101  6.6209684611377311  8.9707254859316272   T   T   T
  0.2543190381555522  4.8695004512779976 11.4909682653334038   T   T   T
  0.1615497122738049  9.4003031499295187 -0.4226622354073527   T   T   T
  0.9631962997025241  7.9098972660366771  3.1483073043092449   T   T   T
 -0.7348128310803251  9.2112920330612944  4.9160771248485897   T   T   T
  0.9014486265971048  9.3078750711074498  8.5604830990018179   T   T   T
  0.3136991520746817  7.5336085398590704 11.6869180525738354   T   T   T
  2.0612685613933808 12.0377841745318594  0.0073463686834938   T   T   T
  0.4954118188756949 12.2251722986543481  2.7164213965795243   T   T   T
 -0.0727870545614582 13.1382507201284469  5.8430310440373603   T   T   T
 -0.3778128757422379 11.6821926363397832  8.8601251421525529   T   T   T
  0.4388637969821866 11.7736840030309580 11.3935482209177597   T   T   T
  3.1598917832781046  0.3225598309003963 -1.1242411000545500   T   T   T
  2.7723086316793757 -0.5059795280749064  3.8209050787309793   T   T   T
  3.1049222023450822  2.6992919801570383  0.5983936728886572   T   T   T
  3.2469697371683757  1.8284584511509849  3.0836610829527675   T   T   T
  3.1721231445614366  2.7612575285686978  5.6783928039155365   T   T   T
  2.6869240072869172  2.8195025470900057  9.8250537100377890   T   T   T
  3.5675865607393500  5.6292345130849659 -0.5507663882844425   T   T   T
  3.4905815184191025  6.6816048432740205  6.6154837140954665   T   T   T
  2.0844410877877158  6.8575718366209806  8.7040161596933547   T   T   T
  3.0077275926553817  4.8696253763913617 11.2611680006738695   T   T   T
  3.6094622890816419  8.6330194078877831  0.1089325166877953   T   T   T
  3.3068918210032572  9.4705074320298319  3.1491891389023787   T   T   T
  2.1378240178357277  9.2030131935973856  5.1215236779922462   T   T   T
  4.5198585259324915 12.5353248593458293  0.2094432401585781   T   T   T
  3.4952898123718765 11.6450953531167691  5.6040570760193171   T   T   T
  6.1167377607861839  0.3187905957907489  0.5068764698590786   T   T   T
  4.9383974068652501  0.1693083993210374  2.6080046560822070   T   T   T
  5.3899683490556747 -0.2413473888890262  6.5267221108816500   T   T   T
  5.8185144568355947 -0.3149369419771469  9.7629679198524180   T   T   T
  5.6241381675742090 -0.9073889653804293 12.5888141824061961   T   T   T
  5.2500228293233047  2.1692562395015025 -1.7619545830581518   T   T   T
  5.9439153038507024  3.4396750375768397  6.7614633602328817   T   T   T
  5.9634361847864508  2.8433040858851055 11.9150242907564632   T   T   T
  5.9321165406548619  5.8305395587177697  0.3254265685301266   T   T   T
  6.4968789142183612  6.8768720492321407  3.1038709778062632   T   T   T
  5.7325813966752364  5.7927312102479123  5.5625214108084871   T   T   T
  5.5309093641112925  4.9943245499003135  8.8163208018374757   T   T   T
  5.0081494162120572  6.4750107090767202 11.2396205047952744   T   T   T
  7.2095184271723607  8.5807927072058678  1.1958618572351796   T   T   T
  5.8679546198166923  9.9945271982896990  2.5204324220491721   T   T   T
  5.6017781402952247  9.2140202511328848  5.8132763724112388   T   T   T
  5.2780479742964070  7.8535431897961301  8.2656362165238164   T   T   T
  5.9614303975422942  8.9556447912996937 10.6625129780499392   T   T   T
  5.6035004368449819 10.3243686409107589 -1.4875957760498573   T   T   T
  6.3340637670962519 12.9525668851721161  2.7034625494982230   T   T   T
  9.2719526333999092 -0.5485824957651371  1.5243590564428571   T   T   T
  8.2093310532177739  0.0277449632646510  3.9023172972576377   T   T   T
  9.2880385468659252  0.4200786210321297  6.5805131544427127   T   T   T
  8.1022148150436006 -0.5829039257353763  8.8071391790778151   T   T   T
  8.3661688707848647  2.8913838668766254  0.6085746811663773   T   T   T
  9.5505287261069043  2.0862928657909334  3.5653478347722678   T   T   T
  8.1452081172231381  2.5843869707516549  5.7863394021517003   T   T   T
  8.2785042263177875  2.5723463987010109  9.7151263989608214   T   T   T
  9.1157342395516583  3.9035398872857665 13.0628000769658392   T   T   T
  8.9126278348159946  5.6878117481332673  2.4087166767820247   T   T   T
  8.8961779596948265  5.9173582384244039  7.4376567985443627   T   T   T
  8.9785817034071442  6.3873953415728719  9.7596718602119719   T   T   T
  7.6299531136526157  5.5964831025924102 12.0371551197278901   T   T   T
  9.1115047189273941  9.7351006646068861 -0.2814411673650193   T   T   T
  8.3149419639927515  9.1309141023429792  3.9176229399115527   T   T   T
  8.5776889467075677  6.9856966697403848  5.1540691102190124   T   T   T
  8.7690229317399346  9.2664666189579030  8.2952320218183253   T   T   T
  8.3479327009929492  8.0875006016901452 12.0549748031080384   T   T   T
  8.5145735736546904 12.3389493660005805  0.0114193832786884   T   T   T
  8.5588774515180273 12.1187840366921566  5.4316502096925730   T   T   T
  9.8521097285013042 12.0116347420522036  8.1332526808299956   T   T   T
 11.6836430825023694  0.7913938505044327 -0.2291081838680897   T   T   T
 13.0268870046402512 -0.3801631148260185  2.6993799083026686   T   T   T
 11.8423604684510551 -0.4780500757761584  5.8638033172133213   T   T   T
 11.8802680185845180  1.0379987873577861  8.2714746586879500   T   T   T
 11.7675151782407994 -0.8898628161238500 11.5151813075154390   T   T   T
 12.6598587170713284  3.4881687594704114 -0.1903764115001630   T   T   T
 11.6799218253706680  3.5210141031653452  2.2680844271406149   T   T   T
 12.5463050801707876  2.6646561332799372  4.7920343483077241   T   T   T
 12.2225236818843097  2.7753427663894703  9.9895844042340904   T   T   T
 11.1442015386630739  2.5139507886532226 12.3633845414019508   T   T   T
 11.7143627864016118  5.9211444331802241  0.9052873527829431   T   T   T
 11.8148736706401252  7.0217539056971612  3.8399172552364425   T   T   T
 11.9098752381904003  5.9596258692926938  6.3227216430261901   T   T   T
 11.1884557045991748  8.2091264549591916 -0.1896519441062694   T   T   T
 12.2331926043214416  9.0068655386910095  2.3714450397700229   T   T   T
 11.4265547252301722  9.3045611754587245  5.8652773633591790   T   T   T
 11.1387936458864782  7.8424846926859439  8.7187672895133499   T   T   T
 11.6598065670936659  9.6511869629105504 12.0497606353047786   T   T   T
 10.7159620611106288 11.8667952577573530  2.9781459861952406   T   T   T
 12.2758478471781824 11.3804930871707448  4.9284278998258770   T   T   T
 11.8492302080589980 10.7682729100941490  9.1542585470770934   T   T   T
  2.8333503568947576  0.8853573606518711  8.2608008313093677   T   T   T
  3.7243368822352600  9.7542804894732917 10.2251949161444582   T   T   T
 12.9044239357224022 11.6111227493735178 11.5531390962981657   T   T   T
  2.0575280717624458 -0.3323915733496371  6.2256998906157675   T   T   T
  3.5855923708620976  0.2946414018234232 10.8453387700969088   T   T   T
  2.0418282394685572  2.6576936613683415 12.3940878285028244   T   T   T
  3.3959913944468112  9.6109315516872229  7.4619702706216922   T   T   T
  3.4589967431108231 12.1172899776660667  2.7007836814992290   T   T   T
  2.8510384373034703 12.6008877472417176 12.2514884795137871   T   T   T
  5.0700434296302070  2.1365732407887084  8.8595389252260883   T   T   T
  6.0561172130858756 11.6397931413483917  4.6911504779520987   T   T   T
  5.0166614901821234 11.9409965990554507 10.8385604843760301   T   T   T
  8.9366881476403783  6.5649858755619785 -0.1410867794611372   T   T   T
  8.1800080055461297 11.0869574504166550  2.4545210012194687   T   T   T
 11.3758642269687087  4.9428555661387463  8.5937433581312739   T   T   T
