Zr V  Cr W 
 1.0000000000000000
    15.4863295998759050    0.0024137293282322    0.0105674120120943
     0.0024156779473548   15.5040449564505511   -0.0174543962439357
     0.0105707746262879   -0.0174578174046017   15.4782021514271442
 Zr  V   Cr  W  
  10 107   6   1
Direct
  0.9998417348276123  0.9687380050097999  0.7601111843781440
  0.0002591372102339  0.2041096506089677  0.6075846645163928
  0.9999498071474526  0.4318553512373842  0.0415801336150042
  0.0026778213777604  0.5777369709000859  0.2216688456678356
  0.9609799109617233  0.7914332598523590  0.1932306253458877
  0.0020710044792653  0.7985586230747146  0.5989503683174717
  0.1947025611795341  0.5086383116960155  0.5983486087924639
  0.3588772824653695  0.8031757744344481  0.1986623323982943
  0.8392258764759741  0.4315001902994997  0.3971578597590286
  0.7504350189934490  0.7915013228703680  0.1978662641780223
  0.0009275357991512  0.0061019234094574  0.9985915758032837
  0.0040665326314977  0.9982186847439338  0.3925192701329701
  0.0013513907259502  0.0051418137391425  0.5733368592460687
  0.0014678765855594  0.1987470070897922  0.2022607299349765
  0.0014830221947202  0.1952447234056714  0.3989343843883681
  0.0002900623685524  0.2042085803707770  0.8100632491995402
  0.9998414155338086  0.3865876476377803  0.2356749604197513
  0.0277632300154036  0.3851465807161215  0.4231758557048005
  0.9892645095010343  0.4064098678499150  0.6024232565614966
  0.0007299449495970  0.3970692467091721  0.8009370806411520
  0.0005382208669795  0.6220854090841540  0.0124632265497362
  0.0068575854307460  0.6120809146192336  0.4194610131346872
  0.9946783857802096  0.5980178307322357  0.6096317859417382
  0.9988007480541170  0.5933635216600017  0.8093500238294368
  0.0012766863054745  0.8118023531130539  0.9926892903583678
  0.0021739655204627  0.8026336674070806  0.3953560453179857
  0.0001299773153607  0.7817784696791698  0.8041214956501576
  0.1997655214006387  0.0021435642546130  0.9969113619802290
  0.2003982770915602  0.0016618996918836  0.1986288341345360
  0.2026614027052529  0.9990857444986806  0.3969839039382569
  0.2009864905704379  0.0007359831577727  0.5973719783598722
  0.2026465260937478  0.0003291868415297  0.7988000174013368
  0.2018203202457512  0.2006654702980624  0.0008588068141345
  0.2015788116189408  0.1999934806083343  0.1990275349262791
  0.2053016636595756  0.1982917233759970  0.3990029073752607
  0.2008391830920628  0.2000345559786969  0.8004575094139706
  0.2028224900956450  0.4005772535391333  0.0005314672502412
  0.1983406607608314  0.3991519538930553  0.1993489404906956
  0.2090858423985864  0.4023808679952214  0.3956835073396027
  0.1989752993299533  0.3993662635436540  0.8042957203843359
  0.2011304562504717  0.6020241016908837  0.0007903410399074
  0.2067305264875703  0.6005520130874119  0.1989201798797830
  0.2007651621786096  0.6005577026347615  0.3940127581303844
  0.1993026452672572  0.5984705802137114  0.8040940472430619
  0.1993068110817682  0.8025161620464364  0.9989780311198281
  0.1718357976775053  0.7968688767751759  0.1968097101743767
  0.1997309841369284  0.7995621834778075  0.3979175375519113
  0.2055425225621771  0.7992948513888115  0.5978740476683321
  0.1998430947378663  0.7982003685913853  0.7976309831513578
  0.4015253333601540  0.0003837588642277  0.9981871800806731
  0.4025605400576989  0.0037181720908617  0.1978342279243301
  0.4007571244619458  0.9989136438345175  0.3985823320242714
  0.4022901132360374  0.0002752716651424  0.5983047219326907
  0.4001764440008515  0.9989642286885081  0.7970579448067124
  0.4012488754199023  0.1998315585878244  0.9984884892448975
  0.4012435683581261  0.2004732172907438  0.1994772456725718
  0.4026107502362136  0.1985105706632126  0.3992339169357123
  0.4027496818320327  0.2000346738399637  0.5987459844376636
  0.4005020418478639  0.3999560195553492  0.9996704278625714
  0.4006144044108792  0.3975035165963583  0.1991905906221969
  0.4028448745039622  0.3979753248400525  0.4003347435808952
  0.4020507062376238  0.3992453616167351  0.5998485161893284
  0.3994810585538200  0.3990958714027532  0.7982988178752133
  0.4022162112590148  0.6004342217379693  0.9993754793347787
  0.4042643785914068  0.5935200341007456  0.2001234552430164
  0.4012722526070576  0.6010467508827749  0.4006182531682956
  0.4049268583476052  0.5986641704526440  0.5988675396077499
  0.3998695706102998  0.6001081830748279  0.7995431357285674
  0.3993251060767782  0.8008211496242302  0.9946113139480014
  0.4007316141440923  0.7996223478556549  0.4025597112888934
  0.3998001446033966  0.7992645807464004  0.6001893650629979
  0.3998474274679911  0.7984626896649980  0.7985685167692665
  0.6008112375356487  0.9991965936495315  0.9986009841497965
  0.6011831234906974  0.9963966684415915  0.1986200342951695
  0.6011390911674342  0.9977400814445455  0.3977144542071085
  0.6009398771898313  0.9991439031245828  0.5970201414885943
  0.6005560375303649  0.9978656346364221  0.7977678781401334
  0.5995729242452313  0.1984888669404298  0.9996424161699252
  0.6018609751742918  0.2001805233641667  0.1986165508000481
  0.6009421371314505  0.1984657724294532  0.5992196053475760
  0.6004359179968939  0.1994613860337625  0.7997568079291462
  0.6003848578078177  0.3986717339116604  0.9988923520770407
  0.6030058061134494  0.4001036985869951  0.1995519736507298
  0.6043403982510946  0.3991361908360547  0.3980688041247391
  0.6014366064614832  0.3995630805411869  0.5979425844708431
  0.5992475832223094  0.3998552962133470  0.7995583349384880
  0.6021373768690873  0.5998549416373791  0.0037121045194657
  0.6042139022982329  0.5993663336405031  0.3955313251667542
  0.6015427252542307  0.6000101359226577  0.5969422668865555
  0.6016343742140194  0.5992525600506341  0.8017212127612853
  0.6006733692752909  0.8003116902977918  0.9980285162106266
  0.5645361852084638  0.7902700178172306  0.1989033433658124
  0.5996335832847871  0.7998688965944247  0.3983871187698365
  0.6006104683188158  0.7995707111898533  0.5986980105808191
  0.5994495637177193  0.7980420336563300  0.7985556491674326
  0.8014074528315781  0.0013345436156444  0.9971676872139972
  0.8018273672234398  0.9973760599362208  0.1982160830998968
  0.8003368682185932  0.0009099090450643  0.3982973621122821
  0.8030233982284071  0.0006066296983522  0.5989148484229173
  0.7979245084845650  0.0001831852854829  0.7988840168697580
  0.7996895793352783  0.2000708534628600  0.9995747135411968
  0.7998571130554600  0.1992711784866023  0.1989867151014628
  0.8004006161991994  0.1963512245832078  0.3986879824971519
  0.7953176260124184  0.2012322273781780  0.5996611251399755
  0.8006851391982605  0.1991590279411875  0.8011315050681471
  0.8048097007606712  0.3974998436836305  0.1945235542205307
  0.7963420568528689  0.4003134115918571  0.6011656157538187
  0.7988772868085157  0.4000305575876214  0.8012161744081385
  0.8029232799774625  0.6007357847054868  0.0003759291030119
  0.7935559317164870  0.5945790689724970  0.2069299727517771
  0.8028257069670471  0.6181469930895885  0.4033291792505249
  0.7983145298225723  0.6005619756149387  0.6003144381645880
  0.8003316065874623  0.5989560333337666  0.8027029937984489
  0.8021443193797283  0.8023470958902345  0.9969659599123937
  0.8051307163335217  0.8069880692654451  0.4005735988930064
  0.7951995083170340  0.8007006815689082  0.6006821941443569
  0.7999192716370648  0.7989074646562880  0.7988197440201290
  0.0003709101366273  0.0024829583847403  0.1965085092126332
  0.0007744305752560  0.2007043142681063  0.0039520286203884
  0.2060531809346241  0.2026775028498415  0.5999272929375041
  0.4011356068839922  0.1994859782911804  0.7990809191053453
  0.6011119512556905  0.1986392131797891  0.3982185067134140
  0.7978559935244431  0.3994533949101045  0.9982509815013675
  0.6016099711630295  0.5973706733848495  0.1989927559745261
