Zr Ti V  Cr W 
 1.0000000000000000
    12.2882735461728885    0.0000000000000000   -4.3445607757035454
    -6.1441367710433559   10.6419570608175889   -4.3445607757035454
     0.0000000000000000    0.0000000000000000   13.0336823299999995
 Zr  Ti  V   Cr  W  
   8  15  93   5   3
Direct
  0.9817069791031724  0.1911529867264989  0.2006013190339693
  0.2015190791923791  0.3906532108694458  0.3934743166893482
  0.6024622225415458  0.0091412045263566  0.8224381331011339
  0.5970486485827530  0.3999766985151910  0.3945701286479109
  0.6030827143279114  0.8214468518256844  0.0091554825601051
  0.7969017658759708  0.9975576537787922  0.3983566415336912
  0.7998374100606591  0.2008052873188361  0.5985817586342538
  0.7973679376016473  0.3986901597227623  0.0018426622082592
  0.0109957526892184  0.0041714958870023  0.8010707657237416
  0.0070526821341159  0.2008850907116064  0.0002321565562187
  0.9924744647265975  0.4022723179356966  0.4018719702682144
  0.0004234565435791  0.6017939410066270  0.0021831758321673
  0.0017990484407047  0.5922315286262656  0.7947315744474039
  0.2256126422882501  0.0132750867059024  0.8197710928941285
  0.2312606411391341  0.2102859600571639  0.0003173142506600
  0.2130262443436776  0.1945169988696395  0.1936996934053222
  0.2045786172347225  0.2000604707806826  0.5992207402892921
  0.3975924852289386  0.1986979776378648  0.3929804933013966
  0.3982368938109089  0.7970586918629531  0.3982400223648628
  0.6051783509824108  0.0037529235109082  0.6010377137611921
  0.5978565995700156  0.5989713233771670  0.0008167508139061
  0.6097592253532028  0.7929444729175668  0.7955741939093758
  0.7969649016518492  0.6020507805689912  0.7994064906015711
  0.9982225256525751  0.9867538277879916  0.9993923051948000
  0.9996996379747359  0.9879825136705745  0.2002800913294494
  0.0046028704801557  0.9916951896095872  0.4025465058284657
  0.0036259835922315  0.1954611483516913  0.4151232306244807
  0.0135738350015242  0.2040992138623810  0.6108407862359376
  0.0095996411328319  0.2110314057930333  0.8035293793975887
  0.0128743139802033  0.4027536615196440  0.9965175187473384
  0.0004327936120761  0.4100210841613914  0.1964380100491946
  0.0039708223373105  0.4038202320173642  0.6081139809128911
  0.0037330366438757  0.6109765550603541  0.2107894788387693
  0.9975060059266472  0.6065926381261506  0.4024146851210660
  0.0011797482247193  0.6022302463063854  0.5967818659741166
  0.0053070487222782  0.8021475649862523  0.0018300888178414
  0.0011404219207878  0.7976007450960897  0.2020656849106964
  0.9994026957519011  0.7990819142771599  0.4027690942565511
  0.0044598590132845  0.8064543072672654  0.6029408365132018
  0.0040900149190235  0.7983107101890379  0.7982803453070298
  0.1953990782148174  0.9888033054119746  0.0003885861743341
  0.1948617660631974  0.9872947913822988  0.1953093199616316
  0.2005692009870899  0.9955263196284611  0.3992583778577196
  0.1991847568422883  0.9980989005762138  0.6023162993552331
  0.1954176923845132  0.1795980783484220  0.3941975745279541
  0.1945496074083953  0.1966738848246190  0.7904695822982697
  0.2087063625776788  0.4098145099906626  0.1887361556383929
  0.2006040525950067  0.4037911556400282  0.6079273052773700
  0.2007281087708453  0.4036444570753315  0.8046355252936458
  0.2003479414615834  0.5966528523201183  0.9971714050225386
  0.1962512102072349  0.6001651767871318  0.1942339840207017
  0.2002448974210379  0.6034893721718989  0.6052235000855802
  0.2042679049386983  0.6003153814048684  0.7986335501618125
  0.2020140711129011  0.7981009432847066  0.0011880503771527
  0.2041840923367969  0.8007935739868929  0.2033671664692331
  0.1983004900408655  0.8049553225786326  0.4042302878650180
  0.1980778964682516  0.8011369861632723  0.6033076736025245
  0.1974932743218041  0.7947324273740655  0.7988166555912133
  0.3947668559537766  0.9960188660128811  0.1966493625172325
  0.4005919413361921  0.9997308706371670  0.4001569687537349
  0.3945952102052350  0.9992091690196589  0.5982076032613061
  0.3914862996600820  0.9928536121894577  0.7907261278372135
  0.3997046753708074  0.0606453843788505  0.9985156400123884
  0.4055520927353929  0.1838310808842013  0.1683529910267710
  0.3995011670368614  0.1966614013115743  0.5985690278699488
  0.3973308695625087  0.2014962820375550  0.8026892351404266
  0.3982423900032885  0.4032988546853640  0.9976599559945731
  0.4030569046205091  0.4093814216620311  0.2017670549048130
  0.4099813230169944  0.4139274388144834  0.4023445271851176
  0.4034663740364243  0.4008666101073350  0.6023865005168410
  0.3953305454237429  0.4001979909077509  0.7998689842705687
  0.3966763830105675  0.6005000813838363  0.0002266629310208
  0.3985370108176496  0.6000466769516696  0.1957854613171045
  0.4043742252917428  0.6005702932130711  0.3985813339219800
  0.3981116704002265  0.5946762279973149  0.7975089803966617
  0.3887960936014774  0.7942140076666417  0.9993527233590114
  0.3963746772553235  0.7974337230065510  0.1955790783610908
  0.3962812400615631  0.7991242723826102  0.6005160751163841
  0.3909078040829661  0.7952091907240081  0.7993898633720695
  0.5386084615259206  0.0045801346933419  0.0058674883773955
  0.5916860282487084  0.9986264418887197  0.1999816080325110
  0.5795456839362761  0.9883152702131184  0.3857522691456938
  0.5763554735036607  0.1996268106531619  0.0058583857830619
  0.5979284120480273  0.1905792764259562  0.3926355940296006
  0.5891471424235687  0.2021324232350086  0.5957104670401183
  0.5868560645913894  0.1984617587096298  0.7919818478723323
  0.5910864295222429  0.3990567819396476  0.0017213691208837
  0.5892811019036611  0.3960388507175620  0.1840494950132132
  0.5989574315183940  0.3976536463031622  0.6023754855686111
  0.5993933543232008  0.6014877433584815  0.2023723441254733
  0.6015638481818164  0.6093540110073524  0.3985666233282841
  0.6057629179200051  0.6045499670737123  0.6044308081844635
  0.5905654643503017  0.7907846756305572  0.2008111102940214
  0.6033173884407372  0.8000599269053518  0.4016314548139139
  0.6041868842862396  0.7972207153623719  0.5929001691664010
  0.8048823549727017  0.9978671080645570  0.9977371147340836
  0.8059475124349715  0.0017512359218970  0.2068124877118925
  0.8175734783026115  0.9966592071683690  0.6140398233559938
  0.8052809287197964  0.0008813136377164  0.7969159478303427
  0.8043030215581487  0.2058712728359199  0.0073215841284170
  0.7664138062869917  0.1868918769938686  0.1828288469613393
  0.8043863551512000  0.2106960073880512  0.3906259525765282
  0.8083582684845266  0.2051103247434411  0.8110357342221680
  0.7947683915199939  0.4008736033320591  0.2081902180635889
  0.7996029466413301  0.4027388723566186  0.4001597469748408
  0.7958153882142834  0.4037825803497970  0.5941631588038310
  0.7986549967114512  0.3928889794133725  0.7888809558878589
  0.8028610936483156  0.6140032405029675  0.0116115788677009
  0.7965625867333527  0.6009460994767497  0.2032958489963411
  0.8010520607344110  0.6027673838129581  0.3995938747581428
  0.8122684302827445  0.6118165284795586  0.6036689032043178
  0.8058266750814538  0.7966362079567916  0.9989976415472011
  0.8041717309121094  0.7990379585011922  0.2064609276730900
  0.8052281054133762  0.7961564263759133  0.4041323876757364
  0.8045536129271986  0.7994740139113572  0.5977488359279008
  0.8136082891440217  0.8087310936157920  0.7987944836025743
  0.0092023082926076  0.0011802668512368  0.6009984646303171
  0.0074419947303903  0.4034113343008033  0.8056678553841501
  0.2042155343233851  0.4033270485058171  0.0001426929986314
  0.5970893418771152  0.1955116891740679  0.1987786585717201
  0.5959352384068789  0.5942751057701584  0.7966297292763829
  0.1981639450572478  0.6051173741363453  0.3989209923290827
  0.4034995406185301  0.6034443576769997  0.6038118372147625
  0.5970618001488462  0.4034027545495565  0.8003135596609593
