Zr Ti V  Cr W 
 1.0000000000000000
    15.4411249493602298   -0.0057725826640909    0.0015034816595225
    -0.0057736157285930   15.4404920489432147    0.0129561230258158
     0.0015050534304008    0.0129519398306557   15.4493068869615229
 Zr  Ti  V   Cr  W  
   2   1 100  10  11
Direct
  0.4027158391500764  0.1944563776099693  0.9974474631127435
  0.7963756889408540  0.3981417647618249  0.2006289992200015
  0.7916212559191137  0.3965394400785732  0.6031392130458059
  0.9983274172571625  0.0002035574305617  0.9985317500713932
  0.9972695277739192  0.9997400471826742  0.2006919939178201
  0.0005133307996641  0.9990519575270563  0.4008215207322975
  0.0003929092263810  0.9984872324109243  0.6017110684819066
  0.9985886639813151  0.0008169205612374  0.8006685485886657
  0.0005981895032463  0.2006733237552657  0.9992907276481067
  0.0011870743885483  0.2016478958161436  0.2007225710096311
  0.9943399856200001  0.2011714872087402  0.4019983255364610
  0.0000824224774718  0.2013367835825726  0.6013589216714356
  0.9998834762461889  0.2018396260419521  0.7986942981788826
  0.0032280913617082  0.4019073673828991  0.2005125685529122
  0.0008993716242152  0.4016693433635259  0.4011281971828818
  0.0031022403322857  0.4044653559958870  0.6000088043457744
  0.0008838956365094  0.3994484249518041  0.8001758574874710
  0.9992915212962811  0.6006930790974702  0.2005507451784113
  0.9992149840366430  0.5996479921182274  0.4038666634048996
  0.9960561643960671  0.5991488359614531  0.7959508798053061
  0.0018275826646481  0.8009587500110706  0.0007598004856313
  0.0008472502399167  0.7992303594037330  0.2008210869539456
  0.0002201413950383  0.8002556266484649  0.3995966332554475
  0.0006065309725367  0.7964155378148586  0.5983734300885380
  0.0017694696299826  0.8009722419804215  0.8004584043517674
  0.1993800152347864  0.0019439780836481  0.3996227115229940
  0.1991917026150147  0.0003332188245526  0.5989733102948649
  0.2017871489103973  0.0001433675071836  0.9333093052780678
  0.1952588655865696  0.2012190615844740  0.0034023463671264
  0.1987024075916921  0.1998422384553031  0.2021271024629085
  0.1977752586291889  0.1991224555995168  0.4012424789917142
  0.1988901280210893  0.1987062953383059  0.6002519723298599
  0.2008093084510197  0.4012078183501859  0.9999910294798698
  0.1999693667965579  0.4008197525481603  0.1988538754060654
  0.2039168754942390  0.3981226616885973  0.3986828656409553
  0.2001648607621298  0.3981980804707538  0.6011229189228866
  0.1994976939388966  0.3997742424800761  0.8018336917261633
  0.2006530997108085  0.6010036701460494  0.9990454528344912
  0.1984036424884722  0.6003348029398965  0.1981559960774681
  0.1985721167986569  0.6003023571043827  0.3980466209301645
  0.1980157589738396  0.6001509638044162  0.6008612903352744
  0.1994520015206259  0.5991926692528896  0.8014790650518743
  0.2022340650609643  0.8010735620605830  0.9998379645297897
  0.2001051592317441  0.7998981018213888  0.1988012497707730
  0.2044612758040131  0.8012958236578596  0.3978206180165110
  0.2001220600805695  0.8018946264068532  0.6008091224169960
  0.2005160689465649  0.7988865901166415  0.8012947094153061
  0.4002752099186095  0.0004199519768201  0.1996364129319943
  0.4007316076618150  0.9984486791259291  0.3997300081858602
  0.3993479462975946  0.9977662078327182  0.5990077397642563
  0.3992990590528744  0.1993039297198419  0.2058545256642705
  0.4008533626663668  0.2022642423824587  0.4040500360507978
  0.3978861415345266  0.4008186001067297  0.2039926514243295
  0.3979942020366600  0.4042575731178846  0.5963164338001976
  0.4005528859966618  0.6004739816731496  0.9980835017418966
  0.3999371376629792  0.5998059556900978  0.4027752004780010
  0.4001140797999691  0.5975958506160010  0.7945069452268990
  0.4036714133624292  0.8003767771963629  0.9993891789786243
  0.3989414601410637  0.7994503947908665  0.2040097658698125
  0.3999135047049563  0.7959622879019574  0.5965024339752812
  0.3999319545919601  0.7981341056962743  0.7975280737265420
  0.6015135637995891  0.9941384910298967  0.9988049860936731
  0.6045696134851158  0.9998077739927477  0.2011661674282257
  0.5985078139927958  0.0003795775823270  0.3999353844802021
  0.6008974569239668  0.9985562177501297  0.6007149909062743
  0.6035778073208293  0.9985154928571532  0.7987272757855225
  0.6073307461344388  0.2011896351791327  0.0011426773206789
  0.5989108135665371  0.1999293747228666  0.2006550913611681
  0.6044315495313322  0.1996656038079690  0.4022063039660906
  0.6001930940892090  0.1982208403644894  0.6009412656885783
  0.5975652620901435  0.2004927524128356  0.7992883264932155
  0.5989614004239059  0.4017193284532222  0.0008644214279587
  0.5932931140466960  0.4010104882889031  0.1991008091740026
  0.5938392017993064  0.4005605972808314  0.3994595265469215
  0.5965758819121963  0.3993192330752732  0.6014828511866727
  0.5998520059064695  0.3996748020101635  0.8014261340562919
  0.6000439996533238  0.6032519369054259  0.9999127634710833
  0.6013902046059508  0.6005958249271151  0.1987568309655944
  0.6018132613077211  0.5995953679995980  0.3992887579011734
  0.5965427650913273  0.6003561632789344  0.6004693655421691
  0.6034439035581922  0.5974229369434801  0.8002281840021603
  0.5990158856199352  0.7987879448501642  0.1969127663446313
  0.5964249429715236  0.7991631976585389  0.3981194596972629
  0.5999426429482192  0.8006008791467352  0.6001155651898923
  0.5994467167977097  0.7985603713642527  0.8026087376132052
  0.8009872372305791  0.9978381882397318  0.6025793915443738
  0.8008861704967793  0.0009982423004091  0.8045666586710740
  0.8020383279150528  0.1969319696186523  0.9985722263186813
  0.8012138456266944  0.1919416456202135  0.2063020550853127
  0.8000605745927512  0.1955822868584303  0.5964823558105418
  0.7990739749354253  0.2011741629523494  0.7976953319676444
  0.7998141591959460  0.3992938154047766  0.9981627187795428
  0.7971910737989532  0.3961175276984314  0.4052826602596498
  0.7992041163600179  0.4017479904637027  0.8032556906434192
  0.8011844029407247  0.6018293784963176  0.9959196303843781
  0.8020762963479083  0.6042724283244238  0.1998837200692205
  0.7989967136659439  0.5992980087175472  0.4017759132852175
  0.8034582381701278  0.6023241915383812  0.6041488823387317
  0.7960037799475641  0.8031804490907299  0.9999721127228033
  0.8003076583664442  0.8036837424481051  0.2016841854039944
  0.7972546563969919  0.7998283018516525  0.4000120191118270
  0.7989121814801530  0.8019002241286276  0.5987908530530136
  0.7995987798658303  0.7959639525989208  0.8005405527895761
  0.0004040409861157  0.4015381090673432  0.9995194881236100
  0.0001269062147063  0.6011061990048391  0.9990442061392855
  0.1980961159336662  0.0000162996959685  0.2008062451329949
  0.2016808393558799  0.1992289864979377  0.8006436449603842
  0.3998665283233713  0.9983469354913826  0.7988214644100546
  0.3992377263520436  0.1993154100519917  0.6022070449483511
  0.3996238960562443  0.4033880707692488  0.0012982749885819
  0.3994115955297153  0.3989439324179192  0.7995022800870788
  0.3994351196735592  0.6004338121325742  0.1993339483644050
  0.7995414039649938  0.9997172497835315  0.3995083263348512
  0.0005441321760114  0.6003601345925450  0.5995690370916859
  0.4040386707985814  0.9954270994156265  0.0024217695162967
  0.4039596978676769  0.1990579143203907  0.7981515433340406
  0.3993983905041916  0.4002614906049582  0.4004969522614769
  0.3981299061125653  0.6009966938613627  0.5987708270985699
  0.4001904335644775  0.8012818201440371  0.3994893428863215
  0.5982248328795861  0.7985348281943295  0.0003065645194551
  0.7994688072115915  0.9996270490714542  0.0030280672862770
  0.8000350377111446  0.9992878394611622  0.1927763086277662
  0.7992927100048720  0.2017241369636085  0.3997991349305591
  0.8001779862374044  0.5991483700745774  0.7992296192137971
