Zr Ti V  Cr W 
 1.0000000000000000
    15.4119853477336850    0.0092002105036784    0.0075686985216924
     0.0091978282521091   15.4168317070722267    0.0033033723005877
     0.0075647771218920    0.0033039266611125   15.4231482065347798
 Zr  Ti  V   Cr  W  
   1   3 110   3   7
Direct
  0.3993118219599339  0.2001396267061788  0.5975946371499307
  0.0005990569652135  0.2344785206249712  0.0034596749995709
  0.1863752717012971  0.3975060205157968  0.1907123806494095
  0.4012559007663434  0.9974388292379267  0.0083279792790877
  0.9997190408470026  0.9971016987205018  0.0010422409981286
  0.9990274423316630  0.0001723804047511  0.1989523631365951
  0.0005541220124303  0.9986588283962623  0.4000663711121344
  0.9987196017819867  0.9994653585334523  0.6000586528559413
  0.9997811682126664  0.0009382872535748  0.8020599217913458
  0.9996957941214253  0.2003431432689905  0.2018824306307997
  0.0044118365496163  0.1991609293273609  0.3992090104410971
  0.9971281593582996  0.1996981544119603  0.5999898144756851
  0.0004947439507488  0.2002072948277380  0.8004810274439907
  0.9982821605429810  0.4015029160262641  0.1690473929190115
  0.0002410181663333  0.4013104484112510  0.4009619703196279
  0.0023015689863015  0.4014686725145551  0.6014244620260110
  0.0002582903209621  0.3998348386407528  0.7986572320004053
  0.9995848021358450  0.5995622740026100  0.0016013140790080
  0.0004290718565904  0.5997767895147595  0.2002662033115974
  0.0013733329276436  0.6009776512484437  0.3995318952769079
  0.9983467629919607  0.6000850834794651  0.5987550524326586
  0.9994512565582722  0.5982208430919618  0.8024704204254733
  0.0004721626032627  0.7987871894893337  0.0011589626737155
  0.0012692824112486  0.7994368766363766  0.2010395597328609
  0.0030605232570916  0.7999666817865008  0.4001854218238443
  0.9998623230535535  0.7989787316739074  0.5995496754883156
  0.0044709252171578  0.7985720798803171  0.7998115126353696
  0.1974729808595405  0.0025546190575179  0.9997373358609464
  0.1991795591444740  0.9999017899654633  0.1986984461176965
  0.2005838713573264  0.0039524459879823  0.4009055218819428
  0.1984686345465834  0.0008285437479988  0.6005435731318410
  0.2004570564871964  0.9971043509780886  0.7993216840184939
  0.2046414030976830  0.2018187663182793  0.0000523642957396
  0.2004983383790006  0.1964811679007492  0.2035394672525516
  0.1944480325581563  0.2030948064120472  0.5966292922140406
  0.1999592473053800  0.1957928863319398  0.8007875662644197
  0.2036417514362153  0.4000812465215824  0.9937211035024217
  0.2000607523456327  0.3946216834650971  0.4062582100568390
  0.1994952978784183  0.3991255460666398  0.7955787646490945
  0.2004802767321011  0.5973264171408883  0.0001381037690906
  0.1993381036614081  0.6014171404273314  0.1992586567119399
  0.2043215795560746  0.5988966439003733  0.3998131337536864
  0.1997572242178661  0.5947087920544059  0.6002654446226828
  0.2011840271136109  0.6033116496473714  0.7992203456535452
  0.2017907594189923  0.7996252048087080  0.9954205789043310
  0.1995088653505474  0.8011145989294003  0.1983205911668375
  0.2036559771886716  0.8021976734783878  0.4017920700712543
  0.2000542426995559  0.7987168637453552  0.6036952133156557
  0.4003871500112428  0.9982981116028903  0.2020804509367349
  0.4009999684905697  0.9946963295065659  0.3990660354251441
  0.4020854450237770  0.9947847164433297  0.5990452333659120
  0.4004806069007731  0.9980134601337756  0.7982468372398740
  0.4041278362548563  0.2027150583606924  0.0017548134195464
  0.4002300302971003  0.2008209910624463  0.1986360616875928
  0.3969563333941717  0.1986770073049684  0.3923518290359609
  0.3998301974003840  0.1981440913748339  0.8040574716220433
  0.4001681591578606  0.4023786601374556  0.9997513443369717
  0.4007246553732181  0.4016463793192446  0.1992257652155217
  0.3991285018188829  0.4048104548630050  0.3964965162224275
  0.3957801817798139  0.4052719323079727  0.6001484200761302
  0.3987515489635576  0.4009436515718907  0.7995598837850559
  0.4020081356514871  0.6000467787091704  0.0021596873089740
  0.4002149647571068  0.5997389193048390  0.2034831587936693
  0.4054623336304210  0.6005018495350861  0.5950269119066988
  0.4004704552227039  0.6006607644282119  0.8005119612606323
  0.4004176700417551  0.7972760027422439  0.0023441991250852
  0.3995270280999907  0.7999723869628151  0.2028565893426837
  0.3998964221000594  0.7981693633898037  0.5956482876631310
  0.3956550223726452  0.7995079793085378  0.7996203088745965
  0.6026974424944394  0.0044671131894141  0.9994891862284218
  0.6015105588757107  0.0006353520146384  0.1995677508166001
  0.6000010775840339  0.0004687641164816  0.4006639893973727
  0.6027770001522040  0.9986207407696220  0.6004161097995449
  0.5999767490804236  0.9994468893489362  0.7994899925299632
  0.6004818626694038  0.1998942883034361  0.1965079771123955
  0.5986335671924672  0.1993099202246783  0.3982540311283903
  0.6006685267682258  0.1997611342245165  0.8033318133835519
  0.6003347492425929  0.3971582964052077  0.9980153175409278
  0.6006064969618210  0.3993803584322687  0.2002528877826593
  0.5991917849503819  0.3980116845679774  0.4002424701693250
  0.6006113608757605  0.4022294002317260  0.6003166559377008
  0.5985917493352071  0.3988903031104211  0.7985190312094614
  0.6000298063680408  0.5987575889898398  0.9993318256038738
  0.6015732433379957  0.5995865493369150  0.1995023553176216
  0.5968683116082445  0.5989177917741307  0.4037485617320971
  0.5996590943398927  0.6001049429852916  0.7970628470111346
  0.5994000034610860  0.8011000292900323  0.9989275712631054
  0.6004951143646369  0.8004389765372810  0.1992745650399460
  0.5962174267697380  0.8013975129239146  0.3997942010982274
  0.6008071067649587  0.7957524458672824  0.6014910077577886
  0.5978249076581311  0.8007610746100989  0.8004578093985438
  0.8020674490649661  0.0009814046561632  0.9998664546707712
  0.8011211831572453  0.9990781774927258  0.2006523619576205
  0.8004172758385703  0.9991289992002028  0.6001953062687455
  0.8009855196567519  0.9986398171836901  0.7994632870332761
  0.7944784622254479  0.2014619462266079  0.0006718506772689
  0.8010676611427328  0.1980464029287386  0.2008920806792651
  0.8002757992644263  0.1998834628526438  0.3996367175706148
  0.8008031562687321  0.2003283352335711  0.5992230117159889
  0.8011640586319041  0.1978085870923827  0.8001469210093404
  0.7980548193338067  0.3997480364294027  0.9996209023798184
  0.8012510726323537  0.4003863212065382  0.1996494104139465
  0.8006286859645169  0.3985750629862044  0.3997044361831506
  0.8014655288591153  0.3989923083284589  0.5993468618497395
  0.8001687670817808  0.5977758680773818  0.0001917410208172
  0.7997153379421252  0.5996650298274960  0.2009558530081607
  0.7991607244741018  0.6000477557625601  0.3993060720617909
  0.7970385004119609  0.5991514375196778  0.5996456741803351
  0.8006439663979055  0.6001757391427310  0.8006431657460553
  0.7991438215015808  0.7992076654986673  0.9997765322906343
  0.8000744080670464  0.8000764075048199  0.2002706348384592
  0.7995138481673060  0.7997752418238289  0.3997916593128917
  0.8003617289050192  0.7994069502674157  0.5996579573506307
  0.8017229708389144  0.8004820364034635  0.8007431874152920
  0.6038854141322630  0.2002775723891340  0.6007653605564871
  0.8001483862607641  0.9996899811777996  0.4001957394980727
  0.7999743757647280  0.3995929520095262  0.7990388964665452
  0.2022199420154950  0.1993713277569829  0.4007928081277162
  0.1997446063203767  0.3983324219624954  0.6011750916812605
  0.2001665527993103  0.7997785490073217  0.7989986768568227
  0.4010951506558804  0.6036360971335444  0.3988546483242410
  0.3985181094840149  0.7973329179267803  0.3987939354316531
  0.5998526441469870  0.2015426928131335  0.9993805812541483
  0.6016824496482517  0.5982396636891757  0.6011527256353508
