Zr Ti V  Cr W 
 1.0000000000000000
    12.2882735461728885    0.0000000000000000   -4.3445607757035454
    -6.1441367710433559   10.6419570608175889   -4.3445607757035454
     0.0000000000000000    0.0000000000000000   13.0336823299999995
 Zr  Ti  V   Cr  W  
  13   2  83  12  14
Direct
  0.9993309714166221  0.0002997117806898  0.7943766253167608
  0.0131975240231087  0.2104913442116027  0.0044471756715663
  0.9901303088102739  0.5943565064541095  0.9912557289716364
  0.1979989263995237  0.1998874434631698  0.3982808379838486
  0.1957618078317519  0.2084597773374759  0.8080272770307538
  0.1943429607754159  0.3944276574444139  0.3820580799240073
  0.4098903100953732  0.4034081488331711  0.3456446408440922
  0.4066262635233874  0.8122672437272359  0.6009061103717681
  0.6004095558835387  0.2075379630591166  0.0092941491657242
  0.6005445291232475  0.3969679346492918  0.8021693239022705
  0.5939125143939860  0.7632926261301953  0.1981628056178859
  0.7977264135506174  0.0014650137854931  0.3921181743935748
  0.7816064328602912  0.0003984890463378  0.7912400514869271
  0.9940237571079357  0.4035421559397703  0.4056897256712947
  0.5979991965242855  0.1852881102026067  0.7901999509872433
  0.9899009026323236  0.9904098131910393  0.1963285619286639
  0.0036328025816589  0.9988645021399811  0.4090291439712890
  0.9831913646597796  0.1884217738404327  0.1947727105615268
  0.9937354420109500  0.1993191530387560  0.4019650815813424
  0.0079399140386863  0.2117005426021213  0.6017215829930785
  0.9883535702458300  0.2179748728732632  0.7861092003339182
  0.0006990128894286  0.4039780717967222  0.9983093535296378
  0.9917960677074507  0.3990320006155840  0.1940528135325099
  0.9955312808142455  0.5996099779648474  0.2036710989118839
  0.9982625401130446  0.5947174901520728  0.5952846589350800
  0.9964574620386508  0.5930482790853637  0.7901814404316437
  0.0004455416070507  0.7990511393137962  0.9983944512042013
  0.0016714788115640  0.7980572958368362  0.4053015035124025
  0.9983496764619547  0.7976077336843402  0.5980485340943029
  0.9971398959195760  0.7871824215211993  0.7957127489231149
  0.2047664291124730  0.9937846518774996  0.0039257114919862
  0.2056314455871726  0.9979599883511417  0.1990141228008602
  0.2322793334432804  0.2146122187157797  0.0374738002667303
  0.2064639579160960  0.2047312654273462  0.6059874395635222
  0.2114037605019293  0.4146068117277223  0.1893645968484246
  0.2011919964201601  0.4064597469693716  0.6092676825043262
  0.1981073519176398  0.4083796055414710  0.8019236196300935
  0.1995851289876358  0.5971104421461074  0.9947349447726364
  0.1991321178477479  0.5988910160771875  0.6006688201212230
  0.1931573033654898  0.5908521199327347  0.7939919482159633
  0.1987854520954903  0.7966924461717861  0.0006182414762094
  0.2048873996111454  0.8054775848540240  0.2021690294199372
  0.1995722310367788  0.8031257465990055  0.4011235880209488
  0.1899396015917557  0.7982083913456958  0.5950261677658537
  0.4050650198845073  0.0031365725883424  0.0103703359924956
  0.4022787365481802  0.9965424174731663  0.2015703189621121
  0.4056120430921523  0.0005698289887880  0.4010706538260149
  0.3908147404868773  0.0063077742540764  0.5995811206172207
  0.3951200252865241  0.9991304443641424  0.7997194880198119
  0.4003645055633792  0.2042523693987283  0.0101958889911766
  0.4111119368026718  0.1930583636886910  0.1990150608820130
  0.3985532608501320  0.1980030355193336  0.5986506585595148
  0.3951294793502066  0.2012380302893728  0.7998842089744859
  0.4004449762420210  0.4093908306713480  0.0176390635700893
  0.5701215338603881  0.5610783150508026  0.2047126797357410
  0.4108099812139157  0.4086489344995119  0.6103627127968434
  0.3948862802918021  0.4032862956558381  0.8010279942600925
  0.3899975490529822  0.5890054361066065  0.9920668936543822
  0.3975331053869601  0.5928990166944207  0.1994872086837459
  0.4065509827014044  0.6141756290401683  0.4020188078132124
  0.4016634487783095  0.8035357692398108  0.2037322421272519
  0.4026985739941156  0.8055214756437820  0.3929054223080726
  0.6005670492264198  0.9959013882021737  0.0067942444849940
  0.6010051995931396  0.0087067355847594  0.2015536031978058
  0.5984983216186478  0.0056907030453530  0.4019603512104883
  0.6011684178938456  0.0066489267443875  0.5948165894301056
  0.5996677575927422  0.0070124472831443  0.8212257413313003
  0.6049498987021885  0.2005316816721962  0.3970595407230239
  0.6069774937221090  0.2058182097567097  0.5979984794314475
  0.5913939777382807  0.4057353259775605  0.0121076842896090
  0.6177572206918593  0.4052171662501651  0.4031397402094016
  0.6025370254905718  0.4001900245119706  0.5926082220022129
  0.5929627065452774  0.5926671695317808  0.9948595787887848
  0.6137129703893296  0.6091408076053701  0.4049215782614313
  0.6019465822545204  0.5959775828488179  0.5967300882386060
  0.5975634862198254  0.7921345459463411  0.0003072555770076
  0.6018647697817986  0.8031533260528149  0.4077328664184159
  0.6009027047134383  0.7897257691023398  0.5872388393608811
  0.7975456319850730  0.9991905573426056  0.0093897384958320
  0.7974776504852591  0.9969805786835775  0.1930019930424621
  0.8029672571102281  0.0026170115355456  0.5937187609520703
  0.8048659005754435  0.2071041742395487  0.0114483723432188
  0.7934217841820378  0.1977745581778696  0.2040358590760830
  0.8078352776731336  0.2142193888323299  0.4069617789157647
  0.7992919188424543  0.2036646931414199  0.5960540074083428
  0.8032217999794125  0.2172378594713882  0.7967692725610431
  0.8028712401966435  0.4023946803138457  0.0054068345226433
  0.8063128392511382  0.4090538908907724  0.2118955393000527
  0.7970068031571008  0.3997455427453684  0.3997883715522052
  0.8028699094319198  0.4012996761011318  0.5989083195750949
  0.7935196483132773  0.6007534548001207  0.0039961525642198
  0.8050787526601983  0.5992711897554845  0.4035532019196800
  0.8029459075447157  0.5974142153972521  0.5992409784935345
  0.7933489674212417  0.5895439154572095  0.7923796870979799
  0.7916286157702660  0.7888808702853390  0.9977413525033353
  0.8024407654497039  0.7977507991311625  0.2008624088179303
  0.8092685273053741  0.8015995860530630  0.4104844984959843
  0.7976552434801136  0.7925990498362954  0.5931989306737850
  0.9993379345895252  0.9955312661702094  0.5885179358759138
  0.9995477792863271  0.4026627424969454  0.6032065087369429
  0.9950046641454076  0.4019537632580066  0.7903949399436366
  0.9954874306765825  0.6020821348774794  0.4002803618008255
  0.1999948095904618  0.0004954287702417  0.6024151973348139
  0.2008321978339832  0.1850069433827342  0.1927602633211507
  0.1977097423010301  0.4076701601441973  0.9956635108563393
  0.3981604681711122  0.5930256454490918  0.7999689479391725
  0.6045834512289732  0.2026279667913827  0.2105974255179234
  0.5991629787492005  0.4045768014511668  0.2099403644367251
  0.5950925327534351  0.5954859930382992  0.7967165622095489
  0.7993560510431159  0.3925721395366936  0.7883573295211743
  0.0023519137384517  0.9928186941937307  0.0065327781021247
  0.9976940324303305  0.7989856464160265  0.1998259940242458
  0.2011198487447103  0.9971544504400048  0.4027535317287035
  0.2066019591761388  0.9995120830514690  0.8026394838809543
  0.2007803843643052  0.6062569733706448  0.1971311710152170
  0.1894170559301951  0.6016387978704049  0.3950224025991406
  0.1963126856886839  0.7949601820917686  0.7996300141670309
  0.4097217765933492  0.1997805928424968  0.3992695670108505
  0.3992072162585222  0.5943889994922598  0.5983912715422546
  0.3978034685849623  0.7956422738321303  0.0023965383645112
  0.3974416186317892  0.7958479611050610  0.8034898962158588
  0.5987908258842003  0.7931749660792228  0.8024938905017384
  0.7971609575521723  0.5992359032266856  0.2029884150770839
  0.7986747460580915  0.7884928863562912  0.7966712225523991
