Zr Ti V  Cr W 
 1.0000000000000000
    15.5004896741728189   -0.0004158105810668   -0.0050371344900328
    -0.0004152438767701   15.5184971327380818    0.0022293626541477
    -0.0050375150765819    0.0022293852992323   15.5073736479438065
 Zr  Ti  V   Cr  W  
   4   2 110   6   2
Direct
  0.9947254392222811  0.0006599953478853  0.6005794891867999
  0.4064665260033286  0.0004665868729452  0.4010038538552903
  0.4032494092564232  0.5913833600664886  0.7990194743521721
  0.7678435380967176  0.0002926479456602  0.6003991811886147
  0.5980017717839782  0.1974026626463539  0.7976472672640746
  0.8056924393778030  0.1994314484203745  0.7988302377803298
  0.0004507868841995  0.0012815453648940  0.0014202000889516
  0.0004633986952753  0.9989013668912710  0.1975736341369998
  0.0016429420245116  0.9999314568361440  0.3950758741290413
  0.0021865200419161  0.9992557040668784  0.8060971366842176
  0.0012933225595979  0.2000735534813573  0.0008555586230790
  0.0019341134506468  0.2005766729848088  0.2008079214048489
  0.0017781359838466  0.2001955934873983  0.4004896349708041
  0.0018325392549357  0.2060425584360960  0.5999993522388187
  0.0036414567587374  0.2002490410216234  0.7999593253439437
  0.0008717389596589  0.3997215084354659  0.9997626098228639
  0.0012851749732632  0.3992590735649375  0.1997326675612968
  0.0006953961390437  0.3996415031763225  0.4000586861782336
  0.0003401596443015  0.3999116172516901  0.6015532861493771
  0.0012689662432759  0.3989839206043841  0.8012496904933430
  0.0012485376949901  0.5981801195554312  0.0006292269305992
  0.0009060027183637  0.6006507930484229  0.1998060219136443
  0.0005427128997877  0.5991540514895621  0.3993837207793776
  0.0042963050301739  0.5982130758025583  0.5996777539494906
  0.9994186603872123  0.5996231907033266  0.8023025460275662
  0.0028900872398465  0.7996105168616502  0.2007507472834697
  0.0004529464390184  0.7992329720071149  0.3991168490195249
  0.0004991331115998  0.7951382874027197  0.6002996412670170
  0.0010069299007193  0.7998143920751124  0.7991606054127249
  0.2011572622367812  0.9992415518421546  0.9996609775754561
  0.2012601760873546  0.0000034091766197  0.2000736142628634
  0.1988804521631839  0.9999514184766786  0.4022000676684898
  0.2025152375768134  0.0007488135858914  0.6011754495483466
  0.2006119341500076  0.9997648960530841  0.7994474381978881
  0.2010455396436808  0.1996487271371444  0.0011041923166185
  0.2014076351250170  0.1991949352235132  0.2008071620990090
  0.2009443654010485  0.2000556166542293  0.4011435603529853
  0.2000121455847592  0.1984728746769447  0.8002909518915128
  0.2009634515995076  0.3997343713830039  0.0004584811571800
  0.2022481937180867  0.4004748201674557  0.2007406653087839
  0.2016775418446490  0.3985405931394707  0.4003395186047704
  0.2007946600883020  0.4028747137339255  0.5997657386162412
  0.2043877220144127  0.3979905444503644  0.8012848049756053
  0.2004635130127804  0.6003254448870001  0.0007044919393875
  0.2014798582318162  0.5995697411027964  0.2023327472508233
  0.2012085876439129  0.5999373095733157  0.4042314642056823
  0.1961202747372215  0.6003737571807685  0.7954690409197479
  0.2021253341024065  0.7994052021308398  0.9999551208951792
  0.2018021222583198  0.7996731892188025  0.2002801366386276
  0.2012176229734278  0.8004027281333748  0.4005652384601440
  0.2006953323620458  0.8003338367444116  0.8014484957391282
  0.4011345291831548  0.0003712354866125  0.1963462585546908
  0.3961731880014498  0.0004324271876793  0.6058451919587906
  0.3997118823658001  0.0003755075793878  0.8032174312179303
  0.4005076953388990  0.1990902656786945  0.0013910891529749
  0.4007702840286325  0.2004743080725526  0.2001532370544483
  0.4006346349049366  0.2044660013778653  0.4011863658011114
  0.3996126991789407  0.2006842224428721  0.6000794817695935
  0.3981939215199449  0.1994845152165392  0.8005652573294734
  0.4016148615006447  0.3988509619846412  0.9982893316003472
  0.4017496430442662  0.3993849080764880  0.1993124312413163
  0.4020570242444243  0.3999260791868164  0.4007325470936340
  0.4021437120773023  0.3974218794672734  0.6034102402812072
  0.4009186881531187  0.5987819374294198  0.2014250655681105
  0.3954635483557049  0.6001404442323135  0.5948693330364385
  0.4011188488211824  0.7988823591281430  0.0004125725355286
  0.4010234964081710  0.7997442831512273  0.2003850663115839
  0.4010224450556663  0.7957003584011120  0.4006065111995688
  0.4002599603246942  0.7985506225705014  0.6008536228524406
  0.4012511553209249  0.8011242733798510  0.8002575737764477
  0.6000474094463509  0.0001173475211101  0.9995753261800900
  0.6017304700876449  0.9993802413817039  0.1990900809942314
  0.6079245437592654  0.9999174545250070  0.4004678844862673
  0.5741311615981721  0.9990392738459916  0.5983632063258897
  0.6005110588916667  0.9985487931405471  0.7989327466419024
  0.6008671023583427  0.1993640834137420  0.0016474777320073
  0.6003849867639675  0.1992931984358065  0.2012872731220523
  0.6019963408834972  0.2004654924107525  0.3997397259143464
  0.6009093419916055  0.1983963362120672  0.5978925499192107
  0.6015369148424193  0.4001092549396176  0.0002878113331657
  0.6002245995126759  0.3999326020053096  0.2000087393155776
  0.6014192665440534  0.3995876234852416  0.4010771287128357
  0.6000940566474499  0.4005881321168292  0.5997517384448974
  0.5981456439748830  0.4010463337418710  0.8002676714899184
  0.6021811642451664  0.6004336785814055  0.0021654788873766
  0.6026844475553922  0.6009886785355179  0.2010603829653201
  0.6012397846699746  0.5997368798317754  0.4006297576956956
  0.5999478383913549  0.6003416441653986  0.5986534969739229
  0.6065654455584117  0.6011503209000032  0.7996123570959808
  0.6018212412300161  0.8001040841449919  0.0002390971528203
  0.5989641973621644  0.8003260422041281  0.2004170986222255
  0.6028260213089264  0.7989354547138342  0.3996415477407442
  0.5996010886629141  0.8004223491667420  0.5999439516545713
  0.6002059110731727  0.7999882610304848  0.7997424251516889
  0.7997811228485608  0.9987178571038909  0.0016465702290760
  0.8001761109950929  0.0020848668652335  0.1982598316596920
  0.8025837197313732  0.9989521763295724  0.3939457408020196
  0.8005870117833543  0.9979251314675067  0.8052194558166673
  0.8010415496411596  0.2002812176606405  0.0016729308621046
  0.8013662269739803  0.2006815233908603  0.2004527972067087
  0.8025125158203482  0.2006110432083548  0.3996776757385617
  0.8008028411789542  0.2051155870278642  0.5975479243465589
  0.7997988563376410  0.3993511032332614  0.9994474095141481
  0.8006203639989076  0.3998082071215756  0.1995372853309213
  0.8009713462679831  0.3998817311404832  0.4005370480957237
  0.7991139439157675  0.4014290215157930  0.6012428467012997
  0.7998743714680305  0.4011250301723753  0.8007249882528361
  0.8016113397291327  0.5974618971437277  0.2004181294082867
  0.8018639883367632  0.5999400881534340  0.3994295836784627
  0.8009078864025073  0.5982006998965964  0.6000306034140007
  0.8020670218560015  0.5989967386535462  0.8002419082404510
  0.8000112050242383  0.7995298401567598  0.9981520243149429
  0.9339893164285653  0.7994946998918149  0.0670982018338362
  0.8016444447563816  0.7992264299700855  0.4026651380760775
  0.8000632761670595  0.7945819667754399  0.6005836079479031
  0.8022058191733072  0.7987118169460838  0.8004582245089856
  0.2002902494342836  0.2018466997721066  0.6004117638913363
  0.2002740680878652  0.7991465687454942  0.6004784439164238
  0.4012612380226834  0.9998379690469403  0.9999318820901204
  0.4014869301939035  0.5992025363881052  0.0043622585049163
  0.4016060123448333  0.5983585822180940  0.3991152154288461
  0.8016685930204548  0.5996292951962754  0.0006350309226901
  0.1997186720752909  0.5963256625235359  0.6005141504666737
  0.4003170171687413  0.3919324588362993  0.8004165155963192
