Zr Ti V  Cr
 1.0000000000000000
    15.4889002550493640   -0.0195313770937778   -0.0155534076795571
    -0.0195267745976093   15.5102089440028070    0.0059105293967036
    -0.0155475950656657    0.0058984254639578   15.5083315327291498
 Zr  Ti  V   Cr 
   5   5 111   3
Direct
  0.9999106606004584  0.9948106914328836  0.8014244837934869
  0.2100254068846032  0.8023209549081183  0.1946002108552157
  0.2164272727017137  0.8090533916434874  0.8035481309964621
  0.3933491594984692  0.9648608191623280  0.8363942118782481
  0.3844868901010537  0.7954745545271407  0.9975537374944623
  0.2001911897302045  0.4005203408420804  0.9981437512465764
  0.2100825209649229  0.8134302398039148  0.5931462840094129
  0.3999233906401881  0.0136944513898087  0.0260278957696111
  0.3901616196186105  0.9889073299618324  0.5968200109733320
  0.8022781264917394  0.8030079576161510  0.1999966585576322
  0.9964424654250124  0.0000280466121128  0.0051399284853604
  0.9995428396870113  0.0003514171031251  0.2010159633802595
  0.9990599389729320  0.9997262985281486  0.3986279085381755
  0.9976641638152641  0.0002634584791652  0.5953399685018826
  0.9979767079353967  0.2006011993506316  0.0001602331610790
  0.9980502864681479  0.2013651117637859  0.1992627714468884
  0.9990826503011668  0.2002183128375437  0.3988639135970624
  0.9987070074016805  0.2012809880035334  0.5994184081174514
  0.9983402217551239  0.2033033173879286  0.8000194452518916
  0.9957857453124952  0.4014500898677034  0.0011293985658400
  0.0003836234498602  0.4000048910955216  0.1997802672258299
  0.9987290416557590  0.4008311158797063  0.3987454977904972
  0.0004563606755905  0.4010194171833339  0.5990055535182828
  0.0001247861770684  0.4008727421697832  0.7995331798192674
  0.9983628721924860  0.6005793596520873  0.0005259789065818
  0.0018768791077626  0.5995243658166932  0.1995601761240669
  0.0004023268361482  0.6009947133230358  0.3991655161582087
  0.0024605770262401  0.6011516061527560  0.5997088149543529
  0.0029170841865186  0.5995960296624042  0.8003826885777202
  0.9947949290057618  0.7995661391620835  0.9995413023565153
  0.9999572581288128  0.7993908924605279  0.2011136556275724
  0.0007543137127088  0.7992262200932080  0.4000372786448657
  0.0022053918595377  0.8008326906177062  0.5999720149529220
  0.0030011426123815  0.7935693270191252  0.7979445032370540
  0.1954305862382571  0.0027882878032197  0.9999944712103114
  0.1995159487213191  0.0045525972432513  0.1997745061134295
  0.1979872356398594  0.0016393935971841  0.3988399311531813
  0.1941705391026604  0.0083951227831466  0.5982751652937468
  0.1980364122717848  0.0129562874344189  0.7988512140464872
  0.1984640649760909  0.1995683192254353  0.9983908805194434
  0.1992860737437745  0.2009192575304360  0.1993116363791965
  0.1995667256407256  0.2001242712750856  0.3999961435138638
  0.1988621578348522  0.2028018871473461  0.5991158731876882
  0.1998489422158161  0.2040176721723602  0.7994038153910772
  0.2002144860154232  0.3996493667173541  0.2012944310282785
  0.1995795919151461  0.3993684513649727  0.4000144528295693
  0.2000206656994355  0.4007925734364009  0.5990401585462894
  0.1997846209154495  0.4014271902946295  0.7977181215749082
  0.1986292059802290  0.6028563221620618  0.9989195602068695
  0.2009606424251689  0.5967605308953946  0.1997279192506274
  0.1997045611638392  0.6009410969788433  0.4004037761195038
  0.2016666022934251  0.6012710515016251  0.6008888931168175
  0.2013893823344735  0.5990965191290758  0.7996262840279906
  0.1853261968785220  0.8017406781810233  0.0022323651948800
  0.2002121190880452  0.8013066479703642  0.3987247262406114
  0.3988417856883684  0.9994150361355320  0.2092913479972887
  0.3981494383794952  0.9986993787386639  0.4001539989665848
  0.3981291401403712  0.2030126415748996  0.9983506461369202
  0.3989854448306373  0.2009270167167789  0.2010424035910317
  0.3993510769155793  0.1987544652687353  0.4005907769735783
  0.3987701894495049  0.1977402055470665  0.6012723617714395
  0.3991693494889620  0.2020843030602369  0.7986205176781153
  0.4014390124105137  0.3986795014532540  0.0003413172981501
  0.3998292205870193  0.3986758131250513  0.2006934396103461
  0.3995548339547387  0.3993280713646867  0.3998866023965270
  0.4003305880911850  0.3980171389387965  0.5982895015405254
  0.4008760363082126  0.3974596896246425  0.7981965164157939
  0.3985966774175630  0.5916704135057185  0.9999070578164050
  0.3997127797430288  0.5982975300356607  0.1992217693623207
  0.3993475315337967  0.5985217826689242  0.3990901893538892
  0.4000268234254040  0.5956654799966864  0.5976530182679793
  0.4009965320559901  0.5911075807302586  0.7997112612404015
  0.4091142356209913  0.7978857853040939  0.2052942948221935
  0.4016781548358033  0.7974470753160227  0.4010348057329015
  0.4077216700859991  0.7919370901986867  0.5952262587528394
  0.4169539817218462  0.7768181607433413  0.7887710892761449
  0.5972945368722804  0.9991325443492475  0.9990177890321285
  0.5976391367189493  0.9991092144564518  0.1986121879618534
  0.5989515256205514  0.9994900533033759  0.3992801399230300
  0.5991809008894142  0.9986206722280034  0.5991717285712193
  0.5988221024368341  0.9995374439991679  0.7984263975313701
  0.5982174592551628  0.1985514793057147  0.9980829089283402
  0.5995231580772815  0.2000749559996777  0.1992880815985606
  0.5985875039526308  0.1981204207728967  0.3995324438382520
  0.5990980356394088  0.1978384886531760  0.5994479544519424
  0.6006604475933844  0.3985821712905321  0.9996612267781635
  0.5984155149697127  0.3989564264522094  0.1987517581584715
  0.6008954748940816  0.3989692798928114  0.3982869901140441
  0.5993592383774385  0.3984236907887319  0.5992550996610752
  0.6006921141539772  0.3983661435353873  0.7991664616497478
  0.5987338296939111  0.6009095692504725  0.9988714524545764
  0.5992242674316461  0.5990736454121750  0.1980161200928763
  0.6005649168028653  0.6002549139927243  0.3981603518444425
  0.6011671452927736  0.5986104147789616  0.5994982916162273
  0.6020373305269967  0.5972271314049747  0.7995677309852127
  0.5996420049961879  0.7992439775449540  0.9973314530963325
  0.5998819589107991  0.7998814919360716  0.1970561726170446
  0.6009108137156536  0.7999188522168905  0.3993011582448950
  0.6041633829329129  0.7993786768767503  0.5984990775181402
  0.6047830768878634  0.7988756732215264  0.7982142366472935
  0.7976286135515090  0.0006855984522265  0.9997140689083790
  0.7977835980279170  0.0020839767981518  0.1997197476639304
  0.7991486016499892  0.9994572502909231  0.3996270986634810
  0.7988812862160841  0.0002531703281852  0.5993850470009878
  0.7953519083801606  0.0003187310968991  0.7999327479662356
  0.7982816900893117  0.1976194205694005  0.1991980134934681
  0.7991172489432866  0.1990406084774740  0.5998286414708955
  0.7988655460943207  0.1999515987015825  0.7996745464065741
  0.7984246942645116  0.3992886388452712  0.9969119046498198
  0.7996369471065049  0.5280113150109392  0.1992795837546398
  0.7996410220992599  0.3996930145375121  0.4014263388706056
  0.8000726220571768  0.3987828450120074  0.5997777304228665
  0.8002204088650434  0.3998890606662822  0.7989373865854685
  0.7995061492030456  0.5991779407351906  0.9992192756052122
  0.8007261045969634  0.5990921641038929  0.3995590080168480
  0.8014915838759490  0.6002261559556867  0.6001266531575217
  0.8012188113682918  0.5997257134615119  0.7989523084838878
  0.7982274948694542  0.8000438945377167  0.9965591034813832
  0.7999427384237501  0.7995089650316550  0.4015934500113385
  0.8021763947095826  0.8000555507849654  0.5993792652468097
  0.8019972101461086  0.7992526667058717  0.7984026146296429
  0.5988809211926331  0.1984689070510633  0.7993196452177246
  0.7976500187204553  0.2000637955548683  0.9994036732759957
  0.7989015841010987  0.1996095109114452  0.3997395232458108
