Zr9 Ti17 V87 Cr2 W9
1.0
  12.5911167094248988    0.0340321349657384   -4.4651127512690021
  -6.2606958638130132   10.9008704492667636   -4.4499898086669072
   0.0017762997224301    0.0219469782085256   13.4007816977248968
Zr Ti V Cr W
9 17 87 2 9
direct
   0.9922535971465823    0.1970875935150962    0.0009322485161860 Zr
   0.1799604086938471    0.3908587580690801    0.9876913011297624 Zr
   0.4074264185343064    0.6028209398061818    0.2084452983044621 Zr
   0.5985154881573698    0.4048628657645291    0.9908923971644058 Zr
   0.6054059673705684    0.3990183856364188    0.4037673296935078 Zr
   0.5995675376462806    0.5909150029258777    0.8053140146951653 Zr
   0.8006978124689919    0.0039584644435784    0.2022637158285962 Zr
   0.7956342234636649    0.2017937208135347    0.3995104977431417 Zr
   0.7983471751507516    0.1996563454039903    0.7997341987327582 Zr
   0.9956679756854411    0.9973889029108646    0.5945372589893145 Ti
   0.9893113827020544    0.9927917496914591    0.7962722269579404 Ti
   0.9984714416975472    0.4044487844878613    0.2013101365406376 Ti
   0.0064938418392700    0.4055950100943229    0.6109547917739422 Ti
   0.0005330493541065    0.6038595427252864    0.6011586907579201 Ti
   0.2025666613115430    0.9980457579607489    0.5967592384755043 Ti
   0.1997728769334115    0.9936016285569077    0.8017980661380999 Ti
   0.2122433143302931    0.1940525244742496    0.0061488840829551 Ti
   0.1977545582370609    0.1983208711489293    0.3972234678256717 Ti
   0.2154708540940874    0.4035478224931278    0.2224148475338788 Ti
   0.4138583154066722    0.2018861621363118    0.0001633081522059 Ti
   0.3972757491916440    0.5836945841782100    0.9815014044829815 Ti
   0.3932613034588364    0.7946553451679008    0.9945044672365327 Ti
   0.5769711057139498    0.0098825714551044    0.1890961478943017 Ti
   0.6010754246600349    0.4005768270481920    0.6079901827505170 Ti
   0.6035081636789880    0.8051823700542345    0.2043537884546036 Ti
   0.8130293438978176    0.6062275517013368    0.2048911253754038 Ti
   0.0000910108085022    0.9907973135333739    0.1939401896154621 V
   0.0020616102733568    0.1993706202323433    0.2104176235548340 V
   0.0141656595675571    0.2138238510257994    0.4116153423784271 V
   0.9991725372257252    0.1985982838206461    0.5936281651068803 V
   0.9958444366255766    0.1914487094375204    0.7689872781862285 V
   0.9959601656539667    0.4261714860423769    0.9980826915337434 V
   0.0035531657039618    0.4084555534688895    0.4028634393879347 V
   0.0009515034533955    0.6082115579457152    0.0009091116062350 V
   0.0093922641271401    0.6104894648232554    0.2035680338062026 V
   0.0036763042298112    0.6019151196567064    0.3973642993039984 V
   0.9987864240086368    0.5975776551087862    0.8005741614113380 V
   0.9984798621002827    0.7962003954757239    0.9991270921718128 V
   0.0011716384184617    0.7992215028420635    0.2016166123178951 V
   0.0012246447692458    0.8022742074965901    0.4025494949763699 V
   0.9987822296455257    0.7977287136531199    0.5997588075642067 V
   0.9996486388158287    0.7928073726964833    0.7960717086144532 V
   0.1963250661355431    0.9875771046879396    0.0007715562777309 V
   0.2001873342271976    0.9960696666286862    0.1995908460252019 V
   0.1970565261958777    0.1883866585474612    0.1962702110306785 V
   0.2018745720262828    0.2030177864652948    0.6020144250883420 V
   0.2048074761880461    0.2066766781128426    0.7948917796456171 V
   0.1953209817291452    0.4052200946968759    0.4068341875676310 V
   0.2032787113608562    0.3999047797925346    0.5964873735981099 V
   0.1876415573617349    0.3933482978500343    0.7817872119834395 V
   0.1941254241579604    0.6106437846918423    0.9976307272761199 V
   0.2034341887457005    0.6053219062606433    0.4047832349070715 V
   0.2020544630411405    0.6019076994073373    0.5987307834273139 V
   0.1976996552031848    0.6022761202083136    0.7999436527519601 V
   0.1933204615628545    0.7979617259672749    0.9963129005009677 V
   0.2002420302384652    0.8022612447384992    0.2015528824765900 V
   0.2017623591960081    0.8023200396715219    0.4028166988404984 V
   0.2027074421267425    0.7983269047276398    0.8046643484262406 V
   0.3971682237821914    0.9981197463327889    0.9974007029165828 V
   0.3889678552784493    0.9957284999646544    0.1988446379030122 V
   0.3995858362325260    0.9994990110345877    0.4044754793924146 V
   0.4019671018217342    0.9969741209845761    0.5976510213749178 V
   0.4003435251949326    0.9967844920848886    0.7951492908054018 V
   0.3940003135222545    0.1887983814781539    0.1940079441248239 V
   0.3961772552023249    0.1955100465766295    0.5964665569466006 V
   0.3931002921859285    0.1945999885418963    0.7852924523264008 V
   0.3934537252048187    0.3919929129962209    0.0031933422444668 V
   0.4162063354073246    0.3937502037984302    0.2091937509687505 V
   0.3942619030364187    0.4004841568126786    0.4038690568161954 V
   0.3907461167428428    0.3957910853536775    0.5951864203485632 V
   0.3873385885755453    0.3911937969997805    0.7890622278225514 V
   0.4082626775645825    0.6101629838860089    0.4218814059548740 V
   0.3991775784106590    0.5990121761512965    0.5987429722239140 V
   0.3885074271956643    0.5962532570112554    0.7879352582171841 V
   0.3993937202506240    0.8041646489309235    0.4046600348823209 V
   0.3969801879638591    0.7996422925719118    0.5978258994007066 V
   0.5933779704235329    0.9956094505391232    0.9919380142930486 V
   0.5969138641288783    0.0020616931946623    0.4063103290315374 V
   0.5884438801650024    0.9924117564078682    0.5935633206206200 V
   0.5930366857941394    0.9963531837519427    0.7955978814644995 V
   0.6013005265594580    0.1902143742038348    0.9961873327100724 V
   0.5876552446910078    0.1876675842821708    0.4006313562045430 V
   0.5970773471174741    0.1941600984032803    0.5994586240015505 V
   0.5868205514388520    0.1911285915981772    0.7924198872718201 V
   0.6101854906467719    0.3989661202396485    0.2030766671253486 V
   0.5992434658644035    0.3750837674281884    0.7861346698750697 V
   0.6163044895626205    0.6274098326550948    0.0270486431763816 V
   0.6070319143259620    0.5984867886937179    0.2045176770293593 V
   0.6061687024198640    0.6094243407819375    0.4075453061960720 V
   0.6014672100271446    0.6055415690496595    0.5954816863702741 V
   0.6002021549980839    0.7950775136265149    0.9911862926004078 V
   0.6119035026204143    0.8148845367049939    0.4149834252663973 V
   0.5975448683503704    0.7992576487449443    0.6002621711346137 V
   0.7944804583644521    0.9920367216808910    0.9917215021065430 V
   0.8059999795593281    0.9950896726468424    0.4175262318287549 V
   0.7947104418629141    0.9984592779086869    0.6005245142122284 V
   0.7819857019877137    0.9770504356326966    0.7867623602507023 V
   0.7796462191849314    0.1930819761521531    0.0026349739624281 V
   0.7974749680549402    0.2116911103099188    0.1931966477082461 V
   0.8011460400016072    0.2099195029147944    0.6046167674702394 V
   0.8105148917772397    0.4079052902983857    0.0022559938752262 V
   0.8010460819208178    0.3983534146726498    0.2013511512957932 V
   0.8079003254381619    0.4064708794854385    0.3917531123206714 V
   0.8016130870398041    0.4031984117243312    0.6026999538454663 V
   0.8039308980225017    0.4079161558678853    0.7965566890663337 V
   0.8099337023280561    0.6058944639603111    0.0021449756865629 V
   0.8050511504477837    0.6115597072369432    0.6114585951761966 V
   0.8131807222072519    0.6049031889780387    0.8034019303861243 V
   0.8071378321720859    0.8027607188040670    0.0079855812733048 V
   0.8117912384803275    0.8035585146143690    0.2060445019627498 V
   0.7983951040210734    0.7976309762877694    0.3968819913699284 V
   0.7953584916431987    0.7942774255786497    0.5973135142358489 V
   0.8004907966332755    0.7961898494987720    0.7983416367047831 V
   0.9941351275555571    0.4072589066598148    0.7974905834205633 Cr
   0.5984477825747104    0.2056535158691650    0.1922996257680478 Cr
   0.9980299766957679    0.9903978358553940    0.0001300912412570 W
   0.1994848395065498    0.9942401759745672    0.3964231128798081 W
   0.1969254721171754    0.6065821518812785    0.2046960651866128 W
   0.1972342148312958    0.7966319452216190    0.5985827117013408 W
   0.3989999131157067    0.1962032316261703    0.3984219992455157 W
   0.3968893815715965    0.8086319070153207    0.2049270421484446 W
   0.3967285032682972    0.7981115356064959    0.7954670178375309 W
   0.5978827254187262    0.7989167783906131    0.7967761947959402 W
   0.8062828346680530    0.6047992122047269    0.4060762812804654 W
