Ti V  Cr W 
 1.0000000000000000
    15.3947628529237015   -0.0004726939770559    0.0021267196503963
    -0.0004726263884090   15.4017912768726095   -0.0008921615345846
     0.0021270963932924   -0.0008941263393480   15.4191178141427301
 Ti  V   Cr  W  
  13 101   9   1
Direct
  0.9937572435828077  0.1907184065854736  0.3999922773169364
  0.9992508458075954  0.4026947280342079  0.4006158802526335
  0.2097211882240589  0.0067519438274818  0.3951855868081099
  0.1977374088276241  0.1983422966382640  0.0063558713280469
  0.1969027014865600  0.1972608139505611  0.7954062136455007
  0.3975009640404660  0.0006545948137647  0.1819430209637836
  0.3909304903221238  0.1946170603867588  0.3993263783758249
  0.3976819756935463  0.8057865584779252  0.3963930844033735
  0.6021361695003468  0.1951304958524107  0.3998298970209982
  0.8012881150346721  0.0095825171004351  0.9973654062749359
  0.8039150513015488  0.0073451478429936  0.4005281704878133
  0.8009005534046382  0.1915310972498616  0.8038352070603636
  0.8001254826967121  0.4018745682845798  0.8011020017275453
  0.0014823180188348  0.0011691597233729  0.9988726329224044
  0.0002221832127861  0.9999433618549689  0.1997351605755633
  0.0030269879277971  0.9970890519268076  0.4009071809670294
  0.0016744971307195  0.9999255528900998  0.6003413225514220
  0.0001179948284626  0.9992335785318586  0.8004618785190382
  0.9983046643256827  0.2007438880131655  0.0008169013544474
  0.0011518105539305  0.1997141369576986  0.1986746824968750
  0.0012881906396119  0.1990796344090711  0.6022264364234248
  0.0002291186780479  0.1989259606111189  0.8001557111510398
  0.0012864030748334  0.3998239135357436  0.9998555089704475
  0.0006364874735416  0.3987640362555766  0.1984883866234601
  0.0005785955011941  0.3979627516669379  0.6028603446539600
  0.0026264623881037  0.3986454262426595  0.8013788148691819
  0.0003838479601537  0.5988032671667267  0.0000577007748124
  0.0004811512096867  0.6008386768057677  0.2003147600275229
  0.0003262310583754  0.6013483227292891  0.4008167906849815
  0.0007723119921913  0.5993558310891717  0.6005377723088625
  0.0003639106295907  0.5999931479338940  0.8008662106439856
  0.9995896873941208  0.8000417217040803  0.0008666963778181
  0.9997437146946765  0.8017435949216422  0.1998555476023390
  0.0007756818448423  0.8006744723058464  0.4003797196206288
  0.9999674575154029  0.8007458600909421  0.6008247069995031
  0.0000571832027778  0.8004027669113255  0.8002052275924677
  0.2002095075842215  0.9984330879688984  0.0002040687171920
  0.1980015169095369  0.0018215757367299  0.1971913229026764
  0.2002167363624133  0.9978703954886182  0.7997755373057366
  0.1950619648713711  0.2039152363050199  0.4003898791149400
  0.2037372992795265  0.4000676579268038  0.0015684394331725
  0.2000273361126731  0.3987956243741568  0.2025632291025780
  0.2021002111854742  0.3997756050061080  0.4004091095306130
  0.2011695227556339  0.3985050309664335  0.5990962486881857
  0.2004240968389610  0.4005968598700210  0.7998545550487309
  0.2005922335725443  0.6010365279918457  0.0019118447923512
  0.1996075174113271  0.5996818783580673  0.2021422539084756
  0.2009030179373449  0.5997565657996403  0.4008129215305625
  0.2005040666816828  0.5989747343918203  0.5994532722571045
  0.1998027030040431  0.6005317547631416  0.7984707425042733
  0.1998628328078164  0.8005280840013045  0.0009351337217185
  0.2000746831838005  0.8007347468572338  0.2006042560823301
  0.1996408796858937  0.7994154935592085  0.4002350687224112
  0.2005122480560504  0.8007116058874195  0.5987590919687178
  0.2011153397736959  0.8000828552867202  0.8020150365618788
  0.3999305200616196  0.9359373748043199  0.9980043850178834
  0.4045968261155233  0.0018650318979854  0.4030803623366411
  0.4011657776695014  0.2055811179649855  0.9983808589043209
  0.3992702458502438  0.2019783162916101  0.1972201592971072
  0.3984448129383603  0.2002821750083043  0.6034604896291459
  0.4002582824757623  0.1992374015090972  0.8004138122177294
  0.4006345095695407  0.3991798214967069  0.1984428805872423
  0.4011873136067133  0.3995039110425799  0.4006039175742639
  0.4003419501698539  0.3981679594760641  0.6018331217575740
  0.4000965952385823  0.3997529840601319  0.8039684935054106
  0.4004213589368638  0.5943697528263259  0.0003245419944327
  0.4000424608117830  0.6003599946227873  0.2013864790310650
  0.4002685182956195  0.5990959174281708  0.6003727591205212
  0.4002132094614659  0.6004239098395080  0.8010340823268569
  0.3999718259185344  0.7996379627229870  0.1967111764557064
  0.4004744893073172  0.7996679403794386  0.8010990586768560
  0.5975713737151261  0.0004879529419437  0.0001251080683543
  0.6023443329205138  0.0000342501225374  0.2002751358356449
  0.5990304100848698  0.9976539338706032  0.4010283835158238
  0.6005761553739595  0.0003081946093924  0.6008421693703919
  0.5999301377741594  0.9985680365154340  0.8004779974303831
  0.6009304033973616  0.2002069193409138  0.0010376910833938
  0.6005895380070018  0.1987700164541699  0.2007784109735813
  0.6001752056384582  0.1992024047838744  0.6022051352972981
  0.5995934029829245  0.1982251003648269  0.8002446703147603
  0.5974924882429145  0.3993250919970457  0.0016687369511195
  0.6004177033193256  0.3995220032740571  0.2025593020172521
  0.5993015555924467  0.3985000601219822  0.6000304954488196
  0.5997880321459862  0.3987440038474394  0.8005825128035973
  0.5999980696165625  0.6002214949769512  0.0014388413177977
  0.6014050378607639  0.6012407790933002  0.2018529672416455
  0.5993823155952007  0.6007225179846077  0.4012878420748829
  0.6001623502412721  0.5997059358193675  0.6001099557378269
  0.6010511948570715  0.6005720444676106  0.7995722349251668
  0.6001724462882670  0.8011050896099114  0.0009430689652801
  0.5998107346366326  0.8012256108531709  0.2003843625461398
  0.6021518179553719  0.8002876043507923  0.4002820536774250
  0.6006186997768349  0.8005382737666348  0.5999723569238642
  0.5997759208017940  0.8007003538269056  0.8020009268208813
  0.8006699053637217  0.0023550486227982  0.1990973002179799
  0.8005230138366328  0.0012795209511809  0.6013620607696281
  0.8004547275592723  0.9962585244808835  0.7974155959844260
  0.7996998308652605  0.2059167921473295  0.0040786426105865
  0.8016666327057497  0.2018069977166183  0.2026235355311019
  0.7995036094518021  0.2059296046872967  0.4004851040304280
  0.8012842568826469  0.2001020300648824  0.5982964475593634
  0.7991974554472470  0.4011660005398945  0.0033217200007758
  0.8006169847579220  0.3997436594459493  0.2020087403526025
  0.7967804625047611  0.4026447816791967  0.4007390292251584
  0.8004874429378972  0.3980949836585990  0.5988806360993539
  0.8002739022001630  0.5997371709195625  0.0014906342368040
  0.8004963858860368  0.5995377962493295  0.2016385026864091
  0.8010061835367538  0.6014903972317583  0.4005803416587014
  0.8004942700451603  0.5990893454469839  0.5996829548250590
  0.8008223048193255  0.6011538241704575  0.7999651196092837
  0.8012035709487313  0.8019591565749514  0.2001393481972729
  0.8005432219585997  0.8000469228635235  0.4001098902067254
  0.8010824377566087  0.8010048308296707  0.5991700222947499
  0.8002800148131221  0.7991984756845641  0.8008966313297976
  0.2011506630186072  0.0003160817060575  0.6015279554835679
  0.1989833527502074  0.2000088126990973  0.2040542504966501
  0.1992840971702591  0.1991095791505407  0.5963588257845588
  0.4003114280603538  0.9998274236818133  0.6017977708232131
  0.3995659035294178  0.9998735521887006  0.8006521141410199
  0.4003827283876353  0.5986141226094199  0.4007220435094999
  0.4004162371065564  0.8003877332703310  0.6023151907460559
  0.5993335977105032  0.4018232088098741  0.4008169357289852
  0.7999248972790394  0.7987263747552511  0.0006937442043542
  0.4008408457495549  0.4005183068868732  0.0013777835940532
