Ti V  Cr W 
 1.0000000000000000
    15.4464656596279237    0.0026393324307650   -0.0051499977500449
     0.0026392792308168   15.4360610524716844    0.0041620633854494
    -0.0051482900175055    0.0041619794273236   15.4439029048304732
 Ti  V   Cr  W  
   3  99  15   7
Direct
  0.0002933621109571  0.0001241082560929  0.2027459622687470
  0.0072663410646882  0.3998666489380650  0.3997185055122731
  0.2037869797812163  0.2089408573955561  0.0023599969424250
  0.9994274194195936  0.0000940565504546  0.4066410061026677
  0.9975894328006224  0.1976909099896825  0.0010519079886388
  0.9987424305143524  0.1976423172649635  0.3982427517100340
  0.9983012996641462  0.1965625722239791  0.5982746338367284
  0.9999698284309273  0.1950863923993540  0.8004328962180056
  0.9992040029132455  0.3970959736390547  0.2010486403195119
  0.0003862361947758  0.3977870349711071  0.6032851771464816
  0.0004726639520831  0.3974163229506948  0.7991457455365449
  0.9992455839518204  0.7695933946475588  0.2000732546817685
  0.9995056121238426  0.6013900624618123  0.4041162911425430
  0.9992561601070435  0.6014123424548116  0.6011359941589439
  0.0005933259715633  0.6011890809428746  0.8003517376460101
  0.9988024624905577  0.7984275141717662  0.0004040880665359
  0.9999586083652203  0.7989874335620024  0.3987148690594060
  0.9986232922575100  0.8040681236748759  0.5990140221516613
  0.9995611912605118  0.8045519868459130  0.8005455976244030
  0.1999272590409889  0.9991943726724642  0.9994325308605242
  0.2007207656402564  0.0008995105647656  0.2000224241709424
  0.2006437031740143  0.0003221482391864  0.4001105116564173
  0.1987529955842389  0.0005025212946490  0.5992264029656205
  0.1980918862865781  0.0008111389074730  0.8005156661412490
  0.2002011047158477  0.1994050246137358  0.2020019805177340
  0.1994560444464256  0.2004614605000147  0.3987648593125896
  0.2001877675908639  0.2013248886481092  0.5991803297278231
  0.2003716881372270  0.2008459348287686  0.7986607758099622
  0.1978920245882619  0.4017359790386950  0.1960361319650295
  0.2067186334618916  0.4006315729455948  0.3997230941520332
  0.1993649939111460  0.4002845322262089  0.6021615067329137
  0.1997874621481184  0.3994602811668838  0.8048149710098355
  0.1990560916243430  0.5975467845050817  0.0010555565203059
  0.2010586666235500  0.6008218611155419  0.2002562639805237
  0.1980698750467608  0.6006843687359015  0.3982949769945747
  0.1996952556750256  0.5998270746772844  0.6005297943316399
  0.2002405411870375  0.6002406945265395  0.7994877077637572
  0.2006716774595022  0.7987146678597994  0.0007321283435360
  0.1993294028827589  0.7985247010377937  0.1988170810685432
  0.2013091026068280  0.7998449856910435  0.3982859830621270
  0.2012873188422372  0.7994721635868305  0.5988536148474325
  0.2010032167344211  0.7992900298655522  0.8019023731038353
  0.3988726377190016  0.0001443520981261  0.9986261723364938
  0.3987577585186592  0.9998311987103143  0.1997195661927360
  0.3981902462344847  0.0008523781834728  0.6003033079225896
  0.4031975072936135  0.1996661168817895  0.9993424581444363
  0.4019424784308299  0.1987356531192059  0.1998603334429252
  0.3992473006512871  0.2026269533584433  0.4011004415456429
  0.4000740398371007  0.1990734863243705  0.6005305577839321
  0.4003309265891905  0.1997541605817350  0.7998959894419495
  0.3984194611185021  0.4008457611258581  0.9996518338642976
  0.3994163943987010  0.4005042687803932  0.2046481296163765
  0.3997087760282508  0.4003042727925939  0.5973132939715612
  0.4003116092401958  0.6003108716749410  0.1993441440166973
  0.3997739281497479  0.6005606160028063  0.6000431109566472
  0.3994178190335398  0.5995631880003004  0.7990304687004661
  0.4037521087949455  0.7998180482340704  0.0003678766473194
  0.4001138668170823  0.8008369827105201  0.2001952626442864
  0.4005469227450111  0.8012510408924345  0.3989230397519073
  0.4003666786147501  0.8010710964945696  0.5993048535769174
  0.3991656665382055  0.8007433950001219  0.7985146518721754
  0.6007003261152773  0.9964733168263540  0.9991402475263756
  0.6002510076360468  0.0037310749059055  0.1998709197196627
  0.5999075434420005  0.9990854369910367  0.4005443198908898
  0.6003760576966565  0.0015543785823708  0.7987134408446653
  0.5996747971959079  0.1976891392277085  0.0044441062088645
  0.6002614989939883  0.1980178142991204  0.3958413442516283
  0.6000281303263463  0.1996027240034077  0.5996688479525583
  0.5998181216492317  0.1988672809770699  0.8009806703556789
  0.6009121554927337  0.4020410252770651  0.9995044585390580
  0.5984271440351798  0.3950966908844543  0.1989629655931506
  0.5960887295013453  0.4015529614019587  0.3999436660324820
  0.6004564388321167  0.4003236840967805  0.6006542860646584
  0.5982259694285685  0.3992858484748356  0.8003223160732386
  0.5981390559731744  0.6046373878179541  0.9997575286278441
  0.5995263655784668  0.5994290248616777  0.2001542475810991
  0.6000529634796464  0.6021066358667441  0.3991503862313491
  0.6001923668812883  0.6006192131229263  0.5999053756670168
  0.5991163594731967  0.5996033652624373  0.7988553854286460
  0.5991556577193264  0.8013349424792257  0.3998532910024072
  0.5999993692423531  0.8010344517496930  0.5999807547240690
  0.5998065839304595  0.8018025623492201  0.8015514802137229
  0.8012534895263747  0.0010613380682332  0.9995479766927886
  0.7998363853275051  0.9995239443327495  0.2003453733025769
  0.7996279465597202  0.0004086020855232  0.3998533456006122
  0.8032092587799179  0.0007562451851202  0.7992830071735658
  0.8003479259918074  0.2040323850666868  0.0000601975605179
  0.7987573470497019  0.2017549991717973  0.4000325962990908
  0.7988630422471885  0.2014168467487427  0.5987774042573460
  0.7988706217233887  0.2001229514338122  0.7998733415343500
  0.8019211880499947  0.4023348187997892  0.1971147224431770
  0.7976934199765119  0.4002947798606765  0.3996058860035782
  0.8000831357851479  0.4002278377495481  0.6004981618972869
  0.8009277633944420  0.3994249147541252  0.8041310485248339
  0.8019877235394831  0.5962274528141916  0.0020706795238930
  0.7973690245861506  0.6009209478471086  0.2016218064616496
  0.8000720840363673  0.5998329823831083  0.5997892947348894
  0.8006208571898691  0.5998109511954286  0.7986479946300681
  0.7961222387444554  0.7977919709861834  0.0006230626755755
  0.8018840754435773  0.7987864692711445  0.1990401605788175
  0.7986024087352904  0.7994402939650921  0.5994615154634522
  0.7996621386366435  0.7993716994883709  0.7998488925374315
  0.9999876224153069  0.9999028949695256  0.9966444536916385
  0.9991027431605588  0.2003026210509276  0.1998504280173365
  0.9997362510170327  0.4002071160774031  0.0003651837687422
  0.9997917429396816  0.5994411446308983  0.0000529569313582
  0.3997891377382858  0.0011988402658714  0.4003626498504188
  0.3989513532100540  0.0003199921768902  0.7994507526103862
  0.4002646416006190  0.3999014244096073  0.7987518589965178
  0.4000916654665866  0.6003494968091848  0.9993984985271216
  0.3997728907298820  0.6008680907749597  0.4000965381603994
  0.5993474548013410  0.0003213455969232  0.5998073122590694
  0.6003400864098315  0.8017153540422582  0.1998001270747036
  0.7991942030430401  0.0003320556473054  0.5992508396594979
  0.7991403384057815  0.2001429818455917  0.2001830678533620
  0.7995543567430212  0.6004439945972998  0.4000548680538495
  0.7990398667465733  0.7997427509313528  0.3994953507761917
  0.0032720825647641  0.0000651518024872  0.6026198447762104
  0.0006446967079332  0.0001686357676195  0.7928089382342683
  0.2014506014218727  0.4026531743600984  0.0017700029514343
  0.3999347241032444  0.3982567172573199  0.4008036347157071
  0.5965948269459213  0.1985651243194741  0.2003527721607221
  0.6004610412025069  0.8017241835026152  0.9958336150957077
  0.7966449826818948  0.4010481625121325  0.9998064462415643
