Zr Ti V  Cr W 
 1.0000000000000000
    15.4863295998759050    0.0024137293282322    0.0105674120120943
     0.0024156779473548   15.5040449564505511   -0.0174543962439357
     0.0105707746262879   -0.0174578174046017   15.4782021514271442
 Zr  Ti  V   Cr  W  
  10   1 106   6   1
Direct
  0.9969420644076946  0.9696191496449053  0.7593095141392567
  0.0086794717415399  0.2117488017859082  0.6052898632744435
  0.0001924756726512  0.4346902219099815  0.0370946660465784
  0.0039375134574615  0.5760879801051962  0.2212076065277082
  0.9622600546116779  0.7889322735498959  0.1947232928307448
  0.0040270769011375  0.7997126011512778  0.5978724800845916
  0.1913353706760915  0.6266084519574536  0.5975612105157911
  0.3586974004632455  0.8029353098268830  0.2007361952529122
  0.8330372847464890  0.4304870901285242  0.3981715841197859
  0.7509032542206745  0.7911013610841626  0.1991387232271966
  0.1897992476747882  0.3882244023158848  0.6012525054420806
  0.0009170610547973  0.0070823659298019  0.9979755047480211
  0.0044721878875145  0.9982088783790409  0.3939016031050407
  0.0019749220126432  0.0072137292865896  0.5718850076497216
  0.0011105183499445  0.1990346089853369  0.2017645459508720
  0.0010441407131694  0.2005137272365290  0.3980117742518898
  0.9998225633802036  0.2042271669695011  0.8095969962805112
  0.9989841739281125  0.3859772539211617  0.2276457909548331
  0.0205970723620886  0.3994011334978025  0.4099774430561851
  0.9928647859005393  0.4095357391400209  0.6002564712965253
  0.0011564485866840  0.3967392657083813  0.8005800938354611
  0.0007017396633757  0.6239630856427590  0.0134117426054376
  0.0067306009623276  0.6031878957475751  0.4186227243647488
  0.9903184440172988  0.5982381049974692  0.6106051370036371
  0.9995290031715189  0.5900340868103333  0.8107945271154381
  0.0016897917111771  0.8126108975262848  0.9912864858188364
  0.0027538408957593  0.7988975981197001  0.3958746733170444
  0.0024088482510355  0.7809028388307778  0.8024988178367974
  0.1997939733430121  0.0021617605430762  0.9970372021147352
  0.1997054882719683  0.0010131948223374  0.1989298450681939
  0.2020238228262749  0.9987061458447276  0.3967639682146232
  0.2021359823126494  0.0038943622629055  0.5980041120637067
  0.2009773135085002  0.9985500790256763  0.7992003171453117
  0.2019971041122718  0.2007202313746002  0.0008136875268188
  0.2009893575748568  0.2000217499146181  0.1995783974054006
  0.2042419187973278  0.1979894307142387  0.3989009599606215
  0.2030572824606280  0.1981538557572624  0.8013666963467572
  0.2027345478238134  0.3999708732595160  0.9995408279645449
  0.1973422613325185  0.3988535507000781  0.1984626159036407
  0.2060580765122631  0.4015689065525035  0.3979253633016975
  0.2002133079663785  0.3983334848232855  0.8031137585878998
  0.2005233140093494  0.6019435531614358  0.0014134682259338
  0.2065382125312368  0.6006678249176347  0.1992459431578162
  0.2023438347376626  0.5997265832075208  0.3933084254087226
  0.2003844645426588  0.5976125707516595  0.8047784357506341
  0.1997528151452844  0.8025075112119375  0.9997980033911816
  0.1718894790411398  0.7967903995347323  0.1977301672019243
  0.1992823652506081  0.7995832359820464  0.3995617951084733
  0.2096076452060782  0.8145215758940259  0.5991944165561326
  0.2007272410992238  0.7978656971570771  0.7982057211617840
  0.4008125283982337  0.0002397046696374  0.9987339650825660
  0.4015037267310974  0.0039669360527204  0.1987926715834188
  0.4000744081373392  0.9984410134009640  0.3994768450646169
  0.4044312145321184  0.9994990649320445  0.5982285194070812
  0.4001536135358503  0.9987147620860645  0.7970047965386401
  0.4011648454464689  0.1999799792647547  0.9987805516182894
  0.4005426318646087  0.2004807925967171  0.2001365449739284
  0.4016872490626158  0.1991636716735902  0.3995515790801312
  0.4049290162427082  0.1984040098340872  0.5995710964785992
  0.3996297109309089  0.3998553442956342  0.0000694142382936
  0.3988181980664050  0.3973098735848895  0.1993520121009052
  0.4005711565017430  0.3989381948544873  0.4008655979487716
  0.4003324127092976  0.3975828307500808  0.6007548668678567
  0.4002267007852643  0.3991927395127646  0.7989120687646818
  0.4016161065318475  0.6004177346974171  0.9999248907415973
  0.4036292262718729  0.5935364650132159  0.2004405464977722
  0.4012921010196201  0.5994049780237197  0.4003816913787378
  0.4005549211193600  0.5968790912746540  0.5988392989827540
  0.4000759744686906  0.5981467332584243  0.8002297070867288
  0.3991569829828592  0.8003045952528894  0.9948184956350530
  0.3998709437996137  0.7981210648237193  0.4033081157667520
  0.4018971824206946  0.7999821194508095  0.6003345070623471
  0.4004104409983547  0.7970739083694199  0.7984719502137533
  0.6007865627085061  0.9990186620142163  0.9982380709181344
  0.6002132840882268  0.9962920216167425  0.1994154805601742
  0.6006301112062979  0.9973712029257134  0.3980310291265587
  0.6034179960618899  0.9993433848397144  0.5989172537874123
  0.6005311190939990  0.9971242928199130  0.7991956602419047
  0.5996846968383498  0.1984297538765166  0.0000856520051720
  0.6010696349814437  0.2002854897444144  0.1990520899118284
  0.6023836852664020  0.1988315661584354  0.5992962286344878
  0.6023876410803484  0.1981835787555862  0.7999575215127456
  0.5997372500318328  0.3991014297988261  0.9991194478410226
  0.6009805952558775  0.4002164752546711  0.1998800184824300
  0.6006722470736497  0.3982919274598432  0.3983165324198018
  0.6007662376551288  0.3990918186005439  0.5981371518707327
  0.5994960853050320  0.4000970160492376  0.7993266749606992
  0.6019975278479004  0.5999100001487913  0.0039602024937448
  0.6041079753527552  0.5987353918202094  0.3957563405922067
  0.5998228012439483  0.5996671105504399  0.5969769462829754
  0.6007503755547055  0.5987837592386355  0.8013797599726744
  0.6011796058208377  0.8004371143028618  0.9983025167030490
  0.5645986392378509  0.7902632803859050  0.1988969924508571
  0.5992714412355921  0.7992087378387903  0.3990568888662860
  0.6009073123663912  0.7989070974754637  0.5988323441026637
  0.6015967578703837  0.7984714452866272  0.7987625222273386
  0.8001828609047605  0.0008342775265611  0.9672617627888790
  0.8006356671993182  0.9978440001226986  0.2003701467932609
  0.8010588663087750  0.0005352705654716  0.3990891652442827
  0.8036388009354242  0.0010864366413915  0.5969139805958373
  0.7996735212543166  0.1997760253656840  0.9987787683961481
  0.7991361316554337  0.1995176423111724  0.1988173434649194
  0.8009711092404982  0.1980592562665930  0.3984705664093411
  0.7993273280318126  0.2015774139304526  0.6000537391373155
  0.8017353506168612  0.2015362662769028  0.8005819663887045
  0.8029051709108268  0.3978143035782780  0.1951632265270471
  0.7973794900401997  0.4004030874255079  0.6004356051836522
  0.7993200232890721  0.4003891950846752  0.8003603732596193
  0.8034270283208190  0.6003244569960057  0.0006137567334102
  0.7938539436987903  0.5935655423974080  0.2080961581596778
  0.8031016225132597  0.6177205205144903  0.4035314284758010
  0.7966437916377402  0.6004925044028664  0.5996344760093354
  0.8007339580821524  0.5986913432636590  0.8022224602285639
  0.8021098269551278  0.8022506494743904  0.9954715625560209
  0.8071432976955449  0.8052953286277699  0.4013947121609359
  0.7960630108381400  0.8011905250721427  0.6009604417620684
  0.8020428260187576  0.7949118979274743  0.7983034093681891
  0.9993296741737787  0.0022690887420633  0.1973221162085760
  0.0012912052309432  0.2016775882214447  0.0037210066608508
  0.2102300222524974  0.1951904033548037  0.6002449501416853
  0.4025453617433493  0.1993916235664662  0.7999022814050061
  0.6006946189898468  0.1982137511201220  0.3986664014262946
  0.7975972932525849  0.3998568191733318  0.9985857961297848
  0.6010963281566583  0.5976368626808275  0.1991836794848897
