Ti V  Cr W 
 1.0000000000000000
    15.3660384737921660   -0.0005376361430344   -0.0071098524204557
    -0.0005380862180412   15.3658728178464994    0.0022583698723901
    -0.0071112580112583    0.0022581408279047   15.3780529877332786
 Ti  V   Cr  W  
  15 104   2   3
Direct
  0.9974138088942296  0.0031256579383579  0.4001593230873957
  0.0024202676166310  0.1912914148859789  0.2013849144465976
  0.9887646236843457  0.3943974495101178  0.4028122148857586
  0.9922709837990760  0.6035029994917750  0.6017675736171446
  0.1922152390466305  0.0009798637324139  0.7966475525483019
  0.1996511541276858  0.4012544621029782  0.4000732976716792
  0.3983512040796708  0.1996353153730089  0.6068339648975846
  0.4050573022535236  0.5946005915054221  0.7931774863868537
  0.6110366934393255  0.0012901563648544  0.7904293223940042
  0.6098716690184310  0.8013706445830407  0.2021884778921470
  0.7923586208360395  0.0023717603388645  0.6031112598557966
  0.8029500294718385  0.2069632518152237  0.4050197164992969
  0.7998062651766097  0.3942281535915994  0.7972657595991417
  0.8013096930516427  0.6060162751160784  0.7939815392066744
  0.7989329742030561  0.7919542207972339  0.6013461602920969
  0.0009964999341527  0.9980429383735030  0.9963023658439407
  0.0005433820584302  0.9962975931472653  0.1964810329923800
  0.9998829188205930  0.0011062893775056  0.6058327840184525
  0.0011420504234654  0.2003454659259093  0.9974348269558950
  0.0025912461510506  0.1989146256618617  0.4054655152297658
  0.9989754100071525  0.1995093801175341  0.6026287287291170
  0.0023955171121929  0.1960524274062006  0.8005161963882588
  0.9991604246849779  0.3994317520694020  0.9994912451924919
  0.0003660407322186  0.4009824479542296  0.1988409250222207
  0.9970479212739859  0.3988256433529032  0.6048782625528454
  0.0006340576491057  0.3994069886555997  0.8007455081576693
  0.0016987970561528  0.6012393429073934  0.0014888120496606
  0.9990185631791016  0.5983897959759482  0.2008705435532867
  0.9987830732501379  0.6027865263440650  0.3980373310306939
  0.0018355317363100  0.7989861112624463  0.9999287631043986
  0.0000412460618537  0.8008713503119721  0.4020174772232902
  0.0009072903053151  0.8033555131417776  0.6012301179767833
  0.0019795884259650  0.8042361641192926  0.8019095724640429
  0.2004370259362541  0.0003273976378291  0.0019874107349845
  0.1994071800409488  0.9996473677232380  0.2003596823360772
  0.2021580307451079  0.9996183615768632  0.3987985972288335
  0.1986713550143735  0.0003199116247554  0.5943382182359274
  0.2016914110166819  0.2002763950005458  0.0005434361264203
  0.2033076401620884  0.1992182013570037  0.2006299743193386
  0.2001631718527670  0.1981382870236049  0.4004065180738050
  0.1971675543636121  0.2009898365385889  0.5987866299793029
  0.2044626082649622  0.2032744230311739  0.7979223560002499
  0.1998827182984788  0.4017865242561092  0.0005234186651992
  0.1985384875981020  0.3966881270675635  0.1995270545951763
  0.1968953375974757  0.4011488324799218  0.6008972738792794
  0.1992709971658667  0.4006738009175544  0.7999294174238004
  0.2008761891821836  0.5991925513962920  0.9977999769492590
  0.0349346511874901  0.7654281698982632  0.1999384826726218
  0.1973304955129328  0.6009222337670180  0.4018785028920128
  0.1981677653621739  0.6003734734546214  0.5995715130302262
  0.1982355568304905  0.5989367014251809  0.7984467006640374
  0.2048140887484871  0.7982811453653489  0.0000597283792525
  0.1988213338635713  0.8003934698101313  0.4001331612662697
  0.2009568803662889  0.7998193901076800  0.6003247268368658
  0.2017729435705675  0.7976674701088805  0.7983347984470744
  0.4018046299569091  0.9958580878035366  0.9985937075629238
  0.4019545687909948  0.9997512782079427  0.1991718672637106
  0.4005544266365886  0.9996357455345810  0.3988401000378353
  0.3988870226215291  0.9976489734174213  0.5998271343627041
  0.4009976001074986  0.0038422512677578  0.7979510000466422
  0.4018694600742252  0.1986591630680461  0.9978557125846138
  0.4009212340924578  0.1992198239903011  0.1983959743203223
  0.4007163697805097  0.1992998325059757  0.3997664085088413
  0.4002940605260261  0.4017492747970169  0.9996166143531470
  0.3990016537070573  0.4005436896753867  0.1990655993157676
  0.4000592407623498  0.3998626266204524  0.4002151063482926
  0.3995285760065084  0.4032678106478742  0.6005915484389768
  0.3991280271836823  0.3931946085769717  0.7995287082242150
  0.4001441808926897  0.6033356095423373  0.0012914134974633
  0.4025547394486948  0.5998765580998926  0.2003380837214565
  0.3979440263990978  0.6021064274045479  0.3977092188943220
  0.3989031429579809  0.6009069787323570  0.5975457996527008
  0.3984582333635601  0.8001050650771363  0.1961621937247330
  0.3992823633138769  0.8012317134888348  0.3990102765115113
  0.3989559192203539  0.8002054351435388  0.6024502712291115
  0.4007657300835954  0.8040151116040233  0.8033010687699840
  0.6033723113533964  0.9999354050470965  0.0003075702277590
  0.6020558461517582  0.0032858991942954  0.2006426006282303
  0.6004621372338412  0.0011949788499406  0.3996368592322470
  0.5965589834452720  0.0001218041039501  0.5952346063735866
  0.6007978664235497  0.1997429988207989  0.9989742525317745
  0.6010426955061193  0.2007955330855705  0.2011291491829764
  0.5984260632639662  0.2007314767319216  0.4021185007145556
  0.6023647213538549  0.2005355074111134  0.6000928330389445
  0.5980017773095394  0.2022082179370653  0.7990086260187643
  0.6002559658026629  0.4009202080758169  0.9994858447948374
  0.6004066276491333  0.3987363425482842  0.2001302590737796
  0.5976905126186626  0.4004257067950353  0.4007251721541655
  0.5997802120465767  0.4004393102824187  0.5994046901928562
  0.5986317183586761  0.4005681700919794  0.7988113170840845
  0.6005624848810452  0.6000357030955281  0.9987778909295781
  0.6019658399770613  0.5971217786258045  0.2014158314892179
  0.5989835985813483  0.6017515080103180  0.4010270083024241
  0.5987520634722869  0.5989890277854492  0.5996284416371083
  0.6025628720654964  0.5990672890632842  0.7981527710977977
  0.5976991796435993  0.8001697850953192  0.9962735991625881
  0.5996043663329272  0.8009500106460260  0.4041380104464816
  0.5965159780454339  0.7993496157466292  0.6012319047890088
  0.6013341467713513  0.7991561433906182  0.7983304050765113
  0.8008537869110695  0.9999945488554153  0.0024149434001217
  0.8026825572041066  0.0015417770191630  0.2015306331639312
  0.7978173696194191  0.0000289177980610  0.4001428841239550
  0.8067829995244429  0.9996850344855130  0.8039842106481101
  0.8000497132041496  0.2000293916952804  0.0006157244756368
  0.7993631718989762  0.2006372394834657  0.1994166704905869
  0.7999670473904973  0.2026386310437692  0.6043932820658572
  0.7996540498637464  0.1965049132296461  0.8007346187790780
  0.7997620453445313  0.4007350755004297  0.0004165667876407
  0.8008215050839913  0.3994335877334124  0.2005066899542977
  0.7940793498486141  0.4047116462197028  0.3990991178279023
  0.7985898600543702  0.3980782511177277  0.5961390287676155
  0.8000835662022096  0.6006768840795654  0.0003565036458119
  0.8014500506848304  0.6003116533250189  0.2003044515026943
  0.7987089572024678  0.6020139898271126  0.3992167618389088
  0.7970563173383263  0.5955163450786428  0.5968409403470442
  0.7994176518882563  0.8001888388324049  0.0020022361255933
  0.8033359917621329  0.8007253500329022  0.2009510278962476
  0.8001752587124031  0.8017901938465504  0.3994337061551610
  0.8009828424082689  0.8031209379578488  0.8030312125061677
  0.0024556906396822  0.6013609890217132  0.8032527806412268
  0.1997010301866199  0.7972741488457213  0.2007031330524568
  0.9990365012270120  0.0011712058413093  0.8001208458454639
  0.4009253655090657  0.1982921553813438  0.8044631142824717
  0.4018057911221838  0.7993488713414416  0.9992043560495284
