Ti V  Cr W 
 1.0000000000000000
    15.3720038313806135    0.0023998420144863    0.0001449001601191
     0.0024007571799185   15.3633006247875361   -0.0006442210894229
     0.0001450310074229   -0.0006449824026597   15.3697544548857330
 Ti  V   Cr  W  
  15 105   1   3
Direct
  0.0051239277832456  0.3949281643668181  0.6010210375944783
  0.9918011535587308  0.8000676374361404  0.2034979403077019
  0.0087965949641638  0.7990400832939304  0.6023297781443877
  0.2012616101488563  0.2043304533825498  0.3925719624928928
  0.1958209343774764  0.2043381216395296  0.6041235711264128
  0.1982838225003149  0.3951683875227625  0.2026988181587904
  0.2034523631174930  0.7974743102074358  0.2012267788794755
  0.3749237463217310  0.9999536971361042  0.8016311380714165
  0.4016592511675295  0.5977933458357049  0.8013831810537198
  0.6002992647241057  0.9953207011935234  0.9978834100409747
  0.7943617201455341  0.1986138811861315  0.7953945650594966
  0.8001002665452600  0.4040576574686804  0.1936112463706858
  0.8021616082201037  0.5930049063550830  0.0034680257938081
  0.8069079307224237  0.7974168905579534  0.3914260304666694
  0.7985410964262279  0.7966268392884448  0.6041595009225206
  0.0013047051779869  0.0011493165565870  0.9995212188848104
  0.9987144585719399  0.0012727406797581  0.2014678544970420
  0.9980655849112952  0.9999977779658907  0.4003806712596525
  0.0013582584414033  0.0008658363000762  0.5994050267221228
  0.0003802145844154  0.9996542734418437  0.7985443227288606
  0.9992121927771668  0.1995851982581883  0.0001635463024406
  0.9990478663628444  0.1995053573459602  0.2008028221073813
  0.9978306635380014  0.1969463874327408  0.5980637857133201
  0.0029276024868801  0.1983298639700658  0.8002020525259025
  0.9972764653663468  0.3989890038955974  0.0006216485961494
  0.0002703016785408  0.3991272825749569  0.2009339828771138
  0.0003180118518760  0.3981835864425280  0.3978125548397752
  0.9996769979390758  0.3990712271234212  0.8018378776301576
  0.0026797282147824  0.6002137988008452  0.0018552154734026
  0.9998910659533655  0.5974751291339897  0.2015350072247115
  0.9998737136683087  0.5988924596797310  0.4005608746030830
  0.0006973119163165  0.5993878946662679  0.5988568764716636
  0.9987552327763470  0.5999121118462296  0.7994291119069421
  0.9999637957960811  0.7992471873741365  0.9994969084075558
  0.0032902523678413  0.7995694105950318  0.4011611864569970
  0.0010702066725424  0.8011394658788704  0.8025269498143941
  0.1984412450956781  0.9981043841440862  0.0022679108986743
  0.1977604726889249  0.0003479188566754  0.2007716806902561
  0.1992489124516961  0.9987442375675939  0.3992216040626919
  0.1992981973641620  0.9996031039048231  0.5957566197393823
  0.1990262493953443  0.1336219896224145  0.9329213694071909
  0.1997066999908013  0.1974494828354844  0.1983976617335974
  0.2003941318278234  0.2027544658462488  0.8009609583683468
  0.1990822608794206  0.4009751489997414  0.9996329159716379
  0.1993731141029032  0.4027950174574192  0.4052737447021191
  0.2036383835569196  0.4042633219167552  0.6024149290644339
  0.1997582348758399  0.4014934433781261  0.8018567548438910
  0.1994165633628310  0.5994690461513827  0.0012572866047635
  0.1990898387868105  0.5998104291179602  0.2019871659955007
  0.1984817741288556  0.6007915520607253  0.4005587621686492
  0.2004460230361766  0.6021374536211535  0.6005208051923951
  0.1970370251862617  0.6002132819860637  0.7999272677037541
  0.1993403190067306  0.7999764981291491  0.9975115670358395
  0.2007413857233775  0.8000190617183932  0.4033649382041303
  0.2046621465013587  0.8010185312342966  0.6024773752056601
  0.2007278328256927  0.7972633579109699  0.8002203693829341
  0.3954275552906285  0.0007653325573798  0.0042520033178037
  0.3985062579947498  0.0003116978611835  0.2012934575911232
  0.4027493340311042  0.9999793152002354  0.3997791532509082
  0.3978323256478487  0.0007803810570139  0.5977253614441882
  0.4016965352708451  0.2002429236247785  0.0003262077948500
  0.3994778768567623  0.2006707174859247  0.1977511730451463
  0.4021377126019246  0.2009908095357441  0.3996590720875208
  0.4015304269879774  0.2009828886309980  0.5993437508203340
  0.3994586657037061  0.2020299961499876  0.8006054296075845
  0.3989615393696310  0.4006063587009734  0.0010885925289658
  0.4022352168673229  0.3999362270096770  0.2005946106262372
  0.4003200196100212  0.4002481466829940  0.4000245361520462
  0.4013660121667240  0.4013597338659314  0.5999942734589334
  0.4002437327449947  0.3997277181163674  0.8008445395920901
  0.3995014945847521  0.5991884542239981  0.0036840946804568
  0.3995801442880831  0.5996036800287273  0.2011927438595792
  0.3997483508193760  0.5999943379192835  0.3992912291497357
  0.4008097719942131  0.6004795555671085  0.5968048572950518
  0.4008843576309674  0.7995506244399784  0.0000814771873887
  0.4013491144950175  0.7995805407700854  0.1993131025162728
  0.3995238838408997  0.7994549077810453  0.3991522298847385
  0.4018389288194537  0.7996262267315952  0.6014314265536588
  0.4004727474511320  0.8009183003163947  0.8009563199209950
  0.5997365009897950  0.9994746709930605  0.2049653337432167
  0.6004852414720764  0.9996406480008315  0.5953391436224024
  0.6049819135507934  0.0040684211911013  0.7951154873179557
  0.5999510379194410  0.2014819134327826  0.9946526590712061
  0.5994976960216232  0.1996324766816913  0.1979342023369137
  0.6008606141504741  0.1969472849814537  0.4006426055516120
  0.6011884471883524  0.2004958588588559  0.6035162818727147
  0.6048110571879672  0.4011973655155475  0.9998139355196142
  0.5978480092330050  0.4007227765558935  0.2001627806139332
  0.6010690765237802  0.3985797889023663  0.4005103843365349
  0.6011616871070715  0.4009614087644680  0.6000169316675623
  0.6006467707244186  0.3961922805722837  0.7995417765835781
  0.5975144655947081  0.6003675315332959  0.9996793568514361
  0.6002122541815406  0.6013098444520134  0.2018064695270100
  0.6017124131978074  0.6016883907572887  0.4002664692569863
  0.6010349915904785  0.6007134126592077  0.5993083158227492
  0.6030606873511458  0.6006466327345404  0.7991116117957980
  0.6003413986900331  0.7978695323846183  0.9985155523571356
  0.5989219792529774  0.8002304445359018  0.1981382843346203
  0.5991755824967953  0.8043571646500883  0.4000490493229482
  0.5993663888084068  0.8004668788237587  0.6001375173243061
  0.5993635477731256  0.8032196365535696  0.7999043219101352
  0.8033464413278547  0.9997766431960576  0.0001537191576593
  0.7994931309881343  0.0001566062980912  0.1988469809116560
  0.7967551336714884  0.0013619228495039  0.3990958018815552
  0.8027814016125387  0.9998880521925454  0.5975888337483440
  0.8019960192196086  0.9972534436888678  0.7987613986770750
  0.8001872048641703  0.2026288778660093  0.0013395968218512
  0.7986566769064186  0.1988745934647486  0.1986041085161364
  0.7998267398653095  0.2017163747291565  0.3975434041937613
  0.8006324696613124  0.2014156902586518  0.5969535502911753
  0.8006124352625513  0.3999712123305715  0.4007132750935839
  0.8002281334706784  0.3998874092692168  0.6002891963189020
  0.8004922443529134  0.4028367192972344  0.8016486146830641
  0.7993030337434753  0.6036241450929329  0.2034085309832190
  0.8015543200454056  0.5968282792498918  0.4003197607648508
  0.8018937246031793  0.5972560036671947  0.5993543674348869
  0.8005491355888161  0.6007145858541778  0.7979039821554490
  0.7997806732572310  0.7998086744856878  0.9987728206904103
  0.7955951756474878  0.7997135737169331  0.1939812400616150
  0.8005772050917123  0.7984206948840689  0.8026971655672211
  0.9965530297827824  0.1996825108665993  0.3992007800505336
  0.6004047753167145  0.0009334786253423  0.3996953450585066
  0.5940877518397103  0.1986682796200966  0.7981671567287452
  0.8009054104407903  0.3985008908855400  0.9960665449741535
