Zr Ti V  Cr W 
 1.0000000000000000
    15.3185418189025757   -0.0058579337440910    0.0011531853961578
    -0.0058580518235424   15.3152820885503385    0.0003427542276612
     0.0011540796390519    0.0003423374486165   15.3446139054441577
 Zr  Ti  V   Cr  W  
   1   2 101   1  19
Direct
  0.6017289529723162  0.9996677399694565  0.8008283509213215
  0.2004681380833830  0.7892681673399596  0.2098242718305462
  0.3993252164820419  0.7993763387408956  0.6101806899692036
  0.0001243405162373  0.9998362994128384  0.3960273463593870
  0.9986497773251937  0.0014198425209477  0.5985793806166869
  0.0008437169239948  0.0009313646484337  0.8037066467969758
  0.0036837708716629  0.1988307784992937  0.9985729432345292
  0.0018376954224220  0.2042653941410923  0.3999282793618891
  0.0038068826066780  0.2022134107251321  0.6010358777866867
  0.9996806482793227  0.2067101040213612  0.7996319639683854
  0.0000144875810870  0.3989325521857868  0.9941093777241098
  0.0015681573762341  0.3970693512165600  0.2042583838174374
  0.0032558065878399  0.6033152612660917  0.0005220479378335
  0.9959048659161839  0.6007604510737047  0.1987673634123644
  0.0003402119528008  0.5973225489831118  0.3992608861780806
  0.9992318122524558  0.5973700396668922  0.5987030018426730
  0.0005366226754024  0.5983352172711703  0.8002019859436946
  0.9996316066606751  0.8049993288318124  0.9976665564023419
  0.9993186447561783  0.8021733112004422  0.2011622454836772
  0.0023162307403868  0.7996765750927431  0.4016939387926706
  0.9998177281557756  0.7997825586618974  0.6007958344266575
  0.0010500066938891  0.7990421009743246  0.7988220237507083
  0.1957533831748255  0.0014738193220472  0.0033329736851537
  0.1957943521758725  0.9990927853702655  0.2030160287455890
  0.1997671036558798  0.0002553509300259  0.3998916147063293
  0.1951086861748081  0.0033875536441190  0.6003008431030981
  0.1972778518394301  0.9995073966335252  0.8006708638360301
  0.0288258774658522  0.1989922210022965  0.2002194039030737
  0.2032706653379898  0.1993504118326751  0.4086405499814437
  0.2054938052756033  0.2042957929691201  0.8016033551720625
  0.2025207032131358  0.4006250891891017  0.9989976694299454
  0.1993279813905461  0.3997079889394111  0.3972217648687591
  0.1971881387339376  0.3963814457778371  0.6046947275351001
  0.1982525072340110  0.5913276414505197  0.1954290599471032
  0.2007596045245223  0.6000395418143130  0.3992864314611966
  0.1982110413593479  0.6002697749641537  0.5982079121558094
  0.2002738147177087  0.5984938080958486  0.8057628781983891
  0.2057542245318970  0.7982240998559501  0.4061109931804820
  0.1968922172257931  0.7998817087270045  0.6021083310674448
  0.2052548869300838  0.7996734308732453  0.7994052644656167
  0.3974864631124956  0.9997095183132697  0.0010263150979124
  0.3952623666017696  0.0019290864735382  0.1982277511985189
  0.3999082258652441  0.9948986163215480  0.4004499632854858
  0.3992989771645480  0.0013485144809331  0.6000119554029139
  0.3944994177934401  0.0013179197555168  0.8004019639864790
  0.3967476971569532  0.2002905233176173  0.9947192924241166
  0.4034285960021901  0.1985526572078342  0.1994321767759979
  0.3986784898644811  0.1982681793072431  0.4002461984535794
  0.3967430159339496  0.1982177485942418  0.6059908849685410
  0.4014612568287866  0.3987951003187691  0.1953451843572950
  0.4026300369004154  0.4011818504748448  0.4026172457447311
  0.3993450247906927  0.3999656032928264  0.6029746463130409
  0.3946517099645802  0.5992021837929421  0.9995493864571308
  0.3990695101692402  0.6009185047134608  0.1979392171304189
  0.3997875374916567  0.6032165211125124  0.4003462494489956
  0.3986995228206705  0.5970461128220653  0.6001800917427967
  0.3999706272489053  0.6031061662011831  0.7976565607765853
  0.4028491188272575  0.8015129572408438  0.9969347972838964
  0.4022374926669491  0.7992260525148811  0.2003739107025151
  0.6010253845127553  0.9966109039076577  0.0082510165161884
  0.6036656579648667  0.0015216480008757  0.2024955632950875
  0.5998146176506131  0.0005187154895512  0.3973488123274314
  0.6019024635005894  0.0003226623310562  0.5933911280782566
  0.6002476241392249  0.1980211166292576  0.9995465727021121
  0.5999862340671976  0.2034917007371545  0.1997871615260810
  0.5980060797345954  0.2037683690009290  0.4009658749345170
  0.6002575726965319  0.2002228472569948  0.5987900416428056
  0.5954806040340465  0.2056413226158272  0.7991091168732593
  0.5950890495262039  0.4019141683066276  0.0039544735192072
  0.6017147039358081  0.3998492492205580  0.5957377179535057
  0.5973621072698231  0.4025670659850937  0.7990465023568951
  0.6012543999100312  0.6049328514403385  0.0012895382411511
  0.6044096812308430  0.5957794502845652  0.1999678255276151
  0.5994097378157560  0.5959271277266884  0.3990443656291874
  0.6027596119194654  0.5983570952626319  0.5976530724606122
  0.5999685157135142  0.5967289458040870  0.7997790209641266
  0.6000904611063641  0.7994152276732203  0.1954466077108480
  0.5943192737361511  0.7982284311200595  0.4001793642501768
  0.6018854779076576  0.7986064529729621  0.5996464167944082
  0.5955060784213545  0.7929581429508986  0.8036768206039505
  0.8036772914244861  0.9999056972809242  0.0001232120108045
  0.8047427845865518  0.9997290060513224  0.2008784458920557
  0.8001293322089452  0.9994499920521767  0.3992521295208488
  0.8025566970992557  0.0002371860847852  0.5992867732028180
  0.8053392312980934  0.0013860836706785  0.7994083587481059
  0.7983514575411740  0.2000360653785196  0.9984189745866954
  0.7984412483006174  0.2008216121811764  0.1982015501225482
  0.7988109684502145  0.1994960173348412  0.4011680961730111
  0.8001220164791985  0.1980357685375935  0.6013451818422015
  0.7980240120759139  0.2030060418050679  0.7997067155684304
  0.8010239936495690  0.4006741204270593  0.9988177977541165
  0.7978965529655289  0.4037066068802972  0.1987694573446008
  0.8011953432928680  0.4005422088580569  0.4007776429320634
  0.8032848372940179  0.4003793871766304  0.5999094464053719
  0.8028200101247874  0.4021698541693161  0.7998727943263962
  0.8026969307289311  0.6025424332343745  0.0026572929134945
  0.7997790519653817  0.6025180761833312  0.3949368053926387
  0.8006436726481113  0.6028380284218462  0.6000436873904204
  0.7999548899168134  0.5999616291194363  0.8012376709193183
  0.7946375142134597  0.8012352536655951  0.9979882784385340
  0.7991151149359100  0.7964764933328754  0.2009740840859462
  0.7968172412679747  0.7995819941567976  0.4012555496208347
  0.7997951302401830  0.8006698312119077  0.6006769787426811
  0.7986248844936762  0.7985564928725415  0.7990759237345403
  0.2009498341827813  0.7996876669374007  0.9992309362936740
  0.9992981033858432  0.0024498407435030  0.0022659739904067
  0.0003655679463701  0.0000618666709613  0.1972796108617279
  0.0007870046242057  0.4007027174009111  0.4032793676121485
  0.0011206558565243  0.3998207243970108  0.5997205483740103
  0.0045065085549692  0.4026366469576963  0.7954012528017955
  0.1997468896917843  0.1986380485984643  0.9951921564822611
  0.2008848719445595  0.1984464231146852  0.6028241328221916
  0.1993541268396419  0.4008482036513687  0.1994798372052743
  0.2017232966880633  0.4025170130463595  0.7994411821519658
  0.1985006886671165  0.5999824055444267  0.0016911662508373
  0.4005536778496329  0.2034607714224917  0.7993737399453434
  0.3994354355847165  0.4015421289498940  0.9947826104169682
  0.3971258610730610  0.3993340603148950  0.8025197000864108
  0.4010513996558969  0.7996976197949662  0.3952670094663754
  0.4023035056387670  0.8032510822163662  0.8032261326547737
  0.6003944191997410  0.4005344011639032  0.2027545301773734
  0.5990860659410893  0.3996780947688714  0.3975062387561008
  0.5985808425221665  0.8008588879918530  0.9994337713409638
  0.8009503949871059  0.6010154918687339  0.1981524528482509
