Zr Ti V  Cr W 
 1.0000000000000000
    15.4426403378846846   -0.0320005039046650   -0.0557208927597321
    -0.0320601671519035   15.4795610846132128    0.0067732802617652
    -0.0556571551947803    0.0068453986319217   15.4616290361641866
 Zr  Ti  V   Cr  W  
  16   2 101   1   4
Direct
  0.0044274846014963  0.7744094940213571  0.7631483839150270
  0.2300484734072054  0.1974837499174825  0.0333823592434421
  0.2001578462435990  0.2035986622855648  0.2455657883875571
  0.1991269453815457  0.2041087111675703  0.4501734521788350
  0.1604848327879210  0.2032323122758786  0.8259215082313229
  0.2037435439041635  0.7975683333185016  0.4117307664296398
  0.3799200887850533  0.1907810305647263  0.8030744228577176
  0.4036573034224707  0.5995236764453055  0.2043761405503181
  0.4075114097213436  0.5987987898213312  0.4281782982988001
  0.5976761648039310  0.0205334222442737  0.5791034788003407
  0.5987395991963405  0.2374805843066213  0.6070491857850009
  0.5967550316776009  0.3974644096630459  0.0008783033025734
  0.5848613463994620  0.4505094919808764  0.5972795572850652
  0.5952215355204886  0.6215151902320033  0.9907731755067228
  0.7810201237846603  0.0183012767063049  0.3946864447359580
  0.7980068817768819  0.3554971902951787  0.5648557862203372
  0.5868750817252941  0.6398637188891011  0.5928406277040189
  0.8259861882629486  0.9824434459322210  0.6082833322487954
  0.0032699370521730  0.9997444570993135  0.9969881876694372
  0.0027353683534564  0.9998229782498644  0.1979309646534709
  0.9995850380263048  0.9969826088989285  0.4010963298510317
  0.0143033831709155  0.9936534582010751  0.6011409220670011
  0.0036305539042042  0.0101698224152598  0.8001182317897141
  0.9883723846144059  0.1988827028876204  0.0005054271888676
  0.9985346269756610  0.1994832493468599  0.1995005044148388
  0.9994756892502025  0.1973767499340721  0.4008436476052578
  0.0003171696285890  0.1925201661676258  0.6057241560587854
  0.9744796587920276  0.2050027659473359  0.8012536344405466
  0.0025883637908226  0.3976169709834536  0.9963172507116766
  0.0045053808591605  0.3979964660232638  0.1963723298903668
  0.0006953344605585  0.3989082955195306  0.3999766898697661
  0.0014919096427350  0.3927724124643320  0.6005557542732411
  0.9993451870539037  0.5996476010986400  0.9913257746915921
  0.9997551384206076  0.5978294240046247  0.1963599635298941
  0.9992171340467388  0.5987239468678458  0.4019043942145057
  0.9937482760856813  0.5894126031418069  0.5992127605196448
  0.0014582367420497  0.8013680778908437  0.9898455696217946
  0.0017177807563414  0.7986790475451401  0.1956763492802842
  0.9975194164972011  0.7999617422373353  0.3943969282890815
  0.2011721136575478  0.9975313631809292  0.9952721939560611
  0.2018083752159386  0.0002947471484207  0.1945600860129660
  0.2010063482795729  0.0046804761920494  0.3973720883205344
  0.2047655034728937  0.0015969794776455  0.6000607399767308
  0.2053920727241716  0.9974104700236742  0.7990034210896739
  0.1994758930845605  0.1998656447917700  0.6337445139957281
  0.1977335278994207  0.4004706231469911  0.9978999696389541
  0.2032311927832674  0.4031514394311098  0.1967958375078124
  0.2037395524664187  0.4012639172217675  0.3989159713085689
  0.1984846577336161  0.3990900137350503  0.6000199188094517
  0.1979459129030309  0.4039476413740139  0.7982787666424680
  0.1981245035149484  0.6016910466286771  0.0003837094988370
  0.1958122266206325  0.6015642310783035  0.1997832618510978
  0.1964241002427335  0.5949163004650878  0.4001598674723665
  0.1961684946186413  0.6000154917695507  0.5973287438896976
  0.1913406469429601  0.6003584981293072  0.7997743501567462
  0.2026823512040236  0.8006627467945312  0.9980756419770993
  0.2030415601215535  0.7997679542516443  0.1986408820762816
  0.1642630887833539  0.8022697380478534  0.6046785108135669
  0.2064804129024950  0.7969330843985170  0.8009300107631031
  0.3994889891587253  0.0086611077160341  0.9937063440116195
  0.4012350727411559  0.0028934478535691  0.1966542322823607
  0.3983436666432020  0.0017671487290747  0.3999305967691355
  0.3970706596450453  0.0017727006437263  0.5994510265428361
  0.4044813505434601  0.9904934800242129  0.7958298499226051
  0.4251052695175693  0.2072675821573280  0.0057381091861148
  0.4072941816215170  0.1987824446397384  0.2046800281982879
  0.4010546356807626  0.2002673356792551  0.4019117409751233
  0.3935574319340104  0.2010062072865958  0.5979745802738828
  0.3916357035491042  0.3987050830907825  0.0018843766347256
  0.4017611134688707  0.3948695568819456  0.2031802579997793
  0.4055312754961496  0.3959135307597956  0.4036535000763176
  0.3917034455661953  0.3998395433933621  0.6011521766536795
  0.3921378780766569  0.5996298339823856  0.9977100995303786
  0.3878518768273493  0.6022411732997528  0.6174489492860304
  0.4015454556434578  0.5984170201783777  0.8040349095264615
  0.4038403005141354  0.8015278421979470  0.9992252198350872
  0.4035973429318443  0.8066689058927218  0.1978700516973154
  0.4072852223406636  0.8049697774480348  0.3980550176625690
  0.3982594364882364  0.8026252879815589  0.5981308489475579
  0.4033915210033269  0.7968265660297980  0.7999483894757669
  0.6015311987406242  0.0012524338911383  0.9956300745370594
  0.6024808951073761  0.9989413737845507  0.1918214797294781
  0.5868386429194079  0.9996213687456369  0.3799842302421313
  0.5999092417918719  0.9990079031991554  0.7974409335145876
  0.6052756734714667  0.1955367306843804  0.0018129439452002
  0.6041219885652259  0.2008331290737868  0.2000139631111418
  0.6007898127814768  0.1946501730676389  0.3965287942428191
  0.5917924553759371  0.2004304983712393  0.8029476434633432
  0.6012637882384849  0.3999846357431280  0.2055314003259077
  0.6058159015963223  0.3962098750039483  0.4023409514827746
  0.5981034850690115  0.4024274951543091  0.7962902887638458
  0.6083116952467815  0.6002584399968979  0.2023856998424441
  0.6105999546144227  0.6012502650763475  0.4013939092291748
  0.6004318090510139  0.8135573431595263  0.9994834488547042
  0.6032251325642342  0.7969234670277497  0.1965550087076712
  0.6074953903303116  0.8073752894227374  0.3973174538209082
  0.6053417533671736  0.8188446893581444  0.5980865546309665
  0.6026007033962343  0.7958559652341706  0.7959210194142625
  0.8036150068107044  0.9989088914612739  0.9967223453639559
  0.8039440021445207  0.9987450673291631  0.1913612310253354
  0.7996917145803841  0.9949276841905393  0.8035806435318595
  0.7961307250256201  0.1958031808616352  0.9989805168094200
  0.7999178113794448  0.1980457903189353  0.2040484956378987
  0.8012115764543242  0.2142199487283520  0.4013040891878019
  0.7839871867686753  0.1970994062538155  0.7917844083115350
  0.8044080041338504  0.3962270157935365  0.9983248814918132
  0.8012800261316581  0.3985424970257642  0.1901269420357455
  0.8042744985248973  0.4048072958065071  0.3764110415998244
  0.7979007964841814  0.3953103098792121  0.8045880440214896
  0.8012402493634050  0.6005092619103245  0.9987273107164686
  0.8036432378489399  0.5996120256412917  0.1948113887549463
  0.8030565811454032  0.5992129201605646  0.3961973681769138
  0.7936899333855710  0.5925510560071136  0.5949216202087121
  0.7939789945539864  0.5920730740915539  0.7966066623695739
  0.8010754675291368  0.8003039749905281  0.9971610158945315
  0.8022432081574472  0.8001856972946719  0.1986580377678092
  0.8025219245911391  0.8006345497131623  0.3987899527931206
  0.8061943234352875  0.7897358501550685  0.5993611033519021
  0.7996213900596996  0.7961946883154776  0.7987563615036690
  0.3959576205701730  0.4027992386140222  0.8016388660511283
  0.9983289713435143  0.3951474014322589  0.7967930953154849
  0.9936372746324967  0.5782067091662897  0.7964462206307414
  0.6010204149994585  0.5926842990878958  0.7905149964213171
  0.8015417120516881  0.1584225233864050  0.5948697126078226
