Zr V  Cr W 
 1.0000000000000000
    15.4863295998759050    0.0024137293282322    0.0105674120120943
     0.0024156779473548   15.5040449564505511   -0.0174543962439357
     0.0105707746262879   -0.0174578174046017   15.4782021514271442
 Zr  V   Cr  W  
  10 107   6   1
Direct
  0.0005459965462540  0.9693455863643745  0.7581639527650433
  0.9981666128205021  0.2004194740155877  0.6088364548226678
  0.0002610371463858  0.4334134208945721  0.0402375579059075
  0.0031767058053119  0.5790654421668501  0.2202343521452462
  0.9610831513947271  0.7927210637987488  0.1934607422228028
  0.0030511161577551  0.7976399915959074  0.5984021181309269
  0.1989747252299842  0.5856971949241663  0.5982963638036057
  0.3586156487838757  0.8034679634901392  0.1994322321947718
  0.8355566875322611  0.4303946444758573  0.3982679210345902
  0.7505072790320576  0.7915008008631466  0.1981141380180243
  0.0010176487851717  0.0065557723719126  0.9988635639583298
  0.0035095592000443  0.9990158212281190  0.3934306566347898
  0.0009732241912340  0.0026030025601214  0.5709939494680660
  0.0009883533607704  0.1997849342069882  0.2022052121295494
  0.0010170025605815  0.2004668689994349  0.4006656963171228
  0.0006957363475490  0.2048940466876708  0.8097567447686689
  0.0011893891619414  0.3870044440697120  0.2322157496404914
  0.0245283026225318  0.3991287532193846  0.4102883061371230
  0.9929876859244997  0.4036383782444133  0.6000806618639630
  0.0014152621275862  0.3975514844218564  0.8003562635967476
  0.0010544578695058  0.6231377685880257  0.0121742440239792
  0.0062105342968428  0.6072377618341726  0.4178974344802665
  0.9946353874747067  0.5973215802188437  0.6090801194846120
  0.9991381400230424  0.5928296167866881  0.8092162203189064
  0.0014021736261380  0.8123347706422464  0.9925818074244742
  0.0023604494968310  0.8008102719629729  0.3948651263263290
  0.0002538003024752  0.7824879413311955  0.8042691277833340
  0.1997335370653995  0.0025357073632493  0.9972865667434619
  0.2002694782936970  0.0020316700118626  0.1986478490193920
  0.2021488979913286  0.9995384451021558  0.3973199159953092
  0.2012511197747165  0.9985694495348522  0.5976334053422383
  0.2030868820945546  0.0004913179127326  0.7990729265426255
  0.2017053636995348  0.2009236544029953  0.0008945797554838
  0.2013656909949542  0.2006009531349758  0.1994195837460141
  0.2026121496514376  0.1993333662802145  0.4003903973409214
  0.2014783383793761  0.2002516561601037  0.8009714031562357
  0.2033882490391805  0.4009035799484310  0.0006149822815973
  0.1990564187234903  0.3997770772902243  0.1989865598116944
  0.2055988613821068  0.4020083407600686  0.4322831906044677
  0.1994254564600581  0.4004697692671313  0.8040453217099880
  0.2012938719909136  0.6024087763875869  0.0016202203403681
  0.2067959059711614  0.6009089312824762  0.1988114896305685
  0.2010238528139562  0.6020959866712198  0.3932773285955617
  0.2003388254100364  0.6001245495219996  0.8056181951632113
  0.1995558064620283  0.8028393162921003  0.9997487224829921
  0.1716055657514823  0.7972896007464838  0.1969690758529203
  0.1994074341651075  0.8001164439937867  0.3974345919231393
  0.2071442041217355  0.7961444638833767  0.5985655954457602
  0.1995480684519277  0.7997453551599513  0.7989516129885008
  0.4015393954343235  0.0007445058880982  0.9984145071679560
  0.4021640426747095  0.0042359183299494  0.1982019900371304
  0.4005112456154813  0.9991382177772677  0.3987779110534950
  0.4021101105663432  0.0004671101345981  0.5983573408685258
  0.4003555103330173  0.9994753791344413  0.7970516319568161
  0.4014090527979842  0.2003447809149932  0.9989028958912866
  0.4010607435987210  0.2008590065722264  0.1999339194683633
  0.4002135509579489  0.1994150978961062  0.3999743383467189
  0.4018545029566494  0.2005944696433699  0.5991143179514838
  0.4008007256459098  0.4003987603196055  0.9998890095318579
  0.4000033365315460  0.3981200891370728  0.1998024066218057
  0.4012691275116565  0.3989824721736234  0.4013295848946636
  0.4018780492380966  0.4002558428370687  0.6003411057469739
  0.3998007107536715  0.3998752637061391  0.7985643185999722
  0.4026098995454864  0.6010313975887536  0.9999700165993034
  0.4041909934887551  0.5942605545990529  0.2006531613158284
  0.4012519968528191  0.6011945479503153  0.4004772862512074
  0.4058461097016005  0.5993951789228659  0.5994657253204817
  0.4012520494734811  0.6007120910160418  0.8008057452133980
  0.3994415512389739  0.8011521594265761  0.9949084992394246
  0.4008697789780903  0.8002616992657658  0.4025797056020151
  0.4014778539777025  0.8002411635645318  0.6002919962059649
  0.4003628868822429  0.7993341741004312  0.7988726668820348
  0.6007529770731993  0.9994166113292836  0.9985764217885669
  0.6009889622786729  0.9965166283397473  0.1986787895111147
  0.6007693355871200  0.9979142502286786  0.3977660478159950
  0.6008457279284288  0.9991512110274111  0.5970420574367514
  0.6006212327063798  0.9980226712740790  0.7977579815068311
  0.5996179701562934  0.1987306478787218  0.9998621353399096
  0.6014424252591325  0.2005485753876112  0.1989140474067863
  0.6000911209783016  0.1986069307185885  0.5993340710211510
  0.6003761469831269  0.1997380965029842  0.8000226681115783
  0.6006499860229899  0.3991210525993761  0.9991380427493456
  0.6024296479796033  0.4004333057636433  0.1997195653235320
  0.6017393544499943  0.3989292723460519  0.3981513208403398
  0.6009876159461245  0.3996409485827222  0.5981651590216971
  0.5997355217023009  0.4001136091430269  0.7996410694889099
  0.6026517114827178  0.6001667387891720  0.0039730762862440
  0.6043645961826002  0.5993162928252034  0.3957169256692646
  0.6022507535585607  0.5998349269295278  0.5969885973281560
  0.6022253962046370  0.5996475705783091  0.8018174470145361
  0.6009892641073846  0.8006380474524379  0.9980383535867487
  0.5645866773915379  0.7906112692682493  0.1987137414045284
  0.5997897190854328  0.7998137902669681  0.3983005926869816
  0.6011577293322872  0.7993812553435234  0.5984888234960977
  0.5998557298621200  0.7982361629239481  0.7985359032796315
  0.8016681430998380  0.0014761509615935  0.9970154923323833
  0.8014741882463940  0.9977286588546277  0.1981243737142351
  0.8000745238111007  0.0006883737737384  0.3980610140730043
  0.8022913378315292  0.0000302519304813  0.5989062484756122
  0.7981575905068200  0.0000471549569495  0.7988054204385064
  0.7996815974735294  0.2004386258082164  0.9996949804554138
  0.7994681995559149  0.1995982301415811  0.1989505897162963
  0.7993415211497024  0.1967241176864588  0.3985528094877814
  0.7942625881605828  0.2012878506976241  0.5996683091412279
  0.8002239746014815  0.1991846916437888  0.8015229327515261
  0.8042421761577114  0.3980981021226001  0.1947923493127769
  0.7970356217970050  0.4002430552584646  0.6010150615055455
  0.7995918686900881  0.4001671818227276  0.8007527084255085
  0.8034801949434792  0.6009826666873485  0.0003249020885700
  0.7939703247489802  0.5945279691756934  0.2075106378805356
  0.8029193967947985  0.6177727966603156  0.4033249579807053
  0.7985426712544175  0.6003395047553011  0.6002795435407950
  0.8009281608508066  0.5991197691393959  0.8024562994085750
  0.8023961271833226  0.8025200976990466  0.9970354004482649
  0.8061865869739491  0.8061954038393210  0.4008594272003149
  0.7959025578526947  0.8003259771589150  0.6005399717089318
  0.8004207681571778  0.7988420464700088  0.7987027478119912
  0.0002497305894460  0.0036507440284999  0.1972528660562595
  0.0007564142562428  0.2013043555319622  0.0038071196737115
  0.2047808811643893  0.2038753518975596  0.6005086550626665
  0.4012150048874691  0.1999958105109884  0.7993442119496921
  0.5997901343934604  0.1986992804429351  0.3984144269393053
  0.7980757861248426  0.3997335899394587  0.9983645642498619
  0.6015571255235850  0.5978713540091593  0.1990868532801111
