Zr Ti V  Cr W 
 1.0000000000000000
    15.4219977637485020   -0.0153525296692176    0.0018800521315798
    -0.0153399539639544   15.4042384266248558    0.0149563524432868
     0.0018828811446291    0.0149768248118706   15.4308175709018371
 Zr  Ti  V   Cr  W  
   2   1 100  10  11
Direct
  0.6003549830525921  0.9877979506785454  0.7922525382737937
  0.8064214697307071  0.4054995333178702  0.2021727630972031
  0.5974257482569804  0.4048254136020352  0.1984990172545235
  0.0018620266939743  0.0012284306735586  0.0003955797940025
  0.0010200176138747  0.0000485121186045  0.6005890384523471
  0.0007100004887219  0.9999490493692459  0.7994857251397471
  0.0059970632859959  0.2002316863820725  0.0008764569966322
  0.0012361262783416  0.2026405296677314  0.2004164553183239
  0.9972546160896235  0.1994127544567387  0.3998046668205807
  0.0017609011062942  0.1996541745387233  0.6004168518187974
  0.9997762030813889  0.3984855995640328  0.0041290485307379
  0.0010320850380203  0.3997518170308450  0.3980778232606885
  0.0011046239256061  0.3998820894732137  0.5993753486115438
  0.9993772639637808  0.3995557086472321  0.7990611346830930
  0.0024364105885224  0.5999796421228313  0.0011370853265976
  0.0017332184181094  0.5989042466013033  0.2004761017056581
  0.9999348933629272  0.5993645439965324  0.3995052702604640
  0.9992650623054812  0.5987179544519012  0.5988349014487007
  0.9996821045819270  0.5992764900062096  0.8007210640637137
  0.0004246393096166  0.8010653767632353  0.0002515043718125
  0.0009179346851247  0.7995670991704401  0.2005971414693431
  0.9997085991521821  0.7995029049513410  0.3990279917135248
  0.0031401506346800  0.8002358389490934  0.5995653369992187
  0.9968386790199176  0.8005795463134974  0.8000165332861399
  0.1994811588212271  0.0055496680136999  0.9996736262718511
  0.2015998362194716  0.9987172788182456  0.2012790356173629
  0.2009631496907962  0.0005603996718460  0.3997930334218446
  0.2012868885393319  0.9966976550124489  0.6004311376132707
  0.1983363667049957  0.9988698090638873  0.7988700533689633
  0.2000099757716134  0.1995387961656487  0.4009403039806114
  0.2002931531815185  0.1988544429896119  0.5996096580208726
  0.2003076536569740  0.3976253868406034  0.9994041287281993
  0.1996389219009680  0.4008692526595483  0.2022059512687488
  0.2001199809649288  0.3994185558108305  0.4018506698819574
  0.1995118580666121  0.4052036956595055  0.7984513918609922
  0.2045735325711266  0.6012981087696058  0.1959763894431752
  0.1996583116165092  0.5989108077322611  0.4015432403909014
  0.2011005404843349  0.6025636806584787  0.6047973641034344
  0.2002952389147122  0.7968020156719987  0.9980875538400079
  0.1996866993906219  0.8009765232261641  0.2008026499380644
  0.1996150912842951  0.7994954948731291  0.4041824866314983
  0.2004350931561194  0.7965795540744910  0.7963770485629782
  0.4021263153067173  0.9988929913812939  0.1992602940052300
  0.4011809662678378  0.0019260406806367  0.3978422259024714
  0.4027056898736059  0.0014378801998772  0.5982666207714866
  0.3943901232962903  0.0023439630684892  0.8007456143875781
  0.3988329769568105  0.2009338275592233  0.0002188042462321
  0.4025689963496106  0.2017603084811044  0.2013900099177775
  0.4018300770490048  0.2014785503115416  0.3987396159618170
  0.3996713906965949  0.2004760882369973  0.5992917293095158
  0.3997029370508444  0.2026871152438398  0.7984801642061820
  0.3991519201737976  0.3991194012335688  0.9994171692672525
  0.3973456708764131  0.4057409227457915  0.2020214330464985
  0.4003006059996237  0.3994658894883414  0.4002716547048505
  0.3999946743896655  0.3995026639205335  0.5986117689057672
  0.3993862944036933  0.4002003156051395  0.7975703828358358
  0.3953102908686396  0.5981258505083054  0.0027921036566512
  0.4013895112320163  0.8041517629382161  0.9986278742435165
  0.4007098471243576  0.7970646380337763  0.2007114332902322
  0.4013204785424710  0.8004994657087799  0.3995719781818700
  0.3958909457426091  0.8002393071493984  0.5976863214454113
  0.4023928988933856  0.8024049145617932  0.7992867986689302
  0.3946714883640862  0.0016070260851822  0.0009503247819493
  0.6002209962462555  0.9992863792473645  0.2015725042951011
  0.6008357025131252  0.9991436690136600  0.4014489762769767
  0.6001277293409200  0.1978957655266150  0.1947243660073511
  0.6052125895443612  0.2008115493847492  0.3995042970735643
  0.5998630694392088  0.1954521524386837  0.6030139006196927
  0.6006718055515690  0.2009662437655137  0.8022766509102457
  0.5994516984946190  0.3966595870166765  0.9957992490178046
  0.6004127258452940  0.4005881126723667  0.4035065453290390
  0.5991530504641758  0.3999619443370075  0.6003826475440164
  0.5998857621069756  0.4057218800012232  0.7972182670613047
  0.5988957975764139  0.5974448732360850  0.9957848327813223
  0.5943947366162503  0.6047734741756446  0.1977212493749234
  0.6009499493578053  0.6001491375522002  0.3998195716297392
  0.5993738483313684  0.5998584091389462  0.6025064548754324
  0.5998957425819313  0.7964630257994229  0.9947064223007915
  0.6007307246568518  0.8026839533567732  0.1958179706698197
  0.6015445124870021  0.7992360114682763  0.4007794649140380
  0.5986338488654441  0.8004756054396763  0.5997020614640401
  0.8068609432126805  0.0014059897425633  0.0009295112538226
  0.8006240100535268  0.9992338281432795  0.1993577606083247
  0.8016889740453471  0.0034121991124365  0.3997157968742985
  0.7986348157710015  0.9996283768893082  0.5993866999504740
  0.8062597035917929  0.0011488258156060  0.8002876307083993
  0.7961069341735707  0.1985055248739285  0.9999370525631193
  0.8009301811951740  0.1962442161669137  0.2038610088538439
  0.8007436810843652  0.1997254630564886  0.5969617680419158
  0.8014194156631965  0.2011969494618105  0.7994656894150721
  0.8020575578724194  0.3989083052703101  0.9969486595355000
  0.8000914818863464  0.3955118531750920  0.4064961733515968
  0.8006475172257229  0.3988630153165569  0.6015863837531250
  0.8015211961817695  0.5992648531264763  0.0003767265231444
  0.7979197754385130  0.6073750222002769  0.1994563735347965
  0.7989396023785456  0.5988464399967521  0.4000628790142927
  0.8008459962310200  0.5995080681286712  0.5989635214874700
  0.8004022483002775  0.5991222735720223  0.8004104216992182
  0.7991884021743070  0.8021554400057740  0.9997058147844112
  0.8007643637778067  0.8025970342769586  0.1999053415124278
  0.8009420704259688  0.8001549614650204  0.3998996104584432
  0.8029865654916647  0.7995427916488395  0.5983857085854308
  0.7992902014594260  0.7994567493646690  0.7988971638911412
  0.0019696966252520  0.0002393230452263  0.2008348492156558
  0.0010240481264675  0.0001097044001743  0.3998030764582954
  0.0005591384256001  0.2008221660222634  0.8004488520817638
  0.2017297237237463  0.2001873544279126  0.2013848700094695
  0.1997709911760736  0.2018446043506777  0.7994017488923735
  0.2005960888011169  0.4005565696136132  0.6000706885747471
  0.4003087046112596  0.5997477099417937  0.3998095724284870
  0.4002549428122104  0.6001518852001126  0.5996075540001664
  0.3989022634063256  0.6003303012387899  0.8002191605643926
  0.8014541001277821  0.3996720079352253  0.7990721870346021
  0.0071712546273197  0.4025638198564981  0.2017608802018102
  0.2021007152737926  0.2016842593344708  0.0009248497881469
  0.1991074566752820  0.5987067792030381  0.9974341296416647
  0.1941416417555389  0.6015134872317763  0.8049242709014801
  0.2006676848300161  0.8000809201830235  0.6006419064571532
  0.3988142647784704  0.6020965424796404  0.1968271561810273
  0.5995730800086779  0.9970603496984513  0.5973054761776523
  0.5984233100976964  0.2063140508795529  0.9975636773268340
  0.6031284544007466  0.6015821201860154  0.7995701412750624
  0.6003207333359807  0.7874931301293783  0.7970726961097803
  0.8005094337528267  0.1999795348673075  0.3996938429814352
