Zr Ti V  Cr W 
 1.0000000000000000
    12.2882735461728885    0.0000000000000000   -4.3445607757035454
    -6.1441367710433559   10.6419570608175889   -4.3445607757035454
     0.0000000000000000    0.0000000000000000   13.0336823299999995
 Zr  Ti  V   Cr  W  
   9  17  87   2   9
Direct
  0.0063860730206500  0.0019803521324299  0.2091249061233277
  0.0066945272937872  0.6036010132755179  0.6050599323302419
  0.2011921563055340  0.3994579782670606  0.6054355781957185
  0.1623042059558796  0.6182828745693044  0.0035750991099140
  0.5962167504168724  0.2038055217588152  0.6065046597814275
  0.6001282935610537  0.4059568951186268  0.0077682978838190
  0.8034320076105215  0.1840142389571252  0.9997253748320727
  0.7996141979604988  0.3852933143334750  0.9795993851576007
  0.8387334614592314  0.6118991257623466  0.9976351012720717
  0.0049134549266363  0.2054551026848960  0.2044070165651289
  0.0014374520301881  0.1971620538266259  0.6041317351269099
  0.0070391043048021  0.4133238831680598  0.2070554525310547
  0.9986893487479216  0.3878522516626854  0.7870225448436933
  0.9947672297786123  0.6079811052482481  0.8035430466569098
  0.0110243656540047  0.7398404919698151  0.0011167869710756
  0.1971024626875828  0.7930511574486558  0.6006181027509423
  0.2093897624261723  0.8137514676255806  0.8293157132834296
  0.4011563321569268  0.9965016695864439  0.8058966026687632
  0.4024749389308454  0.2021687288775929  0.7993455804597918
  0.4094390649406798  0.6087303943918865  0.8125177216157515
  0.6040104359052630  0.9977053700699924  0.6062163433717142
  0.5937977252858520  0.1947623840779928  0.3909386378813723
  0.5977942913997294  0.4001721741115645  0.7911563209561443
  0.6002714803029128  0.7910362190088581  0.5952050005359376
  0.8035268558832175  0.9981835672532391  0.5961923294748558
  0.7917145812383146  0.3942817740566354  0.3955658294880732
  0.9983888514702627  0.0020210126300993  0.4095437429595472
  0.0021232532831533  0.9979021047855081  0.6012990271399173
  0.0008015665758213  0.0023419128497387  0.7954948519392170
  0.0135483755198084  0.2020808118757087  0.9990078435966595
  0.9946889777717259  0.1910735610037420  0.3952609972178350
  0.0078691533949569  0.1994708649804684  0.8095559091989433
  0.0095611727431653  0.3941152461974885  0.9990668220130179
  0.0039879839789725  0.3955190538619729  0.3993748437573116
  0.9966729692500605  0.3998428164056319  0.5953958660635792
  0.0080526348511603  0.6090838004298176  0.2049898801575184
  0.9973331609490479  0.5901676966204833  0.3891641741711833
  0.0089171026232476  0.8061922526472522  0.2111418813861287
  0.9935630699387534  0.8057729586776180  0.6014032306128004
  0.9951870825443130  0.8077398772694909  0.7906434717742696
  0.2037625409820629  0.0058657518887884  0.0008612229544673
  0.2137565147791064  0.0085284791855609  0.2067413862554950
  0.2058437740179062  0.0059721084245471  0.4027912619461291
  0.1996239733932515  0.0090014345341203  0.8056099559297478
  0.2070321409641352  0.2066359476832191  0.0023768629337119
  0.2079276882772275  0.2069703495812038  0.2020841664626209
  0.2124727385891258  0.2136974186638939  0.4093016307547896
  0.2060893841680892  0.1972972334868259  0.6046422874403118
  0.2023945384032492  0.2074009234131176  0.8061216571260239
  0.2037781335092251  0.4040380373411296  0.0048902271003117
  0.2054068169224346  0.4005266442208031  0.2002344718721166
  0.2056162894247312  0.4057692313110656  0.3962820663296205
  0.2136401818642047  0.4112378104304903  0.8202260308658471
  0.2026365472201216  0.5985992601795643  0.2064879687127193
  0.2069316696068942  0.6024991710345395  0.4063388769238490
  0.2072200400074621  0.5963049448417558  0.5959892115262726
  0.2045544367607446  0.5997370916580710  0.8038798351887727
  0.1532984265086333  0.8111332254890694  0.0087214744036425
  0.2000171329116441  0.8095317814363815  0.2048305023175445
  0.4051820750661425  0.0063733216154211  0.0101261358431644
  0.3919523888704294  0.9886728731333041  0.1913257342670949
  0.3976754995419758  0.9985691750490288  0.3932783448676387
  0.3979394172078638  0.9990212146396820  0.6001124364159365
  0.3993629249688799  0.2043464630068427  0.0038988061009908
  0.3964091364837858  0.2022291620648574  0.3985435291425711
  0.3883286405967982  0.2017775331171342  0.5921137422132119
  0.3941409607519973  0.4087466498731377  0.0031222406050093
  0.4017778696716622  0.4078459864547228  0.2000680673870997
  0.3981471623429690  0.4025927179375371  0.3982528551994672
  0.4000447266287904  0.4050958437595312  0.8013903472251113
  0.3981232009999238  0.6006744093394069  0.1944056371760445
  0.3982125052902874  0.5943300140861945  0.3934922930789628
  0.4027685844733814  0.5984874400108279  0.5967436809219580
  0.4028505319238946  0.7968636994305510  0.0043032377654176
  0.4019138214376969  0.7997924003355138  0.2016731503359276
  0.4018836993695191  0.7969717148446607  0.6040694428707445
  0.3944545945684491  0.7904362052714803  0.7969854834181248
  0.5954564318516004  0.9926604221803731  0.2003935789340237
  0.5993813962878430  0.9915175084298651  0.3930208092829189
  0.5940601740275162  0.9791755022401908  0.7944724478544967
  0.5981574920742534  0.1981179624363223  0.0084105366374880
  0.5946642261055416  0.1951686613624361  0.1918941061431375
  0.5901215341826787  0.1710545644897206  0.7978067205376974
  0.5997981226753829  0.4043114792763368  0.2095819895184106
  0.5951159460196891  0.4060678475201153  0.3996288001225282
  0.5907538523054503  0.4045660447185361  0.5890385930136735
  0.5940698500008057  0.6047824081714869  0.9992030322655040
  0.5990323296651239  0.6013595223608398  0.2005469328451744
  0.5960241596631380  0.6005117258900861  0.3956806403918477
  0.5954507769308891  0.5960031748457312  0.5927787870509483
  0.5957400651093169  0.5983517899010558  0.7910846374264094
  0.6017628710383236  0.7985058920370568  0.0062558527558212
  0.5945269713293065  0.7921299791404885  0.1952470866942692
  0.5966320286545110  0.7928972481334003  0.3883417428052272
  0.5978433927985261  0.7937880793176326  0.7971673745902564
  0.7958738470737142  0.9833641649165580  0.9962295319404841
  0.7932532560395855  0.9914249928513204  0.2006037362344569
  0.7952706090384885  0.9902372773429552  0.3909816807456045
  0.8000858682854566  0.9936934660239503  0.7959882057979463
  0.7961449186123692  0.1980962686756670  0.2073647726480041
  0.7916695648103272  0.1932579367189232  0.5917734249936215
  0.8141055669240073  0.1986758479783714  0.7961630314171236
  0.7973043718456910  0.4026502862752531  0.2054034812112829
  0.7932686081030091  0.3993922392086238  0.5961643300701619
  0.8155325096810164  0.4143414344317959  0.7892380713082290
  0.8048737745784188  0.6039370544076852  0.2100099099758768
  0.7939174197094476  0.6005442699510413  0.3979995605355083
  0.7913840864592698  0.6007462038354963  0.5915790008146425
  0.7881827166111304  0.6013304452897603  0.7781957791756428
  0.7959776804932172  0.7936116470589227  0.2004125653158286
  0.7927630133135587  0.7976700064160615  0.3972380910496497
  0.8001979124193409  0.7952413182438598  0.5931956349302480
  0.7983438210080670  0.7985820079908965  0.7913472149431561
  0.4043563432836698  0.4034880188030330  0.6009190745003624
  0.4014518906577870  0.6037088197747439  0.0059750763500316
  0.0035280707430306  0.0042327734723420  0.9945823556954251
  0.9958040258465392  0.7974323018354242  0.4009692866544189
  0.1998930633458456  0.0012865579774143  0.6036306749916101
  0.2039746565592837  0.8008107620737003  0.4012492344932414
  0.4023807307172010  0.2040409694663055  0.2019008362800105
  0.4029098873682784  0.7982643331091080  0.3983196546923525
  0.5942983145517944  0.9901249226308954  0.0001241936078166
  0.8024398775393232  0.1941066421729314  0.4016530572989263
  0.7951053500784041  0.7949218036961554  0.9919029597243838
