Zr Ti V  Cr W 
 1.0000000000000000
    15.4771126092992706   -0.0171409429028663   -0.0108832458615090
    -0.0171377985850307   15.4835452709138899    0.0089453070842751
    -0.0108770206815257    0.0089383803551370   15.5150560916889226
 Zr  Ti  V   Cr  W  
  10   1 106   6   1
Direct
  0.0014112527061193  0.0375854201953787  0.9590375743928619
  0.9968194565778726  0.2048046772112048  0.7911307039875086
  0.9908710371565153  0.3839140875295627  0.6013259945160335
  0.9846502863312647  0.7861565393181356  0.5872973412076403
  0.1758883086690900  0.9963931438344770  0.3596357776812853
  0.3951185295444773  0.9961200345239207  0.4042428780474243
  0.4035052245993990  0.2040086561269489  0.9998855647631385
  0.8102789280767830  0.3961372946342900  0.4171931598735015
  0.7728692051450726  0.4039770793946632  0.6348042865258480
  0.8047417567964353  0.6241147475524844  0.4164430345534388
  0.5968085255692153  0.7986493810294503  0.5994516363834000
  0.9868375244493173  0.9967946819252037  0.3948687764239979
  0.9989871241448530  0.9941260052531939  0.5886533741943912
  0.0007911950306059  0.9923308502204990  0.7777263537941240
  0.0016648242209069  0.2207949680371372  0.0036769468107303
  0.0010357282831477  0.2091032511107224  0.1990954890944006
  0.0038383505231385  0.1956831690725047  0.3945952227087060
  0.0007151539376310  0.1867941711919608  0.5882321350345617
  0.0024489192116792  0.4092396982837214  0.0061448245834177
  0.0122322085965927  0.3984650271677054  0.3917069849048703
  0.0012468011880353  0.4076874631766430  0.8092897601727281
  0.0007278534237518  0.6036266439523724  0.9999193423390422
  0.0009972267426691  0.5950852242651540  0.2018290744364948
  0.0081106607494750  0.5978586368287032  0.4016957458922280
  0.9985811198635032  0.5903422434235031  0.5993765258562519
  0.0009497320946463  0.6006588528995742  0.7969839506876791
  0.0009160497429475  0.8001413188196094  0.0002097972719555
  0.9994851637084771  0.7955852138595185  0.1948844188789977
  0.0004803846499458  0.7985882687170228  0.3879364741420649
  0.9990592478107465  0.7989016570076989  0.7990209766768784
  0.2031981949686350  0.9990736483753505  0.9973734829035998
  0.1996578094345293  0.9972994154060908  0.5901341375571716
  0.2006307332011038  0.9973302116071069  0.7968902380070516
  0.1961768775913183  0.1982937688075969  0.9989743607698107
  0.2007762422652224  0.1966811154054759  0.1991686392657360
  0.2042159154183023  0.1990268317254741  0.4013077421241016
  0.2003895862213847  0.1961885075482170  0.5987136019786887
  0.2018563022555477  0.4000954028985436  0.0002638018059594
  0.1997279077771608  0.3991389898081156  0.1989195215391380
  0.2040227830785221  0.3982693274109863  0.4013799130500353
  0.2004558769237976  0.3959438343126096  0.6012249927893624
  0.1994478623427927  0.3974462838628082  0.8014490982591166
  0.2022245610459185  0.6003785815154973  0.9987115348496602
  0.2020976852229615  0.5995205187022314  0.2001130146024649
  0.2028317233241111  0.5979269789432788  0.4011100829910683
  0.2002734334197430  0.5990819980491127  0.7999870850999783
  0.2001804798963275  0.8006142781350026  0.9993512152074117
  0.1997842848387604  0.7996432421406948  0.1992716331867585
  0.1991315664935922  0.7933097963604486  0.4010528001967115
  0.1977896097198603  0.7973690993109672  0.5989240080107648
  0.1983414035878432  0.7984552815322259  0.7988362373863165
  0.4023598306766897  0.9976167598729028  0.9973119124626806
  0.3999048131535177  0.9985632781583721  0.6059490659434209
  0.4008740553927050  0.9981099136526349  0.7993944712160438
  0.4014908198321192  0.2002229837057544  0.2034502159276821
  0.4016601523901938  0.2023409479321908  0.4012029406494909
  0.4003317159795301  0.1993353858633135  0.7963621203802195
  0.4007128613627179  0.4058083925217146  0.0018606645619652
  0.3997465068904990  0.4005024477624658  0.2020721263476635
  0.4003570105909233  0.3998670514240299  0.4010324136150539
  0.3959066183784887  0.3990168134328670  0.6025510947022791
  0.3997783472686454  0.3998705845649748  0.8014231632531725
  0.4015721024989616  0.6013869164659214  0.0007451712460046
  0.4007963116500193  0.5989639063964233  0.2019713362175307
  0.3993263021913786  0.5986554035231804  0.6019186444686316
  0.4001340479390458  0.5992912255873070  0.7995182905785663
  0.4005037387152404  0.7992605424140398  0.0005122683058125
  0.4009442887992492  0.7978739392579940  0.2001078226144941
  0.4003966942943429  0.7928474149047081  0.4001721091024474
  0.3968404267649605  0.7968620842306097  0.6012106843766594
  0.3997629592317741  0.7984052786494772  0.8003264400226009
  0.6020755883789011  0.0009532747089338  0.0003017848101361
  0.6017443203099963  0.0005659208328239  0.1996870764919068
  0.6021350691295917  0.0004143571297524  0.4013629921491800
  0.5988204945234121  0.0032235335644688  0.6014716135918936
  0.6003385774213164  0.0011498806452803  0.8007887089368878
  0.6076667375891454  0.2013830368642134  0.0017302818897513
  0.6026984869208221  0.2000650524230864  0.2025584619565125
  0.6017268272755383  0.2015833267337402  0.4025853257269982
  0.6009447863405890  0.2015660463019366  0.6006412629890732
  0.6006170931904625  0.2006289260501508  0.8004190502424128
  0.6023230691972509  0.4014255383211677  0.0038202325249249
  0.6024973257031697  0.3998550918237052  0.2034888141997883
  0.5987715556216305  0.3995116060087445  0.4008493095001768
  0.5856191472540645  0.3987140249377845  0.6003420100311082
  0.5979498461887597  0.4000310595901355  0.8051913243669455
  0.6010206010390564  0.6003135366690768  0.0025006133866023
  0.6012989072064439  0.5988716860254633  0.2036432169892133
  0.5994199616311161  0.5984759452507652  0.4035580749289618
  0.5997901050833236  0.5956100786491275  0.6022348852388719
  0.5994830379118820  0.5992888633933952  0.8023383374314043
  0.6006826368816671  0.8002450567198928  0.0025084989053764
  0.6006662190752151  0.7999160972375904  0.2013744405032292
  0.5997091438463857  0.7978504515394801  0.3984899877475072
  0.6005324628925324  0.7989665401104423  0.8044207564452108
  0.8002951330323587  0.0004753787807046  0.0017568903608496
  0.8017713763960594  0.0002450823222201  0.2004762772475115
  0.7957264693226402  0.0014319350597320  0.4014493328558546
  0.7979336172177578  0.0001503995840753  0.6034662574075809
  0.8005815205959060  0.9997151875324394  0.7997940157338643
  0.8054616050916245  0.1996042392676564  0.0016227967827277
  0.8030960231246788  0.1989320196159706  0.2028068705038088
  0.8007433772776867  0.1931574538386729  0.4015301918504309
  0.8016227898211905  0.1982151007465853  0.6011022260157457
  0.7956417415772573  0.2017068608903648  0.8007281938411128
  0.7995734509437540  0.4018210971989697  0.0073172047484684
  0.8041738913914809  0.4000906968876763  0.2023128258526657
  0.8011553522086130  0.4006634022173597  0.8210630855482627
  0.7997080442615189  0.6028061138390612  0.0022567944239333
  0.8008526933495657  0.6014176626712540  0.2052680450089202
  0.7996850396641129  0.6066490090499641  0.6150679161703630
  0.8002075359876473  0.6011463928762580  0.8053240853671179
  0.8011118615684824  0.8025347658033429  0.0023296877299996
  0.8015154731706227  0.8015876891510805  0.2013566764339011
  0.7983960678583828  0.8131338396892556  0.4003812129771607
  0.7878563214566076  0.8037763077817464  0.6050401731727668
  0.8001920150687792  0.8015619646374234  0.8045385514865991
  0.1645271195852325  0.9992289729137225  0.1888303535987171
  0.2030919880803134  0.1969865865504167  0.7989032168237717
  0.1984447696130199  0.5952288924320513  0.6008093452946337
  0.4015695771392888  0.9992015658920728  0.1962051121388090
  0.4004962771271078  0.1988547598307540  0.6007979017841876
  0.4001252391061535  0.5975596397221385  0.4025105983589297
  0.0015100932284395  0.4011741662267736  0.2008384888564373
