Zr Ti V  Cr W 
 1.0000000000000000
    15.3161674756862691   -0.0038639056753981   -0.0081742366427040
    -0.0038625530149281   15.3180417040563182   -0.0084288121243241
    -0.0081714294601317   -0.0084252347079361   15.3251398317997438
 Zr  Ti  V   Cr  W  
   1   2 101   1  19
Direct
  0.0005567842739362  0.4065824528850985  0.6022905569580147
  0.4071565587619786  0.9897679357428987  0.3981004685476646
  0.3972398386270907  0.7980375637325442  0.6167067254168499
  0.0000910276720119  0.0012829153347681  0.9988509048717309
  0.9999989715961648  0.0009971060666645  0.2000218257777724
  0.9967739734510432  0.0053337558977437  0.3990670699044975
  0.0024151869457695  0.9981058444667125  0.5992290864863585
  0.9995942765399496  0.0014197138978842  0.7992655671008239
  0.9986318319566418  0.2040447084703317  0.9988394457772961
  0.0037381316698701  0.2016145737156472  0.2028798820104440
  0.9979225305297256  0.1975380630772392  0.5948066217385485
  0.9977068752617634  0.2019572317389665  0.7972975375350938
  0.9976323282628985  0.4024612640516245  0.1958189083124880
  0.9982384187214713  0.3949971490620059  0.3951270606023415
  0.9991618599045847  0.4050620118104333  0.8079295742693807
  0.0007835119578670  0.5984782402987328  0.9959287658172041
  0.0034429144477290  0.5997012015030082  0.2333360714884126
  0.0030256867508798  0.6095099294287856  0.6039454971504263
  0.9965939631726205  0.8008779792124958  0.9986191900230497
  0.9998470181577311  0.7995364641027091  0.2008655698770024
  0.9976378583752217  0.8041206220210646  0.4034626872284789
  0.9951230872594132  0.7961418376058161  0.7982025027291508
  0.1984561930758650  0.0010477474712813  0.9996867956401526
  0.2010001092216026  0.0049484581820829  0.2027269179666109
  0.2012062811064284  0.9997862657377614  0.4034582466286399
  0.1989705625237973  0.0022528057347805  0.7968404942067467
  0.1997841946066453  0.1992535299288593  0.0034094778044964
  0.1983286625868005  0.1997796658668775  0.3962584411779896
  0.2024400271293310  0.1968584164528457  0.5990240015847939
  0.2012056500828873  0.2007690148005787  0.7994326440103334
  0.1967318288342662  0.3993517045618040  0.0009787299478071
  0.2021853759546346  0.4002155120084765  0.1991674301819709
  0.1981278233192042  0.4010493222120179  0.3992442930610505
  0.2057717675774428  0.3976231829648627  0.5998503907953043
  0.2008480102372063  0.3997108608514216  0.8013183600185035
  0.2012849320229944  0.6012157008804047  0.0064605328286036
  0.2061294942416224  0.6003461034196083  0.3981467585458449
  0.2064354346804387  0.6032870578173691  0.5969462585567342
  0.1975168287594759  0.6005445822036143  0.8000065917584216
  0.2005765517986542  0.8031509255575903  0.0009343359907105
  0.1993608474395315  0.7979395682102919  0.1992886216608412
  0.1974840358378542  0.8012529786025824  0.3992874115101360
  0.1939775790678187  0.8060898533812616  0.6011543719431917
  0.2029853546566985  0.8009565792921099  0.8020969822653187
  0.3993775049487130  0.9963402589359003  0.9995146032143004
  0.3998104381268097  0.9990110441222841  0.1968182027622112
  0.3946102980981593  0.0000833223559060  0.6026992744632275
  0.4000429281412586  0.9952685015210199  0.7998635304248648
  0.3993192763564348  0.1981912057301073  0.9985907035163765
  0.3970234716654046  0.2013443297375734  0.1995246241335152
  0.3985686952112427  0.2036064419349991  0.4010953848230852
  0.4019659677127860  0.2009287644730465  0.5999273061456165
  0.4032094027565329  0.2000633098486329  0.8012833204301946
  0.3988205477077989  0.4026909440824205  0.9982981311250275
  0.4041297413073638  0.4013773948374350  0.1984789308627543
  0.4001907035093126  0.4031618203251974  0.4007419702130327
  0.4004710723707829  0.4024288829657925  0.6019872608729023
  0.3996007073598130  0.4019937729390330  0.8028828016826783
  0.3999281112516923  0.6038297471472222  0.9993490275155353
  0.4007902764522806  0.6008586570734195  0.2058249467533829
  0.4000252044879117  0.6025913041805460  0.7980493505043664
  0.4001668039954244  0.8002006039506065  0.1936438390519916
  0.3996409024761933  0.7952018459272884  0.3983102556788656
  0.5986856190445403  0.0016280093763957  0.0023780401813418
  0.5974385448927791  0.0037312690882367  0.2057492528971747
  0.5954803307418329  0.0052880419503678  0.5938530546545722
  0.5984199306784486  0.0038491605847298  0.7973282931996766
  0.5992456070128346  0.1994257904532105  0.9971557645662723
  0.5982717414670808  0.2041358954091311  0.2013913214798793
  0.5984178087171568  0.1973736330034737  0.4038992078156701
  0.6009373860579783  0.3993981214349178  0.0032265334652624
  0.6023981779239059  0.3952947448825994  0.3959958473282549
  0.5993715244590315  0.3982109616246267  0.5983458361395966
  0.6008517165427532  0.3965567092956274  0.8035307031922856
  0.5988408273889366  0.5987173949123487  0.0054535816819945
  0.5959748962928528  0.5989026343377960  0.4006808095929177
  0.6010920974603597  0.5954858981006415  0.7939911235960382
  0.6002757261199226  0.8006291008431242  0.0002162047650376
  0.5998000029575675  0.7947804236962891  0.1987437124400118
  0.6006090271978923  0.8033030356289474  0.4006028850319501
  0.6031192197472186  0.7953452147497134  0.6012135692908210
  0.6006207655213638  0.8013712678866027  0.7993272414525218
  0.7989769940800269  0.9968048220313919  0.0008963658123113
  0.7987723034874384  0.9998955546066834  0.1988955892966279
  0.7972191412377210  0.9978407209756590  0.3986310126566356
  0.7983975839729969  0.9996783126798741  0.5991611724894371
  0.7981991388692500  0.9965395381432214  0.7990780725873350
  0.7998499257910832  0.1972618181400060  0.9987619565010679
  0.7984820251566791  0.1996172422438079  0.1976602427386955
  0.7958031930999334  0.1996276387784328  0.6001196608581019
  0.7962183917460803  0.1987227761336324  0.7995880236409291
  0.8031840635743189  0.4009429077031117  0.0002111285074777
  0.7972024304373060  0.4009471774205088  0.1980344701411846
  0.8023665753881642  0.4023521745238900  0.3981341063887439
  0.7951622965002159  0.4015480282769470  0.5997198166499694
  0.7997117914736651  0.4016395550509688  0.8017877305709210
  0.7982505634461915  0.6053066673561540  0.0004140898029817
  0.7959591421877310  0.6015681918207098  0.2025285608834196
  0.7965445286224204  0.6021359958119455  0.4005963951136998
  0.7939498683530156  0.6016356037392171  0.5979880362868739
  0.8014574673808630  0.6042038156735450  0.7995992326427752
  0.7991342422643799  0.7998931301008646  0.1949774152947205
  0.8027598123143835  0.7993993416337920  0.3986387832977557
  0.8013742158513588  0.8022981878238318  0.6055639521645260
  0.8001506209920032  0.1996144845633418  0.3991366686776549
  0.0014639657012161  0.2015853502893602  0.3994055344324982
  0.9985006317193960  0.4014888160290877  0.0001888249169537
  0.0008890752842425  0.5996419636335619  0.7969451694479749
  0.9982916958118208  0.8032094638276469  0.6012078686705641
  0.1993067619848121  0.0019288196614070  0.5990350172196085
  0.2012572110957147  0.2023395165615783  0.2002606394127188
  0.2023444904077917  0.5989437625857482  0.2041230087034126
  0.3994485853430975  0.6008408322192899  0.4049183471627816
  0.4051618844552567  0.5975460318296881  0.5993816645368235
  0.4010044943748634  0.8004027941208385  0.9956889653076565
  0.4017392485021832  0.7983031151235324  0.8088816239245746
  0.6029488420927748  0.0003719460081070  0.4004234224130313
  0.5980369488259237  0.2023094444467770  0.6027664639186491
  0.5996054029834972  0.2000043935762107  0.7969758279224169
  0.6011380079642353  0.4008424651062248  0.2002966740247911
  0.5972783197026004  0.5956507599888314  0.2045022995494602
  0.5958728071628637  0.5969484273232505  0.5967429946380444
  0.7986847278886997  0.8014125556919341  0.9972110039770151
  0.7981715011130533  0.8007289987010779  0.8043529677492515
