Ti V  Cr W 
 1.0000000000000000
    15.3720038313806135    0.0023998420144863    0.0001449001601191
     0.0024007571799185   15.3633006247875361   -0.0006442210894229
     0.0001450310074229   -0.0006449824026597   15.3697544548857330
 Ti  V   Cr  W  
  15 105   1   3
Direct
  0.0049171433698065  0.3938307909872520  0.6012206635926250
  0.9910564316472710  0.8003024493058157  0.2038963250599013
  0.0090037780591525  0.7983147085215744  0.6024107148154525
  0.2011163435707190  0.2031791172713650  0.3953027242259763
  0.1966920051474339  0.2046713843196920  0.6071551604029053
  0.1980351130794469  0.3955779732243082  0.2001384348314715
  0.2024834947508534  0.7975349063496356  0.2012675806969590
  0.4047408242279784  0.9970228623990840  0.8048242630008111
  0.4023875750158711  0.5996998407973324  0.8010426266927182
  0.5954883081931270  0.9951298389421038  0.9958774327278018
  0.7916325124692175  0.1979567823262492  0.7951444441677993
  0.7994073840595787  0.4043693460686162  0.1931623181396221
  0.8017231420418550  0.5933084720291402  0.0029608714100765
  0.8067290779559914  0.7979004289314104  0.3918135535436755
  0.7984117055577166  0.7967428155429708  0.6044218034361654
  0.9996344117189787  0.0016127339723273  0.0006541201987913
  0.9984941980365958  0.0014446674530999  0.2015347582406645
  0.9980909167382500  0.0001778222215487  0.4006637746050864
  0.9999455678062681  0.0004840475974144  0.5990808533557540
  0.9997037369614455  0.9996985679745949  0.7988804220713266
  0.9979059876339668  0.1995369675775047  0.9995552337138973
  0.9989644253934672  0.1996060638728653  0.2004203288403133
  0.9977830164217575  0.1966526734614777  0.5980983757500066
  0.0038109403310789  0.1990199066913861  0.8006625691562645
  0.9972570014411796  0.3985154915265129  0.0003324901433230
  0.9998017516926773  0.3992581108299876  0.2008988169860593
  0.0000192005387447  0.3983222743068837  0.3976974542372937
  0.0002367558785461  0.3985365209927133  0.8018501320881093
  0.0021759885685231  0.6004073346549669  0.0018278218674732
  0.9993913156467855  0.5976685975596077  0.2015212696484498
  0.9999203839249355  0.5990699010143218  0.4005925795703346
  0.0006417357670334  0.5989079437549839  0.5987126287124946
  0.9991747181832628  0.6001158138723816  0.7992816310141759
  0.9993722858492807  0.7992144663242799  0.9997474303090306
  0.0031965925461903  0.7997541192568999  0.4014010880274714
  0.9991402640461697  0.8002840331858844  0.8026805607767303
  0.1976826392462079  0.9975878275351692  0.0000224160439928
  0.1975718928255686  0.0009638971162316  0.2004950519463344
  0.1991920816897609  0.9990552837636112  0.4006711630963658
  0.2001623052983704  0.9993053280482289  0.5998641865223245
  0.1989351195470332  0.0003227726383627  0.8012930907376782
  0.1991358728778671  0.1977342657864746  0.2007110934848856
  0.2014354684705624  0.1993070071130698  0.8338872965911568
  0.1983573917741460  0.4018666638130575  0.9990317171285960
  0.1991822862279320  0.4029351043062322  0.4051862198481153
  0.2035747888081755  0.4042827348647126  0.6025183641617849
  0.2002432006667448  0.4005874528080147  0.8023583748247656
  0.1989855211828653  0.5998005221102540  0.0007026162545332
  0.1989766061990922  0.6001380514947595  0.2018082411301408
  0.1986108684901001  0.6010181300674287  0.4006310241509914
  0.2003591225855055  0.6021036101893057  0.6009711084351659
  0.1973824626415168  0.6002299376111707  0.7998435362405378
  0.1991972440737538  0.7996429271691202  0.9982251204720619
  0.2005739410919116  0.8005605541671873  0.4037751999391020
  0.2051746444831264  0.8004291435600461  0.6020855867833598
  0.2003465629530107  0.7995456263245757  0.7999675760908747
  0.3943697428684647  0.0012342950110964  0.0041425788951955
  0.3980751128217915  0.0002301604934656  0.2010716163245870
  0.4024438263779619  0.0000390731695923  0.3999217756916647
  0.3995846662176750  0.0002143595963056  0.5980576716796289
  0.4015136015999843  0.1999657822664589  0.9991985801694877
  0.3985865547928564  0.2004250138609794  0.1965910685407399
  0.4019234500112356  0.2009149623119359  0.3999880213634965
  0.4002769708675046  0.2003562438711347  0.5999931988182639
  0.4024972427188693  0.2017326011279231  0.8009417031716549
  0.3977590913379054  0.3998661942057031  0.0009445889986991
  0.4019511171575982  0.3999368493325572  0.2004737225456101
  0.4002666615541560  0.4001390189856646  0.4000052531156286
  0.4012541178519789  0.4012953681559904  0.6002135882591018
  0.4006664618039273  0.3991006257997333  0.8009548387139853
  0.3993958264504724  0.5991221855930375  0.0035095770662135
  0.3995836737668176  0.5998686440921679  0.2012577121276831
  0.3995835351918132  0.6002264550801629  0.3994292104889128
  0.4011359299856996  0.6004190726576958  0.5969128111765620
  0.3992159631336785  0.7994439656306704  0.0003939862718427
  0.4011706824506501  0.7998824991338036  0.1993902668730682
  0.3996028546647243  0.7997015550296581  0.3991113548819795
  0.4008127984885209  0.7994878432354187  0.6012718517587700
  0.4014011421935792  0.7999041853328588  0.8009573707821255
  0.5989060445669959  0.9993664093171731  0.2043891053518547
  0.6009051844594032  0.9999729145610718  0.5941209133605942
  0.6046303132071895  0.0043253287483364  0.7938343901053831
  0.5992493597704199  0.2017654806329202  0.9945947886231222
  0.5990664174987709  0.1994255463500730  0.1977529765239992
  0.6002511884693373  0.1971812604495630  0.4003715803901708
  0.6008496605094039  0.2004983650921525  0.6028275954953752
  0.6044196526118499  0.4013523825757788  0.9995665067704500
  0.5974656680440042  0.4008402908496262  0.1999501792432921
  0.6010886945917514  0.3987558691912920  0.4002674417419452
  0.6008400866169088  0.4009293993850739  0.5997863870706897
  0.6007753676113304  0.3974202778544046  0.7994192154293179
  0.5969275924466408  0.6002257626307133  0.9995730464912650
  0.6000870879051197  0.6015679584402002  0.2017369943762958
  0.6017443122085065  0.6018137552609212  0.4001038248688442
  0.6010494588293661  0.6006085675368348  0.5989065094812374
  0.6034656663597636  0.6009327778692958  0.7988416470556952
  0.5994227543731300  0.7974513800381471  0.9983136752794717
  0.5987970901140820  0.8004094862550754  0.1979139717664173
  0.5988519650972881  0.8044082530108200  0.3999715350051729
  0.5991451284011424  0.8005951475020300  0.6001916185185640
  0.6007078167745618  0.8026928480487834  0.7995854381001645
  0.8015054513031561  0.9993959804346343  0.9993159796766860
  0.7987238573354190  0.0002499353812807  0.1985098846237714
  0.7964032391960820  0.0014253333907219  0.3990066356671253
  0.8019968948110860  0.9999460491899274  0.5980287548690606
  0.8014430271056383  0.9972933605830893  0.7987984198544463
  0.7995267845247678  0.2021940301955921  0.0011165012887974
  0.7979234722842348  0.1988270919275384  0.1983652507091196
  0.7993553272498591  0.2016729460102684  0.3973467952496427
  0.8010150929188867  0.2015447699126066  0.5964039764734346
  0.8003506858227123  0.4001853991875283  0.4005955528086507
  0.8002725379074919  0.3997811467814156  0.6003531472767076
  0.8011100735848939  0.4032705819395241  0.8014591402638960
  0.7989472073232460  0.6039713852624707  0.2032194442850445
  0.8015359515691439  0.5971779843274378  0.4002735834160326
  0.8018900777400904  0.5974163346542255  0.5993325091404667
  0.8009729214254088  0.6009228937073432  0.7975768274262798
  0.7989428427789903  0.8000701304187349  0.9988374106644796
  0.7950233607882100  0.8000509104681250  0.1938035978725426
  0.7998626716358289  0.7990142211533277  0.8027728519438158
  0.9961959240692682  0.1997176694681906  0.3993613460653007
  0.6001361176930804  0.0009374490300007  0.3992035455635176
  0.5977532870886297  0.2005836244930077  0.7972897058575034
  0.8004872287215689  0.3984197259225169  0.9957844346949634
