Zr Ti V  Cr W 
 1.0000000000000000
    15.4863295998759050    0.0024137293282322    0.0105674120120943
     0.0024156779473548   15.5040449564505511   -0.0174543962439357
     0.0105707746262879   -0.0174578174046017   15.4782021514271442
 Zr  Ti  V   Cr  W  
  10   1 106   6   1
Direct
  0.9992613343503687  0.9697021288108706  0.7597281907521809
  0.0085635686024915  0.2121022533917080  0.6049334309644107
  0.0001230123270697  0.4350880316384130  0.0363214362394824
  0.0043002059096631  0.5748325940896635  0.2212937785117312
  0.9626011912249933  0.7866359999163876  0.1954114244326088
  0.0034990701456492  0.7998474230407682  0.5982308370855798
  0.1914330662862947  0.6266822089067779  0.5976243950897362
  0.3591286676681802  0.8031128366417770  0.2003242649358478
  0.8330709988855929  0.4305290134915190  0.3979407140857748
  0.7513608648804998  0.7931521848642655  0.1980722832943715
  0.1898084250252966  0.3882874801522333  0.6010870742030123
  0.0020459579178591  0.0072811360032783  0.9983630551112617
  0.0044107846631882  0.9983484987543872  0.3942153011746395
  0.0015771704966015  0.0075530055916825  0.5726421755015407
  0.0008482307976463  0.1984373297721627  0.2014113332960183
  0.0013041042767851  0.2004754439518971  0.3976254350017238
  0.0003408791445865  0.2043827829767447  0.8092401563010680
  0.9987551555055341  0.3853695151633280  0.2268835015090110
  0.0205417372859313  0.3993241354680875  0.4098803222856159
  0.9928509352833415  0.4099566123462781  0.5999540186594745
  0.0010424914958795  0.3967318587607085  0.8001907123216299
  0.0013083495676389  0.6245117974198694  0.0137407096484499
  0.0066519393102704  0.6034082285036181  0.4186252230517304
  0.9905208436596560  0.5984464907693609  0.6106804178276333
  0.9993736358611660  0.5905088424601961  0.8108768816706499
  0.0000178903092729  0.8134812585244546  0.9916874517132322
  0.0031968758752001  0.7993478993034424  0.3962352375964366
  0.0017973078016922  0.7814796140810185  0.8028971024420785
  0.1998516449082295  0.0020551711069332  0.9972360840572337
  0.1994374919897788  0.0007743355991553  0.1990540279657585
  0.2020933207596659  0.9987678638543962  0.3969062360541409
  0.2023852743718041  0.0040049464072673  0.5977256540547656
  0.2021478901662531  0.9990654075609339  0.7995609907929313
  0.2023488667013057  0.2009656213403544  0.0007980898491876
  0.2009470162388473  0.1998569712832498  0.1995412752265804
  0.2041558372043746  0.1979947221927444  0.3987470112717232
  0.2031520294326485  0.1983754368474495  0.8013454990075306
  0.2028041152791905  0.4000075346053359  0.9994214183228175
  0.1972300616513662  0.3986636130887616  0.1982550541796344
  0.2060260652372867  0.4015386589769972  0.3978308844973510
  0.2002027866119478  0.3984896742623975  0.8029827258713349
  0.2007012456619385  0.6018751313562622  0.0012866672348180
  0.2067778987750792  0.6004957733954642  0.1992157533128012
  0.2023431038573670  0.5996829652434449  0.3933427445115426
  0.2003668948638311  0.5977478070402484  0.8046334841233942
  0.1991320518627630  0.8022360026243900  0.9997406158514955
  0.1722698975286732  0.7964328735788507  0.1978064756844743
  0.1995458081769799  0.7996017251966882  0.3993754984073913
  0.2092276064713295  0.8144805287513750  0.5992397986676067
  0.2002693914832769  0.7981755816236739  0.7985108123616707
  0.4007819554683243  0.0001507413772950  0.9987031377779997
  0.4014881152274724  0.0039172753053718  0.1989747596764150
  0.4000395889612320  0.9984787967328433  0.3995253539156123
  0.4042769948946273  0.9994652333701154  0.5983151304573998
  0.4001940010139138  0.9987396000477661  0.7968557263067307
  0.4011688089184746  0.2000150228923782  0.9987135187715837
  0.4005071699319532  0.2004749362762945  0.2000958743782119
  0.4016264883814671  0.1991713350979683  0.3995564413900851
  0.4048392453104717  0.1985017170484344  0.5995356508676506
  0.3997318671035482  0.3998075501003652  0.9999727170582829
  0.3988074999615897  0.3972036622149112  0.1993376903485926
  0.4005079039736149  0.3989850645812202  0.4008645230506067
  0.4003026642617019  0.3976123152478657  0.6007582224553947
  0.4002965168038122  0.3992931042080981  0.7988308948191829
  0.4016255695275533  0.6002799916094983  0.9998438874196747
  0.4037905287869824  0.5933299252643170  0.2004644391067038
  0.4013430773278616  0.5994121105032590  0.4004272634452694
  0.4006173082174975  0.5968877920900028  0.5988103540052734
  0.4000223342046682  0.5981857140680811  0.8001926690361204
  0.3985959224947453  0.8000438218582130  0.9947485236820743
  0.3999543089429660  0.7981263235659397  0.4033228285387158
  0.4016117106910501  0.7998834853467951  0.6004433560883853
  0.4002385147555181  0.7972273249610423  0.7984391346152002
  0.5996107118148867  0.9987573800404848  0.9984918421006381
  0.6004996866952271  0.9969181339480342  0.1988804414493137
  0.6004758886751811  0.9975139987914450  0.3982633443428243
  0.6024038564955908  0.9992878294952612  0.5982251518175212
  0.6011742383121167  0.9975006746778837  0.7993135668621910
  0.6000504927576042  0.1979798561619902  0.9997806180435281
  0.6011161041568031  0.2004656942854383  0.1989079098981746
  0.6022718280952643  0.1989083703321209  0.5991904632316489
  0.6020922886306550  0.1985977379378846  0.7999131168102017
  0.5997191153980860  0.3991619213952734  0.9989920986013551
  0.6009917178290173  0.4002641451888243  0.1997846120187329
  0.6005953475422524  0.3984386750807134  0.3982641391139610
  0.6007541066290573  0.3992052100262253  0.5979989036710055
  0.5996670370197787  0.3999095484815984  0.7992294806101857
  0.6020158383396051  0.5998131494865293  0.0039497243448861
  0.6042906614729801  0.5989187241915528  0.3957473687646562
  0.5996878995646090  0.5995923308233040  0.5969508423826282
  0.6008611473012457  0.5988833322727860  0.8011937475626978
  0.6009440258631069  0.8005456536971874  0.9980937399692482
  0.5647553769086765  0.7896272340686303  0.1994282200332338
  0.5993826826814830  0.7993275585977999  0.3988873822639849
  0.6008013416048293  0.7989506442245574  0.5988545976197499
  0.6007032702296652  0.7981600030066824  0.7987716282032054
  0.7999516557784291  0.0000413608410337  0.8988547340861225
  0.8001888451046244  0.9979061096782940  0.2019297292624135
  0.8009273289133974  0.0007447886780717  0.3996581876095043
  0.8029701728228478  0.0009599902418200  0.5979751582520464
  0.8003037592375962  0.1997107382342954  0.9990370418262512
  0.7990137444915145  0.1986225615817152  0.1984692871765857
  0.8010361812045678  0.1982114436937183  0.3990714899196736
  0.7994152630204872  0.2019356692169915  0.5999162366824169
  0.8017752261012525  0.1997285388578207  0.8009718001090542
  0.8028518012173151  0.3977667368406742  0.1950270491559869
  0.7974049005318290  0.4002683347671063  0.6006168441732408
  0.7993544235335738  0.4000599691904121  0.8002553431875870
  0.8035742271659292  0.5998861761739975  0.0000133662634171
  0.7941511281686832  0.5941635242325561  0.2087338337361568
  0.8030088003980214  0.6176941458042765  0.4039503615538870
  0.7966128990297564  0.6006084747809834  0.5999682080764258
  0.8006035165481443  0.5986281781760318  0.8019537854182601
  0.8020339928629798  0.8004459050176134  0.9962176031187225
  0.8074192480004169  0.8055595543625762  0.4017119006349570
  0.7961027624986047  0.8008435547845597  0.6010464927707273
  0.8010681161590960  0.7961467478289890  0.7991549979214646
  0.9985257518721243  0.0018119639733425  0.1971679281418733
  0.0015738991413394  0.2016785093461023  0.0035587276095970
  0.2100795341379489  0.1952762975311698  0.6001826703774399
  0.4026832310286456  0.1994305508622602  0.7998326398751912
  0.6006508988320458  0.1984586395312966  0.3985290115838816
  0.7975545369284701  0.3995586800624909  0.9984143774952262
  0.6015557122734505  0.5977790354881256  0.1990108538481591
