Zr Ti V  Cr W 
 1.0000000000000000
    14.6062833840515527    0.1702722812976705    0.0037006077807006
     0.1702745868964897   14.6438163421021077    0.1045012191099810
     0.0049439089696791    0.1050263028261782   14.6838168950575820
 Zr  Ti  V   Cr  W  
   2   4 101   5  12
Selective dynamics
Cartesian
 -0.0730332216376867  6.1221948482796034 15.0430631674984578   F   F   F
  0.9137853444891026 12.0936085566283733 12.1034262197168552   F   F   F
  2.2870918354577832  0.6046562265558055 -0.1521038091375236   F   F   F
  2.7882542683437084  5.9376235031313183  6.3734044087412265   F   F   F
  5.7599439046384386  3.1499080738903245 14.7898561077921098   F   F   F
  8.9038525386938883  8.5107272859715213  8.4968827385371437   F   F   F
  0.7075233262092187 14.6013879848905450  1.9748707417377396   F   F   F
 14.8279337810400200  1.2132866186115843  6.6208569005585183   F   F   F
 14.6387632113831749  1.2244219509338938 11.6916264290833425   F   F   F
 14.8799216362022957  2.3856716906911974  0.8277590213758311   F   F   F
 14.2269388576109677  3.4829566410060067  2.9349013687934553   F   F   F
 14.6337047497664337  3.8203640866130479  6.4270806877591840   F   F   F
 -0.2539211669139230  1.8157049155337042  9.0151944538452256   F   F   F
  0.1200120460168246  3.0957825854446845 13.0531321060648615   F   F   F
 15.6814014631936001  6.7822643731782364  3.3572952916026093   F   F   F
 -0.8517978365345865  5.8792327847541532  5.6938538092833948   F   F   F
  0.6591458197578470  6.2698750432553885  9.2230236378732506   F   F   F
 14.2489510977883906  5.6773175079629654 11.4016418894649778   F   F   F
 15.0153450073486052 10.0905978976597108 14.8612902961189057   F   F   F
 -0.2276470541143080  8.5286895084478065  2.9653390343226156   F   F   F
 15.5198941085273816  9.3216209931759568  5.8932066060758519   F   F   F
 14.7009331352829307  8.6657782147543756 12.1141651995547122   F   F   F
  0.4818080968812816 12.2645354903492834  3.6659591266272402   F   F   F
 15.3129440382552371 13.1380947703792419  6.1625102087735817   F   F   F
 14.5455209908724985 10.8267914267057535  9.0771166782176032   F   F   F
  2.2141610818802651 -0.0589401423943834  3.6036807085264164   F   F   F
  3.0361740968808402 14.4595979400209220  6.7115254848942714   F   F   F
  3.7316693026062384  0.6435134073056052  9.2097739386715123   F   F   F
  3.4285583238952175 -0.4405127800582415 11.3590544861908356   F   F   F
  3.5211975745627324  2.2622506502169135  5.3173979183224098   F   F   F
  2.5453301464326854  2.8364097972616675  9.3474568970048750   F   F   F
  3.0538625349770809  3.1529047046145759 12.0845810623221723   F   F   F
  3.7593393332668184  6.2827455860130472  0.4009119727994906   F   F   F
  3.0047330035152755  4.6117426705716102  2.3407738624550198   F   F   F
  2.4097304802019601  5.5961677002951298 12.2733168577552849   F   F   F
  2.7272855144747772  8.5489823648076051  0.8344203143039313   F   F   F
  2.7543188173024959 10.0229664971893389  2.7269418451895846   F   F   F
  3.2853920340623257  7.9617564584286180  8.4182816796491089   F   F   F
  3.0368471679536042  9.3098515590092461 11.8817733655238840   F   F   F
  3.4655704088701027 12.0143064431771140 14.5161843669373365   F   F   F
  3.4361564269727967 11.6576923239425572  5.4037049896070872   F   F   F
  2.7907162675663337 11.6258126904865140  8.9930824172682406   F   F   F
  5.6937492604983655  0.2650637617822641 -0.4606409394190600   F   F   F
  5.2370310137415350 -0.2701348899162078  1.6281044375644107   F   F   F
  5.4189180902308864 14.4567532123376399  5.7416236221892927   F   F   F
  6.2350562172294204 15.1173458944115033  9.2115312059475443   F   F   F
  5.4076532822870993  1.1979451451918226 11.5488322788395088   F   F   F
  5.1255419152232449  3.1270999264901875  3.8229144510041690   F   F   F
  5.1106104284142715  3.8577919837120502  8.1598959621975400   F   F   F
  6.0018849023200334  3.5579381925508624 11.0248581612835874   F   F   F
  6.1455479053705799  4.9480088952609300  5.4711167102120646   F   F   F
  5.5657885223847545  7.1181698631396007 10.0921876743447605   F   F   F
  5.1984321237998392  6.1081376158180163 12.3814079472333134   F   F   F
  5.3837017643117333  9.0962925568788400 14.6651229652008439   F   F   F
  5.5975789899883726  9.5174512651530296  9.8859388208253609   F   F   F
  6.6378863304141724  8.5994779120437883 12.4176782108174368   F   F   F
  6.8922249326576575 11.9982796749141372 -0.7891953253403735   F   F   F
  6.0333629088418688 11.7467000423475412  2.8094713695408218   F   F   F
  5.2023540615014481 10.4495997764427528  6.2919460218913690   F   F   F
  4.8754647590182856 11.8823569559686373  8.8314677372965278   F   F   F
  6.7936011071783904 12.3891836213724051 11.8459168127102732   F   F   F
  8.7252213630440743 15.1572856425646982  0.2832172627136670   F   F   F
  8.9622117139452779 -0.7589978818254709  2.4431194530281140   F   F   F
  9.1168668350009145  0.3626892747575628  5.9595739910069172   F   F   F
  8.4374318441398728 15.0500368892056393  8.2590545924229790   F   F   F
  8.6931511958019154 15.6477836694344195 12.0477387029657574   F   F   F
  7.7719295779707585  4.2843435742591085 16.1064982306587048   F   F   F
  7.3777247965884794  1.1577126504017812  3.7663559262927526   F   F   F
  8.7304230384021047  2.8425962194847831  8.6579078041065607   F   F   F
  8.5465301147213264  3.5452133095265208 12.3172364295798236   F   F   F
  9.1531586536300793  6.1593707717619885 14.8577686450494202   F   F   F
  7.9695905848932664  6.9623947698168029  2.6591377724356748   F   F   F
  9.7797032896697011  6.0386689767897082  5.7591405179821162   F   F   F
  8.0694154546988042  6.2721693637678717  7.4470914754037354   F   F   F
  8.7767370239720304  5.8281555661566866 11.1669431273651689   F   F   F
  8.3548127075802938  8.6311612920810461 14.7102236596144813   F   F   F
  9.4616262215915103  9.2140338327967370  2.8728786562348114   F   F   F
  8.7752419309807870  8.5263314172614386  5.5328636829697411   F   F   F
  9.3757813637395486  8.8095081073352564 12.2068076200571571   F   F   F
  9.2426679618748473 11.3881469469263461 -0.0117689539435296   F   F   F
  7.8192488809882894 11.3749521117820329  6.2714065618552697   F   F   F
  8.6420177551408859 12.3084945060767517  8.7045415717123689   F   F   F
  9.5197732588576152 11.3521506823116489 11.0007931242010599   F   F   F
 11.3962272897791586 14.6046624499191058 -0.2599358090193742   F   F   F
 12.3957837719310149 -0.1935563388909544  4.2393965523724271   F   F   F
 11.1205582383411521  0.0390888122465493  9.2000655496441812   F   F   F
 12.3445577087898286 14.1719926884554184 12.1086890954911848   F   F   F
 11.6543780121321365  3.5994182592228454 14.9834063904019157   F   F   F
 10.7683316544150873  2.5607118707433516  2.5246364379640354   F   F   F
 12.1794246077588610  2.1929103988776943  7.4068007917294718   F   F   F
 11.3972517256837378  4.0015464870440649  9.3441412728181739   F   F   F
 11.2978657738400745  3.2302605283495427 11.2852184021350439   F   F   F
 11.0245667211043585  7.3492412250318591 13.9897572023246859   F   F   F
 11.6771423611616818  6.2360559548546215  2.6965837988550154   F   F   F
 11.6798438120650232  3.9976767201602308  5.6911612871295674   F   F   F
 11.6238802966349493  5.9997979300984969  8.7660675742476339   F   F   F
 12.1688819378209772  6.0623985071808830 12.4184108190806217   F   F   F
 12.1674362932979108  8.8399270761339572  0.0954820267993107   F   F   F
 12.0453402978122810  9.9242982893867815  3.6227390557608725   F   F   F
 11.7430552754408826  9.1450740205763577  6.0684255432948175   F   F   F
 12.7445423112178720  9.2429256455999198  8.5842626507032396   F   F   F
 11.2352508970313316  9.0213096866194320 10.6584764998252002   F   F   F
 12.9492769396283212 12.2736287863812201 -0.4026252140561025   F   F   F
 12.4425228229541851 11.7673910838751876  2.0032914304600644   F   F   F
 12.8490403595930083 11.8231691534653418  5.5936459558711604   F   F   F
 11.1822794041401963 11.6647288487032359  8.8457052577077793   F   F   F
 11.9893634517514140 11.3248583164544030 11.9125337603785209   F   F   F
  0.7440973628268098  8.4671524473712303  8.2312039537552462   F   F   F
  4.6455559425902653  8.0369154473454074  2.2384793963734935   F   F   F
  5.6035236582150212  9.6062324043168630  3.8425732836537034   F   F   F
  9.0589033701146651  2.5200659839581032  4.9163118870747713   F   F   F
  8.5759012032033315 11.5760760547317787  2.4650050480605268   F   F   F
 -0.3007642850395315 14.6943469961136852 -0.5255132422487802   F   F   F
 15.3102474208015362 12.5274108450710653 15.6947916969031507   F   F   F
  2.3997632684072716  3.6874587234366345 14.5892801482181298   F   F   F
  2.7757264168076641  2.0244205051037292  2.2648627281778317   F   F   F
  3.6045193565832045  5.2798407049247498  9.8401402667516784   F   F   F
  3.5630435324702328  8.3909173886506476  5.0045372992342552   F   F   F
  3.0929279855423202 12.5851327496191860  2.2110928712499134   F   F   F
  4.5328149075622166 11.3216044867704717 11.9585137699323809   F   F   F
  6.6200498296119692  2.0852440413433473  6.2509636023974124   F   F   F
  6.4620660765384859  6.6467848296678724  0.3117455338994983   F   F   F
  5.5538135924121255  5.6360640410735083  2.8321160728061421   F   F   F
 12.3159199541137916 -0.5101181009423059  6.8201273455254796   F   F   F
