Zr Ti V  Cr W 
 1.0000000000000000
    15.4243531601052801    0.0069213360103042   -0.0227130969377285
     0.0069117328085832   15.4243730448160701   -0.0099851585265742
    -0.0226677546087976   -0.0099574154515165   15.4321734753061364
 Zr  Ti  V   Cr  W  
   7   3 108   1   5
Direct
  0.2060845052500995  0.0008863194013445  0.2129137982709069
  0.1699608272844143  0.7671712694545811  0.5987791426815724
  0.4020607678866154  0.2006168748467022  0.9977160589885490
  0.3641921714858253  0.6340566098301635  0.5997359406516939
  0.6377104561746436  0.6006178790487402  0.0389501513000886
  0.8048808868154466  0.5989189729286671  0.2082528577287390
  0.7600322947646903  0.7996868183182136  0.5982018001015789
  0.9892995001659296  0.6019411759016042  0.3872197155586283
  0.2035403050394486  0.6014188347558000  0.0046854963485148
  0.5594097192357886  0.7870146846290669  0.5977225750575073
  0.0010688502407006  0.9916924576497702  0.9974280274650219
  0.9990888318745726  0.9992684198420543  0.1992003265551325
  0.0048586410592324  0.9966290611845725  0.4048700256651032
  0.0030430923226421  0.9988048471008530  0.7943245302135231
  0.0012700637212746  0.1986268111589506  0.2000354010270757
  0.0002887224069752  0.2001189103431727  0.3982252750897136
  0.9984276885085770  0.1942859018193556  0.5993028760575403
  0.0073059128520817  0.2001506111848243  0.7979255281829530
  0.0030183523079408  0.4050354882935972  0.9985619482559960
  0.0019795693482707  0.3990382321109553  0.1967264144845245
  0.0010029612422082  0.3990283840418457  0.3989457088988528
  0.9963283513972723  0.3966294102904742  0.5978505206199056
  0.0032574447900628  0.3999470303368852  0.7998646689803680
  0.0104593307417197  0.6045843487322996  0.9968945247528557
  0.0093253227837756  0.5996215409392263  0.1954561519304804
  0.9915888755816239  0.5996100381542944  0.5996166170072693
  0.0039180918978057  0.5983621811928307  0.7976938743678910
  0.9995140683459300  0.7977444287469415  0.1925596061591749
  0.0013656786289939  0.7982951379069164  0.3984167346260407
  0.9747495343414739  0.8036296997504169  0.5995801116946153
  0.0046687761761415  0.7973537042342550  0.7996519760492515
  0.2000662068615799  0.0006097944034813  0.0022887126333769
  0.1954041316151644  0.0042470130460568  0.6004912728919379
  0.2048458979821248  0.0035093404052680  0.7992153895219788
  0.1953283376501755  0.1995325838149064  0.9965014545952228
  0.1993287237320008  0.2050170898420373  0.1971291274408473
  0.2015438256772060  0.1965608018643410  0.3981562797214658
  0.1979628014154073  0.2000871627243647  0.6031247771930383
  0.1993990827280052  0.3993969217729474  0.9998832214431969
  0.2025340082488778  0.4018485054587969  0.2005018509974559
  0.2012699579060919  0.3976749001768828  0.3996462080258571
  0.1974027531506336  0.3960267950542769  0.5972924500743885
  0.2083314808989817  0.3960379114318539  0.7991982515514069
  0.2033422757789178  0.5979243067966362  0.2075503501655796
  0.2006245476774276  0.6017823100393151  0.4054019515702591
  0.1739588827555507  0.5792852307478772  0.5968945324491276
  0.2038963225065036  0.5994019743819478  0.7915322405306665
  0.1969661740795962  0.8024936480030606  0.9996110092582315
  0.2007690528315196  0.7937940811475682  0.1980602568709196
  0.1996975540246015  0.8041064047885732  0.3936910507914162
  0.2035119483297648  0.8016114832287465  0.8046295704937201
  0.4026880355578918  0.9952843636763278  0.9997714546482713
  0.4085700230363921  0.9979669905853964  0.2002564841175229
  0.3983477352916067  0.9998731394066664  0.4001887139127394
  0.4020099143508382  0.0047309796197403  0.5998164189071786
  0.4033477172671056  0.0002525029889036  0.7987075665699037
  0.4033787277729846  0.2030125276292602  0.2016932493074135
  0.4009863306038602  0.2007616942666269  0.3995110905631751
  0.4013012453312742  0.2026141508757625  0.5966233706851495
  0.3977128487229177  0.2049375827174308  0.7934070114071448
  0.4027775912088962  0.4079429521596418  0.9962420744772740
  0.4014793198860548  0.4023243353523105  0.1978377479364606
  0.3997061293044953  0.4023022174371869  0.4011889896500706
  0.4012937213824123  0.4042275717924442  0.6039778920249229
  0.3993859345752128  0.6047779242253467  0.0015388257946513
  0.4007693474395035  0.6013085890729608  0.2009045056880624
  0.3979621796377721  0.5999284633924723  0.3982313884928420
  0.4048662550858009  0.5964899389528859  0.8070545594267866
  0.4017899352127316  0.7998392412909937  0.9993483732753450
  0.4007867560932780  0.7991439164014482  0.1976273744268892
  0.3994457903206913  0.7996938348959264  0.3989739253420491
  0.3741982884787312  0.8218002593505487  0.6006036738548814
  0.4006566104266213  0.7995852784021081  0.7992290928949012
  0.6050537013216909  0.9970071264411318  0.0007113700434231
  0.6002401867593667  0.9977340162615561  0.4004465136193471
  0.6017686211960365  0.9971482861046974  0.5996326689795802
  0.6014871317010955  0.9997769033194713  0.7999030213179482
  0.6086053710303185  0.1985800782104666  0.0009934986795582
  0.6024119671519823  0.1996205308826460  0.2011969174858207
  0.6003717495791302  0.1991755895521944  0.3998958979243554
  0.6027308206765547  0.1973534926430682  0.5999921662201750
  0.6013850222886152  0.1983703814357509  0.7988236817821560
  0.6032471566399751  0.3984059910432554  0.0005784118037412
  0.6005193631699911  0.4019680519414434  0.1997933126210731
  0.5990396877812985  0.3994075174407741  0.4007928569275763
  0.5990387083807333  0.3991144628394492  0.5989690597802690
  0.5967455791266789  0.3988177120700922  0.8013326881691402
  0.5950429901077277  0.5995346703463403  0.2228089206527588
  0.5966102874216174  0.5993845607939920  0.4094522739616890
  0.6037756304958752  0.5973754648169364  0.6038801047149326
  0.6014461110283482  0.5989942382659796  0.8010214811888098
  0.6017670535942957  0.8011536456873430  0.9999756726638023
  0.5997905201149979  0.7970600133848637  0.1997301814335674
  0.5993615251374432  0.7997952846986314  0.3990828271399647
  0.6000325607937067  0.7980646824117628  0.8026909946463783
  0.8042683906063208  0.0001669381613072  0.9988210130008689
  0.8012999700887014  0.0000569396823139  0.2013646495962767
  0.8023102442701522  0.9995072907235012  0.3995639167984870
  0.8048305826259767  0.0026313812573069  0.5994410492298458
  0.8016420199248595  0.9987676871391205  0.7996907470259916
  0.8046571244427287  0.1990700915937876  0.0007452384747095
  0.8024246346377820  0.2002921374499682  0.1988171269280762
  0.8002270314158378  0.1993195905756392  0.3988662053216492
  0.8002620582877293  0.2009595468762382  0.5992172168953539
  0.8373861627641456  0.2007915132724671  0.8353177522489367
  0.8041928748458483  0.4002570368591019  0.9983863034442051
  0.8017746054115501  0.3956929413790533  0.1999205181229673
  0.7986319631640989  0.4006283583047174  0.3998277992246174
  0.7993046933450279  0.3976487974107141  0.6010351072930468
  0.7994198766889793  0.3998298874890786  0.7999353443362878
  0.8224744592098628  0.5992034157521610  0.9954147186045504
  0.7953479207217989  0.6007685194857195  0.4103946777929745
  0.7993546129868120  0.5956137969324462  0.6035310415385915
  0.8020840914448123  0.5980079613112603  0.8006670381549105
  0.8050751687552754  0.7965705749517495  0.0001995015293940
  0.8002096912884632  0.8033899188489367  0.1983067111627234
  0.7997653413586783  0.7981579584121454  0.3937803018227717
  0.8001526416103442  0.7970300721160380  0.8019051655342233
  0.6038040111413636  0.9992358137597431  0.2009085163629116
  0.0010798418603148  0.9947888493607573  0.5991875808809161
  0.0009704601234399  0.8001749624633208  0.9965526269334147
  0.2018100360804214  0.9987763544878249  0.4109418786546715
  0.2030535078168252  0.2007845774499254  0.8012078048906538
  0.4017463536067398  0.4026907910003870  0.7988265710453232
