Zr Ti V  Cr
 1.0000000000000000
    15.3990340272275770   -0.0170018773457157   -0.0022529018582575
    -0.0170107766548915   15.3787801482628375    0.0165544931564424
    -0.0022517709109467    0.0165430754876648   15.4057927644380346
 Zr  Ti  V   Cr 
   3  13 107   1
Direct
  0.1908065795667765  0.2003194234208755  0.3735681334404312
  0.2039250639062882  0.6196140223749411  0.3825472612933649
  0.3834876990851599  0.7945530866276929  0.3898654171967072
  0.0019948410868340  0.0060520843912262  0.9966722069674223
  0.0002626779099928  0.1951411766804767  0.8100789120602029
  0.2031636253687785  0.1995179158415804  0.1759826464813994
  0.2022506426942264  0.5911029969006742  0.1830548201631554
  0.2098209846576929  0.8011108889742421  0.2120234290078802
  0.3927198865232790  0.2046660666112470  0.6033755681591226
  0.6099622435476817  0.0140636212086920  0.5919364122084373
  0.6053652376866120  0.1908296396211092  0.4121010735168651
  0.5899014375090728  0.2023096201885038  0.8124706834890527
  0.7948821250662533  0.1963551879142907  0.1959531833933851
  0.7838165721648230  0.1959392098061728  0.5934222050767655
  0.7975401853025160  0.1990573980422836  0.8024522410378676
  0.7985036444604446  0.8026872206178508  0.1971216179108209
  0.0043642146013512  0.9991943928540095  0.2067995695538725
  0.0018374561242834  0.0013087372613872  0.6021157564532965
  0.0019869924222073  0.9973663881207270  0.7982507976816923
  0.0006035592719869  0.2031306286573792  0.0077213419277023
  0.0012624210352507  0.1978885976014333  0.2028565252915873
  0.9919153459243690  0.2045512724409475  0.4016052161021673
  0.9983605204151668  0.1986420646666868  0.5970612837266317
  0.0004429603132492  0.3999642244077648  0.0021791546748199
  0.9999030133823658  0.3985987304569678  0.2018819482712210
  0.0007209694791299  0.4006322318922562  0.4014081901348897
  0.9988744227061244  0.3990316269752053  0.6020731879051783
  0.0008529003672268  0.4003163051084095  0.8012827293845520
  0.0011460855969272  0.5999321038016147  0.0015183314092289
  0.0001927728461069  0.5987761640487818  0.1994546495078872
  0.9956257867342925  0.5989219020914486  0.3994547285769209
  0.0011310600836926  0.5997181200568648  0.5992049534254833
  0.9999868355220274  0.5995332224317221  0.8015140307847959
  0.0023057484140398  0.7991294301344121  0.0028336499045349
  0.0016926354158628  0.8011127500293708  0.2015178795935024
  0.9930257233774520  0.7944571929427334  0.3998695212559561
  0.9994681668034736  0.8015260090602729  0.5995565410895692
  0.0001583584508100  0.7986231027837203  0.8009216723406622
  0.2033231446162478  0.0000923857239483  0.0000231644518762
  0.2015155835522809  0.0033593658797177  0.2015325114290479
  0.2018756709201760  0.0012059299349441  0.4022114119620190
  0.2005952667578013  0.0035034221848150  0.6002463435075294
  0.2027146841762100  0.0006441714060764  0.7991644960866008
  0.1991500788056390  0.1997869571621601  0.9885391521132633
  0.1958754011114987  0.2010266119821703  0.5965496838760197
  0.2012788852941995  0.1996331799412075  0.7962080939795593
  0.2000096584457037  0.3983658598681529  0.9993651573362373
  0.2010944957960324  0.3960085331464784  0.2009076675696732
  0.2000204916117201  0.4064906668870226  0.4015640496232699
  0.1995880396029279  0.4012691697075460  0.5991131126895737
  0.2001228650020791  0.3996119017477587  0.8000425071352627
  0.2006339733936227  0.5996465076564036  0.9932250149599462
  0.2000947308308986  0.6017574258681242  0.5995960628884802
  0.2010400037283778  0.5998320961428969  0.7981138736686527
  0.2009282594276269  0.8002397772122437  0.9995215331137546
  0.1816695222994179  0.8199727168992154  0.4086407131038094
  0.1996695226870997  0.8017310562217654  0.6028715272426907
  0.2002931530114378  0.8022363397586125  0.8013001135869764
  0.4017567414026315  0.9997423383112530  0.0024161146994846
  0.4017590039501643  0.9976065690079614  0.2015418280376331
  0.3990721887852207  0.0042754262340245  0.4011369730556614
  0.4024519788865379  0.0002761205280952  0.7987076051008785
  0.3992943777588784  0.1985888104180056  0.0023565828227380
  0.4013436373107965  0.1982663604023619  0.2017712773180050
  0.3990522613304242  0.1995573977808239  0.4005688892997811
  0.3959697869018703  0.1994545346484178  0.8059684661729601
  0.4004683936307429  0.3986700830185002  0.0022040035436390
  0.4013567945550500  0.3974824103648416  0.2020041946381396
  0.4001114198794876  0.3950448796252911  0.4017683988155406
  0.3995648649789230  0.4016633930458389  0.6015430184250528
  0.4006125651381549  0.3993676522324096  0.8008132747003912
  0.4004520171044578  0.5990389992753540  0.0009260146068280
  0.4035353442382219  0.5969600754102460  0.1999696197522393
  0.4088668971133537  0.5902497357790195  0.4003171797930858
  0.4005797928452314  0.5988226489653065  0.5996078498206688
  0.4011533592483575  0.5999334457271138  0.8013831667283258
  0.3998055259173405  0.7997654547265094  0.9974092725235553
  0.4056853324309746  0.7996512347239366  0.1908578447055242
  0.4002613391658291  0.8006064441856038  0.6018820240370817
  0.4007374312959679  0.8000316128197120  0.7996533105567593
  0.6018295998984521  0.0003789762259971  0.0007081459687536
  0.6032766196554563  0.9996252341336472  0.2036174539776880
  0.5939169288027455  0.9945943969750647  0.3985308613337901
  0.6009585947286858  0.0004469799456251  0.8013517465328923
  0.5999604857129949  0.1996906054735454  0.0074743292887770
  0.5976238648176493  0.1981373925671193  0.2018299712561063
  0.5915961522755950  0.2059708271159478  0.6088221090088877
  0.6014492194045600  0.3994286129793864  0.0014934564553528
  0.6004914686759558  0.3974366273149263  0.2029442343225334
  0.6012087807285618  0.3988381985796698  0.4023100980962750
  0.5997829267363713  0.4021416935206020  0.6024811531667398
  0.6005714625064115  0.4021700007311546  0.8022432421094883
  0.6012088187682226  0.5996454332037728  0.0013509173128786
  0.6022884923469501  0.5993670830703499  0.2002880519495052
  0.6022317149710128  0.5987083810791294  0.4001330888063256
  0.6003443264878718  0.6023865517715699  0.6006415741542277
  0.6007228742349849  0.6005979769672807  0.8009158451929496
  0.6013153940892867  0.8003895056314374  0.0005407931920163
  0.5990027076587965  0.7986194820299209  0.1995079353595420
  0.5994317805707051  0.8004354151073131  0.3995161741034367
  0.5988183054994197  0.8014294125481525  0.5994840158064870
  0.6000819062912436  0.8020855494949247  0.8004419851945054
  0.8004709522247999  0.0000095422509159  0.0009246903739694
  0.8031126269072628  0.9996397649294514  0.2007136348528212
  0.8336141717967465  0.9975426919131691  0.3980821805436384
  0.8065300212702133  0.9971357215858786  0.5983772386637519
  0.8008922856640308  0.9981816447975770  0.7985591522505843
  0.8008491751585890  0.1995699456601195  0.9982140077194934
  0.8012350420101095  0.1973240877015461  0.3963570863724421
  0.8011059887712635  0.3984885313368710  0.0005265677445336
  0.8009988517117776  0.3988743935481400  0.2005205932818107
  0.7997034808743388  0.3984101417428275  0.4001771209409339
  0.7996895978034627  0.4007704527905966  0.6000663965760732
  0.8004490296816300  0.3998796197035383  0.7990252275033074
  0.8014754986733377  0.5988257956754994  0.9996833263537805
  0.8005159725416841  0.5968738580638896  0.1991154446577269
  0.7988917816619254  0.6000373631327944  0.3991000849899379
  0.8000895492352220  0.5993031102954154  0.6000481858387277
  0.8004265217207728  0.6001505871025916  0.8004245099077258
  0.8015534074442549  0.7999848051071393  0.9968697979628849
  0.7972676025580523  0.8012116022885860  0.4019664920868308
  0.7984547015287591  0.7995484091069835  0.6009808614069229
  0.8005915185402473  0.8001769884285765  0.7998070558064468
  0.3985772975163348  0.9980820648920973  0.5992905146496941
