Zr V  Cr
 1.0000000000000000
    15.5277836321495606   -0.0011014415353407   -0.0036444284316418
    -0.0011015311309700   15.5268057001839015    0.0012045176117796
    -0.0036459540422085    0.0012051907892001   15.5242636607114743
 Zr  V   Cr 
   5 117   2
Direct
  0.9984821526895985  0.1992796800748104  0.4004711706624542
  0.0349697616923520  0.3993698419110687  0.9984910531911355
  0.6001142974407232  0.9996851950920984  0.0023200025577714
  0.5999517008729410  0.9993720551540508  0.7785432214775089
  0.8040767831765071  0.3986211724308029  0.8069638965498022
  0.0010077308108982  0.9981021951187449  0.0000256106424302
  0.9996202571753839  0.9987841031155080  0.2005321099586806
  0.9991132123320371  0.9948234727555549  0.4006098689945024
  0.9992963935071599  0.9986048179152657  0.6001802509826641
  0.0012898145198272  0.9988641177490096  0.7992726797330856
  0.9991186975311424  0.1956021149175537  0.9987142270032947
  0.9973540668274811  0.1992882730805188  0.1963535849804424
  0.9986238676381706  0.1987433277059687  0.6042674229253847
  0.0000277527910318  0.1986207726869661  0.7999958330328116
  0.9976365838481104  0.3998934020699576  0.2028419991270997
  0.9989647557866198  0.4038137635439021  0.4010023110608054
  0.9993272440324600  0.4001299297645439  0.5990036573672455
  0.9994269116132248  0.6033476251474401  0.9996949795355154
  0.9974514544969523  0.6003946896109390  0.2009349808970748
  0.9988866238366222  0.6007057451361453  0.4005207855679421
  0.9992112301684378  0.6000940924418710  0.6002211681461743
  0.9995158691326512  0.6006520516015459  0.7988110392966087
  0.9994852022937536  0.8000896955116451  0.9998661149409226
  0.9990678801142887  0.7994829519116942  0.2003183024333751
  0.9991320292231080  0.7984559604628930  0.4005296351518406
  0.9985865907287622  0.7996157924426002  0.6006350725799113
  0.0004677314061424  0.7991819905536283  0.7998878724929207
  0.1984349419258455  0.9992184241934075  0.0008293467821197
  0.1982142126406803  0.9995611595199818  0.2011977906643805
  0.1999745716640243  0.9986235843331033  0.4004124264663306
  0.1989162269467930  0.9995034206832939  0.5990020993152397
  0.1982059904648800  0.9993412632434246  0.7989858763244735
  0.1977811259287934  0.1986828391277332  0.9996415991871389
  0.2005280631238298  0.1995834609445955  0.1992804301378323
  0.2032034535371044  0.1991301765782983  0.4001048437798577
  0.2000401573145675  0.1988327060601147  0.6003515483206786
  0.2014284164348958  0.1993594964450928  0.8002686537062718
  0.1971648327171270  0.3993014386777392  0.2013272021478360
  0.1999693674704770  0.4000814089891283  0.3999142065761433
  0.1996853085450282  0.3992886563000662  0.5988090444137764
  0.2009390435508957  0.3990021811982306  0.7966565726832640
  0.1976815224073824  0.6001565862829542  0.0002701390324964
  0.1995292004699024  0.5993692133550352  0.2004198486676458
  0.1992821645474310  0.6003145027934675  0.4002155388014716
  0.1989033759636285  0.5996252872557321  0.5990594420061630
  0.2012822900518139  0.5666841592963473  0.8328898701608529
  0.1998347933101309  0.7993507220204160  0.0001315915927734
  0.1989680628708114  0.7998913438143423  0.2005168154083490
  0.1996262977578368  0.7991261025937899  0.4002789615458808
  0.1998324245428062  0.7998508837710190  0.6002323118068120
  0.1994741971598995  0.8000009633279459  0.7999252009146605
  0.3946895244115194  0.9992907243157891  0.0007249582902353
  0.3983019361482272  0.9997569620095972  0.2006380660617679
  0.3986757434177015  0.9991075447426097  0.3998487983765001
  0.3989216049633063  0.9995457324291724  0.5996107866085689
  0.3950805400032660  0.9995494701588602  0.8000052667940231
  0.3974019206733150  0.2012230280288451  0.9996764571944017
  0.3992140332503494  0.1993339842015750  0.1992970539419885
  0.4003726608743082  0.1992481850080385  0.4001186266539030
  0.4000359893178336  0.1992495336433237  0.6007695239669089
  0.3997147270962238  0.1994191045906801  0.8009687344866318
  0.4010305106748810  0.3997256397427280  0.0001629937212888
  0.3967499723839280  0.3994499962381370  0.1991710062323213
  0.3993933255945501  0.4001234774526072  0.3999681028187083
  0.3997630384219823  0.3991841412775531  0.5992796521931771
  0.3970969905731206  0.3999191529945302  0.8013007184285169
  0.3972074733100194  0.5981059949240844  0.9999315729706227
  0.3989972245234865  0.5996961734212295  0.2001782609175433
  0.3993357881480284  0.5997012590877054  0.4000136331294022
  0.3998295346778999  0.5999904629413557  0.6002684428025602
  0.3997629314946142  0.5997195648965393  0.8002048514058383
  0.3995038486665930  0.7993132530567967  0.0000686349099435
  0.3996851633440582  0.7995816746470827  0.1999418196780291
  0.3999524989525185  0.7994879638855988  0.4002871047778261
  0.3997693560931865  0.7995866199538513  0.6001744438911496
  0.3992899601356094  0.7994003595287509  0.8008280074413635
  0.5991248822198334  0.9994037991828005  0.2053943958560591
  0.5988486645940124  0.9990663508028725  0.3982568467244861
  0.5995213896233170  0.9996313633602696  0.5870779950567769
  0.5992649240481125  0.2046343239198423  0.0004107995911006
  0.5985737684376080  0.2004621106754279  0.2002213892912380
  0.5979182707142933  0.2003527054437608  0.4002450379217656
  0.5992578494305837  0.1996205212726542  0.6002474123881941
  0.5994224652549147  0.2042748913809778  0.8002734326456233
  0.5998374409446376  0.4010553948991574  0.0014888082991694
  0.5982546969054814  0.4000535188978509  0.2015717546841842
  0.5982662080555415  0.3999877310457924  0.3997973925453240
  0.5985548891703614  0.3999507768724274  0.5987197019839545
  0.5967214419703948  0.4009217257186319  0.7986777152940163
  0.5995826279065268  0.5981726394393062  0.0003264443849632
  0.5989451696814480  0.5989996890959706  0.2005434528960008
  0.5995386103571169  0.5991503156168019  0.5995443608707459
  0.5993617891836469  0.5986208348160331  0.7994803911060059
  0.5996872993901190  0.7938852506532306  0.0005799121071097
  0.5990748420839977  0.7986364058890776  0.2009865344391990
  0.5990290130557837  0.7982888944737055  0.3998759993485270
  0.5995188184924766  0.7987987725127786  0.5993129039655349
  0.5995672710699066  0.7950070723848481  0.7997116134164357
  0.8049342701664657  0.9984945376023030  0.0017077800143919
  0.8001991950481402  0.9997818398245331  0.2011070030190219
  0.7993743518312953  0.9985792410719091  0.4002000896303295
  0.7995653517743535  0.9993836231939683  0.5999743569784942
  0.8049670680401719  0.9985946962989887  0.8007546428964124
  0.8000464342790248  0.1991067795531926  0.0010598978483256
  0.7973361804192594  0.1988451573672120  0.2002387692728516
  0.7938607526168930  0.1985939549964382  0.4006053812154591
  0.7984207518232879  0.1991625534353511  0.6016428685269787
  0.7992662382960583  0.1950608070527094  0.8016832233055661
  0.8067022240692816  0.3993821205105947  0.0088100693371127
  0.7983753250961375  0.3991295019577900  0.2036917198034719
  0.7979244403294307  0.4003928399678281  0.4012836916356264
  0.7984151662226884  0.3988994602417431  0.5982266131126486
  0.8002362853735346  0.5997479605933924  0.0016090025298235
  0.7981638262764463  0.5999154253495873  0.2013620084817011
  0.7985610235571098  0.6001421589562557  0.4003922652682674
  0.7987542166803123  0.5998261041708535  0.6003934970214563
  0.7998291527022288  0.6030466868984464  0.8007259107870633
  0.7993758096065783  0.7999436370576378  0.0008174412984647
  0.7987819452666280  0.7996905831148636  0.2004798584417717
  0.7983173576357264  0.7993393049957896  0.4004986883681023
  0.7989757867145536  0.7997961088991475  0.6002539165663109
  0.8000098951536221  0.7999785134151891  0.8014951400174507
  0.0060755432698758  0.3998613326514076  0.7958384535745221
  0.5988776394495222  0.5995457523363099  0.4004619494573541
