Zr Ti V  Cr W 
 1.0000000000000000
    15.4149939690695010   -0.0041197707411214    0.0051244012526811
    -0.0041210926464625   15.4234402589122102   -0.0060663359120509
     0.0051270839828618   -0.0060686626181498   15.4040961855710652
 Zr  Ti  V   Cr  W  
   3  13 106   1   1
Direct
  0.9751066719224244  0.7733057597400779  0.7944902623317890
  0.2056583369993243  0.4417348620396738  0.7891225333377826
  0.8055576032675975  0.6042528730433524  0.7947027062276760
  0.9986413249205558  0.3970004784938147  0.4080599318967145
  0.9941035683294311  0.5990643938650867  0.4037738139744135
  0.9733726403114122  0.6033807879546259  0.6194207383723965
  0.9967974203537002  0.8023895604309242  0.4023540354653808
  0.2014884074013249  0.9823319015770050  0.8082473983719924
  0.1972768912832141  0.2058522835459532  0.7982572045329949
  0.2072327781708248  0.5994838476080222  0.4076792864820872
  0.3933089376892669  0.8010789965961873  0.1981477342271896
  0.3893595609534913  0.8075256921048987  0.8027093450616468
  0.6097756279820901  0.8024414684686970  0.9942602720846371
  0.6066912437400618  0.7992120372819539  0.2023018853147033
  0.5983051905116274  0.7946901368630614  0.6014983119814936
  0.7952573300277324  0.9932881324234916  0.9979792669174397
  0.0064562410108930  0.9942643810041940  0.9965794046787951
  0.0005534184660708  0.9994716741207312  0.1980618182327586
  0.9992631981549270  0.0021988454954487  0.3979970243546582
  0.0003224981549943  0.0002830526418269  0.5998553983187550
  0.9955287645838764  0.9951826195981440  0.7986913663821734
  0.0009650109949479  0.1952557591788505  0.9992678994098748
  0.0006853817875446  0.1984751372194142  0.1989950688547303
  0.9997143786478900  0.1970346157035268  0.3997230263694433
  0.9999720327423848  0.1994665026049842  0.6000698712841260
  0.9978176286249214  0.1943949632098746  0.7996107055289735
  0.0025324348557629  0.3950194288895862  0.0017308636385884
  0.0010378394335144  0.3983924494999144  0.1998543745274542
  0.0033712169502562  0.3969810217470166  0.6049625738999299
  0.0026224259406660  0.3907154768350836  0.8027068534031476
  0.0039462556344494  0.5980376174191493  0.0062358686379968
  0.0018203753416928  0.5980648578890647  0.2032036281780043
  0.0152418657014110  0.5783988373306838  0.8154239098196295
  0.0045010371950091  0.7973458288332534  0.0033649207953557
  0.0008613871092902  0.7994903342347626  0.1983272963403396
  0.0014680804286595  0.8037245209298575  0.5911788913341358
  0.2005591025499835  0.9978360222444239  0.1993552447005276
  0.2008963193060409  0.9997605194916392  0.3992223045773244
  0.1997730694047737  0.0006461086880713  0.5968313307336065
  0.2015382731228210  0.2006861141562084  0.0010198055625121
  0.2000157364727359  0.2000371310743052  0.2008765363966730
  0.2004995573285407  0.1999479146054148  0.3985399569414033
  0.1997761383123744  0.1998507412055071  0.5971879141275428
  0.2033346645765258  0.4017722197971880  0.0030273955185594
  0.2001924048017078  0.4014388155711591  0.2020827798767124
  0.2025005231635827  0.3997140426535654  0.3990594534942288
  0.2002845006442499  0.4019582517557462  0.5904173241872449
  0.2043229125945443  0.5992046478678642  0.0034102082960101
  0.2014613785993085  0.6016569033894354  0.2013345218106839
  0.2072802270089469  0.6015749766717964  0.6047748561956743
  0.2031265361556722  0.6317728141785185  0.8078769243640634
  0.2017782749388813  0.9660507346973781  0.0022630224406172
  0.1959030175140412  0.7988770800850299  0.2061052107532995
  0.2000469025614943  0.8008044558944918  0.4031108725378711
  0.1888309986270641  0.7993994991617562  0.7941480529896825
  0.4006143005014938  0.9994669494060598  0.9998334850632005
  0.4008479876259822  0.0024850381398931  0.1999041395230231
  0.4012317703192581  0.0008513914631139  0.3993143188813856
  0.4000045529743144  0.0023034575104033  0.6003779129706672
  0.4017264938988953  0.0052137938006434  0.7999629801256165
  0.4010611212174794  0.1998727077113786  0.9997868393702041
  0.4004379914924953  0.2010480796602790  0.1994676988503844
  0.4013063164516584  0.2002095654348863  0.4003056110486551
  0.3994571920520150  0.2019838032367736  0.6003143529917397
  0.4018544237908391  0.2022801877083612  0.7999440027215861
  0.4023971784610381  0.3988836042770647  0.0002371949219329
  0.4015132753450023  0.4004713819108985  0.2006901414377451
  0.4017590180427136  0.3999599234947207  0.4003673453711035
  0.3986519562417715  0.3995951599322480  0.6019818612405766
  0.4069167985076687  0.4007036957884314  0.8012427466115989
  0.4033761446810524  0.6027827323144502  0.0014036955525883
  0.4017521955233704  0.5983966152775492  0.2008365672264377
  0.4036113030203271  0.6010311203591889  0.4007726622310310
  0.4039819289526387  0.6034104786188011  0.6019923575766825
  0.3991116151388047  0.5995630561376627  0.8031100777185119
  0.3965054383037590  0.8012398072920096  0.0031598328935760
  0.4001955069391967  0.8021718023974643  0.4014782329735443
  0.3949818471489474  0.8023098311044339  0.5982351361996382
  0.5972791005349339  0.0022740083246431  0.9991234418005867
  0.6005837849495511  0.0022678924381898  0.1989730094891190
  0.5993534866717788  0.0005851601430958  0.4001734001057200
  0.5998269395981379  0.0014289925422007  0.5990465414882855
  0.5982473724896712  0.0032713418681247  0.7983300782554836
  0.6017324851225815  0.2015414374707232  0.9991931114802309
  0.6018642155867762  0.2012303729162687  0.1993583300462429
  0.6004952546296670  0.2008089325353470  0.3997016909329207
  0.6013551181848910  0.2032668756693836  0.5999182065864240
  0.6011624630097773  0.2021242181668170  0.7995200989214712
  0.6029047708315840  0.4023093332248179  0.9993905867373313
  0.6023664600002478  0.4008730562366868  0.2001031138694604
  0.6007572085968763  0.4002412759963324  0.4005250207364542
  0.6008205394048168  0.4034431769100781  0.6003185197851186
  0.6049374099056214  0.4023073285429797  0.7996856394210629
  0.6025491063927706  0.6005458457805470  0.9982563021145422
  0.6007537573175512  0.5993442596258376  0.2006856763764829
  0.5974182129898342  0.6015348213488444  0.4032867545491928
  0.5950851426247324  0.6023457793440941  0.7964586699514000
  0.5996910995901098  0.8010993159027072  0.3992778140846955
  0.5952847941173701  0.8015188186933661  0.7986322640148958
  0.8010427749885284  0.9986089429389325  0.1998782355021311
  0.7986147449106881  0.9989745027780553  0.3990672281048124
  0.7990936769197799  0.9998691858351006  0.5973263931021433
  0.7984195386118003  0.0014875726819112  0.7953739237067220
  0.8015501828293707  0.1998445687041252  0.9994161538790806
  0.8015627144320000  0.2000094726139288  0.1995217486132157
  0.7996395346601530  0.2002018926374422  0.3993078459551328
  0.8010802376837461  0.2014806155548182  0.5981024300088575
  0.7991139632386441  0.1994384894030830  0.7982707478800833
  0.8027914790505356  0.4002535785208745  0.9989334370106229
  0.8022055024521269  0.4011347065061343  0.2003723525940619
  0.7991022988509581  0.4009602756334651  0.3996666242606766
  0.8044096847754765  0.4044853060264281  0.5987811677701633
  0.8027650504763774  0.3966350074281159  0.7995146145372942
  0.8022772122558696  0.5987790712789711  0.0031002274107709
  0.8001334120365198  0.6008668367046541  0.1994966184235483
  0.7948624388542544  0.6020739923220864  0.3966514896268575
  0.7836413911978242  0.6020441631982910  0.5900606726946831
  0.8101596930620514  0.7956343675616346  0.9946750657525191
  0.8051122986756389  0.7992464719623558  0.1992248437717418
  0.7971609994822110  0.8009535501651553  0.3990116798917919
  0.8029237493240791  0.7999215753823243  0.5984170010161297
  0.7803940769722886  0.8111003678714305  0.7974298459381027
  0.1975609006029215  0.8013181937886541  0.5988722157364862
  0.5970583431941104  0.5963256765049928  0.6014638686508158
