Zr Ti V  Cr W 
 1.0000000000000000
    15.4441234869366859   -0.0337979338621542   -0.0112008462788481
    -0.0337621682483873   15.4185948975452316   -0.0049024940088994
    -0.0112090182952529   -0.0048967951584685   15.4226247519770361
 Zr  Ti  V   Cr  W  
   5  10 103   3   3
Direct
  0.2138783295957798  0.2038636861198403  0.7938644346627463
  0.4124280380593359  0.8068854514043446  0.5991566379645735
  0.6040154153407494  0.1971320294165380  0.0015847598815113
  0.6010031051601741  0.4036874583732257  0.3965814328529287
  0.6200214663028702  0.6028133492843116  0.0279460716463034
  0.9991921190060185  0.9972565713268032  0.6036722386426182
  0.0074322606885202  0.1978810591197955  0.6077424564332878
  0.0041387950728330  0.3950302068866031  0.9964421628484581
  0.0035272996195933  0.4036457709133364  0.6073451429887101
  0.9995779070984120  0.6025544377694766  0.7939397872428483
  0.0006825179093107  0.7890376357511004  0.6053624577376377
  0.1612824650006576  0.4109311122586128  0.8036106570830389
  0.1965232502536018  0.6008454676107452  0.2003108333726548
  0.5925321162917203  0.9817563545781762  0.6015144687878737
  0.5908554606802993  0.5980322061350604  0.7930282464637540
  0.9988870236621504  0.0002181233249623  0.1966562249299211
  0.0001592691473487  0.0000569553395627  0.3974258064673086
  0.9991520918166803  0.0012182203284623  0.8076491486001771
  0.0017114710384842  0.1934611007236542  0.0022375951096956
  0.9990870962789955  0.2003538794272410  0.2019521761827866
  0.0006520619464691  0.2009151824697935  0.4003616863910420
  0.9945492657376651  0.1992693385105528  0.8050725691563025
  0.9986184836507312  0.3997145461860901  0.2012136905153757
  0.9846154499548181  0.3977065148616710  0.8022121465415639
  0.0031506328631538  0.6048274233648905  0.0023796219011425
  0.9985582841942054  0.5994982570709155  0.1995276814667684
  0.0016858165925318  0.5997888541827454  0.3985911342359700
  0.0023581926540399  0.5975744072787580  0.5960973814746677
  0.0012795054567967  0.8038294140329681  0.0008241128488287
  0.9990000704380041  0.7998408242337210  0.2009897788213482
  0.0006511767513556  0.8006338174736459  0.3981367031752502
  0.9986689548865265  0.8039178176233953  0.8028927038028533
  0.1992933649905440  0.9994440741204524  0.1996279999262050
  0.1981932090699854  0.0003728883249164  0.3996522268100356
  0.1981567632318178  0.9979682462359112  0.5991845312740662
  0.1984492372651683  0.9978931333435157  0.7988582252553281
  0.1985486334570433  0.2012343721446076  0.0013223436259704
  0.1988748321088792  0.2002731013526113  0.1997868695201807
  0.2030529193409502  0.2003512318662887  0.3979447596473973
  0.2039508562807638  0.2004171700523568  0.5930473585509798
  0.2014593012758729  0.4014780006810388  0.0007148224933949
  0.1972329240545572  0.4003136994316678  0.1988340525217965
  0.1965388899622414  0.4011220982279923  0.4000963527113195
  0.2022119761147529  0.4020079496791999  0.6003160980600311
  0.2013709486949623  0.6004149960695950  0.9958439187959574
  0.2002995053766511  0.6009129356662659  0.4020662573117058
  0.2052307510122329  0.6011938266150022  0.5977960655228832
  0.2005771999962130  0.6055615893554337  0.7981115420274218
  0.1998222027899696  0.7986569029577728  0.9999787839371878
  0.2004542408430316  0.8007916059678925  0.1996150471740000
  0.2004619370620687  0.8016833896806401  0.4005936586779144
  0.2019446875669475  0.7998322618346091  0.5995275274972803
  0.1981268667545398  0.8015037437219363  0.7989378367555894
  0.3988472971597646  0.9990496544171914  0.0005500967236394
  0.3993866644715875  0.9998480489611307  0.1982646063389807
  0.3981166788677990  0.0063873970846432  0.3981090339506178
  0.3952850170233946  0.0075613391568397  0.5995502488065932
  0.3974869231543151  0.0024880570775199  0.8010323221107825
  0.3994604367077310  0.2006489542944263  0.2037444387188704
  0.4016258026892731  0.2027659034913063  0.5937887914033088
  0.3972552298591286  0.4002186083868197  0.9981051789550563
  0.3976451238821229  0.4006821869418994  0.1972118207996171
  0.3944176275611169  0.3967660703416909  0.3982814399042496
  0.3993630275554636  0.4003159561279497  0.5996531678815168
  0.3993193829939602  0.2650442280361831  0.7987036794543515
  0.4020587849013538  0.5986308141387179  0.9984360159984331
  0.4036694328275118  0.5990953733055030  0.1995588601254414
  0.3996998065870984  0.6004126129021937  0.4006507803211712
  0.4029079752677446  0.5964523995064244  0.6009321382663697
  0.3958593582700439  0.6017278485923764  0.7987801228527429
  0.3988788386473652  0.7997807702192803  0.9994636251532402
  0.4003713707652829  0.7992413487085557  0.1988423244183052
  0.3999597826765584  0.8015779271051452  0.3949976201529635
  0.3978260048503760  0.8013973335416581  0.8043111391886351
  0.6011464311414857  0.9952749159573867  0.0002830825997984
  0.5998911615552607  0.9974859819398258  0.1993019701517533
  0.6005660075837258  0.9986318433711285  0.3976944186639456
  0.5981995250143994  0.9998091844764825  0.8017175741561514
  0.5996740334836083  0.2002075361315438  0.2039051056214905
  0.5969386212940656  0.1956694343095108  0.4015247795034878
  0.5993540491074235  0.1991194929252908  0.5992144369793642
  0.5994272399687042  0.1968957267509283  0.7947218378666506
  0.5955777361352513  0.4001512471330312  0.9952701447360077
  0.5984746687997482  0.4028493253613261  0.1920050245950777
  0.5999021905271469  0.3998873422387673  0.6051403348950205
  0.5957116990310563  0.3948625639701912  0.7997291929322407
  0.6002447639768086  0.5992554830368289  0.2173642659590965
  0.6028485139641107  0.6063552537100575  0.4032651563528108
  0.6026016465156138  0.5962008833221409  0.5965343713916443
  0.5990670779117816  0.8029350657510516  0.9992920768246253
  0.6000719540764718  0.7964916326108045  0.1992391174284073
  0.6005970585689178  0.8031872334197970  0.4007695774192699
  0.6124069325552826  0.7896527085199906  0.5998145788266037
  0.5977702297206010  0.8020175622204950  0.7983873680808133
  0.8030239354358292  0.9973640353113562  0.9996601397808240
  0.7981880801319519  0.9994373614782458  0.1996959164166595
  0.8006064798351575  0.0013991650332374  0.4011835608816897
  0.8010614798851109  0.9981459321238545  0.6008859822832328
  0.7977587130977497  0.0008195194446958  0.7999660991137157
  0.8054956480527563  0.2041930763624835  0.0001905453702305
  0.7995218832346171  0.2022370349654326  0.2017020984619239
  0.8007253730337057  0.1997780386454517  0.4021419417270051
  0.7981006305027689  0.2000172958791143  0.5997085238870941
  0.7975508678210999  0.1998914564309427  0.7988943724592321
  0.7971402116089086  0.4065482868272743  0.9994159066829685
  0.7985458419455721  0.3998999154184426  0.2002972201980963
  0.8052667242941626  0.3999322946441392  0.4008106505195718
  0.7982069713626057  0.4005509240429304  0.6003990799167834
  0.7931552034592644  0.4000358857538809  0.8001740043362366
  0.8014350324762098  0.5989733648253366  0.1992729035435735
  0.8039506861329506  0.6009438367809631  0.4018141787404818
  0.8041646293370824  0.5980646549792299  0.6026252144536969
  0.7973551560331088  0.6002969575153541  0.8043944335534684
  0.7984664541516706  0.7936735149476283  0.9983219753307478
  0.7987044527457434  0.7994005889075065  0.2020024580314703
  0.8015444256258339  0.8006764412919037  0.4016690232755120
  0.8031733268069096  0.7977178809870124  0.6017770837518915
  0.7971832782330984  0.8012672299729450  0.7997480591491740
  0.0003357075586903  0.3998213404325721  0.3986467937831113
  0.1989341190967630  0.0000304062884826  0.9995712340602575
  0.3960749837187690  0.1992533850056436  0.0000698239341186
  0.9961003131700432  0.9987327704728055  0.0020738987123541
  0.4004933844667463  0.2022263165675377  0.3988789997799877
  0.8158940988944849  0.5999581688175278  0.9990954575114649
