Ti V  Cr W 
 1.0000000000000000
    15.4539762940606913   -0.0009302546193068   -0.0040609226562242
    -0.0009305541856652   15.4553324993326164   -0.0016432811203864
    -0.0040599645847516   -0.0016432389492442   15.4631351219687598
 Ti  V   Cr  W  
   3 114   3   4
Direct
  0.0045796385835319  0.4008464361432802  0.8086623378296540
  0.1946515932294309  0.3988870785688214  0.9931394699032677
  0.6051394633528058  0.7988881601950812  0.4052683121565096
  0.9999889655596051  0.0000826316706952  0.0017918855302126
  0.0015332768430691  0.0019799609166262  0.2001008685320798
  0.0002474432026385  0.0003859825517522  0.3992509747394518
  0.0010543517308517  0.0008304299793922  0.5993073565621310
  0.0004244844081405  0.0002990715869640  0.8008840093060534
  0.9997317064840072  0.1990330026067445  0.0009203005502596
  0.9980855185013742  0.2031625740341476  0.2004420486255594
  0.0009343442902035  0.1995029849691399  0.4002587102899000
  0.0010888192488501  0.2009069193248986  0.6008228421912997
  0.0002710990608314  0.1981024444853817  0.7999730742730988
  0.9957718356727810  0.3998685215018954  0.0078103853680198
  0.9994517488351210  0.4000704131321727  0.3973843020331786
  0.0009438919669438  0.3996197875922656  0.5978166649923302
  0.9993041972741122  0.6005556593476753  0.0009130014325225
  0.9994763540025320  0.5969627131630579  0.2004780200280493
  0.0004602766681291  0.6005495782110818  0.4003563442724157
  0.0005283432488987  0.5987293324548909  0.5998548985995207
  0.0009107502147022  0.6012396848516217  0.8008523953990236
  0.9999236666327885  0.8004283040798417  0.0010288537837725
  0.9995443414110312  0.7986581181253272  0.1997619676739804
  0.0001372742811583  0.8000016940141003  0.4000646087535158
  0.0012393209180381  0.8000468905199674  0.5996534982169268
  0.9959911073276260  0.7998811451145710  0.8007417216999956
  0.1993333148822703  0.0004127436775029  0.9998613709798246
  0.2032916570238648  0.9976077996584554  0.1997455167274112
  0.1990307376317195  0.0000323265866324  0.3988745027560075
  0.2006918826448126  0.9991578316384766  0.5998225193887730
  0.1999485283375694  0.9980629659035898  0.8000001363356012
  0.1999344920753358  0.1986906856237920  0.9955692459772639
  0.1996161834697981  0.1998295648067394  0.4026163193672406
  0.2041148904873323  0.2000910971027094  0.6002758074149285
  0.2003665414477113  0.1987599957214624  0.7987098897526554
  0.1946125164774182  0.4022037088680645  0.1995226638861951
  0.2009001775217598  0.4002196467415459  0.3982332825909336
  0.2000381573286018  0.4008539892799861  0.5990338008515539
  0.2027091933792151  0.4007825755754429  0.7964121952850133
  0.1998699841066105  0.6024415094086401  0.9987077565391106
  0.2016359178233361  0.5999785579279081  0.1993679246924397
  0.2007004442908523  0.6007630405561004  0.4011379751791750
  0.2009266695665548  0.5996533514066019  0.5999681986168492
  0.2011296519540499  0.6013197106679390  0.7984163299257538
  0.1990872908566177  0.7994256880998168  0.9982881843896484
  0.1987062175987264  0.7991101570288150  0.1994063336758405
  0.1995149192837123  0.7990936641579623  0.4009651082649699
  0.2003535257375789  0.7997416381499465  0.6009111323629132
  0.1993608471228785  0.8001452091709041  0.7993896588559034
  0.3998321786399181  0.9998621581310487  0.0029507184738215
  0.4004316097096151  0.9991821698170241  0.3959062947650115
  0.4004878680546622  0.0032757351620998  0.5984602290878162
  0.4008569868314996  0.9988646439654525  0.8010290065302789
  0.3990846761860614  0.2009226044855735  0.9990534456520912
  0.4013807869410808  0.1962857337121411  0.2004167411987108
  0.3996092701115508  0.2009464165672059  0.4029126794114484
  0.4009393271597619  0.1991335592783327  0.7960817493182325
  0.4006086541924913  0.3997376302548042  0.9985613389882895
  0.3311541345684645  0.3320013670725446  0.1991844275197670
  0.4005152643092627  0.4006513318139785  0.3992151826936589
  0.4008073483337631  0.3964721292615725  0.5988576494253861
  0.4013314370647412  0.4005499153792955  0.7996198807381466
  0.3997075599798582  0.5995160469823876  0.0010806831629560
  0.4000440885543148  0.6013680449998398  0.1998106679578410
  0.4004806890905368  0.5999786607034753  0.3988677514463776
  0.4008005972726159  0.6003666625100961  0.7992165688942793
  0.4002391491041681  0.7996550835939253  0.9983487133325329
  0.4006255095218527  0.8029772278609019  0.2000754632430959
  0.3988977621728345  0.7996971874611910  0.4013706742495040
  0.4005200611556592  0.8008491531164292  0.6003356428372714
  0.4013790820816387  0.7999287385417849  0.7994459487666904
  0.6001109682998726  0.0001803265315102  0.9998967908206297
  0.5963605468665424  0.9992330313656335  0.1997815315565900
  0.6013363735532131  0.0015534840605883  0.3995213261566883
  0.5996515546832419  0.9999316149338296  0.5992527849163490
  0.6006360405095165  0.9995541200151523  0.8009413552102245
  0.6005120703314645  0.2003730255943819  0.9987184698674848
  0.5995404634768932  0.2015520929213792  0.2000544453759036
  0.6016072362568529  0.2006689233888967  0.4002180776799173
  0.5967786041890466  0.2005393986221653  0.6003140356870473
  0.6009194774611313  0.1996341635167561  0.8001327523552256
  0.5993417888496994  0.3998184956342317  0.0010670896137049
  0.6019104334956362  0.3999971308454863  0.1995726448057620
  0.6006525368332657  0.4004979749142044  0.3984211022811368
  0.6010244128087170  0.4005006303412029  0.6000846429002078
  0.6019297010649286  0.4010267269176460  0.7998879150623974
  0.5997062698872212  0.5992105675650927  0.0001423685375490
  0.5997491613443334  0.5980968888855200  0.3997369704819920
  0.5993516514296127  0.5988358150009221  0.5997633993802394
  0.5993033093568365  0.5995584337106171  0.8001727228382235
  0.6000195621507811  0.7989587653939673  0.9999783353573054
  0.6014662538058102  0.7986796027680726  0.1981234086497120
  0.5993700557626157  0.7995256506483051  0.6020203493905343
  0.6047832483738590  0.7992114310635692  0.8004434303641933
  0.7999109727820487  0.0003100060380608  0.0009225497109013
  0.7987831865101844  0.9992116193601072  0.2000249245436011
  0.8004924766297644  0.9996326561642723  0.3997020137088071
  0.7999732870171045  0.0009652709863627  0.5993835820102907
  0.8001615591622155  0.9953212967764417  0.8001447715795917
  0.7993158644637074  0.1993374722628000  0.9982397026234320
  0.7988281473878447  0.1985710020809842  0.1998936320377654
  0.7997629113734367  0.1996029832219645  0.4020985220371390
  0.7996554837840318  0.1996420266105063  0.6012215933343689
  0.8006945140830727  0.1990186685938558  0.7992085973059626
  0.7985893431275837  0.4001621270909236  0.9994384887538528
  0.8028396189043164  0.4004338818625404  0.2004507970665584
  0.8001007505561989  0.4002020251259049  0.4007371711082068
  0.8011047519825317  0.4000707754525357  0.6011261617670179
  0.8002130481736430  0.4009775680824580  0.8007662276527860
  0.7990356280737456  0.5999524260814688  0.9998885670118295
  0.7989087482677704  0.6014256128164767  0.1999239181758717
  0.7994125721977089  0.6010927060591869  0.4009055881469172
  0.8002667178062031  0.5993348558402746  0.5998192656934803
  0.8002355652697231  0.6042017058992019  0.7998279451939834
  0.8001959240002406  0.8001629285799358  0.2005607648079205
  0.8031150800019986  0.8001110345744530  0.4017359879148092
  0.8009719003862484  0.8000038773217502  0.6027839552375892
  0.4002309619137480  0.5990602803241756  0.5996568785439302
  0.5994365930245787  0.5994843219160437  0.1996071686055073
  0.8001113659420971  0.7998676360961607  0.9999403985783419
  0.9994440880429193  0.3994074366373846  0.2020859062628239
  0.3989666523070425  0.0013619692679397  0.1996307248987969
  0.4005691156038755  0.1995419497593703  0.6001621675841257
  0.8006689918090426  0.8001061064118052  0.7970673334090088
