Ti V  Cr W 
 1.0000000000000000
    15.3660384737921660   -0.0005376361430344   -0.0071098524204557
    -0.0005380862180412   15.3658728178464994    0.0022583698723901
    -0.0071112580112583    0.0022581408279047   15.3780529877332786
 Ti  V   Cr  W  
  15 104   2   3
Direct
  0.9978952081677074  0.9989035077410932  0.3862890228438121
  0.0021758476215123  0.1790038697551034  0.1973369460501243
  0.9896902253746556  0.3912227506905036  0.3991606099993985
  0.9926334029976210  0.6020925210739390  0.6004321980922986
  0.1924995100833685  0.0012071007137873  0.7969859299364148
  0.2007089870167513  0.3988168485176349  0.4015236906337257
  0.3985696166893022  0.1999366442248907  0.6070704456481111
  0.4036652923104734  0.5939895627068440  0.7943352305421524
  0.6126888312974178  0.0015484505794723  0.7923756630026768
  0.6071734577702441  0.7988401022723123  0.2038461365477905
  0.7940156495158183  0.0026289047640131  0.6027069828714348
  0.8035964358139973  0.2079094144292582  0.4061340324427994
  0.7996944309252179  0.3951142178716327  0.7972683930731477
  0.8010366740540475  0.6063099005798119  0.7937924611931597
  0.7993665100711829  0.7918409119720783  0.6015652906204952
  0.0028521918938224  0.9991037587649179  0.9958644197464249
  0.9009990594185956  0.9983009359768120  0.0996752970014331
  0.9999655831055339  0.0005933340866120  0.6072433931438841
  0.0004727489470797  0.1996230317306060  0.9967371193610893
  0.0026119345200790  0.1962256771770904  0.4043999897568436
  0.9989999720775118  0.1988379366262163  0.6019606982150926
  0.0027932392169585  0.1968075688539183  0.8001661850448171
  0.9996264420791423  0.3998227645688145  0.9994486417670176
  0.9995465215001325  0.4014487728805757  0.1980922037116258
  0.9973042165771828  0.3979477545544396  0.6039521867755414
  0.0008254403371970  0.3995416554497435  0.8001372547319493
  0.0004182577528278  0.6013978185552165  0.9992489389341274
  0.0003001242318932  0.5999678258867819  0.2005111631987736
  0.9978562157145012  0.6016165508990258  0.4000263896264588
  0.0008690558482713  0.8010781881632998  0.0016535356356029
  0.0014163458786458  0.7995678709643897  0.2003930165150934
  0.9999930016684796  0.7995930226551646  0.4016293582982262
  0.0012732678108283  0.8031939420412866  0.6015852481060689
  0.0023512510865493  0.8034237614915514  0.8025766657060959
  0.2002079446381803  0.0003153754262137  0.0035284816319695
  0.1997481118799227  0.0013664815130212  0.2018207750623706
  0.2017702492140523  0.9992469326414154  0.3992008018817475
  0.1981301906682616  0.0002973712285051  0.5942467301242691
  0.2021615736474238  0.2015432012289836  0.0009589705042555
  0.2027434109312000  0.2001587898910744  0.2009128138568528
  0.2001121849600791  0.1983297690024741  0.4011666900624982
  0.1972114437362622  0.2011332338083503  0.5990510784209641
  0.2041012937844162  0.2035584063078762  0.7981196128032232
  0.2000553785281718  0.4013109018165515  0.9993984279491838
  0.1983475670577625  0.3988945775120303  0.1990575506632697
  0.1970774950813605  0.4012209019739120  0.6010563608431809
  0.1996008460567700  0.4014980220528684  0.8000118714374677
  0.2004644216559408  0.5997378299566464  0.0006194304261014
  0.1989041758579427  0.5990388958536704  0.2015879330903313
  0.1980663901452320  0.6009638573035657  0.4001939905047319
  0.1985634687927246  0.6001686611678095  0.5995005307317333
  0.1981186047944687  0.5991559198042401  0.7987535443794808
  0.2057031078645724  0.7992438764628094  0.0001496101955141
  0.1995434390892450  0.8005005077164282  0.4015282654924539
  0.2009089160462152  0.7992596453270470  0.6004493202877986
  0.2014920772199086  0.7974075857641877  0.7993855140851697
  0.4023058647152251  0.9962002853214472  0.9988276424337430
  0.4012002123880914  0.0000640451321469  0.1994096618185580
  0.4001373341354736  0.9997451526914672  0.3990323507809082
  0.3987292263086246  0.9977944804514807  0.5999342351966674
  0.4001182690368022  0.0040258995296873  0.7981296668038668
  0.4017972488127756  0.1988214969098610  0.9977502545530048
  0.4004266826829073  0.1998584802900210  0.1984753522526731
  0.4001926954788385  0.1994443409674191  0.3998915070582735
  0.4005346089024521  0.4022789369155800  0.9996409279695583
  0.4000069943113659  0.3997239207929674  0.1989411799143091
  0.4000373459531789  0.4001743142397470  0.4001502592081341
  0.3995416141051114  0.4036873116894514  0.6005616993782850
  0.3991856996082291  0.3936133040573444  0.7992851249142718
  0.4008675314316117  0.6036674693409471  0.0004182592640642
  0.3996398876907924  0.5995060452753257  0.2006273991797630
  0.3997669591142771  0.6020919966144868  0.3992447718523677
  0.3987183560315761  0.6011253236155294  0.5977887241665596
  0.3993133345383861  0.8006051686569901  0.1961898449584487
  0.3997395190754972  0.8008876513269401  0.3994575258756911
  0.3988729960962521  0.8005324871839415  0.6029495273929055
  0.4006010264636752  0.8039967856741681  0.8032956829122119
  0.6029371088683791  0.9998003250660294  0.0003140140088366
  0.6026626337958376  0.0031965880181157  0.2000015528618008
  0.5994894209153127  0.0013869854317744  0.3996756809208235
  0.5968687313399456  0.0002236480111213  0.5956468158135784
  0.6014841135283961  0.1991238933641503  0.9987590796366873
  0.6005587759442196  0.2011112303285362  0.2010936367939402
  0.5976914158643666  0.2011142499239388  0.4019020333608065
  0.6021235230716872  0.2010048960807557  0.5999577488355951
  0.5972840129752459  0.2027384491495463  0.7986355138592631
  0.6002663062190613  0.4014704871354324  0.9996661846194566
  0.6001528295767374  0.3993123715466941  0.2001076998472060
  0.5978465920091590  0.4007182692534251  0.4005377954999269
  0.5996760292464443  0.4008364537727956  0.5991004990323969
  0.5986754381422380  0.4008904203517510  0.7989319551418821
  0.6003525163011542  0.6000873129584512  0.9989785538713148
  0.6015522102614337  0.5975850797133552  0.2013570043885818
  0.5990196082305851  0.6016010190728248  0.4009865669914252
  0.5987451697384578  0.5992619443174847  0.5996943105088522
  0.6021681807839342  0.5992906400572854  0.7982632154770654
  0.5986364319687184  0.8008453617634659  0.9968404359854711
  0.5998004604853783  0.8009218640337882  0.4040929673203831
  0.5964207209607704  0.7993749991021438  0.6014510296133402
  0.6011249951612542  0.7990086558853250  0.7984925985433552
  0.8012923878315782  0.0023222231201301  0.2034296914580960
  0.7970507359111252  0.9998739475467777  0.4007152658607134
  0.8068533841000548  0.9997717406023212  0.8021897055476287
  0.8003158257882655  0.2023670759569661  0.0006733853020704
  0.7988657273438099  0.2004756047074677  0.1983883692491530
  0.7998475996049770  0.2029410425383809  0.6049833368954892
  0.7995621419571287  0.1959503071567316  0.8019697796369510
  0.7997413275435025  0.4012263292201502  0.0004178378909709
  0.8012866889836997  0.3999129050706304  0.2008435467237974
  0.7942604580790729  0.4046040171635553  0.3991499795548351
  0.7987238821988490  0.3984714830205630  0.5965361945220902
  0.8002530587999794  0.6010152384074290  0.0011598055394862
  0.8007219058055375  0.6007718835428123  0.2006120025224998
  0.7985760997262199  0.6016647399861541  0.3989966543872487
  0.7971093647971809  0.5954658607597623  0.5967733462607140
  0.7989470130589204  0.7993748763430765  0.0024798732206253
  0.8044438440762384  0.8022230490300232  0.2003567418579251
  0.7996508522963912  0.8016205703917197  0.4003379480278851
  0.8010613706478473  0.8040579894284935  0.8047830608719053
  0.0024651105885747  0.6013911936117922  0.8025937758311118
  0.1999824278927107  0.7999758711965796  0.2009343660225808
  0.9992724222562396  0.0009620545668005  0.8010984767310656
  0.4005053946881730  0.1988641806416378  0.8044391322964550
  0.4023549173744747  0.7995530686277066  0.9989569575317038
