Zr Ti V  Cr W 
 1.0000000000000000
    15.4119853477336850    0.0092002105036784    0.0075686985216924
     0.0091978282521091   15.4168317070722267    0.0033033723005877
     0.0075647771218920    0.0033039266611125   15.4231482065347798
 Zr  Ti  V   Cr  W  
   1   3 110   3   7
Direct
  0.3995137742427665  0.2006457965488588  0.5981494610423689
  0.9988686495565816  0.2035332590953286  0.0054233910300383
  0.1640625792583693  0.3999913207864741  0.1964443565510313
  0.4014473486662571  0.9973700908968538  0.0079626431783546
  0.9998658919653264  0.9989689770278907  0.0006611972115929
  0.9992429154846711  0.9976937921004403  0.2001384941634665
  0.0009515475423196  0.9983713828490173  0.4002933708487915
  0.9987604894615943  0.9995750439435276  0.5996298363592969
  0.9999490903053188  0.0002092711599040  0.8004847314930913
  0.9998175964440227  0.1953173039197827  0.2009645533139705
  0.0039077362274038  0.1998844269006078  0.3980236701963784
  0.9975333047942735  0.1995848411369590  0.6002545360866571
  0.0006011455034396  0.1992791046841382  0.8000433579046129
  0.9997442988242597  0.4012813048332325  0.9954211778336525
  0.0007534438635688  0.4011310224165501  0.4014418782898585
  0.0024241584360904  0.4012190792249423  0.6007152616709600
  0.0001694988337910  0.4005666901495095  0.7993992237358092
  0.9992518837839923  0.5987591792333833  0.0012771512586645
  0.0004748195368471  0.6023864720178035  0.2006205914566951
  0.0014172558161964  0.6000810081533560  0.3986635771778781
  0.9985280439329473  0.6000619154411264  0.5990012485859484
  0.9993297747380682  0.6005457886300906  0.8003059380124341
  0.0007467540619066  0.7991996434151328  0.0003732084331373
  0.0012541887113167  0.7995606264232823  0.2000352261430525
  0.0033369758731927  0.7997496131478806  0.4003815233759535
  0.9998821575073422  0.7990201525991270  0.5991230120750572
  0.0042980175427938  0.7996858261618800  0.8002758696950314
  0.1987486159225745  0.0012637360112313  0.9995454064853616
  0.1996368981361330  0.9999580684134135  0.1987486505333416
  0.2007899204217891  0.0045623293655574  0.4011520886107809
  0.1988659671479444  0.0012472645653433  0.6006694388675041
  0.2004495700513240  0.9977496350843468  0.7994076266464039
  0.2059224056940612  0.2002639756793368  0.0005825275164472
  0.1995562519473801  0.1983965831848293  0.2038339485132558
  0.1944197263497212  0.2029375910109979  0.5965370044482676
  0.1998269280021863  0.1976371312527201  0.8010011847714237
  0.1991415793114217  0.3995743604980221  0.9948325531868956
  0.1999403285088807  0.3950767049871551  0.4077972966362127
  0.2000959804381362  0.3990482215801885  0.7957477317667950
  0.2027743634686269  0.5986500211332556  0.0002935605616872
  0.1988972760464443  0.6013061841856413  0.1994045348103776
  0.2055354781398501  0.5993501628846679  0.4004033291502207
  0.1997995996439560  0.5951109687115324  0.6001967620448314
  0.2007706870318076  0.6037270859641838  0.7995183048609200
  0.2008315653215992  0.7999638973572212  0.9954361620396874
  0.1998305087278983  0.8013675944894700  0.1983042652918805
  0.2034932801473828  0.8022243676913718  0.4015234913343753
  0.1999587553586057  0.7991575215067056  0.6038900450780159
  0.4004443718647757  0.9987671440369860  0.2021429418937479
  0.4013774825690425  0.9950175880367231  0.3991183752167354
  0.4020911424117980  0.9951445598969824  0.5990857310177784
  0.4004160603161107  0.9986793126953988  0.7982064194079996
  0.4042798340629465  0.2028457909763891  0.0021546496118878
  0.3995762466908911  0.2018911120333549  0.1988845007130551
  0.3975375666193502  0.1988263050230055  0.3926121811002628
  0.4002614246154559  0.1985462430110596  0.8046143084578893
  0.3984132607177450  0.4019852157303445  0.0014439884895494
  0.4026522636401258  0.4019179107030529  0.1997793817856971
  0.3993729477610140  0.4046841311350970  0.3967811089232669
  0.3960889164087757  0.4055520104999863  0.6008941126618829
  0.3986883051992886  0.4017629415420145  0.8007768413348525
  0.4019077528514657  0.5997525139353993  0.0021621274537836
  0.4001145413962268  0.5990064191345545  0.2033875099679138
  0.4055542064234415  0.6007732955053794  0.5952827177040981
  0.4009031201320786  0.6012279586670862  0.8005992021658707
  0.4005841140718250  0.7972287849892711  0.0022775419931242
  0.3994209214392063  0.7999283060407195  0.2026208089205358
  0.3997334613770731  0.7986332259746065  0.5957364933303742
  0.3954867362587225  0.7999865349486220  0.7998907988331750
  0.6025496563264844  0.0046311003544846  0.9992968428586586
  0.6013206102240293  0.0012197325492439  0.1996643435085518
  0.6002163699925951  0.0007333740672798  0.4006744002416163
  0.6027258422549908  0.9989953805249681  0.6003433947285436
  0.6000555455704544  0.0001101080997286  0.7992024984677096
  0.6016037133508209  0.1997864827747960  0.1962613232737649
  0.5993527667177234  0.1998672443560895  0.3981340813530441
  0.6009806761703415  0.2001453547812722  0.8033824722124727
  0.6010887792376683  0.3972168360930078  0.9977970272558836
  0.6010369774449881  0.3998334185277679  0.1998392777951875
  0.6003386220928366  0.3983852230934193  0.4007757961012586
  0.6011581474645968  0.4025899878296663  0.6008916995068746
  0.5988423350618424  0.3995026214084489  0.7992202856297335
  0.6002322188672171  0.5985366571789026  0.9991011794936667
  0.6024762919946813  0.6000148351634238  0.1993995718781699
  0.5973518026956000  0.5993173329168717  0.4035408629992910
  0.5996132890961694  0.6006249358273320  0.7967549799045665
  0.5991098291588783  0.8013828303362885  0.9987098165744406
  0.6005244632565170  0.8005066227810927  0.1989799748045714
  0.5962681660215852  0.8020037740314470  0.3998284660831861
  0.6008049267271506  0.7963285015705449  0.6015398941928929
  0.5982059867187645  0.8013476819299628  0.8005506520290798
  0.8010295469591707  0.9999671776745351  0.9995201675476529
  0.8008622124339745  0.9989079940760849  0.2003583160847139
  0.8003484443353662  0.9997186109434446  0.6000020013737266
  0.8012384122717102  0.9992571034867929  0.7993779808309649
  0.7947309569272634  0.2007617007698320  0.0003272792738616
  0.8028927193606086  0.1999873149483550  0.2005494175591992
  0.8007575837572574  0.2002008485570309  0.3992081157900379
  0.8011652380805752  0.2006415058895271  0.5989327250941857
  0.8012526361391924  0.1993820520943097  0.7997761451791666
  0.8020375980279166  0.4001805661937767  0.0000997570302491
  0.8348728664318417  0.3999269703295070  0.1995493956231592
  0.8030232516522501  0.3990515632856606  0.3986892694104452
  0.8017782450301565  0.3994064991121995  0.5996466013409464
  0.7988853537274732  0.5993421437795018  0.9999836813554543
  0.8014662286528055  0.5989040739404673  0.2005895961885352
  0.7995142896515668  0.6000899483054751  0.3989538142859206
  0.7969680785773644  0.5993308864154129  0.5990360668186223
  0.8005094164103469  0.6009511595861695  0.8003198590077034
  0.7999416284173394  0.7996450789569132  0.9995610043605899
  0.7997451569897606  0.8002549031257896  0.2000349455537090
  0.7998176670909760  0.7999819900680261  0.3994798843906547
  0.8005668882856717  0.7997818888254146  0.5996212068694465
  0.8016429342649356  0.8011391645485268  0.8005193266030919
  0.6040684475086530  0.2006883092498703  0.6007620969216575
  0.8003002874998877  0.0002438437876682  0.4000639452394357
  0.8002988208046650  0.4000446546775563  0.7991013627043259
  0.2030497935998742  0.1998165970967270  0.4009963254334627
  0.1998458430334531  0.3986152149049717  0.6024353393688172
  0.2001666768885861  0.8003445814698984  0.7989204850940113
  0.4013856305994020  0.6038086934413550  0.3987798635729236
  0.3986881313085451  0.7977490949422600  0.3987683058442654
  0.6003598196736138  0.2018294562941718  0.9993809593692097
  0.6016489682771752  0.5989010585389930  0.6010983890146406
