Zr Ti V  Cr
 1.0000000000000000
    15.5054759955686290   -0.0026938295988576    0.0222345561511436
    -0.0026911951043345   15.4937529874400166   -0.0133710719798359
     0.0222461462953622   -0.0133733789628594   15.4975574155639322
 Zr  Ti  V   Cr 
   5   5 111   3
Direct
  0.0112300287289770  0.6125794704539079  0.1985848535234973
  0.3988152530115223  0.4006981115648284  0.6002420661632348
  0.6007182757911667  0.2001898514846460  0.2008161130499648
  0.6102222666846265  0.7997313543355555  0.9913326974638033
  0.7931401129875481  0.7981698028854682  0.8101630210102848
  0.9960175706545519  0.7872101976855852  0.3831496470243850
  0.1864754881534201  0.6005347318256948  0.0163687529697248
  0.2031841146583760  0.7977663162597148  0.3971518069411948
  0.5985452236927576  0.2020833581819718  0.7977178536803886
  0.8196252254432678  0.8041410835329157  0.0182536935767762
  0.9993794180927175  0.0008033818131379  0.9970281674016607
  0.0017550406114808  0.0025828791140921  0.1985633179813326
  0.9986551663117397  0.0002726785957480  0.3981534489505357
  0.9979167506035054  0.9981934640871100  0.5976023956832570
  0.9985158878889671  0.9987196165014645  0.7984833025001895
  0.0009993540701931  0.1998773042894837  0.9986701573079506
  0.0019110194687970  0.2008169950102456  0.1986172409330606
  0.9999215736115121  0.1991777296666138  0.4004332381555396
  0.9998460043772495  0.1982436509931393  0.5990648977869536
  0.9993496702666226  0.1998216842289284  0.7984239515189582
  0.9993153639362221  0.4002142041570758  0.9986373160095933
  0.0011449799468566  0.4011073132243070  0.1996913977090143
  0.9992398688191978  0.3977199909469054  0.3991171741260962
  0.9974261400810376  0.3982440365702766  0.6011147237871792
  0.9994289807157620  0.4007020189052807  0.8004929486330755
  0.9929174386736020  0.6009585233741656  0.9931886426864549
  0.0005383025332426  0.5934607206713305  0.4054316692851404
  0.9986439566809331  0.6002510595443245  0.6007732550074970
  0.9978783470206133  0.6002749491742863  0.7984919906841730
  0.0092890222063389  0.8007770536245977  0.9959590003993174
  0.0041244872379425  0.8106867429291987  0.1928589527523383
  0.9994091569730995  0.7990467636548214  0.5996232970670765
  0.0019570078815903  0.7997160362587149  0.7981760826561227
  0.1998179822101546  0.0006218192420917  0.9992272443310782
  0.2005513260095551  0.9994982964663524  0.1989244074550335
  0.1993334263720415  0.0002341503831613  0.3989946143948151
  0.1983657630215831  0.9987383396592900  0.5993864993281995
  0.1987917729503809  0.9999923982575831  0.7993376634978259
  0.1991645572575678  0.2003763778316718  0.9999117594285406
  0.1999246801444194  0.1997646460127027  0.1999498353420525
  0.2000647853172687  0.1999412428916484  0.3995288123256961
  0.1982511543204217  0.1985653090424800  0.6000813365844561
  0.1984892459792392  0.2001513917410298  0.7997228087200389
  0.1992188129915887  0.3987906443018195  0.0013491037286329
  0.2008000683939060  0.4013711385210359  0.2001984377619583
  0.1995887185723760  0.3985338055577154  0.3997205842370408
  0.1945107123937181  0.3995123012172649  0.6000153917858745
  0.1980307860256851  0.4013024422710230  0.8019168169937645
  0.2113730752991797  0.5995477855398079  0.2084744771021740
  0.2013561325338198  0.5964327754053615  0.4033044703505177
  0.1983313613795519  0.6004420095503259  0.6012448820613117
  0.1980246256594034  0.5999160788414341  0.8002994761151800
  0.2028055708271920  0.8022733284481556  0.9991404530686728
  0.2033625503765669  0.7997873385774211  0.1969413947497080
  0.1982816828047799  0.8001232282781322  0.5991046745292622
  0.1999042245880684  0.7988720272578028  0.7997287570493310
  0.4007613239845247  0.0006731862259277  0.9990385700668436
  0.4001927126969089  0.9981924210796688  0.1983664369811348
  0.4007368834091307  0.9991541000171006  0.3982479015395766
  0.3985951610075938  0.9980227248280075  0.5983331103052362
  0.3986702704307746  0.9997363435801878  0.7993947812174838
  0.3986124363415428  0.2000006061929733  0.9991350612239239
  0.3957874568448513  0.1994411646062764  0.1986359819178709
  0.3989224843646041  0.1988196455951496  0.3988650019175259
  0.3978633197620949  0.1950037125674452  0.5999488481646560
  0.3957738016143790  0.1998523824946282  0.8001037102112395
  0.3995564694774403  0.4006229011341294  0.0007245324322147
  0.3999109046056276  0.4011552543862115  0.1980469210514805
  0.4003712431531645  0.3994148912336570  0.3953874268260416
  0.3979570708822509  0.4007649791403441  0.8050213539720676
  0.4017847690145683  0.6006646514201683  0.0018533095387923
  0.4042390668981479  0.6012757883639782  0.2001169728517901
  0.4015543730529512  0.5998134670573478  0.3996583143829041
  0.3991988834131046  0.6047395173214485  0.6000913143303785
  0.3961019337513025  0.6008157537841995  0.8034654257984690
  0.3992770225066696  0.7998938703987362  0.9987077454800632
  0.4020503460029166  0.7995948194163151  0.1978270866565314
  0.4021721903016829  0.7996190105473702  0.3982975547650680
  0.3985872620550684  0.8008811980443964  0.5986384493890630
  0.3956907804430780  0.8001846052232213  0.7986804107316744
  0.6002725561734688  0.0043319211139277  0.9971032039565378
  0.6007992206459432  0.9947761496992218  0.1976831244562932
  0.6005648288536446  0.9990983088062990  0.3987375242321828
  0.5976433457859095  0.9989828345083842  0.7963659259752708
  0.5995188106430761  0.2013980058702709  0.9957475628862054
  0.5991958143442082  0.1991355232618610  0.4048301991994570
  0.5971046609121582  0.1980417816932935  0.5986502260688848
  0.6010730162236021  0.4005364994119551  0.9997442572322887
  0.6002402236929796  0.4047425222190409  0.1996353201691514
  0.6011165142288165  0.3995958612530170  0.3990231258352946
  0.6046424733221385  0.3989026979603125  0.5995745733890866
  0.5985479964537371  0.4030404511517443  0.7995725556147525
  0.5998326878469966  0.5962212421734842  0.9986426043629533
  0.5999353431238144  0.5988463385049707  0.4006252928356813
  0.5993040591097583  0.6005924809397526  0.5995467421531031
  0.5968867842367558  0.5996794652778544  0.7978961592004192
  0.6005827065686501  0.7994410850354214  0.1999476184061431
  0.5985580457489520  0.7996148326043856  0.5954883505936046
  0.5894672342462999  0.7995939960620402  0.7888967697942237
  0.8006875023420085  0.0039274609263126  0.0000116148059228
  0.8002801668701348  0.9988757842905807  0.1994006345896297
  0.7992993459555303  0.9995656527865238  0.4001011635930634
  0.7988645542727744  0.9971173859061729  0.5984956158885999
  0.7977148555144682  0.0055746062977495  0.7973871400697615
  0.8016890293129011  0.2016851783398604  0.9999086951753571
  0.8049517099749770  0.1994947786690302  0.1984868747341390
  0.7996367840029657  0.1993818524922625  0.4651375223941297
  0.8008866293378470  0.2012874341310419  0.8013488518429672
  0.8001065424524397  0.3997336208270297  0.0010635658249067
  0.8022632077212691  0.4017696225932915  0.1999201769130217
  0.7998321607459148  0.3994096709319347  0.3998538053401088
  0.8003163759436442  0.4002000316758688  0.5996152826337203
  0.7991236092026800  0.3987629620242449  0.8000556358925215
  0.7989400787484525  0.5979573675778046  0.0024989230916634
  0.7997660002983811  0.6008279497106729  0.2001164488386809
  0.7993057840225141  0.5983069972583678  0.4004836743415872
  0.7990491952495460  0.6007891006032287  0.6002771390261609
  0.7972260390831504  0.5951745885695600  0.8000687981930619
  0.8028932990460663  0.7998332865958262  0.2074165994554372
  0.7979873252047628  0.7983152205645538  0.4000673238736427
  0.7993748181101639  0.8001683362485366  0.5983407615650533
  0.5991080075384534  0.9985118802994393  0.5971560999590629
  0.6018336514575243  0.6015350535097791  0.1999020496638911
  0.6000051278335506  0.7990160920360646  0.3983053983863665
