Zr Ti V  Cr W 
 1.0000000000000000
    15.3185418189025757   -0.0058579337440910    0.0011531853961578
    -0.0058580518235424   15.3152820885503385    0.0003427542276612
     0.0011540796390519    0.0003423374486165   15.3446139054441577
 Zr  Ti  V   Cr  W  
   1   2 101   1  19
Direct
  0.6014079921272364  0.9993217710941019  0.8011579972790071
  0.2007801762408182  0.7910568558968535  0.2093817255449907
  0.3997433387188436  0.7998086395864901  0.6100625274413293
  0.0003070789294368  0.0001497642381301  0.3948312772373917
  0.0013298573843774  0.0014231526397205  0.8048907337730833
  0.0041158131904423  0.1982708311395328  0.9981825637260784
  0.9982619917243062  0.1985438956269583  0.2004538180306079
  0.0008000906143306  0.2024916249389980  0.4018193922491421
  0.0013743149471799  0.2035407421041999  0.6006923661772569
  0.0016299549076714  0.2049578023879356  0.7983673456844814
  0.0001569972796706  0.3984096346768328  0.9935546817097738
  0.0020604778832946  0.3985816209558207  0.2064368168612753
  0.0035053901077269  0.6028353445617340  0.0001269895450859
  0.9963394825630766  0.6007882835096297  0.1987271837571720
  0.0002614502124443  0.5971265717957455  0.3993001530158626
  0.9993262477455369  0.5979325665271323  0.5988924062683499
  0.0005540158788948  0.5977034391191581  0.8004057423464388
  0.0000484975990059  0.8046864368359696  0.9983031631592783
  0.9992416589272639  0.8019711419109846  0.2009483928973769
  0.0019067344264894  0.8007209820864205  0.4020209694489903
  0.9996356599841619  0.7991228923877221  0.6007468083654391
  0.0011392542923187  0.8003661292940883  0.7986367040312852
  0.1955404451343368  0.0026822844701280  0.0031468312029572
  0.1954771444736307  0.0010451391444305  0.2024414666261803
  0.1984210710816884  0.0005594590437197  0.4007916594695496
  0.1948311761703624  0.0015304249954124  0.5997950526475464
  0.1964868848485649  0.0013223663486557  0.7997897803653631
  0.2009212558583645  0.2035303770570477  0.1963585429333465
  0.2035481982183845  0.1997268268568012  0.4024656097593996
  0.2047887318511079  0.2042801926783276  0.8044032562948505
  0.2036922665077105  0.3989810919818406  0.0059565134991112
  0.1986812297634889  0.3998186773282830  0.3957106066550284
  0.1975927215786215  0.3994466942752943  0.6016649165191464
  0.1983063716123391  0.5925294575409297  0.1955700822428964
  0.2005283532086983  0.6003317411562301  0.3977623485757622
  0.1983779283859646  0.6006868901590349  0.5969726086341689
  0.2002429881990669  0.5976173199144792  0.8065722322700030
  0.2059931186461490  0.7984897802983472  0.4052045612128218
  0.1957277487398408  0.8007358966137709  0.6019461434373397
  0.2051720151929420  0.7990827279448902  0.7999195686672287
  0.3966760714570458  0.0000225259638698  0.0014072804457865
  0.3973424752235426  0.0002939477338207  0.1988058779273233
  0.3996640486902475  0.9950767452481530  0.4001307725979201
  0.3973214712549119  0.0024903262690730  0.5996445807910762
  0.3934669574568817  0.0013277848057232  0.8001886989795994
  0.3964708335081394  0.2006926766950018  0.9933613866714627
  0.4002460844959725  0.1981886694454329  0.1996389285068340
  0.3993744848165073  0.1979661287587147  0.4025957972581064
  0.3977826754194657  0.1985823820858234  0.6049831833205281
  0.4008939875980340  0.4003210132477633  0.1959768813661510
  0.4029542410009646  0.4012957254894368  0.4019701191592436
  0.3981190390082571  0.3994194907278152  0.6019572076017656
  0.3945209795829411  0.5989503154143997  0.9990539698931549
  0.3989508375024306  0.6012577341697806  0.1978662250765504
  0.3998442343535661  0.6035440306710057  0.4006483229670660
  0.3988691145242692  0.5973998681872301  0.6002506697616018
  0.3998787382238829  0.6026518174596079  0.7975972607685076
  0.4026158503166363  0.8014674383468948  0.9968858028540502
  0.4024018305659993  0.7992100330790173  0.2002084249160665
  0.6011776047767758  0.9968626350969790  0.0083333761169446
  0.6030602414448140  0.0018849553457872  0.2025389108480213
  0.6001565244311402  0.0005042468464653  0.3975039261148081
  0.6027947913372582  0.0006803567883984  0.5936416611279058
  0.5993118022607695  0.1980411817721024  0.0001919423511594
  0.5995354051650320  0.2035720562510757  0.1994576291917090
  0.5982291194230607  0.2036184914225793  0.4000429167106588
  0.6007040079064698  0.2003603306155994  0.5988806731910871
  0.5950347678609993  0.2055586225501894  0.7994926030883386
  0.5950686345721130  0.4017939923436828  0.0041780037365031
  0.6020934859490892  0.3998951690844679  0.5956458778733859
  0.5971004504123179  0.4025270966689447  0.7992514547105682
  0.6014360612999561  0.6049102558353637  0.0014594180078387
  0.6044995560148717  0.5955691882567201  0.1998799659152055
  0.5993886257367779  0.5958434069372675  0.3988533073084140
  0.6027988172261615  0.5985220326867642  0.5976294952166664
  0.5998863797047789  0.5965668133934801  0.7999071222765139
  0.6002628662702422  0.7989941064331454  0.1952727088871146
  0.5944129966150646  0.7984821079164290  0.3998449261100203
  0.6022905024659907  0.7989474922046576  0.5995511623448188
  0.5955903256806077  0.7928105549825090  0.8038165036854751
  0.8035869674436339  0.9999718911603608  0.0007719144912735
  0.8044518526472241  0.0001489430092869  0.2009707788600972
  0.8011847189156421  0.9993182700828047  0.3995218333811983
  0.8037439895085062  0.9997552632169205  0.5991064785877014
  0.8065056518343738  0.0014117507730551  0.7988579319596663
  0.7984353865348578  0.2002491197321621  0.9983663021976139
  0.7996609113171497  0.2009236395220354  0.1979274848461778
  0.7982607388300125  0.1995408081718806  0.3999939675505992
  0.8012619172312460  0.1969606844096916  0.6012591970766392
  0.7971336962360261  0.2029611682512695  0.8003731960455781
  0.8012499225774401  0.4004432439154700  0.9991567370787315
  0.7979882443509907  0.4034660360445880  0.1986110780940532
  0.8008979055938872  0.4000274888254098  0.4005283516561228
  0.8032117648682314  0.4009772022340521  0.5997377731449753
  0.8031922544077034  0.4015984230308208  0.8000665253642365
  0.8028215977324680  0.6022339756355867  0.0027516855482330
  0.7998733836685528  0.6025323346619652  0.3947240775639790
  0.8006333272625273  0.6029473034744643  0.6000942922140474
  0.8000256160582240  0.5996878240384551  0.8013592779383955
  0.7947001022641270  0.8010227471021050  0.9979783330219166
  0.7990992275547928  0.7961755298761699  0.2011365915144828
  0.7963621983748516  0.7993533129598678  0.4008416070601809
  0.8008642555127857  0.8013402822949978  0.6005287252754641
  0.7984577790879684  0.7981461003818711  0.7995789789591088
  0.2009293710088070  0.7999633456345295  0.9990664107945720
  0.9989188379439992  0.0022104920763248  0.0028708906900172
  0.9997411161226262  0.0000955218906615  0.1978779796126595
  0.0001636219505071  0.4004061530861244  0.4035335587745769
  0.0008623614450139  0.3992312618914040  0.5994765331429015
  0.0049008317598358  0.4017123768663015  0.7955716784207919
  0.2006917986288444  0.1999133476483511  0.0004363028982619
  0.1334291494802054  0.1323929577261888  0.6008595985744251
  0.1999224755572241  0.3976827888003297  0.2012748180160469
  0.2016253391720812  0.4011734660947370  0.7958627200378864
  0.1985392262599134  0.5980735161480454  0.0023026672219522
  0.3996911730251013  0.2033371198749383  0.7993602893567745
  0.4001854870323229  0.4015272294969391  0.9948981295680546
  0.3968376182262765  0.3993576843839166  0.8020497167297923
  0.4009307828702008  0.7997621971260808  0.3953299366154495
  0.4020102113099507  0.8033443189610694  0.8029785822412243
  0.5997056234200322  0.4002102310021670  0.2026271215027719
  0.5991575702446729  0.3996975676327610  0.3974078936731977
  0.5983279342152740  0.8010162992496286  0.9996635931010994
  0.8013794277353692  0.6002672652174389  0.1979197157003446
