Zr Ti V  Cr W 
 1.0000000000000000
    15.4003606581649599   -0.0055679855077530   -0.0057519048662000
    -0.0055666176034295   15.3967882754475074   -0.0127779833586568
    -0.0057532193883818   -0.0127813020690698   15.3954858700856789
 Zr  Ti  V   Cr  W  
   2   9 104   3   6
Direct
  0.9895572509699048  0.7860840364749232  0.0008434713003795
  0.8015096864954002  0.4119838388237518  0.2146904044088702
  0.1951040414650032  0.9942002662130739  0.5893488970440041
  0.2052402784979971  0.5975660231406178  0.7988379422568938
  0.1955984337420887  0.8091014719518547  0.4073932817682790
  0.4046385840879161  0.1961072625105090  0.6050250767041361
  0.3950175626750189  0.8035649168074224  0.9995541640265490
  0.8011116531486691  0.3913766780956904  0.4171951207152456
  0.8057809107568293  0.4041354500598488  0.7968516727270686
  0.8144644016535156  0.6081891086646088  0.9988035959613506
  0.7954520512636265  0.5942551828515504  0.3883386120546579
  0.9987985955553509  0.9999071133899806  0.0001152302310288
  0.9999859089164999  0.9989666374673021  0.1966894345836272
  0.9972652343381219  0.9990813031941662  0.6010373527148046
  0.0010669688325787  0.9987115694268411  0.7998228836687957
  0.9995643538152568  0.1996535329031262  0.9989642642095251
  0.9990082011085675  0.1992397100045350  0.2009611198060106
  0.0011234658526225  0.2002531996968150  0.3997665684577706
  0.9993504736965582  0.1964705623205142  0.6000875309189602
  0.9996450408933688  0.1998154529321026  0.8006009936723549
  0.0015619402381795  0.3955015762655160  0.0004835164485973
  0.0044884255936057  0.4010591832853912  0.1998122279516005
  0.0072775514573038  0.3988012629470917  0.4009904271921050
  0.9961058787095292  0.4012544940943020  0.6010799359442650
  0.0053411156243765  0.4000304532765706  0.7997148478377859
  0.0095272689275143  0.5873659585344370  0.9981084196875872
  0.9997127655436653  0.6011739525295404  0.1963118556583022
  0.0043321664747600  0.5990188670464486  0.3972543162580734
  0.9991652166029876  0.5994316221618410  0.5987548775214643
  0.9986221552923035  0.5984923639857791  0.8013214461393079
  0.9995769882618750  0.8028059174005624  0.2077166181873633
  0.9970869595562069  0.7950229038653256  0.4008265734230353
  0.9943863826395162  0.7977406557254373  0.5983190258296398
  0.2002037262232338  0.0003638852608088  0.9989972107159029
  0.1978525938689346  0.0003952861376920  0.1998554450614661
  0.2018645473895068  0.0059097875739793  0.3954008742089876
  0.2001621214704047  0.9987662043832334  0.8006033237300405
  0.2009369725478586  0.2008720673739042  0.0004676998094122
  0.2006951787096754  0.1997407386576350  0.1985755284269237
  0.2006124919775287  0.2051273043581771  0.3999583697528577
  0.1974544173396207  0.2004309532362088  0.6006832166428796
  0.2009197687457697  0.1980938566585675  0.7995826751732582
  0.2021237114304375  0.3984659740761986  0.9992417409772389
  0.1980744131352685  0.3984874141245738  0.5992091296718373
  0.2011092422522768  0.3974851266871653  0.7989640311608596
  0.2042025413635608  0.5980351381560158  0.0019753397876978
  0.2007394216484610  0.6029187222004740  0.1999624765817288
  0.2034788075683702  0.5946687340826096  0.3989444920262020
  0.1992012997108984  0.5985008680976454  0.5996157810960847
  0.1993242637071573  0.7985492930490881  0.0000739800073439
  0.1977133465693980  0.8007834018313912  0.1989378907210252
  0.1971161747319497  0.7942016320016777  0.6046168468909281
  0.1978761745564522  0.8004329326570568  0.8003119429112668
  0.3991776402582087  0.0021135314057559  0.0002972683380740
  0.3986365935372851  0.9985661037433982  0.2000815028467181
  0.3988864335219049  0.9999742452334792  0.3995283829452386
  0.4017542697114767  0.9951691428935898  0.5984793416832082
  0.3984913631126225  0.9983182767291801  0.7984317344227470
  0.4041678296636685  0.2014313212688507  0.0000966667302460
  0.4001648550856773  0.1998852934083049  0.2006192580551385
  0.4010139724260124  0.2009633560829773  0.3984415098158309
  0.3999213177367233  0.1992499762547249  0.8016181270250518
  0.3995970295671008  0.3998202428046667  0.0008690442511463
  0.4004240596504901  0.4015479708924979  0.2002239201225315
  0.3957820669332199  0.4025314063703745  0.4020109937099521
  0.4016517956355221  0.4010304876972488  0.6013234213302900
  0.3980596435367822  0.4006046624540768  0.7987930499312651
  0.4012119774291304  0.5969475341213778  0.0021941593429054
  0.4012638244964854  0.6020232022171366  0.2030193558472284
  0.4018581416569042  0.5996169681477360  0.5954354326472333
  0.4058084985513381  0.6011151261681738  0.7988013897400308
  0.3991578772483733  0.8003619594326263  0.2032996932481069
  0.4003808817561307  0.7961922938116663  0.4019661116251704
  0.4001914296836634  0.7982286316299203  0.5996620747985337
  0.3981374737327988  0.7991377200024891  0.7964848800329202
  0.5988210503587266  0.0050213825674270  0.9992748492826532
  0.5976713128720819  0.9997440852209871  0.1991755758209426
  0.5973034090602115  0.0017467457969962  0.3983211037249988
  0.5995915902240669  0.9999630454139146  0.6008824103634053
  0.5978526583972519  0.9985127880894655  0.8004249097179997
  0.6013786004657351  0.2024329766559240  0.1959723408544651
  0.5986003437029302  0.2017926462698585  0.3989420199344941
  0.6033285991844518  0.1995508318901897  0.6018760053673645
  0.5994668368924676  0.2022493409667338  0.8044873374997602
  0.6030218707092995  0.3977020355107549  0.9995091184156389
  0.5967429944650198  0.4015820714027153  0.1993299999912896
  0.5968164492056167  0.3997918638304405  0.4008074601153498
  0.6047361764142646  0.3997724269385755  0.6006521387361894
  0.5971624097944480  0.4043620062142154  0.8000390467297348
  0.5998379647731943  0.5995318983605021  0.9955277832974998
  0.6018243040544083  0.6007194547969668  0.1950653807727740
  0.5926902373027696  0.5985121841897147  0.3989965719065920
  0.6014209900457455  0.5994346961198284  0.6033314779401677
  0.5979015223991992  0.8011218194198289  0.9999399648242377
  0.6006227392718840  0.8005551241436816  0.1989190722070844
  0.5988042872351682  0.7989250140860246  0.3997658716669732
  0.6049572763200803  0.7991974086508347  0.5998495692000331
  0.5979079760267961  0.7953783975302410  0.8002413788607622
  0.7996800512903270  0.0015008758599345  0.9977436573838532
  0.7943213070819211  0.0005406279777738  0.3996872375163447
  0.8007025454918864  0.9955981073214161  0.5971642102998401
  0.7986483692206110  0.9993810134829400  0.7973891757115635
  0.7964187787526814  0.2012179298659886  0.9999897488779118
  0.8002629410532363  0.2012915233700057  0.2007805893411535
  0.8016138734968981  0.1942268875395178  0.4012154535400818
  0.7995288693091460  0.2021813719221560  0.6006738098999157
  0.8003149307286090  0.1969332930023196  0.7993001027986784
  0.8029939652810304  0.3998839338630107  0.0008375903569569
  0.8000603853820663  0.6107956632696585  0.1963186385160859
  0.8002397622210262  0.5996003967171645  0.5994626228165115
  0.7959732500677040  0.6046402013335479  0.7984354763020147
  0.7902501298085138  0.8078725086708012  0.9981172838062020
  0.7989869538003386  0.8048810619120389  0.2019144043415519
  0.7992352011786060  0.8030236132191895  0.4015618037751349
  0.7986086619274607  0.8015788263182344  0.7933562740192582
  0.9985850047479440  0.7986029025509831  0.7952074170072700
  0.2012929231169048  0.4005014678208998  0.2004916029192205
  0.7994505007768731  0.0021555643854274  0.2004818441428307
  0.2012032638440006  0.4007045409539186  0.4040554774156989
  0.3983077773825663  0.5996580317778829  0.3986691122455014
  0.6006216620399453  0.2005596151277087  0.0004801162643893
  0.5998167976342157  0.5991129849636992  0.8013146622942323
  0.8019632202403086  0.4005447645344659  0.6062849885053569
  0.7990301800085265  0.7982579007854587  0.5956737364706469
