Zr Ti V  Cr W 
 1.0000000000000000
    12.5621370302832354   -0.0144609796444934   -4.3694671498154918
    -6.3106504411076889   10.8455967951286638   -4.4172525574444723
     0.0645936488402372    0.0530360159305710   13.2904639751343350
 Zr  Ti  V   Cr  W  
  10  14  88  10   2
Direct
  0.1861766478521726  0.5825558481682079  0.1880879987051621
  0.2123308793474863  0.8049165042382942  0.5907987993221563
  0.3832167431111903  0.5810007646084567  0.3917229080512714
  0.3744283290902434  0.8133585556736234  0.4285819991198150
  0.6014839253327259  0.6062723113714426  0.9966007128496187
  0.5901461746937168  0.8003980431614014  0.3983643695962026
  0.7924716980686759  0.1979319072132719  0.2040894544655339
  0.7894529977673378  0.3950194842474883  0.3948177624841063
  0.8053853866412158  0.4085284741545073  0.8031203051519197
  0.8058490815347522  0.8059315414496024  0.0028656199604021
  0.0049600386518490  0.9936073720264583  0.7816581005935287
  0.0182654148068266  0.0196859220997200  0.0182404422393093
  0.0119611180683158  0.4091028850570579  0.4172288078609006
  0.1973493776749941  0.1941961730279716  0.9894173038198778
  0.2012082852079793  0.2003164994982354  0.5974620729620155
  0.1234676800533804  0.3177321065425399  0.1228165366949080
  0.3947051970277504  0.3986583984949320  0.1945595818218815
  0.3914755020238012  0.8000996249701052  0.1931961635113742
  0.5933863180696520  0.0005683990511469  0.2044386703678773
  0.6217444828847490  0.0166680399811004  0.6245654238165302
  0.5907942382531579  0.1971322150563385  0.5890705916256214
  0.5936277449544022  0.3955907468878555  0.9962982424467332
  0.8430498913204320  0.0452386029554175  0.8421858926876625
  0.8084008785594152  0.8031057553196823  0.7932727401536848
  0.0091386411556857  0.0115157920044502  0.2158293296351389
  0.9985866169683094  0.0012501697517135  0.4060977955067057
  0.0012936089686054  0.1916590350910761  0.2079030745822499
  0.0043249722939440  0.1989047217172645  0.4079288784451442
  0.0011959229560709  0.2014766077616180  0.6010873838997874
  0.0134534127258835  0.2144316748860995  0.8077470327881831
  0.9920864457792856  0.3875726242425420  0.9829570027077505
  0.9915873517322515  0.4034920748148360  0.2024485942843577
  0.0063927803037233  0.6162317070343865  0.0042207282574540
  0.9858532487341595  0.5993461996619500  0.2000741620174497
  0.0053975340220198  0.6042273824332185  0.6020146082465526
  0.0026201822309891  0.6034073101048738  0.7945543477457496
  0.0080650275674126  0.7988725520268475  0.9914481496371246
  0.9987099278673918  0.8045389959230754  0.2010382731288812
  0.9969483117685338  0.8033024742742344  0.4027709331252775
  0.9995307659253593  0.8009270085530095  0.5978775061406852
  0.0079265876668860  0.7910601979713118  0.7889492360710527
  0.2058490616278751  0.9967896206844540  0.9950028763639603
  0.1970455401667226  0.0057978637995064  0.1962971043242576
  0.2007285857253701  0.0111795349470253  0.4051643575549899
  0.1994478880782361  0.2013895418925058  0.3961741459291677
  0.1973602248387442  0.2002992262530240  0.7932230687106760
  0.1960684072559584  0.3927952338888560  0.3994742592398486
  0.1947465740962739  0.4032954330196169  0.6006577316045797
  0.1960810333081543  0.3991219251652473  0.7957611423245469
  0.1882913721647934  0.5906675493667101  0.9790291349435792
  0.1741611902354679  0.5908522776139981  0.4034876973201498
  0.2068659653584476  0.5988166770753648  0.6101375193557185
  0.1950764546725655  0.5980267494420658  0.7916983448493109
  0.2001611092353329  0.8032319177971873  0.9956748138652061
  0.1905112596631676  0.8095686080284928  0.1924875167089247
  0.1640913120041397  0.8066302473381132  0.3726868686946452
  0.2012074288480021  0.8012358417231213  0.8004715300946704
  0.4019222104550573  0.0068403130869838  0.0038734237140727
  0.3925279168280031  0.0058936100822172  0.1974656536058951
  0.3882176558262039  0.0079252584921993  0.3869974138195071
  0.4002993090709166  0.0217575994944484  0.6067805463557319
  0.4111777961015579  0.0151983485115050  0.8069667205923773
  0.4040134824118293  0.2085515456876746  0.9998192725008407
  0.3990914032716595  0.1985693572057307  0.1960444173210018
  0.4015994454669062  0.2022265951639945  0.3998971084128187
  0.4022009539752111  0.2073585358416172  0.6005718725461175
  0.3948687130722121  0.2014588681356922  0.7908537709992776
  0.3872496058846098  0.3958572343446317  0.9871478060012394
  0.4004809951190572  0.3872904145905178  0.4037212740872910
  0.4014569798560268  0.4032576357042004  0.6041091622750516
  0.3957524817718732  0.3980453699778386  0.7953536929932221
  0.3892027474026967  0.6005714022647555  0.9880282980361642
  0.3884924151620232  0.5830481120619910  0.1600234261441505
  0.3985745348362139  0.5935806942946918  0.6080081538084318
  0.3973697285245694  0.5982672849253157  0.7982315575823524
  0.3914499399941422  0.7993406675571811  0.9907813428012684
  0.4411851903036293  0.8070750393967314  0.6413876371292703
  0.4022383344641225  0.8018458809140746  0.8079108438970826
  0.5921517451947405  0.9986258513205782  0.9956536867893361
  0.6034697997583058  0.0217715062692031  0.4125358230755343
  0.6158405664994190  0.0164336334946020  0.8242947411313962
  0.5928174170449524  0.1982771350062478  0.9978126652492660
  0.5958692816568342  0.1981674817851509  0.3896535330861682
  0.5991421726293057  0.2040674591529070  0.8053224668982274
  0.5895429042406286  0.4019535607429164  0.3939405290712029
  0.6044280640027269  0.4076328343459225  0.5972578702546109
  0.5921590567574019  0.4084493517235429  0.7916034833017209
  0.5969547370993579  0.5907625775484361  0.1998677221436917
  0.6080827142435178  0.5959201767311567  0.4012953526653852
  0.5986753555360381  0.5940409814503438  0.6033903701620307
  0.5922010211324018  0.8167595680955232  0.0085729902712898
  0.6029410430790197  0.7980350856443961  0.1950119371043045
  0.6190638966142131  0.8047814517989372  0.6253160535485172
  0.6014187045508224  0.7966200547718716  0.8099582011753325
  0.7946462758158200  0.0089955394726881  0.0145540206244679
  0.8053390634930095  0.9987348058526195  0.2129763030204596
  0.8018575827236101  0.0030649286072356  0.4059509034490238
  0.8224841579576412  0.0119260711616896  0.6106782974171601
  0.8088538613474071  0.2077247272542975  0.0062387518636124
  0.8128455518592974  0.2005749267464020  0.4267891889323955
  0.8104447678750821  0.2052232253456876  0.6068775584199816
  0.8100988565507878  0.2127141076873596  0.8084859285082845
  0.8042381808688492  0.4030710378180313  0.0116169535645690
  0.7875645844242989  0.4081440849447807  0.1911316406111550
  0.8103715468297569  0.4072862420836357  0.6011976941031311
  0.8106689287021982  0.5969800338318224  0.9999244049446739
  0.7978994789976953  0.6040235267936468  0.1994895932868768
  0.7983942713281598  0.6018068804165432  0.3921107561694243
  0.8037420466185077  0.5999694685329504  0.5984137040366483
  0.8022771373014248  0.6037431120171303  0.7940668757959646
  0.8096529323708238  0.8123867971701221  0.2198635492151536
  0.8065383461419209  0.8041883698240868  0.4018520780018747
  0.0084698517444519  0.0058364434605009  0.5968124157932768
  0.0040251701872247  0.4036438676215065  0.6097899193988601
  0.0090102148426300  0.4036389600720401  0.7916496593637978
  0.9888008397211276  0.6010300157774391  0.3931469333096875
  0.2013953191141598  0.0087028503252672  0.6000378397196122
  0.2100353323397047  0.2005401360229760  0.2127528055085658
  0.1997365304922605  0.4015225163782313  0.9841766079146859
  0.5727736733810047  0.1982928569277645  0.1861302536690521
  0.5928993099369433  0.3987902480055593  0.1950168776154566
  0.5967038377817115  0.5923205090637214  0.7848608306539553
  0.2095318960359058  0.0036478393297284  0.7976692387356178
  0.8014808351170583  0.7976019013227864  0.5920228327093542
