Zr2 Ta1 Ti3 V111 Cr3 W5
1.0
  -7.5249999999999995    7.5249999999999995    7.5249999999999995
   7.5249999999999995   -7.5249999999999995    7.5249999999999995
   7.5249999999999995    7.5249999999999995   -7.5249999999999995
Zr Ta Ti V Cr W
2 1 3 111 3 5
direct
   0.9959173786142952    0.3974068993722173    0.8003404518241606 Zr
   0.1974274497339180    0.5986985047491451    0.7965721192798417 Zr
   0.9983037966409668    0.1988522371227953    0.5969974154099893 Ta
   0.6059143291428303    0.8011968603308811    0.4008769229606291 Ti
   0.7980059294610296    0.5997658238489507    0.7991823221770646 Ti
   0.0044563463678410    0.6047100550866586    0.1968493016954789 Ti
   0.5923352482717920    0.9998560075959209    0.9987999859598944 V
   0.8000125379821443    0.1969927626775122    0.9933440719814211 V
   0.8003603121474812    0.9970393699737482    0.2012649893107480 V
   0.3932143421405033    0.9955665549156864    0.9948176932882089 V
   0.6019559391717342    0.2001342312655295    0.0002366656108673 V
   0.7991471826506569    0.3953058462913519    0.9941271177426544 V
   0.5974731315341986    0.0005061684100047    0.1947084937767698 V
   0.7997817778486129    0.2057344899424663    0.1971838076995540 V
   0.8038402146077345    0.0065740947467153    0.4081616256557763 V
   0.2011377680816516    0.0059312768850215    0.0033303425538837 V
   0.4024746113013264    0.2001572090561264    0.0067515066833091 V
   0.6002207683438838    0.4031957871165210    0.0000543856522415 V
   0.8032706985348722    0.5970994653362696    0.0049812190935549 V
   0.3999552803523179    0.9963011839316138    0.1969899383964012 V
   0.6018029683266601    0.1994228587477020    0.2036761135219570 V
   0.7987753126025021    0.3988277961984854    0.1982755823980415 V
   0.5972775484285172    0.9981731324986503    0.3970735229819993 V
   0.8010938712672506    0.1983667231931898    0.3999388502680508 V
   0.7977369407168703    0.9988116414128826    0.5990503141591921 V
   0.9986465691370681    0.0050264955785244    0.9989254088358421 V
   0.2032197030272525    0.2024631698536903    0.0024303987854137 V
   0.3907427859893326    0.3951943953981114    0.9965197711966007 V
   0.5993509685261666    0.5978091954748525    0.9978558062091074 V
   0.8010398982364622    0.7996054123860720    0.0021240948663109 V
   0.1978866998325404    0.0000142678626752    0.1991792128424142 V
   0.3997777727559758    0.1993992118287012    0.1982385503669322 V
   0.6001327331379098    0.4026520593504378    0.2013622809480745 V
   0.7944992059842170    0.5987945169836810    0.1968257673025724 V
   0.4002095451982872    0.0009484064578183    0.4014506536128067 V
   0.6008774297785772    0.1996064815681272    0.3955865634121629 V
   0.7966812340823812    0.3933501532950697    0.3999163833311956 V
   0.5981169495224982    0.9982284378239988    0.5951971041026860 V
   0.7916373589189404    0.1974535017474713    0.5955998900841569 V
   0.7993740072159513    0.9983812108354169    0.8061530524641427 V
   0.0024133677576838    0.2052130928081685    0.0064576125875573 V
   0.4056384572598680    0.5994063811874761    0.9995206848712100 V
   0.5995493776574086    0.8038616976866246    0.0007521166139414 V
   0.9979741637702692    0.0006304819852340    0.1971914779016244 V
   0.1909601719807254    0.1954621371604231    0.1937111458372363 V
   0.3989431954603790    0.3998351595079341    0.2002278382778110 V
   0.5951901508141622    0.6003447598848412    0.1964850654899332 V
   0.7986415693999166    0.7989277886892135    0.2050768264743282 V
   0.1975383323896863    0.0006759129331098    0.3997167410967987 V
   0.4020248998222694    0.2020522081503709    0.3951759123361549 V
   0.5980991986423175    0.4016499184244980    0.4008494459119057 V
   0.8020653249454239    0.6043572114355402    0.4005727879162124 V
   0.4000727438528064    0.0017047675711753    0.6001066922079235 V
   0.5975550509169487    0.1978806076572458    0.5960917702405665 V
   0.8008052341826342    0.3993573668199121    0.5966674130962605 V
   0.6013820664013605    0.0013258133363010    0.8012160109056874 V
   0.7971731252718728    0.2006611525892185    0.7989448914734244 V
   0.0018792767268347    0.4005513445315217    0.0011830005118315 V
   0.1924315623054796    0.6002141602484236    0.9998102061581560 V
   0.3965924303804124    0.8002763874379040    0.0025718168292584 V
   0.9995349164777300    0.2006780027110220    0.2009241210208621 V
   0.2044538644025397    0.4005616485332155    0.2010109218623042 V
   0.5990830005405876    0.8011286570185152    0.2003547573987883 V
   0.0010277363340664    0.9989123092464161    0.4052794919923709 V
   0.1990182946346773    0.2069607901865825    0.4026835877580182 V
   0.3991720223806946    0.3993198647583148    0.4000304093562463 V
   0.5947148841926811    0.5988082354464380    0.4027188315364969 V
   0.8051012544873759    0.8065185395492427    0.4020100475725862 V
   0.1992772704557150    0.0007184779364180    0.6017588454663343 V
   0.3991838194556702    0.2015812392361984    0.5993755744598532 V
   0.5995311695610577    0.4019920248867210    0.6001866576445725 V
   0.8005744792759929    0.5999887378120650    0.6009610353781211 V
   0.3992088244284673    0.9992286644095756    0.8013227001816066 V
   0.6007307115320103    0.2022703233582215    0.8021079018664948 V
   0.8039183329884371    0.4055932778698270    0.8063168435703466 V
   0.0017763634182662    0.5997205928037195    0.9975910417155383 V
   0.1988222004270427    0.8002806125572317    0.9985285973563744 V
   0.9965719392757723    0.4026233991014682    0.1992042928604755 V
   0.1997504271179232    0.5996763456727492    0.1987190278076799 V
   0.9929120508323852    0.1936502061442072    0.3945878095955608 V
   0.1963694354707562    0.3974629673534534    0.3965510330393187 V
   0.1964205864001182    0.2015668567867710    0.5957027520390790 V
   0.3937512184336776    0.3984356958721423    0.5973645303064531 V
   0.6031659087491508    0.5980743736323855    0.6058638902791900 V
   0.7979053805566187    0.8019476164457739    0.6021754322632002 V
   0.2015637931371747    0.0021024563812220    0.8047734680437387 V
   0.3999887465043978    0.1986931061383878    0.8021753122770445 V
   0.5991381599529306    0.3984960089419023    0.7995351433943800 V
   0.0025177698310711    0.8040214755534758    0.9979614608081415 V
   0.1998729943688498    0.8007678755905012    0.2000569946844981 V
   0.0000607649867289    0.4018078976171694    0.4015343822450096 V
   0.1992167448851870    0.5991425168256546    0.3996395011623614 V
   0.4010754562493998    0.8009773859810532    0.4005398080377435 V
   0.2001886536728718    0.3956617942459876    0.5993837132070525 V
   0.4017941406721051    0.6024071565902452    0.6023455073181759 V
   0.5960854232125186    0.7982832876453205    0.5973173066363345 V
   0.9999720394212850    0.9964019637231474    0.8018540987512803 V
   0.1984966683156805    0.1968470526905583    0.7975664387241865 V
   0.4020521342826280    0.4060867857968773    0.7981896883697079 V
   0.5977155983659230    0.5967890318891005    0.7970515419716335 V
   0.8015252374270290    0.8025582972662531    0.8009255874034732 V
   0.9994546105868419    0.8004751672426146    0.1995811815842228 V
   0.0015323032459571    0.5990564128213511    0.4019020631667320 V
   0.2033924926197023    0.7974183238739561    0.4031664534316554 V
   0.9981475739499431    0.3946583821289060    0.5953353226519689 V
   0.1996200119969981    0.6006358977561718    0.6021003972859715 V
   0.4011992853286011    0.8024163763538446    0.6008606137997169 V
   0.0025137506532751    0.2009537823684380    0.8013025401293944 V
   0.2022400499866626    0.4004987381259357    0.7982277206590950 V
   0.4019637303506800    0.6001377138151907    0.8010733762265947 V
   0.6001047760222452    0.7977009907497934    0.8004706099772356 V
   0.9980040022922984    0.5998539370769039    0.5998827587771802 V
   0.2054329491617925    0.8041941324765829    0.6061630333381618 V
   0.3987392814303059    0.8017810713740360    0.8000022863596535 V
   0.9933823215323792    0.8006504284406556    0.6012436158224511 V
   0.0004987669847725    0.5994086051009067    0.7996865327140847 V
   0.0027857295840966    0.8023223487824233    0.8028896946036059 V
   0.8026695357880642    0.0036570860883556    0.0044928952778502 Cr
   0.3908260832080886    0.5953846499809929    0.1941150026454780 Cr
   0.9973786054358670    0.9992200947898070    0.5991607276311274 Cr
   0.1972027859271691    0.4008018909541965    0.9963730222123901 W
   0.3963153360068285    0.7969830067490691    0.2030175611963241 W
   0.4022912460080224    0.6006728188592847    0.3988687718392889 W
   0.0004316520360241    0.7999511857455857    0.4038808957526459 W
   0.2020909675225894    0.8069603386953090    0.8056003198341645 W
