Ti V  Cr W 
 1.0000000000000000
    15.3720038313806135    0.0023998420144863    0.0001449001601191
     0.0024007571799185   15.3633006247875361   -0.0006442210894229
     0.0001450310074229   -0.0006449824026597   15.3697544548857330
 Ti  V   Cr  W  
  15 105   1   3
Direct
  0.0055060786827767  0.3939597779843220  0.6011338932303915
  0.9909499457974158  0.8005023258735122  0.2039507580518605
  0.0091909323287658  0.7984678395879224  0.6025480014544488
  0.2008363172826656  0.2034065117817826  0.3936123137475115
  0.1970733013807843  0.2045789060330861  0.6060007107424175
  0.1981624733730804  0.3949562110908735  0.1995178762004149
  0.2023726810930964  0.7971744864636390  0.2014224746554638
  0.4067248806151680  0.9961162609460285  0.8059118807770682
  0.4023770652027647  0.5988814678226817  0.8011999987554725
  0.5942391641924654  0.9951001498362515  0.9944654249274244
  0.7914821486291284  0.1980027604003658  0.7949761325550728
  0.7993443699963373  0.4045157496912028  0.1932873162218416
  0.8017858880540427  0.5932571917804348  0.0029316791815979
  0.8068398701616188  0.7979179395093671  0.3918434382205806
  0.7986701800908014  0.7968448738953676  0.6044517593490906
  0.9997864389756027  0.0018134566473387  0.0006367972752510
  0.9983663969408837  0.0014932100990981  0.2016137437253961
  0.9981214007325913  0.0002753936076518  0.4008105516826031
  0.0003708103273581  0.0007128339930547  0.5992700991326603
  0.9997350661521123  0.9995597630210240  0.7988843283817182
  0.9971605183374016  0.1995347004754161  0.9998285592154109
  0.9988633378766842  0.1995958573252192  0.2001279743232876
  0.9976522749264237  0.1967669983093286  0.5981489899583127
  0.0022801753601315  0.1989990603104397  0.8011385703238106
  0.9975429636351000  0.3983534213661395  0.0004271833864697
  0.9996065112496008  0.3993101978321380  0.2010868077459850
  0.0000291367139376  0.3983495774956570  0.3979276719389871
  0.0001307208648005  0.3985584822943891  0.8019191012544197
  0.0020502391455128  0.6005271536382676  0.0018836220045055
  0.9993599945467498  0.5977402806451635  0.2015992897501187
  0.9999730499654708  0.5991179205406395  0.4006560287769267
  0.0007776470872475  0.5990201980081415  0.5987524350605724
  0.9992744153213264  0.5999265142037964  0.7993248289137044
  0.9992892235955878  0.7991974627939349  0.9997492646797086
  0.0032483992807035  0.7998270282300333  0.4015056185131928
  0.9992083698443686  0.8002991748596635  0.8027009590018317
  0.1975723349018510  0.9968695016151359  0.0003856964173550
  0.1974951164180831  0.0010587330694681  0.2001523553004578
  0.1991720584756606  0.9990505149695318  0.4004693482879356
  0.2005375181508576  0.9992223962049752  0.5997738780360747
  0.1993725001607459  0.0009136683196929  0.8017444712908400
  0.1989146561531470  0.1977438852173440  0.2009201451672797
  0.2017850040488909  0.1990401507623333  0.8002122439347692
  0.1981636691155768  0.4026396671283338  0.9998060365005790
  0.1991707901464706  0.4030012969073418  0.4051245982757231
  0.2037424138283497  0.4045256470819871  0.6026338193725403
  0.2003033046716033  0.3997674679416321  0.8030764328389567
  0.1989381093290201  0.5999425575037801  0.0006753636842325
  0.1989573519292779  0.6001850960702121  0.2018614934086961
  0.1986594836097371  0.6010278655400859  0.4006768928989417
  0.2005322244341715  0.6021684277204248  0.6011312880151266
  0.1974517308275467  0.6001681257986508  0.7998750846253270
  0.1991876975106667  0.7996718684021789  0.9980124554059556
  0.2006056978411498  0.8006167627965827  0.4038330697995152
  0.2053615548673659  0.8005455579213147  0.6021216440154422
  0.2004142494468484  0.7995114460935588  0.7997659107288123
  0.3938137570615280  0.0015096713623624  0.0043589921332112
  0.3979790567552148  0.0002097653845670  0.2011831340884740
  0.4023930287907761  0.0001013382165944  0.4000611310970862
  0.3998481614571548  0.0001463095434566  0.5983623435328158
  0.4020128424905840  0.1999894167968922  0.9993411490122156
  0.3982953948062432  0.2004243268887708  0.1961388276633617
  0.4019298445040406  0.2009295457773758  0.3998639794288906
  0.4006565929514908  0.2002341389415834  0.5997766431658434
  0.4019545951733551  0.2017426580492764  0.8011620200413140
  0.3973104184859106  0.3996876129395918  0.0011066222970247
  0.4020116139490612  0.3999885229105952  0.2006515135027128
  0.4002130651885013  0.4000872161736106  0.4001950816123908
  0.4012588884279380  0.4011957532899656  0.6004440154541705
  0.4009690609936816  0.3992690260978540  0.8011027145821447
  0.3994653715865628  0.5991871207918799  0.0035950280014794
  0.3995874483802851  0.5998636902841018  0.2013474259930764
  0.3996120447492120  0.6001899364727913  0.3995220612978438
  0.4012771096728099  0.6004347125994320  0.5969180411139803
  0.3991876163712320  0.7994611298389497  0.0004793722101226
  0.4011586447233212  0.7999152968741337  0.1994257720533216
  0.3996481664062679  0.7997058010174333  0.3991601027290149
  0.4009199224989006  0.7994678673048242  0.6013413033979171
  0.4014370287419454  0.7995838044353297  0.8010092523576958
  0.5986713839155410  0.9993614931241411  0.2041543482135680
  0.6010839619010168  0.9999595046550778  0.5939271577084492
  0.6049376328443331  0.0044086422633621  0.7934880850733127
  0.5990515681080828  0.2019191102042079  0.9943314977687160
  0.5989657061263282  0.1993602173652494  0.1976541887504015
  0.6001627354255640  0.1971974505715539  0.4002577443370001
  0.6008331880817039  0.2004963206553783  0.6027726134304733
  0.6045087066443018  0.4014552674877444  0.9996027491578069
  0.5973672108570202  0.4008735878157998  0.1999529854239920
  0.6010961870986700  0.3987614143842107  0.4003345199816636
  0.6009399205304840  0.4009729932246213  0.5998023398427460
  0.6007136492493482  0.3973891613826387  0.7995020742465249
  0.5968986278186745  0.6002784417881880  0.9995709673698883
  0.6000400894632201  0.6016354041581845  0.2017734898610892
  0.6017792174394605  0.6018139458358311  0.4001180887619021
  0.6011562695491559  0.6006091651064256  0.5989100670253894
  0.6035290466050536  0.6009953971849799  0.7988287279202525
  0.5993968636175120  0.7974402420458070  0.9983024165987563
  0.5988130910036379  0.8004355796709990  0.1979584676681831
  0.5988549818038891  0.8044319032667209  0.4000204874968231
  0.5992872553154530  0.8006182347924090  0.6002112491486088
  0.6007945106807734  0.8026527824577114  0.7995107580351453
  0.8012748838942220  0.9993690476528045  0.9991570127488210
  0.7985261044321664  0.0002815580257942  0.1983824566422479
  0.7964349178052941  0.0013935179768843  0.3990591589708185
  0.8021909104542297  0.9999958552113501  0.5980860443251728
  0.8015173341447023  0.9971550347928211  0.7987993568233912
  0.7991955195983104  0.2021524881953455  0.0012152124206911
  0.7976236247898075  0.1988600176677903  0.1984293973489396
  0.7992668781574558  0.2016760204564302  0.3973032172097581
  0.8009817646338676  0.2015773238197066  0.5962579312996611
  0.8003521018324643  0.4002266271979723  0.4007354430518838
  0.8004118116687504  0.3997683002624536  0.6004603019285721
  0.8010968373687981  0.4033432767646242  0.8015459018879644
  0.7988791398304514  0.6040320644983426  0.2032434451523320
  0.8015824049082199  0.5972254691094704  0.4003027364955180
  0.8020643256633243  0.5974200365354922  0.5993663797267205
  0.8009864808868996  0.6009295166265682  0.7975741167972125
  0.7989523682807275  0.8001290654477689  0.9988705363692975
  0.7949163174106937  0.8000949145264878  0.1937630038166139
  0.7998574152985610  0.7989475565721706  0.8027823412763206
  0.9960002772745969  0.1997655753774584  0.3992231860245404
  0.6001532437069976  0.0009269604890019  0.3990653946070895
  0.5977709218757584  0.2006828625884620  0.7970062960757828
  0.8004870070715294  0.3984350258218076  0.9958024456855390
