Ti V  Cr W 
 1.0000000000000000
    15.4171836946855763   -0.0006458025225840    0.0021743795697675
    -0.0006464432342440   15.4108214600062574    0.0048957167363750
     0.0021730867805691    0.0048939939426410   15.4267125679285311
 Ti  V   Cr  W  
  13 101   9   1
Direct
  0.0008482661470562  0.3998162849257992  0.3998350735426425
  0.2030866046625540  0.1983338151569046  0.7979353979882668
  0.2006941977438109  0.6073768782624357  0.0053188611292079
  0.1996978218997569  0.5984639116164615  0.7916253191585362
  0.4009860721436113  0.9948886741881221  0.5992614481401382
  0.3973098418154282  0.2055833484058636  0.6042680449676735
  0.4026350877057962  0.6029958250348729  0.4010707064180315
  0.5960312911632150  0.9988283229188042  0.9960083763238448
  0.5948780064585152  0.3994707447282844  0.4038816157806428
  0.5905999332459136  0.7981099463098505  0.4014267757152695
  0.8041164974832310  0.4030495432498911  0.9917717949651497
  0.7968986057492167  0.5946874101459412  0.8029836873010422
  0.8040175639205649  0.8016549196500766  0.4022571557394725
  0.0000745719936032  0.0002768903553290  0.0008043266138356
  0.9995175280726881  0.9986601349467229  0.2001833646214536
  0.9999749216576992  0.9995543873909122  0.4002119866465075
  0.0003757101021627  0.0011709050562645  0.7999303905771388
  0.0000782883419914  0.2003599806071603  0.0990217689375758
  0.0000480020906193  0.1980339408969962  0.4015809445226192
  0.9990740696013578  0.2005954558286363  0.6004472935490510
  0.9992514538664348  0.1999309102226779  0.7989305812426122
  0.0037651276720085  0.4013719260630964  0.9989018148615028
  0.9999313703783164  0.4004410432403532  0.1955048712540837
  0.0013819295063751  0.3990666525437277  0.8002461365281330
  0.9973084131228303  0.5999534857309463  0.9999615954355636
  0.9979830154156500  0.5986107554809542  0.2013764594938414
  0.9992169265640047  0.6013275682376158  0.4000531016971619
  0.9978842423423731  0.5988945784972399  0.5995369995587814
  0.9993988107490158  0.5991021370938083  0.7994408295459146
  0.0028461499689687  0.7992631798942296  0.9992121225875668
  0.9983907723401637  0.7985781423494314  0.2009023937675760
  0.0031250667078471  0.7991238783015773  0.4015301822238205
  0.0011157778699236  0.7987499316100077  0.6022194649817958
  0.9995613674071687  0.7988009320469228  0.7998596719917475
  0.1998064160605998  0.9976293721600954  0.0004016347338351
  0.1997525572292650  0.9998060124757774  0.2014273411107889
  0.2000101507731819  0.9994880763995120  0.4001123455738222
  0.1981232319159422  0.9987739822936785  0.5998856112457533
  0.2012676683560938  0.9980361474170790  0.7990394503818343
  0.2015542691034270  0.1987214351802205  0.0023431832284742
  0.2012812863794053  0.1996350482841630  0.1994866053830777
  0.1990624190850883  0.1989484806389390  0.3990519113829974
  0.1977846575291017  0.1999181473255550  0.5968412831605933
  0.2003578770172020  0.3986958677107685  0.9998232266423268
  0.1997055607295350  0.3989407883672642  0.2005191645359425
  0.2021670820223176  0.3995373719814339  0.4001341061652484
  0.1986690236885058  0.4004291846466820  0.5997229532703841
  0.2014556010773265  0.4004612866533049  0.7996225576816445
  0.2004179254785462  0.5991810456150040  0.2043289535747873
  0.1983390796999067  0.5998323577773729  0.4002588451227267
  0.1994091230052121  0.5995874612808674  0.5958327677039396
  0.2012038124369078  0.7988062146867959  0.1970719210262354
  0.2001702938511725  0.8005040224887420  0.4003631990977023
  0.1999383108397055  0.7983350393123342  0.6020691142537363
  0.2017093117233394  0.8006661098412002  0.8037956268308483
  0.3992129008800719  0.9993309824609311  0.0009513339557647
  0.4015432494640639  0.9991645491956931  0.2003023414408460
  0.3996090636726188  0.0002690555315383  0.3993962250368763
  0.4021161423764777  0.9986033300074068  0.8017261770598409
  0.4000585142160303  0.1999337520436492  0.0014110160323224
  0.4013722015367463  0.2000121401471754  0.2000377960205525
  0.4002439568953678  0.1994148284781067  0.3984215706486679
  0.4038118098368450  0.1996144631196648  0.8029178691922491
  0.3985717845677670  0.4006012721658603  0.9986455403851225
  0.4009931314948060  0.4008604994312207  0.1994196043594268
  0.3977211865283270  0.3985724394894312  0.4008013964266212
  0.3992692499851228  0.4036644826186020  0.6013879542204916
  0.3998144584221861  0.4001448429668402  0.8009567184297763
  0.4020718196153644  0.5993686761777162  0.0000507553539080
  0.4017865666921394  0.5994090185228794  0.1988833493760494
  0.4003866617696903  0.6000350207196282  0.6019125640022812
  0.4027977737260227  0.6002574766814459  0.8003002855712190
  0.4012233183756368  0.7990374738679192  0.2012464285667653
  0.3957603424806060  0.8017966430125529  0.4007809034948893
  0.3992148289015431  0.7966950793649210  0.6021576207745205
  0.6000474961176534  0.0009096033984361  0.4005109460479763
  0.6025511529865278  0.9990071910659029  0.5988746637152041
  0.6008337917141434  0.0001895719533174  0.7959051738594378
  0.5997457472959948  0.2018412806516683  0.9992603843215406
  0.6008215949583418  0.1997567149906960  0.1997008188482929
  0.5988753099038331  0.1983912409544532  0.4003706399854322
  0.6022011938523972  0.2004248828222108  0.5998816967727352
  0.6008990009940839  0.1997549441937806  0.7994411829370217
  0.5976931110026076  0.4007998091352238  0.9991608874135808
  0.5992532898703344  0.4005152793602980  0.6022532537239100
  0.5993942305311524  0.3997079278580613  0.7987860357346811
  0.6007914179716037  0.6002143241666046  0.9999808458603364
  0.6008496758439332  0.5987767133000647  0.2012323488179793
  0.6016169356789265  0.6001744883890203  0.5984281629719808
  0.5987051170793576  0.5993491106334511  0.7995389441654469
  0.5995922009972063  0.7980992655363145  0.0000821224638345
  0.5999066922010708  0.8001966817204105  0.1983531636698991
  0.5992993934825613  0.7991031900356870  0.6026379972235640
  0.5993073037932660  0.7995640270019911  0.8005875065866614
  0.8027186933138758  0.0000671440980989  0.0007821949161784
  0.7998445491233787  0.0005096471308588  0.3997351790080675
  0.8007759740185124  0.9993313859960410  0.5989144526198904
  0.8002405331634014  0.9992673097819067  0.7996542740012623
  0.7984782975338103  0.1982738593044535  0.0011541196432526
  0.7986610790155663  0.2004693284536650  0.1983953867835518
  0.8005565903845080  0.1999727496372640  0.3984479545374053
  0.8001471232112959  0.1994019648677380  0.5988901926555417
  0.8005699571332987  0.1987017047706716  0.7996697901968016
  0.7987765210658930  0.3999763016901438  0.1998161440521030
  0.7988410500116128  0.3994704069932994  0.3984038047709529
  0.8007434420969524  0.4002826041310494  0.5987606867967664
  0.7993802712791183  0.3958776536107914  0.7963628992059885
  0.7994399980031381  0.6028876233472421  0.0041850482528211
  0.7987674467385427  0.5981174974390480  0.3986082825319245
  0.7999749167046939  0.5996982403056417  0.5971060222696623
  0.8009797788953477  0.8007202480406330  0.0000904552441224
  0.7985593516556153  0.7988696609084164  0.1994653614296124
  0.8002143787846954  0.7984459243885139  0.6031071305938308
  0.7997526596489269  0.8016070180649868  0.8013826438420237
  0.9996345585177571  0.9987522187520559  0.6003173029679438
  0.0000607382195386  0.4000662959586350  0.6024047432690055
  0.3994930005588158  0.7993265381717589  0.9999548162939419
  0.4003387795212269  0.7987556536590797  0.8016638643398590
  0.6009178218270530  0.9995654724006189  0.2023259129288619
  0.5994876335561614  0.3995552956686456  0.1971299221985434
  0.6020297372691447  0.5994508666134618  0.3998017047584989
  0.7993980477886037  0.9996895181507135  0.2003935642653700
  0.7992306158541522  0.5995979780332964  0.2002744902702299
  0.1975818950715320  0.8022492269242423  0.0008460898114580
