Zr Ti V  Cr W 
 1.0000000000000000
    15.5633147981762434   -0.0105082892338306    0.0011052113616143
    -0.0105224976463168   15.5390273600018674    0.0056805954645976
     0.0011054290159095    0.0056800010957864   15.5617863503600393
 Zr  Ti  V   Cr  W  
  10   1 106   6   1
Direct
  0.0087011348706225  0.1876454921426892  0.7959012290873131
  0.9992185384159857  0.5979662312990321  0.7994169455297703
  0.1929873197927753  0.0049985874945226  0.8021672927345778
  0.1967534844460935  0.8010404618351199  0.3977662294896053
  0.3972298883161707  0.9990264216755924  0.9972071090475405
  0.3968498586479722  0.7743987934514346  0.0008710419279825
  0.5985336176047900  0.2020023002371279  0.2030334017717245
  0.6112185523204365  0.4108688956639545  0.3993656014521936
  0.6008246451108435  0.8016964629168912  0.6022685862347108
  0.7935229217524044  0.5925670583834354  0.3928009435275970
  0.0001578118952109  0.9953548213534124  0.2025610825873122
  0.9964353013617206  0.9991983145580090  0.0006464779974632
  0.9986650086130749  0.9990463367453279  0.4010569389500686
  0.9989776649698091  0.9979879183234264  0.5978126203067854
  0.9890044298300519  0.9887210816696927  0.7990765607837705
  0.0011648830329666  0.1995660922406305  0.0032486128244527
  0.0021465412304473  0.2011459250502244  0.2008272141540696
  0.0028466806988101  0.1978492990980023  0.3989105767152345
  0.0028272575438197  0.1986825436922536  0.5941451784632812
  0.0014690077060522  0.3986758225319974  0.0002296588136937
  0.0009598399590077  0.4004297825056902  0.2002924545556386
  0.0041316629380536  0.3983554757700911  0.3994168892675504
  0.0025947763113892  0.3986626530077762  0.5997429482790664
  0.0002561354544311  0.3952267546870269  0.7998358209178424
  0.9987732156572952  0.5993360078223616  0.0050583165993069
  0.0030635145682476  0.5990846350620394  0.2011183979196071
  0.0017932743035529  0.5986803925272552  0.3989523577636898
  0.0003964563306049  0.5989994377173788  0.5948507284881309
  0.9989544048606585  0.7979105129743614  0.0004413442705370
  0.9969783142561043  0.7962414909226463  0.1992381137225874
  0.9942378214137366  0.7979847911131930  0.4003665734907230
  0.0004147016693636  0.7987734342129985  0.5997335444219052
  0.9982427232087746  0.7997073983207617  0.8002345823384532
  0.1913691104543051  0.0027045041234848  0.0060152366668383
  0.2013896802221126  0.0020723220766363  0.1989895382670503
  0.1990753651321001  0.0045501134881661  0.3983151815291076
  0.1985898909758256  0.0005638081333044  0.5965374685803079
  0.2011000334761651  0.2018198341327958  0.2005924963722408
  0.2007545020820882  0.2010081749281429  0.3986824049625857
  0.2072957021027527  0.2019785329935945  0.5975509404662329
  0.2097066351265067  0.2085754415839431  0.8009369706819205
  0.1997748338590170  0.4010179069561737  0.9999906337936603
  0.2015339733762568  0.4013665989467328  0.1983025929797844
  0.2006263166071018  0.3997952406944942  0.3987292708854502
  0.2000001703497077  0.4002669796533015  0.6000089998620396
  0.2022524827452073  0.4023759501469183  0.8015954433370815
  0.2006080040158641  0.5994435747432163  0.0000586881871910
  0.2011214682167456  0.5996702790687874  0.1991566125381367
  0.2008036066816848  0.5972083789260770  0.3998386467354296
  0.2020101650780863  0.5989412327827761  0.6003082938531545
  0.1931746114673409  0.8011021234509437  0.9988763880257482
  0.2000884652667629  0.8004540244766899  0.1950351060505037
  0.1979309879004496  0.8011202719081603  0.6036861614956976
  0.2004795245379921  0.7980726057241283  0.8011325764332121
  0.3996722085479521  0.0011633114273151  0.2047625285015042
  0.4002737568783301  0.0011074806095517  0.4011258449795707
  0.3980795080698036  0.0049791557276670  0.5972472051661054
  0.4022330978359940  0.0007820345346763  0.7927303683934238
  0.4000466418237824  0.2049651776265040  0.9991166498610154
  0.3957790644592551  0.2014014125479609  0.2009280817947658
  0.4005207661943026  0.2018602089438217  0.4044573646029501
  0.4027316233505838  0.2013576428217022  0.7954354057278379
  0.4002908623011709  0.4009989213674665  0.9984048234218863
  0.4009487505860199  0.4012235797019847  0.2004475750976167
  0.4006652608239989  0.4010440576286456  0.3992101876767574
  0.4009786602254201  0.3972277798047989  0.6000334478343126
  0.4020905345103523  0.4013179207442717  0.7992775582828007
  0.3992180993093914  0.6009633396391892  0.2008696091677954
  0.3971427115807378  0.6004410214044203  0.4013080254928589
  0.3987299022032790  0.5987878914159740  0.5995159438087340
  0.4017713219652458  0.5996327317473072  0.7985671994414105
  0.3995443023531741  0.8016293527735656  0.2055672828768731
  0.4012363939733675  0.8018941099716952  0.4018911022915230
  0.3991944172393860  0.8010452229378154  0.7956953515802471
  0.6048573243917712  0.9999060589030304  0.0004506223317051
  0.5993637048469688  0.9971390007074382  0.1994156850218456
  0.6003499527512376  0.0008801732722022  0.3995221331476629
  0.6003979824424016  0.0044043556411169  0.6000863023556033
  0.5994739931073026  0.9993874052745747  0.8006588777397909
  0.5997263251460825  0.1998286265712878  0.9966400230502529
  0.6018514859560258  0.1997286887527563  0.4050423248022630
  0.5968359025126209  0.2019689282656954  0.6011216365489097
  0.6009778395938922  0.1999720816456144  0.8004440223022182
  0.6021712165350573  0.3995447415089085  0.9989694206882269
  0.6020870545532632  0.4002794940396632  0.6042995245449563
  0.6008607478414353  0.4013701176014371  0.8017216393069447
  0.6014565043945936  0.5998443725853874  0.0005919402243878
  0.5965452786367172  0.6022072060759263  0.1994759141333146
  0.5898447307826540  0.6116365455997648  0.4006826923892755
  0.5976239874307420  0.5973227644157691  0.6018410708351563
  0.5986503994308507  0.6002451992543105  0.8012001627707145
  0.6035518117588031  0.8003220333676426  0.0016578467151664
  0.6004817883649212  0.8001120876118772  0.1986784289556518
  0.5997620192131601  0.8042911126758800  0.3971559485727442
  0.5996664804114760  0.7999771765415975  0.8063722678596058
  0.8009510271736043  0.0021411015976738  0.0001627045956873
  0.7985951117909152  0.9996506966459258  0.1996965461171024
  0.7995676580538594  0.0000641288688492  0.4005909517749721
  0.7998851332433466  0.0013423698089978  0.5996162633794792
  0.7958706309697520  0.9981779584168345  0.8001869943104738
  0.8016383957725874  0.1997579424398527  0.9994473422445983
  0.8019576536783288  0.1961516489428118  0.4005104581328253
  0.8011037378980691  0.1992137906427027  0.6004396729937013
  0.7987261266427716  0.1986271785163776  0.7985686087957212
  0.8019129586440824  0.3987296057267503  0.9998144527252290
  0.8028797847196866  0.3979456252975043  0.1983507289477654
  0.8124429462102110  0.3890786724185139  0.4012009800071547
  0.8025591360370828  0.3969514606429194  0.6019241025248163
  0.8002395083788244  0.3971603180354817  0.8002089690556953
  0.7993849831830645  0.5961920754905637  0.9993788565525189
  0.8000164716251182  0.6999487689347913  0.0982771946038108
  0.7996828694935987  0.5968969714180045  0.6003685509449177
  0.7952817872702873  0.5994460716747407  0.8003420433940480
  0.7993936093608920  0.8015339235899754  0.2021263588932834
  0.7994543184798204  0.8012430320823725  0.3994917865318918
  0.8036520088660336  0.7984166715677682  0.5996125622288250
  0.7985502339864182  0.7989902786977676  0.7985351190129168
  0.2009500785264163  0.2030468690948949  0.0018603627604925
  0.2047379274088451  0.6003005545640325  0.7996366906912832
  0.4010402852699927  0.5911831758572513  0.0004471067352567
  0.3950194832458435  0.8004721429432581  0.5993573355610570
  0.6014701272585803  0.4057009152005941  0.1941842918881998
  0.8042186439468004  0.1991878416692804  0.2000533369923059
  0.4012616611053536  0.2014388357419832  0.5991417712829502
