Zr Ti V  Cr W 
 1.0000000000000000
    12.6684183398854717   -0.0307505724529021   -4.4332041932590505
    -6.3522987228625292   11.0024455963999124   -4.4090858170264262
    -0.0126403058899142    0.0077772339306734   13.2640939031610330
 Zr  Ti  V   Cr  W  
   9  17  87   2   9
Direct
  0.9924713074785022  0.6000213824077738  0.4084946054498939
  0.0071136933808292  0.8107804361057405  0.2067835611665418
  0.1948936938606795  0.9936788255057569  0.5898838973334053
  0.2173962274224958  0.0139204834600067  0.8294998172099702
  0.1905814497385313  0.3887555158827541  0.1909237872836016
  0.1979132850601774  0.5894058510763055  0.9976758221568782
  0.4043793297951993  0.5995333608752258  0.2092434886937199
  0.3948624944061608  0.5944148288206663  0.7954148294177485
  0.5891076964694985  0.1965251580373530  0.9678324407810320
  0.9923574798825455  0.1912573311470492  0.1880717091789550
  0.9941868382365378  0.2015202115924544  0.3975888247091023
  0.9950694665737482  0.3996282329781865  0.5965467146494996
  0.1989836536025865  0.8025094561895996  0.9993693987692041
  0.2095571300052999  0.8061936354653443  0.4099720607033181
  0.4398309352829241  0.0276220174890620  0.6184705276851595
  0.3989227124719883  0.9791101930017423  0.7923418032927197
  0.3933123317423639  0.1731709355045624  0.1646933267586572
  0.3987284647710715  0.1996515024228201  0.3892463193274469
  0.4020282111706459  0.3826025486059997  0.2073638658169562
  0.7079289883922657  0.2005468256003455  0.7934554395174042
  0.6021623455287520  0.4166838101450736  0.0025976591389989
  0.6156003562492705  0.4067966421442203  0.2132316701360047
  0.6003917847691993  0.4007787634643272  0.6012565791235911
  0.6095362321899155  0.8043565818524991  0.0044220915113269
  0.8112157891504818  0.0064824822846634  0.8101358935015962
  0.7983591756873624  0.3961473828352925  0.4001257562512129
  0.9902324908888240  0.9966386338515627  0.9991070584569255
  0.9952986296868745  0.0051097298186480  0.2020433691176415
  0.9951561244499068  0.0012225187936943  0.3997631762833911
  0.9874821158201155  0.9965441786575324  0.5974989881043059
  0.9929764021722211  0.9894516539441268  0.7949380946648988
  0.9891338658015321  0.2564824502556697  0.9876951732784883
  0.9912149561797644  0.1946927874842309  0.7953472057336733
  0.9825383115963766  0.3870321377016361  0.7920647599693411
  0.9942207274767463  0.5999380987228046  0.9959545706497285
  0.0010964390885298  0.6097453861355294  0.6212714171023020
  0.9916719840225415  0.5958961966946695  0.7966117705765046
  0.9902130117946715  0.7933685358186786  0.9830456232469807
  0.9756932941868471  0.8003196325502843  0.4021177283847563
  0.9892716717023452  0.7991314032275313  0.6094057476168758
  0.1694450307293879  0.9863368221787242  0.9992583637771644
  0.1972136345511822  0.9958660310080335  0.1964452786028470
  0.2172901226317193  0.0245263221401176  0.3998765307332932
  0.1774249328663345  0.1854096124503207  0.9922321018990976
  0.1991824471139348  0.1841986300274996  0.1978960848196232
  0.1965564713638019  0.2029282369454425  0.3954284402786585
  0.1950393256380543  0.2038903777598022  0.5935868845783712
  0.1934284582529872  0.2049780387520519  0.7951546529132778
  0.1866777683099462  0.3684693879967633  0.9706918819974653
  0.1948597414234060  0.4002384929969870  0.4083876702900944
  0.1953787906657004  0.3919509258516142  0.5909031867633432
  0.1871277786809209  0.3916615913496385  0.7879874727806927
  0.1972106674615905  0.6137326524224627  0.2146155283438085
  0.1957094268929614  0.5963170238437220  0.6007747997182681
  0.1903341122598541  0.6049822432167785  0.7945974407700616
  0.2159828603321420  0.8041369261250390  0.2082421967417745
  0.1989293125982897  0.7857245718732183  0.6139447644609731
  0.1965268373487374  0.7906172574532042  0.7978271062063131
  0.4047857940085394  0.9873063059440218  0.0047939067022428
  0.4068742572101386  0.9981638244589744  0.2089386259449272
  0.4043861942766947  0.0000863045335025  0.3988103181983395
  0.3984717167225537  0.2430258566814738  0.9993498355801632
  0.3977850710917830  0.2043251464446839  0.5948322824006584
  0.3937954727586296  0.2132790568540576  0.7941724245701223
  0.3952467931507750  0.4118413568185704  0.9894112223894811
  0.4019096338675903  0.4075505508015501  0.4126204578596790
  0.3962001151288076  0.3972703366184029  0.5932445967647381
  0.3931640071744590  0.3876715781979843  0.7851801761654751
  0.4183283846056901  0.6071696048046963  0.0104166694995154
  0.4087279768354235  0.6052112120031765  0.4192886140019038
  0.4058455459729933  0.6010232057729834  0.5954009325852173
  0.4028593424341169  0.8027217764591530  0.0032040560375926
  0.4087276161985284  0.8136558982031028  0.2131592589832674
  0.4092641543446011  0.8073584319593535  0.4082451229555619
  0.4043959207460904  0.7988410408132816  0.6038670715407444
  0.4041044657197361  0.8009321405102144  0.8061227523084549
  0.6030495492368220  0.9982909436916849  0.9991892948115438
  0.6040715776636146  0.0053966551000485  0.4076519131703810
  0.6067895660965862  0.9927895795887528  0.5943392069076429
  0.6084203839231574  0.1928705014931716  0.2040810650456458
  0.6052379966050013  0.2025069648637599  0.4015148856735162
  0.6008546885148940  0.1985247942963797  0.5934609502511038
  0.5955923890539809  0.3997442675455541  0.4011003094719846
  0.5986461095535777  0.3715454617899470  0.7910383832064347
  0.6118827717429300  0.6081324004322695  0.0036218130178493
  0.6156672607516662  0.6116950022298068  0.2071538304116179
  0.6054248469422091  0.6021945342663760  0.4102081437897425
  0.6052989418612654  0.6047812272129893  0.6047862833377254
  0.6117492121429742  0.8092013346516098  0.4142626336583853
  0.6028766578578821  0.7970915913228668  0.6021671190921062
  0.6059089220239666  0.7973485496428098  0.7977526344417578
  0.7916643825567289  0.9874910807296686  0.9989053683300151
  0.8029075317254368  0.0029441883804453  0.2015932085243603
  0.8017226706090331  0.0030370187893218  0.4036690289343792
  0.7992582700946130  0.0004553922066965  0.5997836975625470
  0.8045577184997262  0.1935330029449101  0.0002255645660745
  0.7981488703048915  0.1993199175087518  0.2018790947948398
  0.7903570748426529  0.1953624459092810  0.3985687109128474
  0.7960107172314462  0.1999469747648686  0.5974932028298756
  0.9290125964341717  0.3313604328666171  0.9264187272338734
  0.7968785845983360  0.3900551036707677  0.1882539202975369
  0.7951704329018036  0.3961808105445643  0.6007893806241726
  0.8012632477022434  0.4026221458726087  0.7950302427341341
  0.7972664324898450  0.5984462076836414  0.9927882563934349
  0.8024074016186010  0.6091704022327867  0.2050109472293244
  0.7927911161830978  0.6142503599618124  0.4136146124816966
  0.7982195505709007  0.6025532230456547  0.6066635233781021
  0.8006563709665193  0.5990704522330974  0.7994110334268781
  0.8037555306968341  0.7984059983028590  0.9979362117778918
  0.8001444473864873  0.8077044369620699  0.2047685023029086
  0.8007281140554853  0.8052155892169459  0.4076098695780353
  0.7987199975626895  0.7998098817367155  0.6053717069381576
  0.8027563520301625  0.7969806407420016  0.8008063942875751
  0.9969900959433791  0.3917443014596458  0.3925624036264557
  0.9901568716347360  0.7957703408298793  0.8007004528679551
  0.9927635491889174  0.1950225943591541  0.5986756081812091
  0.9929846292519631  0.3999135069521907  0.2028497477057651
  0.9974920020362320  0.5986107461349920  0.1957581041169384
  0.2073429442323421  0.6021231932566008  0.4075083449601021
  0.6035686729358440  0.0002055053444465  0.2023346867105745
  0.6039184236020859  0.9909062934530907  0.7960775820156001
  0.6068413481227540  0.5965887325802589  0.7978212770620439
  0.6062050422345242  0.8044442226183188  0.2099759842067650
  0.8015303704412212  0.4032804698325503  0.9945332392566330
