Ti V  Cr W 
 1.0000000000000000
    15.3947628529237015   -0.0004726939770559    0.0021267196503963
    -0.0004726263884090   15.4017912768726095   -0.0008921615345846
     0.0021270963932924   -0.0008941263393480   15.4191178141427301
 Ti  V   Cr  W  
  13 101   9   1
Direct
  0.9862178157613399  0.1885509344097064  0.3973945912230165
  0.9998201486707338  0.4004782610684008  0.3991051655948283
  0.2093261783990572  0.0071121136925676  0.3948790316850817
  0.1982934310672114  0.1989800287391099  0.0065075309352101
  0.1962278325298145  0.1985164404263263  0.7953109190300738
  0.3952084152590693  0.0038366290413678  0.2030405858048554
  0.3918212554388910  0.1967987026026498  0.3983986685950346
  0.3990032556908449  0.8004682531994654  0.3967455628944550
  0.6030195243538539  0.1960682599525332  0.4001870134889669
  0.8019581323478158  0.0042006237053425  0.0379008693828854
  0.8073820598578970  0.0086033338799769  0.3617732932427350
  0.8004084109312205  0.1906664453814967  0.8040018669539185
  0.7995026514497096  0.4029110128375291  0.7996003877447153
  0.0027479586685004  0.0008714040890339  0.0010622616994649
  0.0057222754434259  0.0004654270879507  0.1994094841527978
  0.0049278183705359  0.9958808556191246  0.3987224135531310
  0.0010565358980533  0.9999027453249633  0.5983210331850324
  0.9999355523128676  0.9990760650916298  0.8024627736203345
  0.9973284995717966  0.1997887509068559  0.9999877886996428
  0.0017195687597287  0.2006177431863738  0.1983414674076358
  0.0010158114168974  0.1987901210139561  0.6011880071655797
  0.9989190574935938  0.1987960798451238  0.7999205642355364
  0.0014172133575918  0.3994271200233772  0.9995574606659947
  0.0012934967876828  0.3988295472582474  0.1978469675275246
  0.0005316204357479  0.3979133064221357  0.6022268790224311
  0.0025708512564081  0.3988232268957589  0.8009467360819328
  0.0007664311113021  0.5989580203156403  0.9998690542530682
  0.0009306497702723  0.6006220814523032  0.1998280725734964
  0.0006154758069541  0.6007077839682373  0.4002572789215278
  0.0007126633101605  0.5994914003024712  0.6004903209472170
  0.0004070534820163  0.5997331825360885  0.8005894394861409
  0.0000321476658300  0.8003105439316194  0.9993311388405238
  0.0003685912335305  0.8013869510158119  0.1995457369639853
  0.0010339516497460  0.8002454028945227  0.4012570022876941
  0.0000037571993001  0.8008925556527755  0.6009910828645536
  0.0002639490740186  0.8001276439883507  0.7999347602589310
  0.2023615557998641  0.9991910248790113  0.9999397887710141
  0.1990076942554142  0.0021187928127158  0.1973755147983978
  0.2002691354225842  0.9983197876399605  0.7989549123875275
  0.1944011899275002  0.2040736398375314  0.4007259648120229
  0.2042953125499695  0.4004562889051451  0.0010681452531804
  0.2002616231368617  0.3990210263456616  0.2023243992731931
  0.2024024666407518  0.3998952327559950  0.4004564743914846
  0.2013833376483604  0.3989386046984000  0.5991701079093719
  0.2003949084131353  0.4007216287594486  0.7996799310158577
  0.2000707338940286  0.6002848648132615  0.0015686795468891
  0.1997960874019606  0.5996007655661113  0.2020265322086990
  0.2008647445746202  0.5997575851838083  0.4009473551870186
  0.2003949679983311  0.5991926089433761  0.5992034624366590
  0.1999495778517242  0.6009303841763611  0.7984480532985903
  0.2012659200529969  0.7997341433146885  0.0009636039837344
  0.1996625853901165  0.8002833055745874  0.2005739492013416
  0.2004748400757604  0.7991602401596001  0.3999150867974407
  0.2008937648968470  0.8010048902297509  0.5988211658671414
  0.2003545015422395  0.8003855810689293  0.8005537090833240
  0.4003161374504610  0.0013020227556367  0.9981705816630835
  0.4030335588200104  0.0004508432595574  0.4043943979028783
  0.4016325656789615  0.2032272999125459  0.9988462262208475
  0.3989075848079823  0.2028254739043862  0.1975223588825204
  0.3980334115934495  0.2000202941161880  0.6031050830679229
  0.4004408515561823  0.1988200419404044  0.8002380427640651
  0.4001997374062180  0.3997827916880555  0.1977285924680341
  0.4008868189286670  0.3996991248638500  0.4007470651988549
  0.4001171303971445  0.3983470751862941  0.6019522659796558
  0.3999788802793155  0.3994503924256181  0.8046183466942851
  0.4002664460684097  0.5958257732914930  0.0002315243405671
  0.3999118156490607  0.6002512301574673  0.2021643003432032
  0.4001273525809322  0.5992837277199640  0.6008712415676993
  0.4000734691667497  0.5998366878153190  0.8005033754061632
  0.4007161281000836  0.7990343245316242  0.0007321291012659
  0.4004492906996915  0.7990525123075848  0.1976435166130186
  0.4006647953303786  0.7993631216597842  0.8010326221320919
  0.5979242362158379  0.0007115761723517  0.0032165576632548
  0.6010991946705145  0.0014523648734541  0.2021699094901164
  0.5980809996761242  0.9976105732601983  0.4002328774009245
  0.6003843529908530  0.0007325973668475  0.5993090877735691
  0.6008085406733212  0.9985813414867698  0.8020490135998348
  0.6014129995644510  0.1995333291814588  0.0006306751236052
  0.5994390406434474  0.1997443898044070  0.2003620334803521
  0.5994688989236830  0.1994464909797785  0.6022233375280311
  0.6000458051047819  0.1982056452920109  0.8003266124754118
  0.5966898316481952  0.3993728659056477  0.0014264948811935
  0.5995753188770414  0.3997802746750503  0.2021002020363944
  0.5987703684130702  0.3988094599817147  0.6001573092768092
  0.5994430387570245  0.3989841922914016  0.8004386351297190
  0.6003076927581127  0.5997259153782633  0.0012712039676153
  0.6006557695715165  0.6015294093441839  0.2015971193016778
  0.5994624130766041  0.6008513948173900  0.4011556854968762
  0.6000336823732862  0.6000174387114509  0.5999726712407206
  0.6004809557337297  0.6008840303568964  0.7994664800403410
  0.6007555579843119  0.8006508789829815  0.0002084105948048
  0.6010780473361264  0.8018727483649906  0.2006017666370138
  0.6027412422054361  0.8010136711816161  0.4013562650531021
  0.6005584880569067  0.8010204290872204  0.6007082164399093
  0.6009836942306187  0.8004929083024160  0.8009514457950609
  0.7999958620486058  0.0011836400775340  0.6011332441559181
  0.8007959431618662  0.9968223106975145  0.7970856189718534
  0.7995205782158523  0.2036963846619544  0.0053604476679905
  0.8007550022600423  0.1733312723107062  0.2013954428011002
  0.7960889884103126  0.2064887946011516  0.3986925020134797
  0.8006392280286472  0.1994409619793822  0.5957146976500006
  0.7990926380472013  0.4009014579906203  0.0031543948795740
  0.8005120880682575  0.4012328988096624  0.2014608905583878
  0.7961283120051164  0.4038213931424487  0.4002110672993172
  0.8003541242581225  0.3986391323116500  0.5981788221062764
  0.8001014679931130  0.5992392317758584  0.0001798715063286
  0.8005402207029033  0.5999279946604728  0.2008579321725784
  0.8009784754689034  0.6011177538788224  0.4005317869008491
  0.8003630345921354  0.5999630122067640  0.5994032951150412
  0.8007756044101917  0.6018798278058215  0.7991734521067005
  0.8015938959762782  0.7991798071442061  0.2007502065481861
  0.8006486476084769  0.7996757611071602  0.3978468119503835
  0.8010390670212891  0.8023871324778356  0.5970071516638680
  0.8004866202423032  0.7999725005301621  0.8026236112983629
  0.2008935730386260  0.0007493940710175  0.6007295466531720
  0.1987171995574729  0.2010793140892032  0.2039806361896025
  0.1988110490810183  0.1994291825484962  0.5962176326890665
  0.4001698197085902  0.9996716079477678  0.6019146608274468
  0.4003181058703215  0.9993669238634718  0.7993017444043284
  0.4004173374199771  0.5984319711878113  0.4010902442022654
  0.4005241189903873  0.8006373330860477  0.6023872991897314
  0.5987391131505688  0.4021489418858517  0.4004137991761587
  0.8003313074272072  0.7982644408844936  0.0018285168840884
  0.4006205447574808  0.4000309535728196  0.0014731408627776
