Zr Ti V  Cr W 
 1.0000000000000000
    15.4010799598464310    0.0255495449581415    0.0033557849407819
     0.0255019615879404   15.3773477625178963   -0.0308495549764957
     0.0033523236048871   -0.0309173871677400   15.3902441697295949
 Zr  Ti  V   Cr  W  
   6   2 101   3  12
Direct
  0.9662356506755138  0.2059018574240387  0.6186799670222267
  0.1916140207367563  0.1885644803866964  0.1904329499761910
  0.4296708183361633  0.3982822699690388  0.0053244234942502
  0.6419419615995701  0.4105591035955278  0.0003988525525109
  0.8034157975502747  0.0071683064480893  0.9715053620158812
  0.8087250305680921  0.3806101464985276  0.5864843309673231
  0.4050679438168899  0.5929914953876561  0.4020367033544911
  0.8132417421402545  0.5887739272558008  0.0019845823126379
  0.0024820475792331  0.0027744667923044  0.0054069743137570
  0.9993626444422806  0.0019869338906063  0.3989573624674361
  0.9968453462107946  0.9996816936577121  0.6019163423540179
  0.0012716783647293  0.0022486075787898  0.8035340729591089
  0.0025029876585115  0.2041475913280029  0.0061575747001694
  0.9895891677280716  0.1972705189311554  0.2021213313758557
  0.0076737521058100  0.2002542244074136  0.3957048116177189
  0.0028884008789875  0.2019264092432923  0.8126477719807874
  0.0092596078977167  0.4039843078799968  0.0004455226956073
  0.9993040212652639  0.3997876785352840  0.2002508357399448
  0.9973234332404965  0.4004245549204276  0.4012530619961371
  0.0025447377023334  0.4024169357268845  0.7981416047383465
  0.0067291977598647  0.6030343184923546  0.9999430042794882
  0.9977879527987527  0.6045223041684193  0.1988366662514614
  0.0002981017409092  0.6017383430547181  0.3989854912434235
  0.9999865009279728  0.6007945851946129  0.6008266899196960
  0.9996318973544492  0.6039002103416111  0.8015133851728397
  0.0016388045473752  0.8026866401647189  0.0007130291478175
  0.9982615383884755  0.8053519369138347  0.2007596937254405
  0.9984684550380953  0.7997698876224758  0.4007237137664539
  0.9987014760112159  0.8009500734019693  0.6016439605076521
  0.9975648608994951  0.8017575879222125  0.8008802274618458
  0.2012130198939807  0.0052883978639281  0.0041179195801540
  0.1972994774840231  0.0004006205343223  0.6008467359888489
  0.1997467655562257  0.0005117277204583  0.8013708091533178
  0.2049177531608560  0.2040160133401313  0.9913036798964396
  0.2036735683883534  0.2019138314768442  0.4056893234308148
  0.2041365844244173  0.1970640921588329  0.6011749426116906
  0.2012593729104489  0.2006653091169207  0.7971975652359249
  0.2066368477611167  0.3993819485370983  0.0025784826530171
  0.1975239074303746  0.4010248281829836  0.2012641163893478
  0.1986499604841238  0.4000513669693317  0.3992947904683564
  0.2018484646533008  0.4009258351409503  0.8008167770063285
  0.2014487788084142  0.5988487354150749  0.9999917750218204
  0.1989443335491407  0.6004840685563481  0.2003082050276441
  0.1977544950331943  0.5981856512127036  0.4003892489380505
  0.1995965667688299  0.6008693980412407  0.5990922935889623
  0.2033074654242401  0.6003882517315970  0.7997207118167249
  0.2000604504366081  0.8009686452365086  0.9995498540382165
  0.2027474290682679  0.7985348267149915  0.2009289572038910
  0.2014945140110704  0.7975324778696355  0.4029699157763020
  0.1993097582210294  0.8010573573511552  0.6003369712922065
  0.2028493316203124  0.8017749769208831  0.8014243212271331
  0.4017733852276137  0.9997855564384903  0.0016587114528703
  0.3928959788112336  0.9956538553369625  0.2022949931568975
  0.4001406506487037  0.0032939194948856  0.4020854688682368
  0.4053170075738923  0.9980342008787729  0.6029975784859639
  0.3985526657686421  0.9958808930117655  0.8025822049971140
  0.4018059145932978  0.1962402932851790  0.0020963237278808
  0.4000338144689122  0.1969004261045791  0.2070083890781722
  0.4016351266984177  0.1993442921323177  0.5998406948307381
  0.4002975280083312  0.2024001141333408  0.8044553589226644
  0.3970996556483187  0.4030990046411008  0.2076724281865413
  0.3989323521934711  0.3950114306087724  0.4020632070784895
  0.3997950966437115  0.4016220101788516  0.5986033807690705
  0.3995375196839110  0.4056860767852727  0.7960866133806915
  0.3986151393428090  0.6046295893654615  0.9953535019846733
  0.3975125604786275  0.6049526309877616  0.1950711838960075
  0.4000683429474181  0.5994563057960750  0.6052118011790817
  0.3991171773736684  0.8023934654939080  0.0007935451356096
  0.4002135349475552  0.8008559582715020  0.3974533771091314
  0.3977910486956028  0.7995795953769675  0.6024852054474785
  0.6003866781692913  0.0024167840503770  0.0042573925568067
  0.6020928996921914  0.9986903335487276  0.2009570798851732
  0.6016137862953821  0.0001056842222026  0.4018476073867193
  0.5976994087842683  0.2039631663246154  0.9993659641613398
  0.5973445201477884  0.1986806693532209  0.2023915493110964
  0.5947928122635842  0.2005399616527434  0.4039756698455472
  0.5982546572230429  0.2020570190801653  0.7974883801306188
  0.5959255805495997  0.4000915625828407  0.2011751215687663
  0.6056514428093082  0.4006890771104243  0.4003286777038592
  0.6003140546759094  0.3961485229366757  0.5998512204488975
  0.5997439046380506  0.4017683006472137  0.7963591935157681
  0.5978875754477490  0.6009577860841567  0.1958538516396826
  0.6004970927658613  0.5988502231764845  0.4004894634892229
  0.6000259769758874  0.5969032284485566  0.5992077253852569
  0.5946872550615837  0.6010837136064969  0.8030803781916717
  0.6025930223228370  0.7967937915097716  0.9964274567109487
  0.5947184558597525  0.8005264894786573  0.1997491291779781
  0.5992041764167262  0.7980140661424527  0.4009028634188561
  0.5991368480028022  0.8034727302396668  0.6028861075658708
  0.8045480789943971  0.0007305238231894  0.1999615284061408
  0.8011666281888513  0.0013640066848275  0.3985564262834885
  0.7969466407590147  0.9973250860805293  0.5960720350346631
  0.7963814186126766  0.2097283970554706  0.0001849337032091
  0.7942099246549232  0.1990552817796920  0.2007922884041898
  0.7971038043480654  0.2066211000407857  0.4045863800408695
  0.7867380425831654  0.1254967750145495  0.6699715814227550
  0.7987465319675977  0.2013002224032227  0.8006310928693097
  0.8266515651251120  0.3955184035715351  0.0004432866136972
  0.7995567963960497  0.3998904248687463  0.1960329965826103
  0.7990733861997654  0.4017596768554748  0.8053756965447347
  0.7979632524041775  0.6015433663996472  0.2015800726128283
  0.7992978186069754  0.5948055856447159  0.3993163765395260
  0.7982634957287330  0.5980244624552304  0.6006935485275527
  0.7983558242880271  0.5989458851587691  0.7970568210931005
  0.7990155869059086  0.7989848666337266  0.9999662094120783
  0.7964748906523085  0.8000998602520283  0.1998539025326575
  0.7984406704212761  0.7968174665126333  0.4000538373673423
  0.7983885266405252  0.7991829033165750  0.6004500546612106
  0.7921889385329103  0.8006401400360831  0.8015834833917086
  0.1995417636385813  0.9992575739783881  0.4018096301051641
  0.1995124594809217  0.3992737255546092  0.5997704188999627
  0.6017691836770961  0.9974214757680725  0.8000552343624827
  0.0015112937145016  0.0015813275847942  0.1994808892306258
  0.0034943096395599  0.4091119390839461  0.5999966703572530
  0.1949505867663081  0.9894488646049039  0.2002297359491314
  0.3996004124308440  0.2010269694826912  0.4017112208720209
  0.3972638783665889  0.6021165616622386  0.8011941016712534
  0.3990458159569015  0.8013032707718980  0.2003010927529883
  0.4016170751781838  0.7966516308883869  0.8019722716726677
  0.6008457686841217  0.0003580835760396  0.5977775769838974
  0.5922813285113350  0.1973089916382636  0.6015750372819000
  0.5906891566908337  0.5989690659653719  0.9988879806407207
  0.5925453533016216  0.7945375131786825  0.7971836417083573
  0.8001255836248963  0.4011822597926375  0.3857503096742287
