Zr Ti V  Cr W 
 1.0000000000000000
    15.3205282173675101    0.0002014824685806   -0.0032720455521328
     0.0002023707323046   15.3277042438828079    0.0007193262014022
    -0.0032728540049734    0.0007198926617368   15.3420216939870571
 Zr  Ti  V   Cr  W  
   1   2 101   1  19
Direct
  0.3927688882068390  0.4180791601720747  0.8170306527265973
  0.6103242800791463  0.6089860340988387  0.0067861775788657
  0.7904760919119956  0.7883984293359564  0.0101504716826098
  0.9972379329261609  0.9982073964812916  0.9955954927619057
  0.9995101575522355  0.9989042296463728  0.1983964933061093
  0.9980074360142354  0.9981530414386967  0.4002563101783685
  0.0013388319802510  0.9951220503492958  0.6059986633052189
  0.0022347553189122  0.2013563351581346  0.9991600310238167
  0.9988583615571401  0.1994606260212548  0.2008200703300568
  0.9993373961797111  0.1987830938413076  0.4025385097062837
  0.0004407749218440  0.1995042217993905  0.6014085697922031
  0.9957725187101456  0.2099184489979025  0.7996356188323147
  0.0043867976147873  0.4002334582480520  0.9987974269141190
  0.9997135958904078  0.4001622015597117  0.1968032597907199
  0.0005620719648858  0.4006080511464119  0.3990606837288409
  0.0023676429343337  0.4035134171713476  0.6051683026417056
  0.0018897640271396  0.5997090411629131  0.9950196021335186
  0.9985596857652151  0.5982030184312935  0.1984105715986911
  0.9952348027521641  0.5979302044191600  0.4054629068728833
  0.0033359757128413  0.7978021301976309  0.9997637041820445
  0.9957036389207586  0.7982230799745679  0.1993251436675684
  0.0024362610596510  0.7988632307692762  0.4043684111544349
  0.0009583952123048  0.7951624694075583  0.7976756336293261
  0.2003796424153897  0.0017807854637812  0.0006640720496481
  0.1982868602132735  0.9998817474180237  0.1985844382370371
  0.2044107911350295  0.9955722148428887  0.3980474308772641
  0.1996203276858621  0.0051424649601597  0.5999729649590434
  0.1945049776956913  0.9998110145752357  0.8010771774008592
  0.2007485492241673  0.1984427915084479  0.0001317637504723
  0.1988167936447678  0.2004863261150519  0.2016363813886800
  0.1991083181534140  0.1994484806523120  0.4043973585681919
  0.1996658281923073  0.2003240219941523  0.7954606873242910
  0.2062903156777864  0.3980965316901849  0.9998125501345488
  0.2005869756231256  0.3996210556894694  0.2008285118264569
  0.2007642694721020  0.4001210292802669  0.3979850422163416
  0.2010529022740702  0.3948578389926180  0.5996689579799810
  0.1909438423805786  0.3991035266437746  0.8003455454564886
  0.1982728431694181  0.6008182963687271  0.0006125885486461
  0.1986617599458716  0.5989038177332761  0.2001111911535975
  0.2010361308086599  0.6025863680922131  0.4004396993577296
  0.1966408629917681  0.5977530034629174  0.5989745991510201
  0.2084621858498720  0.5972669770076460  0.7993531646075794
  0.2000563643859753  0.8003022623726289  0.0026969857415389
  0.1993525914327606  0.7985281887176708  0.2034283571657441
  0.1970281450747443  0.8001320472381874  0.5942189278371437
  0.2029805058966075  0.7987482876504222  0.7995825227183447
  0.4000007386771482  0.0014240398695378  0.0006468206221247
  0.4012220737308235  0.9995246575309804  0.2007421746390490
  0.3974535692079733  0.9989980649553636  0.5965313557725770
  0.4018920812071507  0.9960794336390153  0.8006926995104496
  0.4000682692982899  0.2030305924091129  0.9977760207309928
  0.3999732057317030  0.2001071629466978  0.2008902993026114
  0.3991618286843542  0.1959110946324625  0.4009545620627089
  0.3994893528006830  0.2001835103075311  0.6024163162008982
  0.4008457689960205  0.1984166535101893  0.7995091715007124
  0.4038490283240267  0.4013369811508251  0.2020954649939178
  0.3993623086179824  0.4016331870415076  0.4002550750100283
  0.3993771545023017  0.3996297334736788  0.6015192264717159
  0.3993314202281730  0.5981980872572190  0.9962857116576845
  0.4018707123026561  0.6008550433917083  0.1993639230892982
  0.4004796996350199  0.6003268349715865  0.4030634950230105
  0.4003070409310360  0.5983428892053142  0.6048125753757940
  0.3979204245907959  0.8013206238529633  0.9974995517453314
  0.4014090999324038  0.7974953923556234  0.1964988270184516
  0.3993186749097773  0.8007164177655169  0.6026125676588034
  0.6019367880628439  0.0033070079198873  0.0004161349550220
  0.5999423759788753  0.0007036979138347  0.1990518698862454
  0.5963697755895869  0.9982660380348606  0.3966565746000570
  0.7002757601702335  0.0032388211502313  0.6007694609152061
  0.6026381983821133  0.9990110557408007  0.8017735647540626
  0.5995542185728731  0.2008926179711121  0.9990893043571967
  0.6020199131492916  0.2028451549274464  0.2018065806206984
  0.5997321822677006  0.1996127205549126  0.4045101142402945
  0.6037332371841153  0.2005193821991179  0.7970409747858994
  0.5956059663612829  0.3984469806762378  0.0054139607055028
  0.5983748134861402  0.3989932113217435  0.3954599327402317
  0.5972431597587420  0.3951997992366276  0.6002176068424508
  0.6018224820023381  0.4018785117482510  0.8038579120760407
  0.6006107060200018  0.5955366533315348  0.2052943680108601
  0.6027255030522463  0.5993542673962834  0.4040028969478582
  0.6018655986944922  0.5976816298743810  0.5991015749601820
  0.6031550648448862  0.6003981477380704  0.7963898714258233
  0.5936947640574618  0.8047766711411164  0.0000841135583438
  0.6017543471785201  0.7976585452782273  0.1995805743796465
  0.5994167230292465  0.7991266293683693  0.4010300001531794
  0.6014744776300848  0.8017116460255936  0.5974933048950578
  0.5987520337368099  0.8024604801743754  0.7969850578556757
  0.7998983897642599  0.9944259850894644  0.1953858041376558
  0.7972493662701097  0.9973007227994350  0.3978326445538743
  0.8033343734006951  0.0002991319957503  0.8079645088010510
  0.7996534051747290  0.1994725638464250  0.9962163681774995
  0.8007591629113441  0.1995031906397705  0.2024595085140540
  0.8006716006588736  0.1970592658737743  0.4038312245188034
  0.7993490314468944  0.3980356017928636  0.0025441516383642
  0.7967903135244552  0.3997009618603982  0.1988839145954931
  0.8001972955709628  0.4028454123646629  0.3991017437328032
  0.7998028061674318  0.3943764022548550  0.5988087798399858
  0.8007207350967863  0.3990699254062224  0.8038372320025179
  0.8030753796637748  0.5943991619905260  0.9944780757443613
  0.8009545429078432  0.6022074209015205  0.2047259607003207
  0.8017070201323632  0.5964672064631255  0.5991097773486008
  0.7988105069020889  0.7961719559858239  0.3978113089982767
  0.8021117946278193  0.8021230358149840  0.5983484736833449
  0.7966547018969957  0.7943046979027799  0.7983810293186171
  0.3998563631338610  0.7988558483218358  0.3997147273285577
  0.9986966995632537  0.9880405692361577  0.8007109740094857
  0.9974686947191901  0.4070349143905777  0.8038373360488714
  0.0002940068297876  0.6025473874624276  0.6042277737242678
  0.9897234950680418  0.5971706455461422  0.7961009252223702
  0.0012007177987268  0.7959624282556901  0.6003819448043959
  0.1989083657878651  0.1996446141568136  0.5991740643334422
  0.1973416884842807  0.7996484186951857  0.3984641346286307
  0.4004215075431236  0.9996627474177598  0.3985906842016937
  0.4014351231872029  0.4011387337802402  0.0119623561511273
  0.4056476173119026  0.6149406490559647  0.8007301257163576
  0.3998269712803538  0.8010808473843565  0.7997097107471991
  0.6024166738382776  0.2023197933230271  0.6010484801706498
  0.6004996822822637  0.3988091363841594  0.2004032920030275
  0.8002306092170082  0.0067033303418584  0.0010226891219276
  0.7980515006311021  0.2004320927423653  0.6032135516819231
  0.8010361653595401  0.1993910710230210  0.7971341330312232
  0.7999117185541741  0.5994981070897913  0.4029603304419656
  0.7991095104903280  0.5969575609667596  0.7964792804167911
  0.7993299598810488  0.7991049506664205  0.2045155761674756
