Zr Ti V  Cr
 1.0000000000000000
    15.5054759955686290   -0.0026938295988576    0.0222345561511436
    -0.0026911951043345   15.4937529874400166   -0.0133710719798359
     0.0222461462953622   -0.0133733789628594   15.4975574155639322
 Zr  Ti  V   Cr 
   5   5 111   3
Direct
  0.0111888033530357  0.6131651527386489  0.1983539962233451
  0.3992533979412559  0.4004019526222565  0.6004265666370422
  0.5996403664161049  0.2002788865042797  0.1996732415874518
  0.6103005045795745  0.7996456836133989  0.9912016800018453
  0.7930196655278652  0.7980031041714131  0.8098624099297227
  0.9956600749373172  0.7864306589167896  0.3833508295139082
  0.1865067017146475  0.6002964853793227  0.0163463715455282
  0.2035362235454264  0.7969588160331409  0.3973363220070574
  0.5977423908531350  0.2021715914246497  0.7977440831119692
  0.8195598621433506  0.8045207584832338  0.0183438106724816
  0.9992693814831470  0.0004476219154053  0.9967688147702407
  0.0017755145102307  0.0033523882246473  0.1994149058022150
  0.9990058156464527  0.0004149893130240  0.3980417357266246
  0.9982111188111173  0.9984419349051710  0.5968687671062510
  0.9984461034477615  0.9983178838529213  0.7986989161876302
  0.0006711282570658  0.1998420600221323  0.9984212891345580
  0.0017945144544755  0.2009784533989839  0.1964248326340629
  0.8668076305087733  0.1987457062320650  0.5326712356550998
  0.9995983488808274  0.1982953890417527  0.6014270831227749
  0.9994694703285412  0.1997720308894869  0.7989286400229201
  0.9993203723941243  0.4005248196844516  0.9983349553636131
  0.0010298954893344  0.4002673008427856  0.2001063995665617
  0.9996929640125108  0.3998646627202390  0.3990066966216313
  0.9978846648987252  0.3978075968145240  0.6003313520870476
  0.9993798400117451  0.4010411453152365  0.8006771603324327
  0.9926750548102704  0.6009330863195866  0.9930992683833726
  0.0003155761896669  0.5935996164441287  0.4054397747411436
  0.9984940256813164  0.6003838723782688  0.6011037578025452
  0.9977809145355355  0.6003362741823945  0.7984677970802669
  0.0092141559587577  0.8007770202295752  0.9959305650820081
  0.0041496317329083  0.8112502063905854  0.1927016051040381
  0.9991800257183362  0.7991385517591194  0.5996897901367892
  0.0018389441566329  0.7996803695352606  0.7981056734936232
  0.1998577000287558  0.0007275331703254  0.9993027264589269
  0.2005794603048753  0.9994705598828838  0.1990236795463724
  0.1983096306052309  0.0014394767776893  0.3990216030992169
  0.1983364955284560  0.9988556614421327  0.5992811816609785
  0.1989198882821081  0.0000268774773460  0.7992045436524154
  0.1994905508369934  0.2003804387175706  0.9997480719282174
  0.1990824897322988  0.1997764489465057  0.2009273701481492
  0.2017636143744503  0.1998915570532543  0.3995450297738365
  0.1973913700551309  0.1984340437561282  0.5992355807090617
  0.1986552754767228  0.2001056334894503  0.7997658228482017
  0.1992060331249411  0.3986489340774532  0.0013657852381679
  0.2007564184964772  0.4013306186241758  0.2001352066729109
  0.1988548123684820  0.3975879511706486  0.3996637050506895
  0.1946990111404275  0.3992703080017767  0.5999901699512038
  0.1981224404533130  0.4011878333669379  0.8016337953549766
  0.2114310287267361  0.5992954137762485  0.2084413432522645
  0.2015399871125129  0.5962851227772590  0.4032842069381798
  0.1983648882817787  0.6001703647019365  0.6012330770621094
  0.1980622784268604  0.5998831035339115  0.8003498350098703
  0.2028580536593957  0.8021489835103205  0.9990504530906082
  0.2034862869890797  0.7999032195492946  0.1968801202308180
  0.1983937625213721  0.8001761045935124  0.5991453347581042
  0.1999124454943235  0.7987966846262570  0.7997224871844369
  0.4009177861315060  0.0006188296980330  0.9989465032222340
  0.4001641662849749  0.9981724053950346  0.1982574174678826
  0.4010115263961136  0.9991656752352779  0.3982456133290477
  0.3988027509759371  0.9982461447863921  0.5984319217991909
  0.3987390049247677  0.9997037090320545  0.7994987024131252
  0.3986937624590411  0.2000014964669042  0.9991579434066514
  0.3955308353672725  0.1994047181217409  0.1983996841504470
  0.3995818128796950  0.1988206072458139  0.3991098417915839
  0.3983962297743465  0.1949748982243873  0.6001805929890002
  0.3957717787838920  0.1997976409355378  0.8001346124251888
  0.3997007263812021  0.4006848208458722  0.0006620718281543
  0.3997046364310438  0.4011530284061535  0.1980612581640953
  0.4006782923578576  0.3994844314300069  0.3954739910937669
  0.3980787929126942  0.4007860378106390  0.8051017257848965
  0.4019246050394356  0.6006690125738586  0.0018158534117714
  0.4044016635778803  0.6013246735986751  0.2000785519876599
  0.4015345109115879  0.5996336540452551  0.3996871759920286
  0.3994151366682754  0.6047253927460979  0.6001098081104078
  0.3961715028520876  0.6008344688288028  0.8034359273544993
  0.3993808421719364  0.7998572608253374  0.9986514458447374
  0.4021999707738701  0.7995959184377611  0.1977414664541230
  0.4020561261182898  0.7996682965844060  0.3982828977934053
  0.3987384621420458  0.8009475750665480  0.5987053122864091
  0.3957649366345889  0.8001512111745034  0.7987119163483586
  0.6002301279007359  0.0043307998069900  0.9969984627464716
  0.6010782019685704  0.9949089882075745  0.1976963233501663
  0.6000841957277057  0.9985505564295077  0.3986618670230480
  0.5975646500381764  0.9990245847029762  0.7964435484848793
  0.5996228939259316  0.2014167743118439  0.9956674259669706
  0.5996104077583351  0.1993149750250939  0.4041869671822959
  0.5980461418292237  0.1981325630849200  0.5991253944048408
  0.6010264535366596  0.4004917160705680  0.9996306984431280
  0.6004938964517964  0.4047479334810513  0.1996071175574179
  0.6005775884377348  0.4001034731132418  0.3991182725556427
  0.6043444087861501  0.3997233183296007  0.5996957720126705
  0.5985437505118224  0.4029036364246498  0.7996904580028380
  0.5999089184712152  0.5961424827275605  0.9985531764945059
  0.6000854137998294  0.5988398857132321  0.4006102331671615
  0.5994038243879434  0.6008412702983620  0.5996477412044833
  0.5969685280582500  0.5996979098839702  0.7978971356547317
  0.6005279623907788  0.7993726790934791  0.1998789930192521
  0.5986129685524522  0.7996564437207343  0.5954467541001360
  0.5895514372615256  0.7996349404544720  0.7889042513915705
  0.8006234432315205  0.0044911002961191  0.0001816946078286
  0.8003203019449301  0.9984035886624280  0.1991124030577714
  0.8001875884861048  0.0005746905049371  0.3998147803654946
  0.7988203552948231  0.9978238962748481  0.5989340018917709
  0.7975859647536309  0.0049108923844035  0.7980640592178881
  0.8012431184278098  0.2016774495680314  0.0000273546828240
  0.8056443146232670  0.1992563321678018  0.2008715079551747
  0.7976587697022691  0.1997675828784762  0.3987516237568420
  0.8005580495717608  0.2010957180708857  0.8004853556944452
  0.8000525796648107  0.3993713580215097  0.0012059060922736
  0.8021827309674604  0.4017273196814655  0.1997036570445296
  0.8005888818412650  0.3980554224273802  0.3996673555459782
  0.8003419768561703  0.3997326061105970  0.6000007539146743
  0.7991050703851794  0.3988362518925325  0.8002247953151552
  0.7987938299629846  0.5979889088495394  0.0024885777647308
  0.7996447251142004  0.6005271574441827  0.2002697168812338
  0.7990792826642698  0.5980259151127330  0.4006183473901119
  0.7990086482241453  0.6004470762652008  0.6001353606225066
  0.7971056215339152  0.5951181446412569  0.7999689612112222
  0.8026535981746933  0.7998117189989133  0.2074739475962024
  0.7977851144065552  0.7984608817879330  0.4002751734615155
  0.7992493248449379  0.8004354231268295  0.5982141207430716
  0.5992673707253235  0.9985639206830914  0.5971709022091427
  0.6017911965546995  0.6016216006185346  0.1998256157871617
  0.5999267852653145  0.7988298388327799  0.3982762116334678
