Zr Ti V  Cr W 
 1.0000000000000000
    15.3960504026614231   -0.0029059402776773    0.0109527228615838
    -0.0029019596058232   15.4211892961187402   -0.0178703021294289
     0.0109643357546517   -0.0178836246684765   15.3929296075496413
 Zr  Ti  V   Cr  W  
   3  13 106   1   1
Direct
  0.3790073251929155  0.4142341573601032  0.8048214538484950
  0.7968292371116424  0.9697239638597854  0.2198840924757666
  0.8101885868991807  0.2047022486684320  0.7888449017931671
  0.9829225221019910  0.3862311191517661  0.7998724470241552
  0.0071537288627077  0.6045225030659424  0.9892515832369505
  0.0006503696059299  0.6357827750898284  0.1973805788076281
  0.0104812443081741  0.7934258247983873  0.3899906666607764
  0.2086468276251910  0.0009580132240375  0.0003001507601450
  0.1965929213897190  0.5859447744551755  0.8093320001180657
  0.1863139355462034  0.7953606446902767  0.2053867651026986
  0.3955846494191880  0.0021645861624132  0.8086361882634876
  0.5964503152270099  0.6031251860505134  0.0024975398917595
  0.8070030571568291  0.0022433840895262  0.4191869741719960
  0.8015042432480450  0.1904746782453853  0.1906137084501092
  0.7990256238016695  0.1998870092421847  0.5826099594857060
  0.7972235755822465  0.7730709580387014  0.1930805563460780
  0.0001097894450259  0.0031201459863268  0.9997211820730698
  0.0030633569833349  0.0072845178768306  0.1978307572712034
  0.0034605112100897  0.0028505581052122  0.3983101530325016
  0.0002427706526154  0.9988025475146763  0.5986663324754136
  0.9993039211392161  0.9978227187423483  0.8006129166089911
  0.0020793282394347  0.2014036674934664  0.9965755263799035
  0.0034886129879563  0.2009618315943416  0.1974605023368994
  0.0013965485890818  0.1994092722417062  0.3983371878264487
  0.0035899218209834  0.1996442842728085  0.5990131478156572
  0.0094135357202702  0.1909884507097711  0.7993198120804553
  0.9987785962598187  0.4002111912301963  0.0026821765397151
  0.9988656506441611  0.3961736224517466  0.1994510963554207
  0.9996418676926582  0.3993251115962324  0.3985275955864125
  0.9987080473781477  0.3987946027586555  0.5982381328113959
  0.0009307567141656  0.5969048260099107  0.4014599513683201
  0.0006172764814421  0.6006405494130125  0.6003346308390860
  0.9950578300052982  0.6010187399095718  0.7974156178474355
  0.0011120289971004  0.8075693240216555  0.9950212015944389
  0.9898050719290160  0.8168762691657281  0.1915844560416645
  0.0011038359014239  0.8015523057154761  0.5988626369939183
  0.0001056434606108  0.8001168812193246  0.7977843574517988
  0.2004277675761367  0.0015495809336247  0.2038106607907145
  0.2014167775956950  0.9993280271238008  0.4008007174679733
  0.2002886245210382  0.9994214250294923  0.5994842857850833
  0.1962200696668919  0.9982388476933081  0.7979137049406652
  0.2004702296138665  0.2040922632309418  0.9991879627728651
  0.2010318972382986  0.2008720560231237  0.1992126919720085
  0.2011537514362997  0.2006744368079892  0.4006118033126821
  0.2012032578472516  0.1988332464692312  0.5995328778363784
  0.2034788306643101  0.1976735360641220  0.7988941538177040
  0.1990093367210668  0.4012858630993716  0.0004804605397897
  0.1974126374424006  0.4018351016058794  0.2005665572041857
  0.1995798813228733  0.3987652383108650  0.3999143772724923
  0.1978208826388239  0.3995466097066883  0.6018989586847544
  0.1841815187605065  0.3917206415983572  0.8003973762729225
  0.2012715222622010  0.6009472085774349  0.0075014460149233
  0.2007369927386568  0.5976155572486469  0.2023461367118740
  0.2023336128675820  0.5958612180123316  0.4029322696384132
  0.1992075589070776  0.6000736390698438  0.6008052064281575
  0.1990899872468915  0.7984556534511319  0.9988011034213697
  0.2057993287323526  0.7998869568301508  0.4044825858476044
  0.2003739241866574  0.7991098245319579  0.6027960037300705
  0.1990227101686786  0.7993668319262212  0.8015549405567395
  0.3975762117697481  0.9987724294793543  0.1996287280797864
  0.3995557029304210  0.0003080714755583  0.5999442217902325
  0.3996361611014540  0.1973971234475930  0.0000271197633164
  0.3990399995613914  0.2009393926189116  0.2003770155753083
  0.4003206302518776  0.1996415162332581  0.3987469146266271
  0.3996879895854594  0.2002016969193839  0.6000921395794598
  0.4006525485140939  0.2032065206926281  0.8004294766895679
  0.3999664879194396  0.4005432481681517  0.0067585568365356
  0.3990274865173870  0.4015075779486651  0.2011252162907674
  0.3998674349856031  0.4005666439793718  0.3997439393043096
  0.4005001098558901  0.4023769922706324  0.5978124103880657
  0.3972823165844304  0.6038786560312935  0.0018620023015405
  0.3999083819629741  0.6031429967230639  0.2011352798313424
  0.4030890176407492  0.6012124830076567  0.4024091206727199
  0.3971877470877813  0.6015092270784465  0.6028821580624881
  0.4030561671253565  0.6115323708800975  0.8025658590387476
  0.3985873037734726  0.8060364960516009  0.0024183122753882
  0.3999459536963514  0.8000997728989696  0.2011406199771094
  0.4017873777129322  0.8005807977430170  0.3995523791010613
  0.4025796412716317  0.8008572726235497  0.6013695098520859
  0.3981346732680806  0.8017900871187835  0.8015507278917021
  0.5987520416447040  0.0031888478361746  0.0009232851602108
  0.5951998914890905  0.0026067709498272  0.2006881328785344
  0.6012791815321425  0.0016502564267121  0.3979761230130774
  0.6002765430398228  0.0018798090954291  0.6006004780352108
  0.6026870703820388  0.0021303668144573  0.8011675474188027
  0.6012553897258779  0.2021473039899425  0.9982353787671900
  0.5976662379771223  0.2002101817247765  0.1986088226592267
  0.6003543807571138  0.2003451809825113  0.3981210957218181
  0.5985174855569966  0.2005716927763100  0.5985562610468016
  0.5991170461542513  0.2015318443090210  0.7984514028704005
  0.5986568148289457  0.3989055694253457  0.9993802086266582
  0.6007127406859906  0.3997282243156637  0.1991340742907986
  0.6010788276290940  0.4011333615069707  0.4000321681717234
  0.5990821777486640  0.3978762622511606  0.5989793018188527
  0.5949290313705726  0.4027749673853667  0.7984978618598280
  0.6011387840660536  0.6019226559246652  0.2018790747097661
  0.6015192456885959  0.6008290673814937  0.3971733481345238
  0.8009629481134538  0.7985091552464042  0.5992688789940879
  0.5974087102650274  0.6013126271528398  0.7976327828864573
  0.6003652755789854  0.8048716906750600  0.9986593716687020
  0.6014728086289756  0.8035912570765098  0.1988721628162557
  0.6013201501843650  0.8006903297557016  0.4013759802051941
  0.6010116837783269  0.8061318116713290  0.5989519948393663
  0.6007808296255406  0.8003601959192589  0.7978063787997945
  0.8002296473626297  0.0032326662867466  0.0035169683339957
  0.8014184402830503  0.9994862895413670  0.6094719490584244
  0.8004214960357564  0.9962430263274291  0.8040357985816624
  0.8001011746088179  0.2011316351228856  0.9983757974360136
  0.8015876397350887  0.1994590311947690  0.3908816179855980
  0.7998187590425339  0.4030003178379035  0.9993366858478960
  0.8011131089646628  0.4016384775014465  0.1984604201725209
  0.7999422799859686  0.3983512978429276  0.3983051158029036
  0.7989101256666997  0.4062967636451971  0.5974701536914937
  0.7909805813076530  0.4090542588223929  0.8004924001107219
  0.8036851247286095  0.6012828561694367  0.9991014502352540
  0.8013916727912249  0.5914359722988909  0.1980912119719901
  0.8013505287242496  0.5982336454704221  0.4010527238601099
  0.8028291242158671  0.6011084804579787  0.5986692990825868
  0.7959310478509855  0.6034030248699996  0.7972624294242773
  0.7999080521722591  0.8017398261346477  0.9960528844096125
  0.7999993240782327  0.7965049894238974  0.4013629885820469
  0.8003238916785680  0.7987050594852261  0.7997244636928740
  0.4012708987862613  0.0000212126864969  0.4005465550211580
  0.4045864139296393  0.0015737906044748  0.0057459361196477
