Ti V  Cr W 
 1.0000000000000000
    15.3947628529237015   -0.0004726939770559    0.0021267196503963
    -0.0004726263884090   15.4017912768726095   -0.0008921615345846
     0.0021270963932924   -0.0008941263393480   15.4191178141427301
 Ti  V   Cr  W  
  13 101   9   1
Direct
  0.9973120385182342  0.2077592362266233  0.4002413639037209
  0.0002660570597859  0.4680602698276230  0.3341502728499260
  0.2039035653990059  0.0089935991168981  0.3946384939307023
  0.1979789304915916  0.1981142260959692  0.0067524714031244
  0.1963834450752631  0.1978031723863479  0.7957209707180910
  0.3964445966717395  0.0042366623644318  0.2033343551908590
  0.3948494895528196  0.1945580666373057  0.3969150501067283
  0.3998487709371469  0.8024635705670672  0.3957053846949849
  0.6050587367149162  0.1941615187606419  0.3991162518648731
  0.8001836756646502  0.0089574844648050  0.9968473230861363
  0.8006108436202939  0.0092050833049246  0.3995116532994068
  0.8002333827685841  0.1909699998429865  0.8044650488794287
  0.7988377083916914  0.4010822887878778  0.8021370777393573
  0.0018879393152671  0.0011096581087451  0.9985428051716562
  0.0004178769218951  0.0007391782510637  0.2000468237298920
  0.0019310071939940  0.9984133690116064  0.4009702149072573
  0.0011675688703283  0.0003803829356080  0.5996467621955386
  0.0005155047521737  0.9991678321455306  0.8003591360818570
  0.9984400359692159  0.2003712798485223  0.0004100237322870
  0.0011309457399908  0.1998436684830791  0.1983690504544754
  0.0011278803386834  0.1993905845222177  0.6023037945418792
  0.9999981724817402  0.1988829575618968  0.8004150922545912
  0.0013346856218293  0.4005346098087172  0.0003983885205911
  0.0010175112134625  0.3957089388148474  0.1978293563931402
  0.0005916074423044  0.3980476739422720  0.6032420282593063
  0.0025566442892626  0.3984189755336703  0.8011509411979396
  0.0003942710147125  0.5990407832455836  0.9979487131977859
  0.0004108799465092  0.6006308110269210  0.4030659350240341
  0.0007459914413529  0.5990064536898092  0.6003101520228513
  0.0002894401683266  0.6000687104583812  0.8007703880723431
  0.9997639715480340  0.7992697461751579  0.0018438876578410
  0.9996953629078646  0.8038726685120484  0.1995653888657170
  0.0005162233057849  0.8003591412115312  0.3993540988696485
  0.9999052097170774  0.8010942601183811  0.6008631017322804
  0.0001635541565854  0.8008524587343318  0.8000669371088300
  0.2013572010120775  0.9989311719974991  0.0001113082529846
  0.1981170981798805  0.0020566641733377  0.1973571631317767
  0.2004159582765229  0.9979706188686295  0.7990601004648753
  0.1976602736500726  0.2049224519821470  0.4005732866043393
  0.2046052505745463  0.4001347692721858  0.0012958965838985
  0.1993404976523041  0.4001773183108673  0.2024847157279938
  0.2038010748359895  0.4003431445442275  0.4000931547457107
  0.2013594377915662  0.3989436271543764  0.5989010135157574
  0.2005676511337464  0.4004323182577817  0.8001517116059129
  0.1989466408230440  0.6004014711662430  0.0029665369638414
  0.2014819907381544  0.6000453284436166  0.2020911439201390
  0.1997726047221954  0.5996039958770885  0.4000397939910298
  0.2009348095691727  0.5991898213920884  0.5993426084015624
  0.2003025597415027  0.6006172758676651  0.7981444167671154
  0.2010323415212766  0.8000165095806353  0.0007600847966993
  0.1983644592168786  0.7999188238266790  0.2002063321572748
  0.2003250774133262  0.7997957377126548  0.3999218893964177
  0.2007354320318163  0.8008600406947675  0.5986876793196910
  0.2003870324179039  0.8000368220567687  0.8011196565496428
  0.3999985165467199  0.0014474942023286  0.9978630511793919
  0.4023528673476355  0.0002305158724585  0.4041880998236405
  0.4013356031978489  0.2027246764787483  0.9985963205736962
  0.3996139085760926  0.2021854764461513  0.1972092641086896
  0.3985242947196442  0.1994255396063485  0.6027062475245309
  0.4001800339903363  0.1983975374815673  0.7999263665313814
  0.4008239167280227  0.3989550558790455  0.1975999030877715
  0.4019022741793802  0.3991837053810869  0.4004492523098323
  0.4004164877417029  0.3975207769786176  0.6017855601826656
  0.4000928385355674  0.3989524415191850  0.8043631345225019
  0.4007315996130426  0.5957043646730742  0.9999366034423565
  0.3998829758844572  0.6000452041921724  0.2018425731545054
  0.4002336489799327  0.5990075334742742  0.6005965716484736
  0.4001563025669517  0.5995131955253589  0.8004545606470991
  0.4002182594166482  0.7993552286256017  0.0003614393321163
  0.4003957785653919  0.7996205603720573  0.1973797544420919
  0.4007528122201046  0.7988964546068251  0.8009533430913364
  0.5972698593000343  0.0006232275559848  0.9998591552042523
  0.6012970683931144  0.9998859230220196  0.2002697462003911
  0.5976056258824433  0.9968496368567862  0.4011852874115432
  0.5995036686938024  0.0000820037862781  0.6003054727216466
  0.6000998855592162  0.9982286092334858  0.7996303296131803
  0.6007625678859381  0.1996396532296780  0.0009150198026897
  0.6012438539694257  0.1988220801883245  0.1992674594895903
  0.6000698912685333  0.1989226057011526  0.6019093699522876
  0.5993866585363149  0.1977271505634602  0.8001559858939256
  0.5967992121511342  0.3992027417969998  0.0014102925652550
  0.5999478740261074  0.3988593361188892  0.2022192836135235
  0.5988609120726706  0.3981110888011203  0.6001325620338127
  0.5993171175135177  0.3982587972577298  0.8004602783263549
  0.6003633142274393  0.5994755024222703  0.0009156353107580
  0.6008332217680236  0.6012072841940193  0.2017406423550941
  0.5994736554819069  0.6001224619197439  0.4014154601616862
  0.5999507967759875  0.5996729482624834  0.5997928039086842
  0.6007991098893852  0.6005158916861397  0.7996228697861557
  0.6005670710952232  0.8004787919951020  0.0007068011363874
  0.6007273161494964  0.8016050167609678  0.1998434183322062
  0.6020565411688250  0.7997885276819139  0.4000192015296766
  0.6003683671252498  0.8005559577631819  0.6001916457585699
  0.6007931764957971  0.8004560152321785  0.8010136044397834
  0.8000730296451111  0.0020481735145175  0.1988059621612814
  0.7998281310235450  0.0010939982159623  0.6010015943391931
  0.8003084567801654  0.9959151562489894  0.7974156280140907
  0.7994625987936408  0.2054652738343770  0.0039445127409539
  0.8016612583161177  0.2006127349691893  0.2025259642596767
  0.8003936597007630  0.2064734930830282  0.4003510113616934
  0.8013243676115439  0.1994372761194589  0.5984721576280366
  0.7987561713350372  0.4008567341269585  0.0033661251507332
  0.8016529258941077  0.4009098378863077  0.2017546968881976
  0.7969774998857404  0.4026085527284748  0.4005928087947813
  0.8003908450075340  0.3982839862242217  0.5988049078867796
  0.8010641376470174  0.5997732892383366  0.0024928724370057
  0.7980570088768161  0.5999227057604539  0.2011124086825947
  0.8022573490360490  0.6008191759132798  0.3993280011853826
  0.7999167819165145  0.5991292523939280  0.5998224015288199
  0.8005208478734019  0.6011073804680781  0.7997619773735422
  0.8020968406557737  0.8010775821305069  0.1997309627297536
  0.7999784410803549  0.7999269043516407  0.3995781549122080
  0.8008461256375268  0.8009763985294713  0.5987083495757288
  0.8004035607622375  0.7991954428178198  0.8010835283761439
  0.2009397350864199  0.0005022061540525  0.6009122692205392
  0.1991493267863490  0.2005399657417994  0.2038482762805641
  0.1993654813144914  0.1991343910479290  0.5960691542800989
  0.3996184672128630  0.9992973048692144  0.6014454089863445
  0.3999303373100150  0.9989457784128428  0.7990194343665965
  0.4005750719357131  0.5982622868292503  0.4008793853146045
  0.4004704669794805  0.8002772272611877  0.6021999844437085
  0.5997737688767015  0.4012660001582789  0.4005449579723408
  0.8000398849452083  0.7988002072621724  0.0004573648914517
  0.4005952587854363  0.3997290985618256  0.0013044355825195
