Ti V  Cr W 
 1.0000000000000000
    15.4171836946855763   -0.0006458025225840    0.0021743795697675
    -0.0006464432342440   15.4108214600062574    0.0048957167363750
     0.0021730867805691    0.0048939939426410   15.4267125679285311
 Ti  V   Cr  W  
  13 101   9   1
Direct
  0.0010630245469969  0.3987741495864166  0.3989934515261702
  0.2084806043878966  0.1996281126533203  0.7922658632740414
  0.2003565716897194  0.6034299401677662  0.0058509596118925
  0.1990829881800372  0.5982282224974814  0.7917746720377719
  0.4008383252764717  0.9949082173978586  0.5994371100658292
  0.3951910581450984  0.2049477681016250  0.6064512018261562
  0.4027646253701643  0.6025464653486590  0.4011715247145126
  0.5949383240101568  0.9992925919956159  0.9966129781500574
  0.5946846537881861  0.3989799712333723  0.4040519413730007
  0.5905560305983291  0.7984023487326656  0.4012913706340316
  0.8017836159583609  0.4069816095630240  0.9905881585599338
  0.7976759522093966  0.5930400092357669  0.8044937324395519
  0.8041468595166793  0.8018206495281121  0.4017805475751798
  0.9994684684789996  0.9977062065733232  0.2027510941317972
  0.0000439983412678  0.9997445228653293  0.4003973843350066
  0.0010254475958413  0.0002930504001115  0.7988698068131369
  0.0017263218319852  0.2011442115079607  0.9978850184021226
  0.9996615784943780  0.0999173746263498  0.0995874511195880
  0.0002907102859298  0.1982915587108047  0.4017783612471499
  0.9990459351179363  0.2006050764284622  0.6004172791986042
  0.9996878221776166  0.1988559985411878  0.8003917275251368
  0.0035177826192772  0.4001185361189332  0.9988115620160439
  0.9997560985016541  0.4007731246883394  0.1964802209058766
  0.0014427757594175  0.3989886297233885  0.7998618250773740
  0.9970063974520949  0.5993983876129864  0.0003217065509083
  0.9976649808472184  0.5983952478817935  0.2016903240127923
  0.9992108642190517  0.6009979225490500  0.4001483365332129
  0.9976587063062776  0.5986725297172095  0.5997238835361038
  0.9993979795775754  0.5988135961414160  0.7994593299595385
  0.0023208896621532  0.7969770985884534  0.9994710379622269
  0.9981195386081577  0.7989341041502634  0.2002543563904308
  0.0030527553188244  0.7986951543820429  0.4018922003593851
  0.0009434877808996  0.7983677208799287  0.6021678819351143
  0.9992055375005892  0.7991333077882803  0.8005225802658371
  0.2015687308331522  0.9989468513437527  0.9998126926782250
  0.1987820186871349  0.0003911629035217  0.2008770172999075
  0.2004124318389722  0.9997731342189936  0.4003271326007559
  0.1980579554899956  0.9986924709562863  0.5993843907068743
  0.2010728235687359  0.9988494120978564  0.7989762207661782
  0.2000559862239870  0.1986769158863698  0.0020036183736742
  0.2023482208933414  0.2001499613591237  0.2000155051165341
  0.1992019586212742  0.1992329228993971  0.3986184745120643
  0.1972258301597850  0.2000824393670981  0.5957106306250163
  0.2006667335080339  0.3991060267262114  0.9997303941977133
  0.1998679623801045  0.3991461483600528  0.2007488586421349
  0.2023881711861377  0.3997736402032642  0.4002531388624017
  0.1983453089861149  0.4008271005224499  0.5994127142305880
  0.2015883813566775  0.4002163299614306  0.7993645925523069
  0.2000960821045688  0.5996848227190374  0.2040564032669551
  0.1983775191303616  0.5999296581419076  0.4001535075788012
  0.1993059710985602  0.5996670658559374  0.5958196516236931
  0.2008084859991232  0.7990022449374060  0.1964535773613210
  0.2000533325990653  0.8007692449759958  0.3999849596336545
  0.1997891450156039  0.7984025778188704  0.6022144861811174
  0.2014805185605790  0.8007145146449636  0.8042606434132632
  0.3988961260464996  0.0000443824504632  0.0010632470889160
  0.4016249406551542  0.9991638380343489  0.2005088955487255
  0.3996340717073102  0.0006464950495375  0.3995475834538597
  0.4027201573133586  0.9983841234990324  0.8018151169707767
  0.4004240831570894  0.2005049373726560  0.0014213462920606
  0.4014680090709871  0.2001288004348801  0.2000092654474271
  0.4003543929113931  0.1996587694554841  0.3986823972147728
  0.4049944839988820  0.1995829077369154  0.8036040218033211
  0.3986701399451814  0.4003049829522036  0.9985689202198752
  0.4011844459895026  0.4010896450499909  0.1993527244786533
  0.3979291759863070  0.3984017523522653  0.4007793910096575
  0.3990956486618639  0.4035585751230883  0.6015626993992267
  0.4001431685013611  0.4002703723735145  0.8012270098419315
  0.4017216705306070  0.5994665112304729  0.0001134417657160
  0.4016709683516706  0.5996196640115106  0.1990185661248078
  0.4003024924795237  0.5998935929898493  0.6019230809548840
  0.4025849784357439  0.6003866330514680  0.8002910913840608
  0.4007020875352311  0.7991792960946708  0.2011805140973947
  0.3956714839199135  0.8018768108622925  0.4007396729620595
  0.3991153064440457  0.7966582202642872  0.6021186943000010
  0.5999915234814164  0.0010941690704821  0.4006685231771630
  0.6024104621713561  0.9992272035426631  0.5990924483116958
  0.6008840373983947  0.0001430968239811  0.7961067225308435
  0.6006986313387006  0.2020150121422608  0.9992772043531458
  0.6011909198388806  0.1998802280218792  0.1994447757468475
  0.5988258543222245  0.1983481184165097  0.4004256744878043
  0.6019450870496518  0.2004649566573389  0.5999088016954380
  0.6016863453522303  0.1997865090286882  0.7995260194692118
  0.5980179471179029  0.4007834749577397  0.9991947369623431
  0.5991966599102554  0.4002754203156010  0.6021172430763854
  0.5991788717018277  0.3995152465434191  0.7985535337233718
  0.6002018093512271  0.6004869975794049  0.0002164782569321
  0.6005742292274505  0.5987101436421849  0.2013006578460279
  0.6015635319423005  0.6001281752231765  0.5985980573599847
  0.5985602788206288  0.5990263345886987  0.7996406212101271
  0.5993874228633503  0.7981216004993604  0.0000573102294017
  0.5996471513679188  0.8002214708231854  0.1983041900360983
  0.5992056998528140  0.7990833417790210  0.6026233455956030
  0.5994466370461287  0.7992854950675317  0.8005587880250771
  0.8036958549927401  0.9996995686767292  0.0008672979948636
  0.7996186413053649  0.0007043865478948  0.4001499953022878
  0.8006226175591589  0.9992074478531809  0.5988572992814503
  0.8009718876005277  0.9989456193571300  0.8005131470855620
  0.8013215729115842  0.1977602094354978  0.0009018905496383
  0.7985103831764405  0.2004797987968043  0.1986735936880249
  0.8008597611829305  0.2000769896974895  0.3983522834277015
  0.8001450707571326  0.1993529451609682  0.5989075655297643
  0.8003402086635493  0.1985017140162728  0.7986763716677925
  0.7988640262962752  0.4000958437474145  0.1995879884335064
  0.7988717324362079  0.3994377297292054  0.3982464765690350
  0.8008713607655902  0.4003141669876446  0.5983920139108893
  0.7993803706516095  0.3954478033374071  0.7958114382607335
  0.7988403003259883  0.6034509411859137  0.0046506277738196
  0.7986048800190759  0.5980824982690170  0.3987807381356289
  0.7997989522962257  0.5993628339255834  0.5973791844667490
  0.8014966590881673  0.8015231698314879  0.0001661810456844
  0.7982497099031773  0.7988357286830873  0.1994248705808029
  0.8000215466799481  0.7982189110913274  0.6032535174512370
  0.7995052594247916  0.8011019965147071  0.8014775284929826
  0.9996189649146933  0.9986959359769543  0.6004279602824087
  0.0000938392015710  0.3998935874328294  0.6023510954571342
  0.3989264338108564  0.7995146584584051  0.9999116147308932
  0.4001388656824161  0.7987258069647514  0.8016906175458584
  0.6008544867805558  0.9996502297208221  0.2024014585731446
  0.5995441487350404  0.3995387829762027  0.1970993004278393
  0.6019135466538973  0.5993445255904065  0.3999159562298822
  0.7993273940125497  0.9995114626353538  0.2008702736470726
  0.7990454990871189  0.5997953211191070  0.2005184095740040
  0.1959002407887791  0.8047939864921965  0.0006406804990655
