Ti V  Cr W 
 1.0000000000000000
    15.4073529780286407    0.0026422717652441    0.0115039126781883
     0.0026423919818586   15.4169890810637895    0.0057190451176722
     0.0115025714523025    0.0057202193077188   15.4178430470237693
 Ti  V   Cr  W  
  12 102   9   1
Direct
  0.9988428218168147  0.4074731444888247  0.5966557089977096
  0.0007581707245277  0.4067084049733142  0.8070528960362219
  0.9972342174125721  0.5984623049241756  0.0039365011673170
  0.9954994674812719  0.6012577709113996  0.4109296066442215
  0.2006194177757600  0.8078750718046055  0.8027007520917471
  0.4025387564202741  0.9978790733603871  0.4016063053244694
  0.4012997870996934  0.6041533196692169  0.9985161254233884
  0.6008104396399953  0.3990926529082063  0.3917410305777604
  0.6010866618384632  0.6079604449374523  0.3955086633734290
  0.5997399480423178  0.7911078225843092  0.0012075816541672
  0.8085295627732830  0.5973491738355584  0.1901826521443171
  0.8087933692952807  0.5948024187202078  0.5954987782285136
  0.0017652132514856  0.9989067046132284  0.0010965129905491
  0.9993481090860447  0.9999898336512316  0.1990522659738717
  0.0009962860133479  0.9988942723574462  0.4002648200679521
  0.0018296199763273  0.0000083118242633  0.6011258327504443
  0.9994211133362809  0.9987799857515521  0.8022570839479193
  0.9989502970370699  0.1978525522620133  0.9996656093368074
  0.9999731823908924  0.1987342948327649  0.2001692323774670
  0.0004580547128046  0.1998251600015716  0.3992754511984198
  0.9974488473529519  0.2000071464597182  0.6017347381058641
  0.9997247847551748  0.3981692255227019  0.0020227349561845
  0.0002932318937173  0.3995477892823011  0.2012376769945705
  0.0032814183806194  0.5998212235268667  0.2026013498125638
  0.0062781684949627  0.6030370762117577  0.6059012452361755
  0.9978615105833599  0.8019721147379535  0.0012534404836351
  0.0005509017621007  0.7995654385245475  0.2020974296016863
  0.9995265078548285  0.8010062290604332  0.4008468187909878
  0.0013423549006755  0.8012923401398151  0.6005649941134903
  0.9980120231742257  0.7994363800947414  0.8013058281939822
  0.1996930504286296  0.0008725438232906  0.0002294821980537
  0.1990408573712332  0.0002150672849754  0.3998043725424429
  0.2006162629336145  0.0009057268337233  0.6001300556133525
  0.2008387743155976  0.0028460794645061  0.8005033191756359
  0.1997035262188724  0.2004338419822689  0.9999458224872838
  0.1994895409659261  0.2016000588682597  0.2008149998914183
  0.2000121691113197  0.2004372133019235  0.4012157841914350
  0.1996466787940196  0.2017125399046406  0.5996822093205338
  0.1996360447024580  0.2020096108189200  0.7988570332488683
  0.2003691473127077  0.4007905304593130  0.0007591177011854
  0.2002364080559137  0.4011445495049658  0.2000968390670062
  0.1983234258323479  0.4011592490885658  0.3990960050195212
  0.2012852149501864  0.4010244252166480  0.6001331178344586
  0.2018444204169354  0.4019259731416144  0.8003278744203818
  0.2005850626003470  0.6008903355628676  0.0000903124152485
  0.2002417071363544  0.5996822013008516  0.2017716017914912
  0.2011999499982286  0.5993863361463982  0.4016637409486830
  0.2007669027107554  0.6003174505753671  0.8000377153847509
  0.1990815518383069  0.7997298734878893  0.0036536211921883
  0.1999124815035359  0.7993335316618442  0.2013932072844294
  0.1998363635134580  0.7993943322529212  0.3992513834305148
  0.2015322626554089  0.7993001965221401  0.5988817690149296
  0.4010080350956458  0.0004886115224090  0.9998985288320495
  0.4005073609345617  0.9997188579840715  0.1981246832016362
  0.4009086149372491  0.9998500459972549  0.6025773563318885
  0.4005422570845872  0.9997558191136200  0.8006312112911508
  0.3986911492482890  0.2005564533843700  0.9990413432453037
  0.4005532172441427  0.1998599780439657  0.2000421254916178
  0.4000955270483596  0.2026205463671248  0.4008391877125904
  0.4013459917037648  0.2012032518376420  0.6001355335695073
  0.4010712148125826  0.2002489865727926  0.7992063974612000
  0.4009014860380657  0.3988556444271025  0.9999031567921322
  0.3993189310331787  0.4008902731902100  0.1996841000095201
  0.3989234768839494  0.4009773856730844  0.4003451026310403
  0.4007205800544553  0.4016804255328398  0.7992075028840625
  0.4003957185869993  0.6000976050793861  0.2013489418660882
  0.3993009735489376  0.5987447599846675  0.4006933139440483
  0.4009834658671166  0.5998202632687434  0.6003507713080365
  0.3981949901711846  0.8022348178438375  0.0002682330645984
  0.3992739330355782  0.8004964863997895  0.2014534477474162
  0.4008834584104974  0.7965576729159803  0.4010425483660591
  0.4002905290182488  0.7989772407099036  0.5992774879812928
  0.4030928626994398  0.7989553999303245  0.7998021509390820
  0.6006079185275598  0.0000638012788357  0.1979697119281341
  0.6022341829656984  0.9990602619041322  0.3990894991451238
  0.5993848738306153  0.9992856723796988  0.5983829541999519
  0.6009866889704947  0.9991202188308117  0.8006377562618064
  0.6348339912456726  0.1659113652846366  0.9983197172009746
  0.6002367672326792  0.1992840026418580  0.1989961892891633
  0.5999066051964208  0.1987447960551031  0.3981334558712969
  0.6032661350972626  0.2003035027443177  0.5988783630145426
  0.5992859328807809  0.2006520039234847  0.7984585314388656
  0.5995452582339349  0.3998510491428816  0.9981475210725171
  0.6001000869981573  0.4000561707148831  0.1958367523497945
  0.5989784015498401  0.4028240352429637  0.5985754645367289
  0.6001907079652751  0.4009392033688693  0.7988471505079235
  0.6014004734289484  0.5955579407590197  0.9969116705466976
  0.5988584688673556  0.5999484318313585  0.1953967055497862
  0.6008208103081095  0.5994339593591652  0.7967245137499716
  0.6001398243786540  0.7995178262769888  0.2011682429645305
  0.6007371230360736  0.8021993622661603  0.3995036844658128
  0.6012734198133161  0.7981427229575229  0.5993833977254492
  0.6012594829883936  0.7992161536607232  0.7981550024340026
  0.7993889898356791  0.9990319534318968  0.2011558549262070
  0.8012371552926296  0.9997276829214106  0.3983800053887159
  0.8003863114923309  0.0026258896153868  0.5994584980921159
  0.8002939698193386  0.9990716870757551  0.7987180514865643
  0.8007657926642654  0.2016158573828784  0.9968822986185101
  0.8001492177453541  0.1987436608926506  0.1982450827866158
  0.8011243947562142  0.1996367131294083  0.4032219613975120
  0.8006038667897364  0.1983159368640761  0.7960650509539852
  0.7995742948228004  0.3977965986253315  0.9989364107174163
  0.7998559766587516  0.3976647521100450  0.1989148699910181
  0.8020461904691230  0.3995912132178025  0.3969034302560221
  0.7974253901834777  0.3935852654106132  0.5981430267086404
  0.7985688120642987  0.4007099246286635  0.7984065318151639
  0.7979829175183227  0.5978791669455056  0.9933734668721599
  0.7985960918949468  0.5989857584304648  0.3975624746554236
  0.8021010036164457  0.5990710270642906  0.7971134170782500
  0.8002023464126712  0.7956763422066294  0.9996615320598028
  0.8000173038232145  0.8025028334334174  0.1983329419575049
  0.7997618549111543  0.7993136375366773  0.3995969703523353
  0.8006154401252059  0.8006924560797056  0.5985540097608436
  0.7993669016506130  0.8006267536416604  0.7996467973779078
  0.0004331964029021  0.1988748516285950  0.8003134489663976
  0.0001185997754243  0.3974819343060246  0.3976885803598537
  0.0012388910149486  0.6051793269218662  0.7997479367705502
  0.2003904379366154  0.0001023283631223  0.1999406763893940
  0.2024848366503191  0.6003521928361257  0.6002849453857804
  0.4001277337267505  0.4003758366886009  0.5993286627370239
  0.4009788438547165  0.6003811659241043  0.7970155760522150
  0.6018191943919385  0.0011369868855180  0.9996709297055827
  0.5999735937763675  0.6000872717067959  0.6001481353246274
  0.8000367366402329  0.1993408749739932  0.5970807981825531
