Zr V  Cr W 
 1.0000000000000000
    15.4863295998759050    0.0024137293282322    0.0105674120120943
     0.0024156779473548   15.5040449564505511   -0.0174543962439357
     0.0105707746262879   -0.0174578174046017   15.4782021514271442
 Zr  V   Cr  W  
  10 107   6   1
Direct
  0.9993667984468120  0.9684513488356256  0.7613583108022791
  0.0016092923327149  0.2062739380954474  0.6068766387149005
  0.9997347450598183  0.4308359937609177  0.0423332240104186
  0.0016883664157405  0.5770439077648313  0.2223856594765418
  0.9608182543631848  0.7909726759067467  0.1930054084930283
  0.0008335133667852  0.7993250884568248  0.5993226916128733
  0.1916259787166070  0.4588390265195387  0.5978437215794667
  0.3590130701275617  0.8029769442913920  0.1980996491521987
  0.8426300135975658  0.4319522687511920  0.3967628650348852
  0.7502919603124125  0.7915321237970234  0.1977536529990152
  0.0008174074555672  0.0057423575982904  0.9984761457839484
  0.0043492926622091  0.9976831459479405  0.3918283439715042
  0.0015176783499451  0.0067245706261694  0.5749734027099555
  0.0017683425058899  0.1981838908386780  0.2022236730373859
  0.0019269144892741  0.1920265002270646  0.3977994365787937
  0.0000678367461227  0.2038553789746415  0.8103467672607229
  0.9997595907922585  0.3864263959167272  0.2379752361207392
  0.0314929702620706  0.3761773140074248  0.4312862792081496
  0.9875655916803663  0.4081356987640489  0.6039377288235486
  0.0001234758688100  0.3968368508246418  0.8017678177462761
  0.0000814339087412  0.6214710441970410  0.0125300221731208
  0.0071501668346163  0.6155458152313459  0.4203016833466388
  0.9945110236664442  0.5984717142823702  0.6098810647172840
  0.9985412596102207  0.5937135654550603  0.8092741431455610
  0.0011187099612608  0.8114026579898144  0.9926656679783878
  0.0019650596084180  0.8039367764173200  0.3956942541538206
  0.0000571423749471  0.7813141448411954  0.8039334626064313
  0.1997626312246707  0.0018961890877818  0.9966876368771816
  0.2004844949315971  0.0014184542012360  0.1985488658252986
  0.2030110234593393  0.9987206315576833  0.3967532300801366
  0.2007652928521394  0.0023444784209803  0.5972779486585860
  0.2023354121508840  0.0000832087235580  0.7987325747413617
  0.2018844750617724  0.2004588707047923  0.0008663309376807
  0.2018301851817063  0.1998084081835185  0.1989952696620352
  0.2068731788872330  0.1969470466963345  0.3981519926515913
  0.2004319917684566  0.1996180477526714  0.8003555357760092
  0.2024772512887307  0.4002772776724403  0.0004168065264611
  0.1979625851854967  0.3988893965049642  0.1991854030685486
  0.2107924284355719  0.4016394144263661  0.3944036962058665
  0.1988009141625919  0.3984486441454331  0.8042682595916134
  0.2008502144133908  0.6017565001807088  0.0000831850717633
  0.2063871910265234  0.6002769194075345  0.1989350824924703
  0.2003308766164123  0.5995855784353853  0.3942912650681321
  0.1984890811876820  0.5973204536181497  0.8029183036460690
  0.1990800535057447  0.8022901073637771  0.9984334347728478
  0.1719555758827523  0.7966717737525247  0.1966414440371760
  0.1998787881787444  0.7992300725164664  0.3982148855232299
  0.2042815959159839  0.8023298895233797  0.5974982411901691
  0.1999987142844750  0.7971330248116224  0.7967516638992338
  0.4015021689139175  0.0001072833837745  0.9980111405016925
  0.4028232284353981  0.0033718653368211  0.1975616446763931
  0.4010129690523634  0.9986433573892232  0.3984328342310741
  0.4024529471600427  0.0001048028662858  0.5982768308445855
  0.4000541922627999  0.9985847228269357  0.7970579860687083
  0.4011220753037809  0.1994594987973591  0.9982604788554633
  0.4014356632931767  0.2001946005540718  0.1991794612054381
  0.4041125755498925  0.1980508268109210  0.3986972882611475
  0.4034181469575590  0.1994089178335302  0.5985466484824745
  0.4003466292769294  0.3996096561812980  0.9995218426836557
  0.4008616336963882  0.3970992959826138  0.1990157443652500
  0.4041382140235123  0.3972732861122257  0.3995899079079446
  0.4018194612891895  0.3983512022086986  0.5994111516383845
  0.3995307796773793  0.3985521105021088  0.7983244367641833
  0.4018133238551762  0.5999987741135611  0.9989830198263504
  0.4041127131482222  0.5930388017839556  0.1996702762892058
  0.4009310409871859  0.6006113284140021  0.4006837347936952
  0.4041824710974279  0.5980632966951475  0.5984884603106949
  0.3988405352944208  0.5995577869778214  0.7986895761918590
  0.3992025551571173  0.8005975327069059  0.9943667280541156
  0.4006145716555884  0.7991031634252170  0.4025528107360992
  0.3985878972860590  0.7985331336388353  0.6001152504725399
  0.3994642773729707  0.7977711332312745  0.7983330723089785
  0.6008385872290408  0.9990310159708277  0.9986410806760589
  0.6013385566755156  0.9962858905088751  0.1985965927473149
  0.6013894059194820  0.9976160859700215  0.3976884325988373
  0.6010198718116455  0.9991253473288149  0.5970211694743467
  0.6005124376840247  0.9977283500468592  0.7977853851534201
  0.5995589278180086  0.1983164484234343  0.9995013200969103
  0.6021834345442062  0.1999616039756896  0.1984444628830012
  0.6014850799334933  0.1984049143797230  0.5991543438968775
  0.6005001596489641  0.1992484991185632  0.7995965509682292
  0.6002449829192140  0.3983344778631673  0.9988307261637629
  0.6035798605585225  0.3998820435278326  0.1995247671993048
  0.6063640075167945  0.3993828943620673  0.3981057526498139
  0.6018412125065262  0.3994379731584634  0.5978338904732075
  0.5989802580252349  0.3996762615022703  0.7994767532345225
  0.6016763452310478  0.5996143187761165  0.0035202735324329
  0.6039184320163246  0.5994927766008117  0.3955036022214898
  0.6009023071309669  0.6000212240049555  0.5969657062020627
  0.6011966812716767  0.5990073513036002  0.8016779783520424
  0.6003884935683923  0.8000634378726115  0.9980480041861134
  0.5643800691983822  0.7899192221911551  0.1990890479868546
  0.5994522311645396  0.7998541219639813  0.3985365045209449
  0.6001333664146367  0.7996776605183099  0.5988824119591198
  0.5991563115836878  0.7978949168309267  0.7985836466969717
  0.8012015806429923  0.0012298871348959  0.9972771296685464
  0.8021050397473379  0.9971512768512737  0.1983128500602332
  0.8005082003821735  0.0010015410649770  0.3984760370385835
  0.8034392293375635  0.0009639633660546  0.5989291369559837
  0.7977781434601083  0.0002430098628366  0.7989778250862348
  0.7996832168183287  0.1998109309255654  0.9995177969644210
  0.8001640456221338  0.1990883093670472  0.1990742396039437
  0.8011815553888704  0.1960718115349912  0.3988364567209958
  0.7960813483950617  0.2011293759407485  0.5996878031296019
  0.8009827020675384  0.1991091794770008  0.8008650601292684
  0.8054863467746383  0.3972303305706144  0.1945167301364541
  0.7961773096244095  0.4002166051650671  0.6013263022489267
  0.7984651426864647  0.3999130995993226  0.8015389652835687
  0.8024043845702740  0.6005751021905650  0.0003873917794957
  0.7929726238759734  0.5946376713396101  0.2063935421421364
  0.8026165640726459  0.6180578089817967  0.4031990204750485
  0.7980477479673479  0.6005902101692651  0.6003585344998537
  0.7998681552848705  0.5988592588164711  0.8028248112527449
  0.8019078791060852  0.8022092335948280  0.9969307880252348
  0.8043551342015860  0.8073778284543153  0.4003763304853337
  0.7944569255829471  0.8008776958484060  0.6007602091085112
  0.7995788630681808  0.7989423501822832  0.7989094720889999
  0.0004806855784455  0.0018838438723729  0.1960078873419685
  0.0007951056814834  0.2002625836548483  0.0040685571768364
  0.2068941130752033  0.2011742262140410  0.5996816641613761
  0.4011238395313885  0.1991018091466242  0.7989604841202876
  0.6020631165693109  0.1985837868376037  0.3981183589272549
  0.7977250520810673  0.3992528807088889  0.9982028670830021
  0.6014354019737039  0.5969412650609399  0.1989921466253874
