Zr Ti V  Cr W 
 1.0000000000000000
    15.4708467865148371   -0.0457987880927962   -0.0198442725602326
    -0.0454938160247508   15.3995902028152862   -0.0270542228467451
    -0.0197944236660485   -0.0273036633962630   15.3709555907435735
 Zr  Ti  V   Cr  W  
  16   2 101   1   4
Direct
  0.9869561797655444  0.2169671741979284  0.1928827605379700
  0.0233409857703595  0.5816931412822628  0.3811744716312515
  0.1931012888605531  0.2354984747287110  0.9826708060816367
  0.2236489012377946  0.6252866009824500  0.0052294030040612
  0.1943120540074578  0.7779365274088118  0.2262102666921920
  0.2015314594744428  0.7940187822517147  0.6324591674269808
  0.3592143848689803  0.4387170005962933  0.9996748415567194
  0.4135161171556251  0.4067614299161564  0.7777644425740934
  0.5983187671241592  0.9955053922674114  0.3851896927687672
  0.6545863485931382  0.6195673384833857  0.2251918242761857
  0.5776332506727219  0.5808070730533095  0.6635464305746195
  0.5755678562025656  0.5683460526360745  0.8953482548606614
  0.5931137539811423  0.7590628363116565  0.0382315226130252
  0.6014037144253344  0.7840104771345193  0.7990046991334560
  0.8227028445572949  0.4540111630651690  0.1984927250671993
  0.7830658267213568  0.6095917890974403  0.0234667302452817
  0.0127029804891297  0.2037518533160197  0.8058432765558514
  0.7912179843934076  0.8086882769600559  0.1650603523864919
  0.9956695969397802  0.0050135178384424  0.9932234037444906
  0.9963823578426553  0.0012172578651990  0.1909868100453986
  0.0016743101391608  0.9979965224949485  0.3883622550415553
  0.9993864681599580  0.9978944065295647  0.5923702221068642
  0.0007304976803849  0.9975212316944589  0.7945864345007986
  0.9885366614316337  0.2036434034542442  0.9928732216024813
  0.9980518999468538  0.1953065516230362  0.3980067011431522
  0.0002608271005069  0.1953538480698302  0.5929015947836692
  0.9859149352225652  0.4071955028831645  0.0043777635699587
  0.0163548258634851  0.4170828606716573  0.2000688323365287
  0.0005784906776201  0.3966847416908098  0.5875063315928305
  0.9998174118489217  0.4014994893223223  0.7881702296218586
  0.9892546868767392  0.6066748055672553  0.9897576760223764
  0.0243467699114580  0.6093438531422349  0.1774673653584387
  0.0039772748194164  0.5971666163611405  0.5891463322053588
  0.9989928693240672  0.5968875555183203  0.7962333503030631
  0.9928005885677250  0.8021280949641434  0.9912834159017472
  0.9955377170152593  0.8050016083425905  0.1873230210525545
  0.0023811362841164  0.7971536661646870  0.3876810092738181
  0.9957892684137593  0.7959646895836250  0.5894571366585166
  0.0069410074207290  0.7982893086278884  0.7912397373156952
  0.1957402951176777  0.0163002547300581  0.9977335334462356
  0.1976460706702731  0.9869651380924265  0.3949247426767031
  0.2002592232474657  0.0010190325373021  0.5926136081906819
  0.1996370116329725  0.9975380531484411  0.7939173733130782
  0.2039212353151492  0.1976927696331708  0.2270354677853489
  0.1996457926230638  0.0730807678539459  0.2603660188960144
  0.2030641406931929  0.1975001348537228  0.5925617717660300
  0.2090853825765731  0.1986550408935576  0.7851387806717752
  0.1731404696544168  0.4287575905282445  0.9927711973579428
  0.2054723186677894  0.3916258765809672  0.1856127096835467
  0.1983587098523461  0.3977813887462215  0.4000265890982354
  0.2009797955671654  0.3928457372436353  0.5984410343907727
  0.1975439388120550  0.3995101442128123  0.7977663619482416
  0.2093373081198005  0.5874825435522627  0.2088105406542724
  0.2200813230578063  0.5931503092861725  0.4039237146881386
  0.1989048595638692  0.5907953662652901  0.6011610985413303
  0.1930690588757787  0.6023199850370081  0.7963100294185026
  0.1898937101616704  0.8211466546637898  0.0132410379374374
  0.1965325521457050  0.7905585640206024  0.4213415611498856
  0.1955616571176946  0.7980079697585947  0.8237868104117876
  0.3974997874842041  0.9992113687129557  0.9955080274567200
  0.3996244658431363  0.9998249749707003  0.1931977607262788
  0.3917728482775502  0.9941952236235283  0.3942236060284157
  0.4006658635521810  0.9946519417308989  0.5939742993721363
  0.3993864080430747  0.9944920890480081  0.7959600807501559
  0.3981516954284210  0.1975921699054385  0.9942022673733463
  0.3984497959457654  0.2019081727672752  0.1936548722873142
  0.4049853520415037  0.1971574699080390  0.3936234726822757
  0.4063642889699086  0.1967742182871758  0.5915984468878833
  0.4011148572302393  0.1969455014005579  0.7937707151980857
  0.4022108279292024  0.4010337591773004  0.2010328796723159
  0.4007585291397225  0.4046713511172262  0.3919602257656277
  0.3983860476584666  0.3954065915766338  0.5846216042800341
  0.4209880945999387  0.6322514034837309  0.0143438084837276
  0.3970262070945811  0.6073525457803064  0.2103340403452395
  0.3916618593207512  0.5977884009539632  0.6038926540796095
  0.3832691741892598  0.6038577185337226  0.8189380623025327
  0.3864359605419451  0.8053408305465025  0.0055915514554001
  0.4004731775873827  0.8030506105297617  0.2029102113380536
  0.3951991555585586  0.7896414708251490  0.3994716822606363
  0.4058011252957324  0.7973260324335341  0.6004046519317532
  0.3919702549898068  0.8004564440088642  0.8018442700543222
  0.5973729577891284  0.9999719427890090  0.9902228148996561
  0.6000907633645312  0.0037059666552235  0.1834466731596963
  0.6000989160755424  0.9976956212332104  0.5961851657618967
  0.5985120173187628  0.9930103081860279  0.7958653900044089
  0.5922082952816379  0.1998924779075419  0.9916397983184876
  0.5952469051563796  0.2004121694559270  0.1943333931635084
  0.6004047605482058  0.2018817705416650  0.3982249607292686
  0.6004857609833057  0.1930228784963057  0.7899509839610099
  0.6177803940072804  0.3923663902050633  0.0026120276705408
  0.5954885976666250  0.3923763033577200  0.1992870785664433
  0.6068227308127354  0.3991370673754553  0.3981624176184808
  0.6033952636515955  0.3857635487825246  0.5982940882646411
  0.6108183750328474  0.3845401411810040  0.8037086484209934
  0.5205742269832864  0.5224826854807431  0.1001532893185206
  0.5983341427110219  0.5942336130701789  0.4318915498643269
  0.5938460526243782  0.8201108774163058  0.2279069399750679
  0.6009062498805702  0.7907141815448093  0.3966981415344853
  0.7940512065334681  0.0001476188382286  0.9922191218591795
  0.7988767377815528  0.0072549095728465  0.1897257880590280
  0.8049556608653627  0.9960622635044164  0.3894539500642858
  0.7990898121883943  0.9913674424160642  0.5913495653562875
  0.8011414706503371  0.9974096697671890  0.7929963041416093
  0.7951895832912993  0.2030421495225136  0.9949363802089770
  0.7871236482274309  0.2060580404110690  0.1933427773967148
  0.8001597925693793  0.1992975672173928  0.3910116128531370
  0.7972362289732354  0.1944458940892627  0.5964260641664033
  0.7994609239952032  0.1965659781612219  0.7951942108141519
  0.7962141646829670  0.4035999785346505  0.9914445466289756
  0.8102054050031277  0.3981383302107152  0.3996598261020085
  0.8022545164579399  0.4002480429524939  0.5952232709269656
  0.8055433251406197  0.4007146281414514  0.7940492514940612
  0.8824137457200967  0.6841892437546013  0.2747534752229271
  0.7900434387087361  0.5948466503427398  0.3933724437294507
  0.8057524615703461  0.6013916891687485  0.5899980112017340
  0.8023576646837007  0.5988017971588099  0.7864008332449931
  0.7990601486975869  0.8093105048544558  0.9783710722463482
  0.8021338920653550  0.7992851969526571  0.4040070789025772
  0.8088050009560491  0.7970803932642513  0.7879644916287132
  0.6038602676439576  0.8009616389090483  0.5919028745942405
  0.0026807208865652  0.3814593727672123  0.3872328844253259
  0.4125230812894585  0.5971683667905393  0.4067882172076850
  0.6021085873404813  0.1918831121248404  0.5932706101007802
  0.8020290927125827  0.7944294731896366  0.5953669422398042
