Zr Ti V  Cr W 
 1.0000000000000000
    15.4219977637485020   -0.0153525296692176    0.0018800521315798
    -0.0153399539639544   15.4042384266248558    0.0149563524432868
     0.0018828811446291    0.0149768248118706   15.4308175709018371
 Zr  Ti  V   Cr  W  
   2   1 100  10  11
Direct
  0.5993543064395118  0.9875799651006665  0.7911551747549634
  0.8062351082536603  0.4055551081659301  0.2021672315131253
  0.5974798337346240  0.4040666777861436  0.1976700746812476
  0.0009713811112630  0.0014990754403170  0.0003384236450941
  0.0007177946661278  0.0000800708437911  0.6006199266025645
  0.0005198468272958  0.0000920927457854  0.7996172870478363
  0.0058548322996492  0.2000330084574652  0.0009166281905771
  0.0014440374387360  0.2025924724015665  0.2006512344603133
  0.9970587612484991  0.1993999002000701  0.3998786133752743
  0.0015497229511179  0.1996617950337990  0.6005392277266111
  0.9991534954041849  0.3986486194521425  0.0039917178365707
  0.0009434942897984  0.3997697839024664  0.3980776940291208
  0.0009676296141243  0.3998634222668546  0.5993381497294009
  0.9994564523641569  0.3993233067484857  0.7991063583650487
  0.0026813894504966  0.6001139161216268  0.0010542373329853
  0.0014894244229291  0.5988126362394557  0.2003141161647450
  0.9998971733031096  0.5993561755560556  0.3994932888893203
  0.9991552179762723  0.5986703123704735  0.5988757574937875
  0.9995406451544836  0.5991809468829220  0.8008004959598439
  0.9998975075776091  0.8013706202753937  0.0003923204806691
  0.0011103434804455  0.7994016877441056  0.2006583172453765
  0.9995011991850461  0.7995240996575323  0.3990473560047998
  0.0028127779218959  0.8002549946312821  0.5995969571438233
  0.9970170718394912  0.8005144055439548  0.8000985807034354
  0.1983085800849020  0.0055820224764914  0.9994198500517802
  0.2025305774973452  0.9987596961958088  0.1999234004966630
  0.2006763239559838  0.0007759487349496  0.3999209809333862
  0.2008716971599200  0.9966248571057230  0.6004974702582023
  0.1989790786269210  0.9988241520883229  0.7997581274708514
  0.2000105827644873  0.1995399424505682  0.4009454141952876
  0.2003180197899851  0.1988371461217219  0.5998273980104188
  0.2005105381737925  0.3973512894426057  0.9993828480370704
  0.1996583911691401  0.4006824287864776  0.2020847969681293
  0.1999705659975550  0.3993913821633261  0.4018029919501153
  0.1997456308753100  0.4049196723373751  0.7981841642271317
  0.2044547881627291  0.6015630411545602  0.1956830304935868
  0.1995110936632781  0.5988117113633147  0.4015075818983126
  0.2010953889823173  0.6024995254438261  0.6048152837355840
  0.2016240872693371  0.7997965026126687  0.9981946583800582
  0.1993965085347398  0.8009188883155156  0.2009574564257627
  0.1996870131123719  0.7995239553396160  0.4038810063364174
  0.1997835081135576  0.7963680753885629  0.7960383871074823
  0.4008565186373203  0.9989103728114713  0.2018458320194891
  0.4012887081391913  0.0018037168478710  0.3979409135407424
  0.4031080589930546  0.0012581339577252  0.5981843445311095
  0.3936719332441601  0.0020980673741449  0.7978522341388306
  0.3998188213806400  0.2033511788382459  0.0004300153329679
  0.4023157016112189  0.2011277906773630  0.2012319723308133
  0.4020898349167070  0.2017897023751969  0.3990634186536889
  0.3996052521656693  0.2009889611105349  0.5990271291095912
  0.4005096694381884  0.2011068509182442  0.7994523480681802
  0.3996261616205993  0.4000858466486238  0.9993247659789503
  0.3971115516736141  0.4065817024137364  0.2024108536079969
  0.4004007941277049  0.3995325014979564  0.4003022669509880
  0.4000599665384869  0.3996302627480833  0.5987499570114915
  0.3993647363546423  0.4001019472678708  0.7973071568642990
  0.3959740920941449  0.5996659466600501  0.0027688588708470
  0.4007889196014778  0.8018443515857807  0.9991215505002706
  0.4009405854651686  0.7978624910119217  0.1997310708261384
  0.4015086321782610  0.8004368119649835  0.3998163326540455
  0.3958234803256734  0.7995416504251192  0.5973836250661757
  0.4021013619691239  0.8029460991086244  0.8004936222854083
  0.5355620824825265  0.0036468319393943  0.0012318048498525
  0.5993154425425200  0.9985491067020806  0.1996250488610515
  0.6011389098009723  0.9994747492327145  0.4004890014176775
  0.6000291973283800  0.1985199472507632  0.1947916071176968
  0.6052152112310336  0.2008319435064262  0.3982235943523991
  0.5998982159028986  0.1956162928462621  0.6036373466103502
  0.6008588664019009  0.2020194649264392  0.8033126119322735
  0.5996027131175476  0.3962802074447926  0.9960367650257649
  0.6005657513469547  0.4005998712579085  0.4034289839464112
  0.5993978749523781  0.3999277356096679  0.6004405948138816
  0.5998556064257403  0.4057543766653026  0.7975089945867178
  0.5990034316533351  0.5973894179860657  0.9958018354696441
  0.5946076307145925  0.6049575499248392  0.1972822980150522
  0.6010708003989388  0.6001035394658092  0.4000395435924526
  0.5994317293671897  0.5998160333379727  0.6023812054183972
  0.5991712305686133  0.8019475796733884  0.9950043855801023
  0.6007747801254057  0.8019080869435388  0.1978623136508219
  0.6016475809790637  0.7994777246445435  0.4006717872450486
  0.5984048907089177  0.8014488181209221  0.6011497835061009
  0.8043413051747308  0.0013316171681970  0.0007963607206132
  0.8018488590626088  0.9990025402894203  0.2006151822103484
  0.8015304654637939  0.0033459095189006  0.3995110135922277
  0.7977283543594048  0.9996261979551777  0.5999332862815798
  0.8065202687087952  0.0004850456704580  0.7996947704398019
  0.7956809349638413  0.1997179142704033  0.0004989380386431
  0.8010954320522343  0.1963325148412733  0.2040782790129253
  0.8007386749010406  0.1998640068461219  0.5968544818866561
  0.8010391742670191  0.2006146244533694  0.7994534467048260
  0.8017398191042679  0.3990656671415088  0.9966959949753846
  0.8001107358044062  0.3954940447093120  0.4065917081901908
  0.8006528362084367  0.3988723714963918  0.6016680560228372
  0.8006912785645611  0.6000901671472482  0.0001779066402432
  0.7979615167414588  0.6073148468698757  0.1993941292817904
  0.7989540558280621  0.5988649718221146  0.3998770548313218
  0.8006721437181713  0.5996426742794249  0.5988915486481667
  0.8003238811670661  0.5990923429511558  0.8000395967926310
  0.8002136174211903  0.8008055313003130  0.0001723188022507
  0.8005168493825419  0.8024410830957253  0.1998375618722016
  0.8008582564035979  0.8001219086845516  0.4003276131598259
  0.8027600919943342  0.7993496449787377  0.5984189873093294
  0.7989432078545741  0.7995452455004159  0.7993931976213243
  0.0022068467766666  0.0002430352101675  0.2008015870870392
  0.0008867363944971  0.0000737613351769  0.3999196473309018
  0.0006567251517771  0.2007759182043417  0.8004485293397885
  0.2017462039276965  0.2000448375548748  0.2012620724624477
  0.1999934456298955  0.2016687151932842  0.7995916203678314
  0.2004404072416041  0.4004966580959504  0.6000436395273309
  0.4003495306783583  0.5998641409521462  0.3996257611154220
  0.4003554319369264  0.6000645276567310  0.5994422173827210
  0.3991144786339205  0.6003809775350243  0.7998838354108750
  0.8015005253028604  0.3997288934955213  0.7989739874708238
  0.0070547937507538  0.4024894754864488  0.2017596575167181
  0.2034866232644442  0.2010644676305934  0.0007479648175768
  0.1992602509986202  0.5985461733301536  0.9972417523416522
  0.1941951988154916  0.6015480945657351  0.8053493453000813
  0.2006071325769704  0.8000150301783937  0.6005370252008747
  0.3987777244156867  0.6023242578103808  0.1972275921619477
  0.5996625734354329  0.9981003246104546  0.5939823248911082
  0.5979457173894166  0.2011569609017743  0.9979022942153543
  0.6032489273599615  0.6023035295271559  0.7999075419708327
  0.6003822000160884  0.7877552935478658  0.7980256570696322
  0.8003225546326720  0.1998691003548228  0.3999978345836896
