Zr Ti V  W 
 1.0000000000000000
    15.3704372863088707    0.0041087699184726    0.0045828320708022
     0.0041071823098185   15.3593176205705255    0.0049868964281650
     0.0045832368054306    0.0049883200619353   15.3853693029952101
 Zr  Ti  V   W  
   1   2 107  14
Direct
  0.7917400473329638  0.4017766736395313  0.8101435077649409
  0.4083278904413921  0.7990263738254900  0.8039244750566310
  0.6130472105013888  0.3998639534369887  0.9888890440680568
  0.9947443563749159  0.9979071822408618  0.0014144056237917
  0.9967083801837833  0.0009945042710038  0.2002999509535778
  0.9986636993234358  0.9964809091575428  0.4013613685820305
  0.9942459010271336  0.0002789183751988  0.6016164822721323
  0.0024711539856845  0.9990546093291970  0.8030228066763629
  0.0019384117713420  0.1974317729002449  0.0000480247972201
  0.0008707053071057  0.2026378638159217  0.2021273061284045
  0.0008101035419275  0.1993577298570164  0.4005374786315002
  0.0028183459845157  0.2006767840526674  0.5995291487887490
  0.9996788590551839  0.2011510273381967  0.8010020642362832
  0.0037449567929655  0.3996270940045049  0.0059724723662075
  0.9984514045137686  0.4007860658856482  0.3970022257603519
  0.9974728858741221  0.3999353831984086  0.5996886199981690
  0.9994328695539157  0.4008484288344293  0.8028814482424108
  0.9980222149956134  0.6048489563712872  0.0002900531016224
  0.0031963906875931  0.5958502330315473  0.2012092518722546
  0.9992719579714470  0.6024318430743921  0.4028115211395673
  0.9994774282239377  0.5993987374905568  0.6013162549004161
  0.0025681102258917  0.6007327495009955  0.7998873463654367
  0.0041640721745230  0.7989160222839915  0.2025371046514478
  0.9995505088184239  0.7997919981195295  0.5960358521116802
  0.0001639059664458  0.7993871361953462  0.8055376331432003
  0.1977201048100433  0.9951009319700831  0.2017167739135641
  0.1975323963684296  0.9988931410966151  0.4012573333021117
  0.1982292608614185  0.0029940425691433  0.6063835231695949
  0.2008367395007200  0.2064732962224031  0.9984002767791326
  0.2005917467055105  0.1958072209506312  0.1987961593102698
  0.2025300227502556  0.1996372261279540  0.4038134839709988
  0.2009187639273478  0.1977679449211057  0.7965343487394810
  0.1964053488567623  0.4058923087154366  0.1959299070839114
  0.1993333194123053  0.4010872584508327  0.3987444657691221
  0.1978015433203170  0.3970542085769517  0.6005796063611739
  0.1979643432829377  0.4057992638223124  0.8041106114461508
  0.2006580861964694  0.5964954830469187  0.9965686459289119
  0.2008634651943166  0.5998362732945240  0.3989703012118764
  0.1996306504941323  0.5990605827754649  0.6044080393412445
  0.1961097336482122  0.7941544188203272  0.0039472390569084
  0.1960922006632237  0.8004538112555493  0.3985945396907097
  0.1997211527354589  0.8003034055463103  0.5991312704979452
  0.1991828316741801  0.7987826018444781  0.8024332392510716
  0.4032390861867881  0.0011047888338161  0.9990824052524552
  0.3986257048992294  0.9963216747392687  0.1978994842812924
  0.4010093533317624  0.0025862509548340  0.4001231713243350
  0.4004687219473804  0.9986507580810162  0.5994574774440530
  0.3974988084952742  0.0009288135441951  0.8009175641172899
  0.3995588923003127  0.1991806076269319  0.0011614936084078
  0.3986607970628019  0.1984248069442315  0.2035148038878117
  0.3959396540512833  0.2000702518769452  0.5949895305544760
  0.3996039412945867  0.2002809479937197  0.7980408757397432
  0.3966776548485055  0.3984438005681276  0.0000311571442307
  0.4018290540628809  0.4002474109514192  0.1979257941874053
  0.4000307050405457  0.3967362046042879  0.3975083711830777
  0.3992132967160891  0.3998172350474962  0.5978093282485509
  0.3967749000842329  0.3992779513074114  0.7993451744579115
  0.4025143496683972  0.5988904253962622  0.9994998381427316
  0.3985201922969472  0.6029706314869975  0.2003819848078802
  0.4004804864995592  0.5986522570832417  0.4006009478433690
  0.3985073914314950  0.5998214281108273  0.5984985768310715
  0.3960452685524779  0.5995860783439109  0.7997663372110748
  0.3994799451529512  0.8026459856437157  0.0066237516236593
  0.4014381103329048  0.8017388802905612  0.3964953283000580
  0.3999896711921846  0.8008875985311393  0.5944154890765226
  0.6005841373644472  0.0001718629007110  0.9979695848259945
  0.6025863202202804  0.9995589616200615  0.1989430638269495
  0.5991688746147983  0.9999389042019070  0.4009408774603202
  0.6020136513474413  0.0005858038833675  0.6020777763505232
  0.5985447611587578  0.9992232394305453  0.8004968186428848
  0.5994553221840676  0.1995778619643537  0.9986922615140699
  0.5981044874991868  0.2016923605865140  0.1985688537006211
  0.5948917340651318  0.2011052740716737  0.4008319985306607
  0.5978531001284043  0.2007625682467171  0.6007004953311503
  0.5964067514904645  0.2012713694371733  0.7995751460376254
  0.6026336015377346  0.4008941768556420  0.1993023589369071
  0.6010275211432460  0.4008728567919373  0.3984154184762162
  0.5997918463603389  0.4003946290299324  0.5989969294593683
  0.5900142972407829  0.4011118919874290  0.7942604523584665
  0.6008412159219325  0.6012805648588191  0.9983415991135085
  0.5983261442935780  0.5984244774468979  0.1981519020198846
  0.5993472786513920  0.5988323511382779  0.4018892116879147
  0.5983729563642163  0.5998833882118763  0.6020427863971503
  0.5959128615861935  0.6007025194222122  0.7999910995983610
  0.6019845226872826  0.7987542816684621  0.0002183718383242
  0.5953382415452684  0.7989843150055967  0.1999609868754218
  0.6033358438160658  0.7978061826548694  0.3993673301317888
  0.5995649320395424  0.7993070578045143  0.6001480178378056
  0.6025141442566476  0.7994207569206863  0.8011766897496941
  0.7988774218635480  0.0004345725719432  0.0052607889903589
  0.7983392953924079  0.9969853810702818  0.4009323261007017
  0.7985320779731429  0.9994090616225905  0.7963924668760518
  0.7994311977907780  0.2002205089928624  0.0008205466271578
  0.7991251372346856  0.1961629550277612  0.2023280946433101
  0.7976808323605875  0.1988019545311987  0.4013106844281286
  0.7992040936979773  0.1964843553606048  0.5999161341921696
  0.7998914443309034  0.1956460097004283  0.8005651831274699
  0.8081747550822816  0.4000891500439042  0.0108098904128366
  0.8042811573486331  0.4000816643472156  0.2047007037167372
  0.7997525543604076  0.3999040556417507  0.4016707058711202
  0.7992698133166030  0.3985993009359290  0.5992359703767217
  0.8001517869478791  0.6017848688239413  0.0014624667675341
  0.7979992324728743  0.6007502710662604  0.2012893451379778
  0.7982504544231540  0.6046671709061269  0.4017541654557982
  0.7985753589183106  0.5999583492771475  0.6028658336149078
  0.7992422256253112  0.6066251073185126  0.7994684545597069
  0.8042852208282799  0.8011942210637868  0.0035061746010907
  0.7991348313084741  0.8037478613663713  0.2055507346492730
  0.7998844081051469  0.8047289069350042  0.5963078185923132
  0.8009501723432194  0.8016492201684807  0.8002029547426609
  0.0012121711349522  0.4001327654339436  0.2017451056619006
  0.0006310034093113  0.8014230805857542  0.0041833815740392
  0.9981357795329310  0.7986909681124938  0.3990802479577841
  0.2000856295398241  0.9979929751316502  0.7964106117001276
  0.1992088045378661  0.2008581574567682  0.6001232892171513
  0.2000284185512347  0.4007738985973971  0.0001787685985770
  0.2024159431357591  0.6024154617908573  0.1996597777586904
  0.2007259037659760  0.6008712258098770  0.7995632864221518
  0.2020857571250835  0.7929888285735907  0.1997601450518184
  0.3987437776777007  0.1993076632969081  0.3983895781474522
  0.3966637184861229  0.8003052311338299  0.2017609674265011
  0.7974876316925087  0.0012287149658372  0.2024798341709756
  0.7982151010110008  0.0007621298751138  0.6000663988303037
  0.8032031169524640  0.8005585839630196  0.4000916824578785
