Ti V  Cr W 
 1.0000000000000000
    14.4215617146127411   -0.0340580253175946   -0.0146492675897958
    -0.0341452639138493   14.4780982435186267    0.0121350085407948
    -0.0144011403528378    0.0121814235116969   14.3381583337057812
 Ti  V   Cr  W  
   3 114   3   4
Selective dynamics
Cartesian
  5.4801640591654861  0.2770256978247220 -0.1360251747901867   T   T   T
  5.9925418050475372 11.7110190095273712  8.1994413490100140   T   T   T
 11.6797001862151788  2.8530443487852546 -0.3203528344409410   T   T   T
  0.1671014960376187  0.8840203751303416 -0.0109325021491895   T   T   T
 -0.4024389670538193 -0.1317882907195276  4.1493640349385181   T   T   T
 -0.3584717586277886 -0.5208433569334958  6.5209796721967912   T   T   T
 -0.0932111546563531 -0.2649769064025177  9.4034290397982581   T   T   T
  0.8250303894181372  3.5765515688078451  0.2882680515821696   T   T   T
 -0.8599396459755116  2.9382253979558839  2.8842508937803704   T   T   T
 -0.8531724019245570  2.5742940410833732  7.2339744978245619   T   T   T
 -0.0519653198770664  2.6049603110518920 10.4918332426072833   T   T   T
 -0.6250799577226206  3.2144933002341745 11.3277452303784241   T   T   T
  0.5050595825760185  5.9236743533239249 -0.9325508985786123   T   T   T
  0.3392336503846388  6.5623526429270012  2.9355051014189875   T   T   T
  1.2040894317341944  4.2366552844599941  5.8003556266939054   T   T   T
 -0.5543469738444604  5.6881163124606307  8.4958724176049696   T   T   T
  0.7313302517034366  6.3910505202831818 10.8872775326068698   T   T   T
  0.7381908049887872  9.0592930627853416  0.1690652613126242   T   T   T
 -0.2867390021228065  9.6911857514062962  3.5138264180215493   T   T   T
 -0.6840513435612805  8.3569245311226350  5.8763679860924762   T   T   T
 -0.1655536685934887  9.4242607637543312  8.7042799787107707   T   T   T
 -0.0517517397547685  8.5360106113894147 11.1749594246401820   T   T   T
  0.4938141885967696 12.7181236878791246  0.0162676834980795   T   T   T
 -0.0906775887284707 12.0188217364063537  2.4104779829250176   T   T   T
 -0.0005230854860103 11.0653150480490972  5.8915987156215310   T   T   T
  0.9185784340637667 11.8443906620195598  7.9185836689917499   T   T   T
  0.0545116417054858 11.5831203466147770 11.7507048026514749   T   T   T
  2.7191350301527750  1.8266448843618392 -1.1529401133742139   T   T   T
  2.8579994330562890  0.3120994939419289  2.4283796205147299   T   T   T
  1.8952144602448526 -1.0051458336621599  5.6888932323082706   T   T   T
  3.5333789164487430 -0.1897352560897249  8.4271085228517215   T   T   T
  2.3815419491168153  0.3227060862584468 11.6285577862559695   T   T   T
  2.5973837198355314  4.5301132756588380 -1.6189246134103668   T   T   T
  2.3624811717839997  3.6061380554289966  3.6999546749035495   T   T   T
  1.5682946256983239  1.6285402591857925  5.7511662124957965   T   T   T
  1.7998103673411308  3.0248930193826391  8.1113841833427500   T   T   T
  2.8730176215287400  6.0681099341406330  0.5370996309989623   T   T   T
  3.7628215044210886  5.5360295416439289  3.2970012928189090   T   T   T
  2.4436865429894348  6.6756944846926105  5.8783747544609177   T   T   T
  3.1126981719069402  5.3752563601763095  7.7246789403026890   T   T   T
  2.8425762989796595  5.1163629299852467 10.2531305630450600   T   T   T
  3.2395592681483234  9.0924853546378905  2.8323568327043485   T   T   T
  1.7402469282264892  9.0081369266415869  6.8318280827670064   T   T   T
  2.4927582944830959  7.6525732942621714  9.3895616923161747   T   T   T
  2.8575432276022217 12.1053114271884859 -0.0669746413322322   T   T   T
  2.3445321956028655 11.3765401687996608  3.4367808760244447   T   T   T
  3.1921902590910882 11.0740935754905738  6.2507508660611268   T   T   T
  2.9064975781459457 10.3370540710394216  8.9382235702434567   T   T   T
  3.3079290476352319 11.2362817842060849 10.7761002779821116   T   T   T
  5.3330820323913333 -0.4958951033505846  5.2228777877917114   T   T   T
  7.0163549640799623  0.1942350825900218  6.6707964669828153   T   T   T
  5.7634025514556759  0.1855464628413905 10.5280911768904257   T   T   T
  3.9302005783290945  3.3552011168763620  0.4116016439954269   T   T   T
  5.7020605496728809  2.1595067520602349  2.9298037511039547   T   T   T
  5.0845346974572578  2.7153392668072267  6.4032075336390690   T   T   T
  5.9695084306237796  2.2619434733014447  8.7385933192290128   T   T   T
  5.7217903382086313  3.2453469888582895 11.6813813178051458   T   T   T
  6.2497178468019854  5.0573930503864739  0.5628311470626761   T   T   T
  6.2622197590277278  6.0110668192108676  3.0288575350112921   T   T   T
  5.5433698386212784  5.1327908381117640  5.4868334966374537   T   T   T
  5.5561355527828233  5.1573058189295518  9.2238950918125280   T   T   T
  5.5984788762160154  5.5521229476451994 12.6406374424616708   T   T   T
  5.5577953132763076  8.5446008150778390  0.2872601839269623   T   T   T
  6.6800443494553257  8.2743429870176755  3.8526069761573396   T   T   T
  5.4678411333847441  8.2613661385455384  6.9421644418583588   T   T   T
  6.3455958172020175  8.7091935273687842 10.2150394420771615   T   T   T
  5.5295080605964957  8.5690122216158127 11.0106176251270220   T   T   T
  6.4553662852243718 11.2243807761865924 -0.8493112177814808   T   T   T
  5.6222535310252946 11.6887910632098517  2.0918055395162067   T   T   T
  5.7903398083229893 10.8400210105542101  4.8009447063184316   T   T   T
  5.4112927641327735 12.3935098738047973 11.5176400849491642   T   T   T
  9.6823221032251610  0.1021988618474507 -0.9788432240456821   T   T   T
  8.3582907428811453 -0.1678754882968411  2.2465269480354899   T   T   T
  8.8547530620634323 -0.1611893483711433  8.1859016323632101   T   T   T
  7.7660723678919306  0.8511239933460450 11.6670218099975820   T   T   T
  8.1251510387598476  2.8923289358360056  0.1722838609228490   T   T   T
  9.3717682272422493  2.6213341876535927  2.4069600242654685   T   T   T
  8.4566053238119778  2.6765285159311860  5.7617919316069131   T   T   T
  7.9874019810321233  3.2994400362789591  8.5892242603871214   T   T   T
  8.6591620239907172  3.7970540066459701 12.1105418365465507   T   T   T
 10.0997946334438193  5.8965211686509873  0.4021612955633522   T   T   T
  8.4591182176243471  4.7826645386624547  3.2034818069857516   T   T   T
  8.2426355419245354  6.1104227960847890  6.5151672135701260   T   T   T
  8.2877957484945615  5.7984258735927616  9.9442676389931322   T   T   T
  8.0936495136609139  6.3108273743958438 12.6514980432219826   T   T   T
  7.8837233860042533  7.3868798507525213  0.8871016084547062   T   T   T
  9.4955287097262335  7.3337904685719169  3.5465279933503151   T   T   T
  8.4395182946374607  9.7406415298367968  5.7175216534205688   T   T   T
  8.8010826476629305  8.7437759313466703  8.5987072453242188   T   T   T
  9.4370812733043987  8.7423338859652073 12.4749586316940864   T   T   T
  8.5901718631270239 12.5422272059087874 -0.0153356750656224   T   T   T
  8.9646956604192738 10.7276281776577758  2.0839000516081727   T   T   T
  8.0246249210612657 12.4957838146202516  5.4606272881767559   T   T   T
  9.6886913471147835 10.8943735457144246  7.5919703104686249   T   T   T
  8.6434959731001832 11.9070477068384797 10.6424183433559900   T   T   T
 13.0888877976669527 -0.2219672380649446 -1.5090881439084107   T   T   T
 11.8604564794265084 -0.4013179725066703  1.7937057354357873   T   T   T
 11.7623015422313273  0.9111997268394746  5.9604208328637105   T   T   T
 11.6860429707358922  1.0439331209964280  8.6123803396294782   T   T   T
 11.3861574340037706  0.0726887422076204 11.0245431068399409   T   T   T
 11.5517917714833374  1.6601466778311127  3.3759135342792042   T   T   T
 10.7054351752484500  3.6053092604650669  5.0852270235877999   T   T   T
 11.1684146174533048  3.6752128080021378  8.7518854693506150   T   T   T
 10.5020773081462870  2.5183473987909393 10.7158117648792413   T   T   T
 11.4446049723294330  5.2463596958583762  2.5559685316703962   T   T   T
 12.0723831557824415  6.0503889426756663  5.6608350063854616   T   T   T
 10.5165714660195970  6.1774611497082041  8.0969498230399974   T   T   T
 11.7183117086382111  5.8159790529272284 11.7228207059855549   T   T   T
 12.7241282531205755  7.8725068046090012  0.0046767662206061   T   T   T
 11.8846167250649533  8.9106977649008154  2.3792959649554488   T   T   T
 10.9445844274216313  8.5418408898780420  6.0231276433858918   T   T   T
 11.4988023604904299  8.4387342101491196  8.8489856320936209   T   T   T
 11.5284320595459260  9.5952862104252645 11.3630945058816266   T   T   T
 11.6819937784676071 11.0720515298935105  0.0035440072141197   T   T   T
 11.2043989981357459 11.9459939459310558  4.7037874699336442   T   T   T
 11.3835391203377352 11.9840821539921816  8.5116991422543702   T   T   T
 10.7773824545976638 12.1068406643389110 12.3516696154716357   T   T   T
  3.1745318999114271  8.5821562491917156  0.4237878254381835   T   T   T
  4.7310009458618669 -0.9814480971263950  3.0650045299131912   T   T   T
 11.1265526512500230 11.7468960615263995  2.2654364702719247   T   T   T
  3.3644617001063648  2.6122113696458360 10.4095990286133642   T   T   T
  2.9541793386345785  7.3896281249241502 12.2374222573146465   T   T   T
  9.4281408256077697  0.3334299049366817  4.6760680057996566   T   T   T
 12.9116646038805332  5.2233191135588113  0.4786296484374150   T   T   T
