Zr Ti V  Cr W 
 1.0000000000000000
    15.5241967283700806    0.0337371939523409   -0.0614976098874240
     0.0337891830853820   15.4379429216692561    0.0932609392571875
    -0.0615891602604766    0.0933897771108201   15.4195297784096397
 Zr  Ti  V   Cr  W  
  13   2  82  13  14
Direct
  0.2209744798669447  0.0172140205427382  0.6060600454143051
  0.2162891710422628  0.5796275389296357  0.3027214336307477
  0.2058884061003662  0.7990968452552770  0.2001651012471461
  0.4328852517309252  0.2172257087080413  0.6129635810863252
  0.4101140575116905  0.3630202494070212  0.4156449433616788
  0.3929099980524313  0.4369779615107058  0.6204050319188388
  0.4162742513949123  0.5826380999872257  0.4195434941504010
  0.6577261370302220  0.2084665896810741  0.6096824975797749
  0.5963436599664369  0.2023744940899817  0.8178996254694738
  0.7966946691956462  0.1992900284636150  0.1934300792039381
  0.8278202670486844  0.1624288266815179  0.7767584772809853
  0.7602857705864955  0.3699598133660098  0.7915277054542840
  0.8051270728017316  0.7744088401096844  0.6052440170861837
  0.2133234467453758  0.5925890804253756  0.5436901746453749
  0.7940849222645683  0.6071024737544709  0.7907000973632354
  0.9917342810663076  0.0035412751529292  0.9940657243738051
  0.0017105720047825  0.9976969804717539  0.1938509790740143
  0.9967207471570099  0.0033936411799842  0.4069721407948221
  0.9960349438057012  0.2053764145917973  0.9969545410599530
  0.0018395910142364  0.1988564841670278  0.2025244441964149
  0.0245364005334555  0.1799557378771695  0.5956964089897302
  0.9921104864705703  0.4026794834029420  0.9930672581808263
  0.9972496842161555  0.4026377678258951  0.1961704393533976
  0.0021541918811279  0.3946047824962876  0.4020552703685398
  0.0120297326028447  0.3991350128316251  0.7922709581591358
  0.9950196826095148  0.6024723829399862  0.9996941578488794
  0.9935387943082453  0.6007336896867822  0.2006921752378152
  0.0012761274084296  0.6033103853169538  0.4021129441124527
  0.9831301649133811  0.6039544910568261  0.6017697473824407
  0.9990944895398404  0.6017355052518186  0.8002205808385395
  0.9947046042241527  0.8015438142428949  0.0004996849480758
  0.9966485280835501  0.8004987942217673  0.2010691579361331
  0.0011657493982158  0.8010676037200967  0.4001987444617402
  0.0078717476575565  0.8033754604544597  0.6016483330017407
  0.9979545965343292  0.8036690012633930  0.8011220082426023
  0.1949271467055178  0.0058013557494399  0.9992736662108490
  0.1940044890899668  0.0030523278537687  0.3931177678222734
  0.1942371377278931  0.2070984098711132  0.0028371336793003
  0.2022394460346975  0.1964084065100157  0.2078193661002758
  0.2166729528514083  0.2140183183206904  0.5966266966146737
  0.2010562487174175  0.2053284661933930  0.7988928604283534
  0.1947069241556317  0.4055284315254550  0.0169149524033081
  0.1962087176128061  0.3960687060356986  0.2059416829006719
  0.1924206701443525  0.4010186876095660  0.5921032988978832
  0.1946215397260802  0.6032525466027705  0.9941157388381104
  0.4018779707567368  0.6044039251921428  0.2040212868429918
  0.1977439943091276  0.6041791495399822  0.7936538883147997
  0.1944555947587448  0.8012962902442159  0.9967132387402680
  0.1980585508513219  0.8086893802787818  0.4102078653034623
  0.2009310375209434  0.8036145247672745  0.6002539811589727
  0.3972349857511938  0.0032539975075496  0.0010308573134187
  0.3972767835594443  0.9924003183438345  0.1982333862802711
  0.3881699934905670  0.9929409524213436  0.4123531884111518
  0.4154372850110539  0.9998952763963040  0.6065132467744000
  0.3938586440353339  0.0027277867926616  0.8011170538746292
  0.3949666393537716  0.2033201652983686  0.0072647891197559
  0.3969074836899035  0.1948649847148753  0.2026442328192510
  0.4009402046081204  0.1814115431004983  0.4027352454227017
  0.3941966644196399  0.2046901203328679  0.8151846862821668
  0.3827817240252224  0.4084044826684303  0.8207956304831864
  0.3963960103012558  0.6012093101345316  0.0040215951696809
  0.4076352304790143  0.6231500579511271  0.6167498520518790
  0.3945656324558910  0.8044764874912875  0.0080133540441630
  0.4002198711273323  0.7958482598718456  0.4026639916313464
  0.3993879672814736  0.8061360413143808  0.6065857263688488
  0.3964729825446262  0.8013669418802150  0.8089793273490331
  0.5960356870697299  0.0033171497701242  0.0054347707361887
  0.5945646700332432  0.2024106898526496  0.0130610751494871
  0.5931236332230696  0.1970578326822323  0.2036173981442058
  0.5941324380990398  0.4058796025155585  0.0000365715972656
  0.6017385384596510  0.3990841480111189  0.2014519076892260
  0.6065757428024596  0.4044316385989262  0.3981931300713756
  0.6072672368776357  0.4050785583385229  0.6006162194557857
  0.5704304328575469  0.4064198655362152  0.7999976055172368
  0.5973057224024370  0.6010072917974426  0.2007867300994696
  0.6119728877811003  0.6016625789854780  0.4004379278667189
  0.5994590673397932  0.6025194096325089  0.6021368582643762
  0.5971189863801475  0.7972491548206948  0.0044927625838517
  0.5950190013984852  0.8056181816205562  0.2049390298348584
  0.5999384121721378  0.8005724951572640  0.4042028859006538
  0.5947232685361975  0.8015534487597766  0.8055258440963177
  0.7934861399373629  0.0045118162780027  0.9971019379353541
  0.7944338428883554  0.9942003501591425  0.1949338342909175
  0.8004292555532487  0.9965634430180957  0.3978496069179457
  0.7968925569210150  0.9926070560999538  0.5993350452146735
  0.7967064657939701  0.9817218607547316  0.8041350410231778
  0.7948201895615640  0.2054893947548822  0.9876993874286781
  0.8157628689900283  0.1975280250204396  0.3959146270865582
  0.8381364720337150  0.1976325745813078  0.5835161887905729
  0.7943163881540664  0.4057845007244061  0.9950039432980547
  0.7982873424819108  0.4043342400460667  0.1975819331458980
  0.7889306711848199  0.6023956380519011  0.9985540373848214
  0.7968277293331703  0.6014357030141151  0.2002618835078565
  0.8027343198358324  0.5982313840643014  0.4000688495431426
  0.7911824517778095  0.5814966142484679  0.5973555257408062
  0.7961975878032688  0.8011107833893045  0.0044206296906824
  0.8023220997432706  0.7973161823068697  0.3988625476258072
  0.0078106164187986  0.2017022925306164  0.7966866717201964
  0.1981814227201346  0.3931791654637265  0.3990117187226643
  0.1963234488191936  0.8064381219014489  0.7992240312142884
  0.3948821462608043  0.4023631523731737  0.0121928223465552
  0.3994780712143044  0.3976712828363955  0.2030939749444097
  0.6051447347007426  0.9894094092841117  0.5990136815148321
  0.5968748094962034  0.9966121520165048  0.8033211674881450
  0.5880711977960129  0.6027872172899547  0.8033662982113450
  0.5979184048492464  0.7991821442278668  0.6034862550795368
  0.8044777413432143  0.3987741568528235  0.3960733547325195
  0.8111585037932039  0.3914851635993636  0.5890963515419245
  0.7973156618034578  0.7995513681252300  0.2016291527622757
  0.7964651985335232  0.7963153583804322  0.8075313448328254
  0.9859933592959903  0.9939785600075483  0.6081511766708069
  0.9999384705537099  0.0031006267416729  0.7949324293558708
  0.0112056784944093  0.2012314227680040  0.3982395853252625
  0.0027858689844050  0.4153555261510249  0.5974975881162842
  0.1988301649614880  0.0018261907360293  0.1992400407147011
  0.1960190025071498  0.0079551054639972  0.8052078969244838
  0.2070540480017434  0.1948138816321329  0.4055627607334567
  0.1997453554007481  0.4055316968204590  0.7776385193259429
  0.3893873136470086  0.6043589836183225  0.8049650247981457
  0.4032956746803774  0.7978985059613758  0.2077243784079510
  0.5944576345585065  0.9997313686148133  0.2053703791591167
  0.6107785025164190  0.0020325408509536  0.3943300684289291
  0.5861759581618443  0.1907096711001253  0.3948801753320347
  0.5944509704622098  0.6027593558292670  0.0050230501321313
