Zr Ti V  Cr W 
 1.0000000000000000
    15.4149939690695010   -0.0041197707411214    0.0051244012526811
    -0.0041210926464625   15.4234402589122102   -0.0060663359120509
     0.0051270839828618   -0.0060686626181498   15.4040961855710652
 Zr  Ti  V   Cr  W  
   3  13 106   1   1
Direct
  0.9787798824991940  0.7946948953084079  0.7924952400098229
  0.2045116796713000  0.4428440882159176  0.8000771812545907
  0.8098774916540092  0.6110663812581275  0.7939245965388753
  0.9989263516522686  0.4009371953222400  0.4083831857535909
  0.9954187547483544  0.6006321432049471  0.4054221403028639
  0.9879667180931294  0.6107626463226338  0.6237787773219906
  0.9983584987084582  0.8045122432150799  0.3991923387488726
  0.1755790029532868  0.9851297442107664  0.7982215610397757
  0.1995810001216377  0.2069524396413274  0.7986838026768962
  0.2085587633510847  0.6013323575895112  0.4078380596370191
  0.3935882067458056  0.8000010440255182  0.1979145129486410
  0.3956433834113104  0.8066812830085118  0.8042461784515733
  0.6040125714673549  0.8004393059189725  0.9898063508941095
  0.6053432635135366  0.7984362298944370  0.2015982291166378
  0.6013978243106058  0.7968677319775650  0.6011935197348136
  0.7985805358428462  0.9917624019980226  0.9955364961526659
  0.0024431012422472  0.9974188253238330  0.0014578920579947
  0.9991640076776986  0.9994974990572087  0.2000827378537299
  0.9986561715608397  0.0032335062069553  0.3988548490420201
  0.0001683371961398  0.9993444089754882  0.5981064167605414
  0.0003962818890602  0.1961963693208364  0.9999386858259370
  0.0001493249902607  0.1995230892203144  0.2004421534920367
  0.9997677088735349  0.1984418137650158  0.4003783833180083
  0.0000897485104090  0.1981522662809677  0.6010395079162939
  0.0004483910967326  0.1961511478251900  0.8007014329095983
  0.0023072591846904  0.3960958931275149  0.0020238780911337
  0.0005627549131832  0.3990036577675192  0.2001432633269567
  0.0023049067394014  0.3983633795421690  0.6053640156922666
  0.0007700555880372  0.3948606870348590  0.8029057490655515
  0.0035818052330201  0.5976889613965263  0.0062024086992828
  0.0017575036037389  0.5987168769380041  0.2028420220715037
  0.0160794734288310  0.5894097718747340  0.8153684942740772
  0.0035557972134344  0.7977287070168554  0.0020973877709715
  0.0002725333299951  0.7989564212652653  0.1989180983798830
  0.0019975516641220  0.8040199323431322  0.5890685734501165
  0.2003290394326657  0.9980144524116711  0.0025018416819720
  0.1994624623406824  0.9983486115533929  0.2009446381857932
  0.2002662834455735  0.9987779762439938  0.3993109630534145
  0.1988731510653513  0.9989662754618476  0.5970513512181920
  0.2014767868067078  0.1986366702857011  0.0021489758473690
  0.1992190579389529  0.1998519575769739  0.2016428502708852
  0.1999421602751127  0.1999195652328436  0.3994709702484379
  0.2002637500013855  0.1989215508062261  0.5978375838085609
  0.2020837005212372  0.3999160021393188  0.0051329595476670
  0.1996873589134989  0.4012624191940179  0.2030411305876176
  0.2023035872187018  0.4002907387155234  0.4010532010886533
  0.2001449342871983  0.4016951984572315  0.5958034124501309
  0.2043221548980546  0.5999848352838111  0.0012449070292075
  0.2012550094054194  0.6006181312615602  0.2015951171641541
  0.2027085147618585  0.6010058586764768  0.6049053633114948
  0.2054323096812890  0.6296108527868723  0.8018380508333799
  0.2009420993499690  0.7989908850414047  0.0008133072605829
  0.1958526635886543  0.7984018260438706  0.2027568253844491
  0.2005454253163955  0.8004151084277071  0.4016548749656019
  0.1932704491607333  0.7996882565241262  0.7977051240341816
  0.3989992434875215  0.0009466907247247  0.9991927363028967
  0.3994998228366251  0.0012957388276956  0.1998518668841688
  0.4004416193780948  0.9999778654760194  0.3994617056631993
  0.3981367308167898  0.0003423352393233  0.6013319278916530
  0.4001849946163097  0.0044211289911334  0.8004497140772999
  0.4002829463209918  0.1996081380873201  0.0000500079712538
  0.3997665583324402  0.2003725047288175  0.1997975627246540
  0.4004031833855992  0.1993888052952215  0.4003110600452476
  0.3992435412062490  0.2006074810273912  0.6001706034362653
  0.4018151410632418  0.2010126730228111  0.8001616568817406
  0.4010522510031345  0.3982374930406608  0.0002800146102018
  0.4004854343514611  0.4002700382298110  0.2005565657505923
  0.4008291618512051  0.3993035427299826  0.3999948004664088
  0.3992029712201290  0.3989849960400837  0.6013264040876101
  0.4061008823403126  0.4004705283932221  0.8008905909340555
  0.4035061646870219  0.6003380035750132  0.0008453784575468
  0.4012808190387474  0.5982402100727091  0.2002401726103265
  0.4036189542483300  0.6007829342936812  0.4010801513549622
  0.4041655447836035  0.6023415817490159  0.6015761058538615
  0.4011174220413485  0.5998401545542384  0.8016016617508133
  0.3985926927631480  0.8005502451018591  0.0018020395932192
  0.3998090330444035  0.8015254195827810  0.4011817433666580
  0.3956020771876885  0.8006962210218400  0.5990123752356549
  0.5971214108096402  0.0010627662216538  0.9990717886017269
  0.5995481482035154  0.0009957455352838  0.1983435390965164
  0.5982577604966119  0.0001401450283390  0.3999841992250649
  0.5993931276795684  0.0006763005527607  0.5984620455097275
  0.5992311100666792  0.0005840200456736  0.7979778872052735
  0.6006617730531497  0.2003853121896116  0.9990820726392167
  0.6008147713307477  0.2003045996168599  0.1992715107441482
  0.5998594469000159  0.2002573570564959  0.3994909857584689
  0.6008869782909305  0.2013339560117204  0.5998595988726098
  0.6015868837135007  0.2012455780350142  0.7993084166367325
  0.6014954301231701  0.4008490884623963  0.9993916780202393
  0.6012456389617318  0.4004269325567975  0.1996383576733909
  0.5999756923984624  0.3994297330630792  0.3993543102548358
  0.6005816025460606  0.4023553982057297  0.5997875703471219
  0.6044334348515699  0.4013564372838134  0.7998468987513219
  0.6017884974861128  0.5986435637926407  0.9974003122390348
  0.6007470567435567  0.5989923106536900  0.2002948394689338
  0.5981177469700012  0.6006931504549535  0.4039683492250236
  0.5984882962303927  0.6018099348609203  0.7950565616690718
  0.5993156713262398  0.8000563140671891  0.3984773004643934
  0.6009601192096866  0.8003398892685505  0.7964943682466082
  0.7996042994763384  0.9978697095149729  0.2002251028152964
  0.7976443382186085  0.9984512112532747  0.3989441602827019
  0.7998077777763101  0.9977963263878448  0.5988096601547306
  0.7977061036447403  0.0006124517093118  0.7957723896367471
  0.8008364402834492  0.2001296756670156  0.9993327970378795
  0.8006259846846535  0.1992573033351279  0.1993174858161088
  0.7993422701190492  0.1990785598446947  0.3996291667598860
  0.8012911099047041  0.1997470136958645  0.5986310888194671
  0.8009514619201460  0.1982387814896667  0.7986710243963121
  0.8019071354325378  0.3998321210812742  0.9988819808632610
  0.8014495965630937  0.4003196717948486  0.2006270266740676
  0.7984171530639957  0.3996865454510013  0.3992036956542289
  0.8029028062216548  0.4011708449692196  0.5982838723000834
  0.8029012272087587  0.4001713240059144  0.7990485749096170
  0.8018873845852547  0.5975848066740987  0.0029710907071548
  0.8001418959385627  0.5996552780623646  0.2000597346029512
  0.7960927293018819  0.6009180990220856  0.3972160593243412
  0.7906125855012284  0.6000064744546870  0.5905690793298355
  0.8072360054424530  0.7934269929914877  0.9958879315298176
  0.8039756291219613  0.7981899537665248  0.1988517007607671
  0.7977338681413925  0.8003788309882183  0.3984104149612983
  0.8048965671581019  0.7979215239794027  0.5964778448483649
  0.8915092482145802  0.9069273909732385  0.7989933422472024
  0.1983255888200113  0.8001813283350988  0.5980222531620014
  0.5997703681943820  0.5947873955649550  0.6010021875923188
