Ti V  Cr W 
 1.0000000000000000
    15.4539762940606913   -0.0009302546193068   -0.0040609226562242
    -0.0009305541856652   15.4553324993326164   -0.0016432811203864
    -0.0040599645847516   -0.0016432389492442   15.4631351219687598
 Ti  V   Cr  W  
   3 114   3   4
Direct
  0.0056446199930265  0.4010486089699549  0.8090273236644918
  0.1937393681729865  0.3989884788005346  0.9902720118478736
  0.6046223320868869  0.7990042512484218  0.4054593668705259
  0.0005385160402687  0.0011618532831073  0.2012717506887972
  0.0004426721714668  0.0006132604620669  0.3988905421429035
  0.0010939589733139  0.0008790313509413  0.5990800587473429
  0.0006974831111710  0.0005820044396203  0.7986495300356339
  0.9990807095554251  0.2007845977739059  0.0004116077672171
  0.0003558416345458  0.2022807602744245  0.1995399334505778
  0.0002684671506967  0.1998080280337512  0.4010283710202276
  0.0012584034453331  0.2012666246593480  0.6004496224078261
  0.0005176696371707  0.1969844373785009  0.8008578604528453
  0.9956571249362638  0.3998981361040950  0.0083233748920963
  0.9994879835824571  0.3998531975833454  0.3970127331669509
  0.0009816315888018  0.3993267841137079  0.5978664837753173
  0.9998317776591291  0.6004033046752506  0.0012912275331711
  0.9996865467518952  0.5959331827865698  0.2008790411390257
  0.0003149610977426  0.6005183960532822  0.4001082154927041
  0.0005911261414373  0.5984574352062546  0.5998302553767433
  0.0009274378484811  0.6006110138004254  0.8004579618750393
  0.0004594679919399  0.7980228498210662  0.0011918703545477
  0.0003410519157965  0.8000587622581851  0.1986135862407335
  0.0000304437013927  0.7995405322903527  0.4002767279746649
  0.0012090932925042  0.7996993434833082  0.5990870111054324
  0.9965940830312352  0.8007140140545554  0.8022164094580911
  0.2009460391463243  0.0007016185987944  0.9992375448335805
  0.2024600055365560  0.9994687348974127  0.1985785287205552
  0.1993259495701969  0.9995612385584008  0.3997201525376539
  0.2009677126325485  0.9996759604346027  0.5990848370738244
  0.1992571159888906  0.9979247956866000  0.8013610512259854
  0.1990015052128569  0.1969048755044787  0.9979881236106692
  0.2005471049201044  0.2008034092200031  0.1997505053664190
  0.1996027062937892  0.1999260858395929  0.4007861681626695
  0.2041292725120337  0.2002205541157934  0.6004387590480823
  0.2003408818721556  0.1990990185682738  0.7988793471790613
  0.1960301772489868  0.3998267882743540  0.2004797542314127
  0.2003811105964832  0.4011263891751700  0.3994999905647394
  0.2001687922145522  0.4006507222191787  0.5986037327255855
  0.2030058605707022  0.4007392018851464  0.7960948881399813
  0.2005080887179891  0.6040758747157270  0.9988177417424651
  0.2012882937744514  0.6005648427708052  0.1990002530257310
  0.2007941705711772  0.6004337384379669  0.4011985195885405
  0.2010627517527306  0.5994642239848511  0.5998137632096082
  0.2011986579215908  0.6018420301256848  0.7986913871405245
  0.1322255820809899  0.8671286759622331  0.9997220055582590
  0.1991329052033917  0.7990110404843919  0.2009718544295034
  0.1996964716081152  0.7993138487330046  0.4006269145462552
  0.2003472584255540  0.7996984506656853  0.6008115945365690
  0.1998547439240340  0.8000809803372934  0.7981304712934899
  0.3996294103910247  0.9994186097952538  0.0034046323149036
  0.4002509884049212  0.9994340426337018  0.3953440209488226
  0.4003462557082632  0.0033176379302089  0.5987556952861831
  0.4008760549835478  0.9988737529673098  0.8006680456967323
  0.4000503866362280  0.2009925504074908  0.9981546158734007
  0.3995552377304522  0.1971466334318738  0.2003886237998871
  0.4003689276381086  0.2006415073113524  0.4037951399003907
  0.4003313075247701  0.1993577924827633  0.7965406291961354
  0.4004222471895604  0.3995681721300210  0.9996103924978470
  0.3981654156194631  0.3990917513283996  0.1992088416462602
  0.4002387734576210  0.4004144247320501  0.3985541564882896
  0.4007603604716081  0.3963946300036011  0.5988120831074996
  0.4012989247948567  0.4007287172350293  0.7996333613437504
  0.3993482028826150  0.6002955424990041  0.0007426280785059
  0.3996450945228961  0.5998151549183426  0.1998022401272430
  0.4006039349950903  0.6003011964925018  0.3991795372629515
  0.4008232898027526  0.5999734532280799  0.7993171640010447
  0.4017942873811093  0.7991689364369672  0.9987140216016073
  0.4000215238565949  0.8029778882119741  0.1997757831043614
  0.3993450536555123  0.7995185821468652  0.4011947142370156
  0.4007165695694231  0.8008913983092959  0.5999434073671854
  0.4008465238486026  0.7998839354254690  0.7999598794435421
  0.5999743615762224  0.0004198077865883  0.0002273270034230
  0.5956065931319260  0.9995423843569895  0.2002278458695428
  0.6013090085858837  0.0016444369331716  0.3993153800798511
  0.5994505621581165  0.0001602470586615  0.5990158232717688
  0.6000094276295281  0.9997002789046912  0.8006909181994849
  0.6000952319766858  0.2009120789792614  0.9989709487322754
  0.5998487176624098  0.2012666385394450  0.2001279722281318
  0.6010984818817778  0.2009299717483537  0.3999534132270945
  0.5966595849843868  0.2007034231424734  0.6002473728769113
  0.6009523457213761  0.1996805697291711  0.7999891131346916
  0.5997614256354681  0.3997792739671008  0.0006473550796281
  0.6002486560780906  0.3996727755303485  0.1996312592432982
  0.6010105486119429  0.4005417211226418  0.3987987883797606
  0.6007273856579584  0.4004644805311264  0.5997771895069309
  0.6016518842155655  0.4009784216802596  0.7998859588188136
  0.5996356419404163  0.5987953798684789  0.0001967773204274
  0.5997022398922981  0.5979549781192049  0.3996692009205127
  0.5991983498505468  0.5986766973945342  0.5997178654736316
  0.5991921342246348  0.5994589414086360  0.8001497908549066
  0.5999386058543302  0.7988209047689107  0.0000352718690895
  0.6013906124953621  0.7985744532378161  0.1984678348621563
  0.5992685052713836  0.7994474896051672  0.6018327958096177
  0.6050130538373052  0.7991625385259569  0.8002276601934621
  0.7974163041324583  0.0008217571455799  0.0011093129820876
  0.8002810531878016  0.9996324251961162  0.1991472321128702
  0.8000511387125459  0.9998132489267849  0.3997319797273170
  0.7995458316044179  0.0011528514382285  0.5989882602210514
  0.8011523070461961  0.9954035633589526  0.8013013555647760
  0.8004921759338749  0.1984498802168292  0.9987008230332148
  0.7986239078877558  0.1990453123746430  0.2002811205198924
  0.7999609293713327  0.1997104296075327  0.4016261818156003
  0.7993610367577733  0.1997073606330033  0.6011266106963818
  0.8007484134219284  0.1994185755643784  0.7991322721439025
  0.7982614971476920  0.4003821868634199  0.9998125161656554
  0.8027870909314391  0.4001298916565174  0.2005339587803159
  0.7999016368846409  0.4003259450347988  0.4003823508239106
  0.8011889185974377  0.4000442084651703  0.6009354099179216
  0.8001882019863991  0.4007034090545088  0.8008498012679585
  0.7989092898003660  0.5996251151698783  0.9999676329595563
  0.7987050408807584  0.6013091134348736  0.2000762356989205
  0.7993133530263744  0.6008874416555199  0.4009733626308167
  0.8000212018936570  0.5990222680647473  0.5996473172646297
  0.8003326094302330  0.6040522431383719  0.7997947357838551
  0.8000418754411438  0.8000479691866942  0.2008989126037053
  0.8030174950111029  0.8001171777902474  0.4015763029557195
  0.8009295474511836  0.8000034212488348  0.6028201998052189
  0.4002299062409277  0.5989412990791543  0.5996461058058221
  0.5990950346741475  0.5992623338305709  0.1995333346422331
  0.8005790117839841  0.8001678676820120  0.0001367308322033
  0.9991925496707331  0.3999618888627712  0.2022704293638629
  0.3994669055828595  0.0008839132132693  0.1997771606863187
  0.4004361934239336  0.1997488631428769  0.5996825013216680
  0.8009206297654557  0.8002762844508101  0.7969489533989105
