Zr Ti V  W 
 1.0000000000000000
    15.3704372863088707    0.0041087699184726    0.0045828320708022
     0.0041071823098185   15.3593176205705255    0.0049868964281650
     0.0045832368054306    0.0049883200619353   15.3853693029952101
 Zr  Ti  V   W  
   1   2 107  14
Direct
  0.7917726141304559  0.4016819757507131  0.8100601685380914
  0.4085970235466561  0.7982087711294712  0.8055820301749850
  0.6133909376073822  0.4014669649777802  0.9888000730137363
  0.0003158995851288  0.9978719999631418  0.0022097941026114
  0.9932291890476209  0.0025280838173309  0.2007046135724843
  0.0013700900077187  0.9968533289027371  0.3983970163867855
  0.9943721841488186  0.0000654868319874  0.6020592604347114
  0.0023768746048851  0.9984692130546204  0.8012003568572938
  0.9997932673458882  0.1993828346238893  0.0007166489019332
  0.0015253667518179  0.2021495583034319  0.2020238399687685
  0.0006061705929861  0.2001409899849758  0.4005817431744699
  0.0026116306846693  0.2007770870358221  0.5990609261492036
  0.9992049736803544  0.2010588097924553  0.8016165572171928
  0.0039333666241044  0.3993552392968290  0.0059527564267745
  0.9987104040232169  0.4012507352115594  0.3968846195191123
  0.9975161098582241  0.4001537813598680  0.6000632485719585
  0.9994312751459385  0.4011356570081960  0.8027393058885650
  0.9984102596091911  0.6052041532073192  0.0001913216259595
  0.0026358252019920  0.5965203260069426  0.2004876907366071
  0.9998101482446454  0.6030718952661633  0.4019925536837851
  0.9993993809759247  0.5996693129842252  0.6013787568303736
  0.0025932669455233  0.6007364371889246  0.8002029522879673
  0.0033527627429735  0.7996953013224014  0.2009974642184771
  0.9989916904453139  0.7997023503209570  0.5946629005397999
  0.9992904441862810  0.7991647408319805  0.8062514494195270
  0.1994292323696619  0.0015355757172651  0.9932363788343588
  0.1984801369289732  0.9991488305117513  0.4066456024555385
  0.1981650240194346  0.0029055342625732  0.6059499590522830
  0.2001295285738540  0.2021482863444646  0.0003514077047166
  0.2003297752107298  0.2013038039739427  0.2008513042414321
  0.2024648781443783  0.1982814789435069  0.4030575884258524
  0.2007632640750611  0.1963794116535146  0.7955035762311415
  0.1962328246987755  0.4045215028714900  0.1954664479783348
  0.1994923678260948  0.4016365624618345  0.4000322187642041
  0.1977693702026406  0.3965950699184000  0.6010488297141542
  0.1977786600451761  0.4041467675473417  0.8047111050279381
  0.2003911356497220  0.5963218096291629  0.9958528009174270
  0.2010005873036278  0.5993850817291742  0.4002580252826871
  0.1996134316761329  0.5988867752809846  0.6048905559000929
  0.1961941788268960  0.8004956741199709  0.0020774907596555
  0.1963656865386140  0.8007628419385262  0.3992902100153394
  0.1993735217452983  0.8001019628890199  0.6003806994838876
  0.1981708592782782  0.7988334130139274  0.7997786275671280
  0.3657590205571065  0.0002037870486792  0.0335667677885533
  0.4043967713028772  0.9962937385258969  0.1998499563724340
  0.3995135474782178  0.0023694362542745  0.3988344631966823
  0.4010419358250012  0.9987258518294820  0.6001895746450436
  0.3970930375021038  0.0004761026523887  0.7998281435666801
  0.4007945050017773  0.2004993301221238  0.0021377656543022
  0.3979269611046956  0.1964956103352857  0.2035593926552030
  0.3963203946066047  0.2003262026820504  0.5949433701722208
  0.3997718414716165  0.2001017757088408  0.7995773517492349
  0.3957989390003530  0.3981073442347163  0.0003513553059248
  0.4025315201091670  0.4010741409508722  0.1982716601008207
  0.4001178721770922  0.3968642510475259  0.3977666436369584
  0.3992776795754288  0.3997988595701428  0.5984086816003624
  0.3965852979094822  0.3992304379164676  0.7996737768366673
  0.4013724282846695  0.5993862926626279  0.9989150142804183
  0.3983912492458361  0.6026347793544180  0.2006074688469177
  0.4003414636818370  0.5988527353093557  0.4010628313700129
  0.3985658179437215  0.5999166391197501  0.5989867148497722
  0.3957543726016952  0.5990817734190810  0.7996700133384886
  0.4015371414955231  0.8003630766871429  0.0073648036054855
  0.4013840546309096  0.8012459703064133  0.3964521040973643
  0.4002789150421703  0.8008433617332934  0.5940111214931336
  0.6013911294257643  0.0004528160685404  0.9974428325139640
  0.6029421251210726  0.0001551939132736  0.1980266984847349
  0.5995311276983347  0.0004627036426659  0.4017577637392879
  0.6020303740386858  0.0008567341935824  0.6025462271786112
  0.5973127599813998  0.9992009300895305  0.8010208021942612
  0.5989744171973301  0.1990730978524943  0.9989463065868908
  0.5984325659561931  0.2027014847922172  0.1988787000730364
  0.5947248330873730  0.2014761921613263  0.4010884197111116
  0.5979733641581894  0.2010387008882792  0.6009937155102663
  0.5966670834995226  0.2013507524804995  0.7997983594512396
  0.6024422479014243  0.4013443598055783  0.1991411771989170
  0.6012788707307400  0.4013248971444036  0.3985805184659075
  0.5998475543154627  0.4006423498212500  0.5991444682240925
  0.5898278727345508  0.4010706316566320  0.7944151910943382
  0.6002799293367383  0.6014964554210215  0.9982412420458261
  0.5984010784469879  0.5986845500051442  0.1978225870719763
  0.5994486197295877  0.5993537574985871  0.4018612876659360
  0.5985061310826152  0.6000118897221782  0.6020114008980039
  0.5956132358044043  0.6007935638887707  0.7998897009352887
  0.6013442728743777  0.7998233214747904  0.9993147196448713
  0.5964309505145546  0.7990718188625583  0.1997176104273051
  0.6035123739909649  0.7986287620995665  0.3993826076450483
  0.5997774862634485  0.7995111605247094  0.5999770025955824
  0.6029351119880745  0.7994105031849443  0.8004208402216885
  0.7991237146087596  0.0003507543403223  0.0041631599587629
  0.7983293650459710  0.9972995797041382  0.4017982057203475
  0.7996367251806253  0.9995929037706880  0.7973823937816560
  0.7998056963057633  0.1999453330674808  0.0011042426093701
  0.7977802433782365  0.1972327257273005  0.2028732907337059
  0.7984796338212999  0.1989250043974507  0.4018489205431401
  0.7992237940327767  0.1965839495125358  0.6003080914952688
  0.7994530052017661  0.1956338030429130  0.8006446018794546
  0.8082231803986236  0.4001855000759873  0.0108171586935286
  0.8042450799354270  0.4001512543733906  0.2046966032240300
  0.7998807131171071  0.4004787016165415  0.4018606289913327
  0.7993684111447764  0.3988168865371027  0.5993244676745128
  0.7997045268734611  0.6014480381619168  0.0011740062243846
  0.7978569283088286  0.6009569921377260  0.2011431366500147
  0.7984524037727234  0.6049946230593978  0.4017443101300636
  0.7987014740299737  0.6001527304551275  0.6028503579189525
  0.7993264598637918  0.6064776530667023  0.7994211600737801
  0.8036123984947919  0.8013386637037493  0.0031347129457663
  0.7976222975627777  0.8038063668192198  0.2050952894292968
  0.7999530655678575  0.8049673910438063  0.5962511847069503
  0.8006433076548086  0.8016336668407826  0.8000920502355876
  0.0005707661249013  0.4015463231954375  0.2017497374701618
  0.9983695916890348  0.8003122520702792  0.0042002777281968
  0.9981840833905707  0.7990632735472117  0.3982076647650600
  0.1999806658895074  0.9982405775723970  0.8001103890077452
  0.1993682128008293  0.2005790845152616  0.6010083524045968
  0.1996980064303081  0.4005990026152745  0.9994725355517696
  0.2021523158582088  0.6021509203439686  0.1979738898481955
  0.2005415135090262  0.6008004595239035  0.7995152912631797
  0.2030459337367192  0.7894060836735052  0.1999277786910769
  0.3986886653437917  0.1995117013690436  0.3986353691968099
  0.3980750246803778  0.8004111454545360  0.2019437720055576
  0.7984861359178873  0.0018432890497010  0.2019061808843877
  0.7985663821026625  0.0009330935886925  0.6010100635584255
  0.8035106924098580  0.8010900255204679  0.3998152233975086
