Zr Ti V  Cr W 
 1.0000000000000000
    15.3990340272275770   -0.0170018773457157   -0.0022529018582575
    -0.0170107766548915   15.3787801482628375    0.0165544931564424
    -0.0022517709109467    0.0165430754876648   15.4057927644380346
 Zr  Ti  V   Cr  W  
   3  13 106   1   1
Direct
  0.1870254538822636  0.2033355063072515  0.3750709647692705
  0.2040220045541812  0.6161532608022450  0.3824575270227824
  0.3831741202822203  0.7948773461785739  0.3889384668191930
  0.0031288013903321  0.0007357622674354  0.0100759853260715
  0.0025312135707309  0.1988233595786765  0.8014397874950784
  0.2042824755105983  0.1995144070036340  0.1769187923165008
  0.2025273269726255  0.5886142302790484  0.1828927348182496
  0.2092159429782396  0.7975949828366596  0.2110499183900795
  0.3971237938036571  0.2065841976921526  0.5990830937749735
  0.6403767661217381  0.0087349203570888  0.5926642430049212
  0.6066940516234537  0.1863198433853002  0.4169371513691228
  0.5893919128625899  0.1990412109216682  0.8106409882435859
  0.7939276856447850  0.2015611970519134  0.1938634345395171
  0.7925320891946097  0.2058412428193332  0.5917870319526463
  0.7983098557662985  0.2001275561689363  0.8031928346131423
  0.7987309981254967  0.7975527017694281  0.1933962017555768
  0.0011963732732316  0.9995539446964583  0.2087370118019555
  0.0010757982407118  0.0031301516235344  0.5981414622848670
  0.0012268818088537  0.2011624506220265  0.0051766541148228
  0.0013668052081301  0.2006480503614733  0.2008128107172608
  0.9874935097249894  0.1971050009419120  0.4015906993064127
  0.9994146164365438  0.2014402675808964  0.5980015331009333
  0.0005240905656589  0.3997038057030247  0.0022329107899649
  0.0003603286473471  0.3992416949502098  0.2032074246548897
  0.0014075421427829  0.3986868218694364  0.4019189418072960
  0.0017047177413194  0.4015743776349455  0.6005507179822221
  0.0009234967384764  0.4017974573406047  0.8003105204535693
  0.0015636655981202  0.6002392726928620  0.0021437987872734
  0.0009452999795641  0.5993942428687316  0.2011387058206332
  0.9963471043698873  0.6019863836908217  0.3994519331490737
  0.0020698919722741  0.6016152960658232  0.5980647178367342
  0.9998105761397290  0.6013975903213885  0.8014472030158682
  0.0018237248470553  0.7993135476315006  0.0032028089102225
  0.0007272884228303  0.7997653694861329  0.2017255068991358
  0.9924729445437338  0.8072584263514578  0.4011093176009212
  0.9962132883082454  0.8033147275451729  0.6020441170093160
  0.9993578403426640  0.8013706035610479  0.8009155149366234
  0.2015106105325196  0.9996377089745756  0.0013624177254157
  0.2017540435823664  0.0032549037700276  0.2023300210652905
  0.1948884724433642  0.0020428529307022  0.4018233374575276
  0.2031469798717722  0.0031622413536116  0.6011568090989897
  0.1999445908792150  0.0009550762198610  0.8002632825394472
  0.1993270647618821  0.1994311174388197  0.9883247392020547
  0.1982137806170886  0.2018831870266355  0.5964857619870260
  0.2017539400059365  0.1998178839685336  0.7962395516085347
  0.1997351760214790  0.3980996613671412  0.9997726667113813
  0.2013751381058187  0.3946320976689094  0.2010574606877345
  0.2005420864536898  0.4049701391273828  0.4016935491814986
  0.2012192593992176  0.4016219563082962  0.5994093889755591
  0.2005040013758910  0.4001323570696979  0.8007054206765324
  0.2004244652136773  0.5993290833563851  0.9934288926319370
  0.2010645579234532  0.6013707288235083  0.5992044717764580
  0.2005237149586477  0.5997240594443610  0.7980642361073983
  0.2003170345758493  0.7997233909411883  0.9986270135306924
  0.1852383853187771  0.8129778114650745  0.4087971864614422
  0.1991653072999750  0.8003238174144238  0.6028858926093161
  0.1990460041758914  0.8022345516349614  0.8010620660449943
  0.3996597770531023  0.9995725617562821  0.0029007264361873
  0.4001673248404926  0.9977332422213934  0.2020202301108245
  0.3985008828182007  0.0037732556033912  0.4008513178728484
  0.4013494952255267  0.0002835977893558  0.7989382527545102
  0.3994019117811306  0.1986673623997436  0.0021737981962839
  0.4015869543662549  0.1989878884643148  0.2017470715939691
  0.3987673851714382  0.1975984882944512  0.3999874709707602
  0.3965474272651201  0.1997770963196310  0.8049119231597914
  0.4007006260693026  0.3987871130710501  0.0021953336486069
  0.4012079918028193  0.3980030317568384  0.2016754817471911
  0.4009787504128322  0.3946435030379099  0.4010550059136722
  0.4015422474851756  0.4011742065025160  0.6012338673516641
  0.4005829214075521  0.3999492438665697  0.8012377288469869
  0.4003912051437647  0.5991786613212637  0.0008677401045003
  0.4040081973634585  0.5968477184572754  0.1998437389425504
  0.4092960414240900  0.5900700581889150  0.3999618687870261
  0.4014249827328915  0.5981830766659340  0.5991708234393658
  0.4009218302463402  0.6001456236696264  0.8011766181328744
  0.3992456242479375  0.7998241230680668  0.9972867663811226
  0.4048753860176890  0.7988858666476572  0.1903334510366722
  0.4003370878307499  0.8009980196647899  0.6007561664393298
  0.3992616330427991  0.8000887776333514  0.7989904633186411
  0.6003405534139468  0.9997107949080590  0.0025058491819419
  0.5996953706138856  0.9987830956676571  0.2012489634921594
  0.5982036979977006  0.9928223958545768  0.3961382978879184
  0.6002070798490905  0.9996578263668364  0.8043980808574606
  0.5999342504069716  0.1994599878648824  0.0075213893691603
  0.5977013137283411  0.1977205516187998  0.2029392657598132
  0.6001301481100907  0.2029043679517402  0.6104434974082088
  0.6014212844612339  0.3992991031104837  0.0016712866932218
  0.6005490913084963  0.3968501701952120  0.2034869488025473
  0.6015690770790644  0.3974615697884731  0.4023794661825151
  0.6014607942363699  0.4005310135768069  0.6028856881265766
  0.6006204562889792  0.4013500710339968  0.8024488268365192
  0.6010706310451247  0.5990536552471534  0.0014613022402142
  0.6024695011779724  0.5985081250920884  0.2003287367425742
  0.6031651572398660  0.5976716158722802  0.4000713585946974
  0.6009610273581384  0.5999702378191900  0.6007222286144513
  0.6009230847690266  0.6004149991658755  0.8011788747956036
  0.6011242010821408  0.7995235281405599  0.0002046089578196
  0.5989843720092547  0.7979617926027716  0.1996372422698472
  0.5964175056625999  0.7986291493206336  0.3997990189173381
  0.5985749434735511  0.7983650463905038  0.5992483278457337
  0.5983166797509508  0.8023332489666436  0.7994918365565465
  0.8005272243024170  0.0003492688210751  0.0024290159691878
  0.7998915287306584  0.9997988702237010  0.1993821384383379
  0.8040048615140031  0.9990069338569689  0.3938647562696739
  0.9987973957824320  0.0000334231439787  0.7970646141036827
  0.8000486952500112  0.0021318900766227  0.8027981892324501
  0.8008795096741482  0.1999910284822264  0.9983297705964698
  0.7999162478193298  0.1995349658246772  0.3957881230399768
  0.8017831927953982  0.3991215034136680  0.0009798961042953
  0.8014528649759147  0.4005404585395821  0.2005586773387641
  0.8006426897355982  0.3986779089334309  0.3997454499960416
  0.8018671835144138  0.4032995068554787  0.6000889342882827
  0.8006270600670611  0.4005279950549861  0.7997664068124005
  0.8021568707331531  0.5992498873237408  0.9997650557598607
  0.8006665337350852  0.5970941827561485  0.1989400221431170
  0.8005870766720872  0.6003611140425542  0.3990069116786777
  0.8004769168711031  0.6001941855388190  0.6002561869193936
  0.8006070145635896  0.6010105466570999  0.8009444237382746
  0.8008578644129511  0.7999863788186992  0.9954382615217917
  0.7971887476724415  0.8010030713759712  0.4026885917874308
  0.7974074706075521  0.7981844075362586  0.6011414222763813
  0.7999115461218476  0.8034190401016060  0.7984491791471435
  0.3988313134121024  0.9974729600831904  0.5988680494957404
  0.0002398671589616  0.0042579059462539  0.4036076515038444
