Zr Ti V  Cr W 
 1.0000000000000000
    15.5087483082677728    0.0011241511672532   -0.0011658627052895
     0.0010760835604324   15.5496415199413960    0.0093654870697751
    -0.0010458555872954    0.0094419591705861   15.5080119952370001
 Zr  Ti  V   Cr  W  
  16   2 101   1   4
Direct
  0.9874178532057908  0.2207242233722133  0.6263506807290710
  0.9694587792396241  0.3823384567941563  0.4224767747298310
  0.2135347522805559  0.2100511704460132  0.9723449606341559
  0.1989889593461316  0.3660216224223047  0.7655772171431582
  0.1690672454169385  0.7959841415855331  0.6060611967075943
  0.4022237983039393  0.0404783126816213  0.0016863603252098
  0.4256764658253423  0.9462668128437276  0.2123380536553012
  0.3841863592460664  0.2415962940720847  0.6217230109248399
  0.4312548072178401  0.3967443945648971  0.7870605679851163
  0.4103631509743625  0.8121771588644098  0.0155130534205927
  0.3968585391654077  0.8007572331068631  0.6020940186598503
  0.5987979171692388  0.3812790741216682  0.6089749418143956
  0.5974362325010566  0.7968642517762022  0.1886587641087412
  0.6234731215364857  0.7999274265060721  0.6000836136530999
  0.7677101438056113  0.2069769528254110  0.5858819473370797
  0.7498017190121569  0.3982921568359691  0.4312388084445751
  0.0020008260888640  0.7968859815139511  0.4160621282926193
  0.4032556597553550  0.3913783585719290  0.2017577085981139
  0.0029687111588509  0.0042593508899742  0.9976958577768039
  0.0003866656149140  0.9966612508362995  0.1986903884180723
  0.0035272977103750  0.9992915965517747  0.4014295759554935
  0.9993243355667877  0.0050949915140317  0.5998574590669189
  0.0009885124252056  0.0030284892658694  0.7988401833382535
  0.0038147422051014  0.2042232341339992  0.0051785273536875
  0.0025146506997891  0.2017400320049628  0.1952493863792883
  0.0057883613409266  0.1906698816002202  0.3887967629503692
  0.0056198837908576  0.1996469461831229  0.8198815089490443
  0.0034166198634855  0.4046838797825131  0.0021229657169233
  0.9996044936168667  0.3999825685618391  0.2083887677741603
  0.0036807615648311  0.4166517820693251  0.6179591493502063
  0.9987746843664849  0.4001607160863450  0.8084746837434862
  0.0030017951149710  0.6024867047878422  0.0033296540928858
  0.0032898318762012  0.5977453566284993  0.2041860518970203
  0.0010738825277705  0.5995219059062239  0.4038903183213471
  0.0062021948554247  0.6067975686430525  0.6036429024726992
  0.0039661498190637  0.6019153868253903  0.8062106112769741
  0.0008916139034336  0.8011913173674865  0.0013177748264843
  0.9991500338061952  0.7974978560950505  0.1999216415171404
  0.9824255907595586  0.8031739334365187  0.6111418097635112
  0.0055183023614349  0.8043927691007285  0.8056963932320109
  0.1988412361471073  0.9961923588533661  0.0026437616929567
  0.1947272364132880  0.0028713925193251  0.2007579176781151
  0.1985397999933113  0.0015639797437549  0.5865737812352283
  0.1989161412278418  0.9842209121613887  0.7858834828497043
  0.2031396148678777  0.1970151302143717  0.1862405955977775
  0.2034293054432975  0.1927276032808939  0.3875298527016504
  0.1893527767460265  0.1926728305317202  0.5843148081515936
  0.1885066544994569  0.1737943236442567  0.7749522864008006
  0.2031701343144771  0.4151920860056788  0.9980022449116670
  0.1962008420269221  0.3984889834888112  0.1919527024006301
  0.1994218894853985  0.3931423822375248  0.3826700656246881
  0.1606260524294516  0.3836479615449027  0.5673535174871652
  0.2046056225068520  0.6070273733551392  0.0076059744712331
  0.2029912909902357  0.5937128640152877  0.3955520536124493
  0.2020901218574912  0.5843116453737051  0.6021147411588252
  0.2048748479535437  0.5976486605683528  0.8078983250227556
  0.1997619899768862  0.8034934759896962  0.0028187907756685
  0.1955958999366511  0.7887257004598187  0.2004648552314333
  0.2034101247520640  0.8086447208120072  0.3979839256295777
  0.2052170516037156  0.7948066842441872  0.8085735981789225
  0.3946824673181074  0.0036141947620625  0.4073921820497598
  0.3990785031749587  0.0068209885159201  0.5990637314037386
  0.4015536320479259  0.9980002464143750  0.7955971070924485
  0.4137447801606586  0.2376744372105367  0.9962828849665964
  0.4026050436943580  0.2038255665876367  0.1895723643887560
  0.3996174310564606  0.1974814608787081  0.3855418646714859
  0.3713325278067244  0.1895079426253390  0.8167286583614328
  0.4060705230272817  0.4105506505501517  0.9946091543906911
  0.3947623757066272  0.3987106061268685  0.4063018512780148
  0.3472179490050847  0.4207162401225794  0.5942573279208437
  0.4039672284762217  0.6026279049640121  0.0029516171810260
  0.3952938478239781  0.5852123834117651  0.2095302118145066
  0.4019565645071582  0.5972430172427444  0.5993615852302672
  0.4034941243251621  0.6057569374384503  0.8024082644687590
  0.3904971364661736  0.7637040013519983  0.2094652507110911
  0.4010338173703878  0.7932236444173990  0.3963020760461811
  0.4040339398039657  0.8016695478384613  0.8078008071453413
  0.6096805092455263  0.0091676399254013  0.9930067124389582
  0.6143352480608161  0.0094166747869051  0.1951329577768343
  0.5970301406067747  0.0007376542193600  0.3936121508136039
  0.5998770114661701  0.0051758247607234  0.5962059407747085
  0.6003080205312599  0.0043605391171849  0.7963581567608206
  0.6051553068008145  0.2054974431340891  0.9925476185476486
  0.6049148258564372  0.2019884706406240  0.1944410017881095
  0.5944438292868071  0.1989296839187437  0.3933367342183222
  0.5793798310663602  0.1884138169410098  0.5968910810610440
  0.6144135173230203  0.2062636204735606  0.7909057143720613
  0.6061952899011339  0.4045851873921691  0.9975133469108781
  0.6088211189943317  0.3968918521880864  0.2014581718522027
  0.5678937118438273  0.3979794193970597  0.3987708812899785
  0.6024922637160934  0.5910212595780949  0.2012908190708155
  0.5905615912551114  0.5982763509389976  0.4015128560201119
  0.6006246419390077  0.5941244021646690  0.6002067650926109
  0.6031849541211481  0.5991664690304646  0.7982975991837225
  0.6163550346300670  0.8007402276218827  0.9899005265188588
  0.5979463676949601  0.8010121504633665  0.3981521393686395
  0.6021149683641864  0.8027197818197828  0.8022776326093715
  0.8057373731802542  0.0037111648855894  0.9969308058294329
  0.8060554028406377  0.9982483203798896  0.2000470896206970
  0.7996540132219381  0.9991029889853209  0.3972956166368317
  0.7991752147250893  0.0006748133304135  0.5948935860194852
  0.8029807505888102  0.0019087306478936  0.7964207834506642
  0.8043795651594142  0.2021852944724672  0.9954320771440412
  0.8016704794932101  0.2005515033675185  0.1949386293313105
  0.8113459326130916  0.1956382952383679  0.3895257750371683
  0.8057711558995365  0.3996404571232906  0.0050052313634857
  0.8054963350669369  0.4004669498463317  0.1992654461149754
  0.8236239772944771  0.4083152289054547  0.6162589070937583
  0.8050225023330125  0.4067299284722498  0.8096239087443430
  0.6338776463000195  0.6032598114202283  0.0039546430453556
  0.8003996079765643  0.5989735599218073  0.2074260717926912
  0.8024825913351996  0.5997145421625305  0.4020092681125737
  0.8006050103410034  0.6023514873844945  0.6000619658496887
  0.8041294376633115  0.6062642462523566  0.7996743592337667
  0.8062184316152115  0.8052555070635430  0.0011097860259086
  0.8050734283248288  0.7973700744752992  0.2006451491945594
  0.7933576124317604  0.8000818779088280  0.3993026244935576
  0.8154358919931683  0.8018154460440833  0.6005771281133400
  0.8039822946897319  0.8019602936958405  0.8017271385075405
  0.8088904866316129  0.2016792019592997  0.7987135007196342
  0.2022232338990998  0.9990549390347374  0.3925887812694521
  0.1991087311126220  0.5945968156018061  0.2032642436532877
  0.3973692111192920  0.6005329507429993  0.4060700932244947
  0.6245338972347675  0.4059615905817860  0.8078874923414424
