Zr Ti V  W 
 1.0000000000000000
    15.3704372863088707    0.0041087699184726    0.0045828320708022
     0.0041071823098185   15.3593176205705255    0.0049868964281650
     0.0045832368054306    0.0049883200619353   15.3853693029952101
 Zr  Ti  V   W  
   1   2 107  14
Direct
  0.7914682221520395  0.4016782646106749  0.8100223122309911
  0.4089990985231060  0.7977063224538562  0.8044961049808675
  0.6127093573107967  0.4007384660974393  0.9888919782699043
  0.9994414941322041  0.9974116391723429  0.0012580647195335
  0.9953433460275908  0.0027855278212121  0.2004171953368940
  0.0004984610004153  0.9966647210336432  0.3991219184155596
  0.9946411306930274  0.0000214609152083  0.6015694347264908
  0.0026410108824853  0.9984075127787126  0.8011111950876096
  0.0004804889931663  0.1990211152066876  0.0011719444519676
  0.0001459506951987  0.2024990800950839  0.2018010647984046
  0.0013983483371574  0.1997752237135449  0.4000549233781046
  0.0023929102504778  0.2006919996378551  0.5993305518479936
  0.9989915278822599  0.2009279114908046  0.8012174413125841
  0.0036023539107655  0.3993550336184139  0.0059483555333222
  0.9987408405935936  0.4012533408143946  0.3972538844969805
  0.9975991278888618  0.4000789730978550  0.5999331458224304
  0.9992849959246760  0.4009159658142226  0.8028869767057218
  0.9979529452868950  0.6050385976411038  0.9998349418654734
  0.0032259453731520  0.5966964464880929  0.2004459162413408
  0.9996512985893246  0.6029050021882907  0.4024053603859800
  0.9994052273264987  0.5996956566416008  0.6015205187444952
  0.0026132717723912  0.6007715057499962  0.8000779802331094
  0.0035742361291518  0.7990039133317856  0.2009940318844031
  0.9990313328681022  0.7996338136265270  0.5947316507159577
  0.9994186021383932  0.7991890794726806  0.8060316545877952
  0.1997269728078503  0.0015563771644135  0.9947172631362141
  0.1982104936278529  0.9992877227086389  0.4036284028764434
  0.1983049128934363  0.0024174191590625  0.6059623207877087
  0.1998462889261305  0.2024253383430669  0.9976874791752143
  0.1996813182351590  0.0976980526128326  0.1993166525753337
  0.2022309318599229  0.1985432686429473  0.4049338638579250
  0.2008666003081228  0.1954065596123994  0.7959896380211849
  0.1970459012871895  0.4068584134061951  0.1955702996531397
  0.1994335040236228  0.4011176373862242  0.3992071685303349
  0.1979102881213678  0.3966263701573734  0.6017323869773084
  0.1977833267562595  0.4047347977065555  0.8049883504793832
  0.2004250423938222  0.5966357160446526  0.9961165664323322
  0.2009204774981888  0.5995025912520366  0.4000713571193967
  0.1996239938206875  0.5988570369043029  0.6048343376130898
  0.1956248154242107  0.7993980930564362  0.0025040159270497
  0.1961854902177581  0.8002949535945256  0.3988275128548990
  0.1994463199091774  0.8002816136421256  0.5998963321116986
  0.1984624968462863  0.7989770497851038  0.8002851424749088
  0.3992291009104276  0.0005474196457621  0.0003575699721138
  0.4018734270460179  0.9966858535128092  0.1991643022600209
  0.3999630429726712  0.0024346059695690  0.3991679999547793
  0.4006816572178267  0.9983554772990648  0.5999023961914003
  0.3970271017353812  0.0004043716819451  0.8003913434883264
  0.4000013692481211  0.2002149927833711  0.0027631958826649
  0.3989950267039167  0.1973995938775970  0.2032945513474704
  0.3964404446111032  0.2003017224954090  0.5953044236436820
  0.4000686719471615  0.2003156654123865  0.7986017122371603
  0.3959933592045913  0.3983056141415362  0.0003297941049757
  0.4017847495553020  0.4008132267260600  0.1981457518963548
  0.4000685214677673  0.3968904776494836  0.3976832806548061
  0.3992505376332727  0.4001104762300762  0.5982856360690343
  0.3967507975804814  0.3992459337972499  0.7997658255218418
  0.4017521265276294  0.5994337353039619  0.9988298734188237
  0.3984180327020371  0.6034228413963721  0.2004721404149314
  0.4003947696780266  0.5986465478798572  0.4009320152409979
  0.3985718656081769  0.5999826040300290  0.5988423896022929
  0.3957893166398219  0.5992219018510145  0.7995786149736854
  0.4017742286219758  0.8009601337445988  0.0071777116049664
  0.4013420089199517  0.8015107389087325  0.3964136730186724
  0.4002798854811795  0.8007084761233576  0.5939989925834496
  0.6005806558778720  0.0003783803610939  0.9974167194593514
  0.6031891879313287  0.9998736415350459  0.1981392691774024
  0.5993867482222937  0.0000752764702776  0.4012534428367600
  0.6020063424178111  0.0007518516790536  0.6024120113640276
  0.5976798999997981  0.9990971494031295  0.8006420248145444
  0.5990881474551087  0.1991194975866149  0.9987769845497183
  0.5982585046006581  0.2022625800841177  0.1987729535678624
  0.5944746563902388  0.2013590019655968  0.4010405711579764
  0.5979267995389732  0.2008451326565689  0.6008825041810519
  0.5966797298699020  0.2011170373888709  0.7998268279411321
  0.6027814045538602  0.4014664669962061  0.1992380406635974
  0.6012213195198517  0.4013438747419855  0.3985356798963086
  0.5998740286057258  0.4006106178908987  0.5991863694347568
  0.5898216860275782  0.4011018297910752  0.7944520948592472
  0.6003545596519809  0.6014408396416077  0.9981851600743586
  0.5984305072171454  0.5987761901675075  0.1978096425927249
  0.5994726367196063  0.5993423946152576  0.4018207583661791
  0.5985194979915410  0.6000957084365444  0.6019772327930470
  0.5955984938365155  0.6009710449022705  0.7998793096161109
  0.6016910953126894  0.7995070093590616  0.9994473889442740
  0.5961618131836898  0.7992273649868454  0.1996285636282513
  0.6034598235903011  0.7983468350716788  0.3992223360284792
  0.5997131862916097  0.7995475556013466  0.5999072433044919
  0.6029379628075049  0.7995413567149835  0.8004733025153450
  0.7991731459165674  0.0003600596928379  0.0042780976499544
  0.7985364624821122  0.9973190297734755  0.4014177770732938
  0.7994384291611359  0.9994895194601380  0.7970634422558908
  0.7994154718028545  0.1998305269962553  0.0009099792103548
  0.7984793694311637  0.1968043558885036  0.2027977046368764
  0.7977753062372200  0.1989363740974712  0.4018340365050421
  0.7992875821237507  0.1965006295724461  0.6002146532095539
  0.7995025827521309  0.1954954215440768  0.8007192904172510
  0.8077973364393900  0.4000783585405893  0.0105655938958351
  0.8047374184901318  0.4003306369378245  0.2046485612015235
  0.7999343254845984  0.4002213837605305  0.4020079205748912
  0.7993444372260805  0.3988708090499138  0.5994612976088881
  0.7995265735915239  0.6015511591537187  0.0012095316763512
  0.7981156513077394  0.6009410291255457  0.2011550462297906
  0.7984274464078589  0.6049525666206224  0.4016740165083950
  0.7986125110577416  0.6001803057814264  0.6029095432465013
  0.7992199377787251  0.6065205601092585  0.7994273885670748
  0.8033871295255720  0.8014729031014490  0.0031278817450612
  0.7984178377627067  0.8039957562559181  0.2050303526509788
  0.7999001963935373  0.8049725390054528  0.5962134802018053
  0.8007605593167162  0.8017240445218518  0.8001285585637358
  0.0018148824529256  0.4011118503972594  0.2020801010677118
  0.9981833818569605  0.8002507704000646  0.0041097990928848
  0.9981107352740667  0.7990565065219153  0.3982224444388573
  0.1999361414201734  0.9975832380140169  0.7998769581269346
  0.1991865893770946  0.2001723145293512  0.6011012770380318
  0.1997442505209033  0.4000513298823634  0.0001096601921554
  0.2024846419202360  0.6026310545435746  0.1979115180969259
  0.2006170715252696  0.6010566663839083  0.7997431952858685
  0.2025776198324429  0.7921873251801946  0.1997678922762623
  0.3982264958484312  0.1994025524464769  0.3981842418125810
  0.3978072347338913  0.8002753884332547  0.2017861534844909
  0.7984119751236103  0.0015341104346201  0.2016788793666340
  0.7986639390584606  0.0008700118319604  0.6008513268934923
  0.8033583445333623  0.8010175761214434  0.3998118157924972
