Zr Ti V  Cr W 
 1.0000000000000000
    15.4149939690695010   -0.0041197707411214    0.0051244012526811
    -0.0041210926464625   15.4234402589122102   -0.0060663359120509
     0.0051270839828618   -0.0060686626181498   15.4040961855710652
 Zr  Ti  V   Cr  W  
   3  13 106   1   1
Direct
  0.9894586995770255  0.7843774342140660  0.7979778863322662
  0.2063437369886428  0.4393027641633736  0.7985126605353676
  0.8130566144160517  0.6059143472098398  0.7937455933716888
  0.9976420325916451  0.3998984852431548  0.4096906578501491
  0.9949172781041186  0.6002632685955605  0.4049958507728633
  0.9888395981540536  0.6101641842710025  0.6233809616123128
  0.9963168950455976  0.8045845051876145  0.4017967068983372
  0.1997290030195940  0.9878845980821900  0.7980742601168923
  0.1967303594702913  0.2032753881666997  0.7977489631846574
  0.2060356507839204  0.6025952447335522  0.4103767681888546
  0.3926515447520266  0.8007343349754269  0.1986013046988384
  0.3985693111278610  0.8072841968548696  0.8026482036992658
  0.6010056442493069  0.7990263055870900  0.9895372137266641
  0.6051144202996772  0.7986684981327145  0.2004013769833658
  0.5990850614811083  0.7926220910220640  0.5995706347852562
  0.7984393755760918  0.9934717610341883  0.9972324338291412
  0.0022784924864858  0.9971991827917281  0.9982033407074676
  0.9989590057215346  0.9992431975658959  0.1994218611321954
  0.9987709479547972  0.0026281676258699  0.3994934762667150
  0.0002741317579598  0.9997590124394491  0.6011491523271443
  0.9963810584172518  0.9971238224948995  0.7998880146687967
  0.0002571108032012  0.1969441457493646  0.0001251379485772
  0.9993082514605353  0.1986845891918983  0.2002700880554184
  0.9992776002802446  0.1976717472402529  0.4008113176995527
  0.9999447709720405  0.1992637413613846  0.6009331727888778
  0.9986382406435285  0.1951661144707157  0.8007496923943104
  0.0013097783000853  0.3962318792002703  0.0021485872417735
  0.9999557447537646  0.3991886284650424  0.2004263395169680
  0.0018043854073824  0.3981008402732876  0.6059028091702570
  0.0024553685895363  0.3915654154048341  0.8033049149969911
  0.0022101066201126  0.5981625669016627  0.0067553988142871
  0.0011706017603459  0.5993191564761718  0.2031930573534526
  0.0203653349212699  0.5820330974089899  0.8169841204995212
  0.0009288832427313  0.7980354445335803  0.0041862098013560
  0.9986280817993263  0.7994677875285604  0.1995856437866451
  0.0005670468096179  0.8043458296433856  0.5931597791289100
  0.2005450922062655  0.9983927050239849  0.0020868006532346
  0.1990913206908320  0.9987985748829056  0.2006414567166162
  0.1999199969521419  0.9992221317099774  0.3998467933925193
  0.1994851263869740  0.9993028496206053  0.5973453832236846
  0.2009600566496506  0.1987771558568056  0.0025712929259447
  0.1984972424176327  0.2006337282484676  0.2016437730794983
  0.2000003909113574  0.2000461987526197  0.3993360338350563
  0.1992820508346628  0.1992598339437101  0.5979520835548355
  0.2033769439065419  0.4003161073642932  0.0070225398911641
  0.1978749405767456  0.4013060838414174  0.2038560896322944
  0.2026573676664573  0.4008222380009513  0.4007122749177650
  0.1996499915447159  0.4027206613064722  0.5950950090256477
  0.2033297731199207  0.6004481966271780  0.0005355183326541
  0.2012563406941089  0.6004052529973167  0.2017018343597831
  0.2026331156472694  0.6019628745657503  0.6057611473204028
  0.2085152685889426  0.6280870539879732  0.8020013585671123
  0.1980603251880540  0.7991185444535702  0.9998185129990463
  0.1943961004096108  0.7986646643871177  0.2026030680175458
  0.1992692512403808  0.8008009017373507  0.4026243180796725
  0.1986536571606931  0.8016433654437368  0.7980092236403703
  0.3994058754052744  0.0005745780027365  0.9990740662069234
  0.3991351154420070  0.0007711402631675  0.1993064069396850
  0.4002292191028268  0.0007826876749326  0.3990784063637006
  0.3990746076096565  0.0003112813663597  0.6005211375958692
  0.4024919428543201  0.0047887969492310  0.7996976178262962
  0.3996456964615960  0.2007165072144499  0.9995618840148313
  0.3999751444701732  0.2008550280408593  0.4003002913814573
  0.3986396698465758  0.2011094199418222  0.6004180853579437
  0.4013401503833509  0.2010279459601802  0.7997842563986225
  0.4010725839950560  0.3986624070041355  0.9978458410442871
  0.3995245141823539  0.2664284164390406  0.1996524075266131
  0.4001911138652637  0.3998001720647310  0.4014588682413729
  0.3987491046362795  0.3999093381688803  0.6016788133012673
  0.4071132196015681  0.4003258336733431  0.8003085412132300
  0.4029209353233748  0.6002589301503473  0.0015669197783163
  0.4001309881511708  0.5981441033607879  0.2005606637765594
  0.4027280361546704  0.6007621418326771  0.4007206248778275
  0.4038207206820632  0.6031976959420337  0.6020263566312837
  0.4022871619435484  0.6000057806903434  0.8016182153843527
  0.3972518212790840  0.8004571313621645  0.0017971764540523
  0.3990519371417520  0.8022687179841975  0.4011868650294602
  0.3952612909900484  0.8010089369459441  0.5981202707363740
  0.5971181645585349  0.0011542890279118  0.9982453858857236
  0.5993280527052247  0.0015259482561976  0.1976677258996994
  0.5982021850542421  0.0002436451382189  0.3996660387737950
  0.5994049870436995  0.0002816316474857  0.5985327637149983
  0.5996003902732988  0.0016435006813304  0.7977786244079019
  0.6000548622158988  0.2003706050681517  0.9989562623275441
  0.6005890713411313  0.2012373226897413  0.1987876775627102
  0.5990953360779251  0.2002489479206348  0.3988696032226248
  0.6004302247537097  0.2017642955063138  0.5994904569426821
  0.6012639297723261  0.2011123367341714  0.7989085498182070
  0.6007100768155592  0.4013139260508802  0.9994861349879279
  0.6026212706121568  0.3999672134959875  0.1989566809906293
  0.5986518445295014  0.3999687398534916  0.3983681405137882
  0.6008022184481492  0.4031749798490115  0.5997250749232255
  0.6052750176900429  0.4014504394300680  0.7992621391555803
  0.6017282492658258  0.5990757739206346  0.9968612056620967
  0.5990904180232279  0.5976771025500783  0.2001321974824099
  0.5980208094854568  0.6012122167025755  0.4039682667537390
  0.5998511788961430  0.6018328925529852  0.7950669056795722
  0.5987750547474983  0.8005662389579961  0.3977857583313612
  0.5984751127145548  0.8006894275005341  0.7960313585075189
  0.7997736282048076  0.9981705110726176  0.1999185561312021
  0.7978689058146261  0.9987365149597424  0.3990006206400472
  0.7990861659851499  0.9990369943439800  0.5972492782344544
  0.7985474051241117  0.0016673651773120  0.7949380507442978
  0.8004971764335072  0.2003792422520598  0.9991182450210299
  0.8006163514914615  0.1992367099000225  0.1992790220454090
  0.7988599240953419  0.1994630220001137  0.3993027723510342
  0.8007887319830423  0.2001213338689087  0.5982471626109416
  0.7994746518566825  0.1990426932734372  0.7983789312579562
  0.8017953166759177  0.4006678906489897  0.9981753830464353
  0.8014634231840900  0.4010973261994686  0.2003387886911923
  0.7978647463419150  0.4001116499072706  0.3994738290310637
  0.8027548522618816  0.4018440037299748  0.5980770348206843
  0.8033491687284694  0.3975159948518555  0.7989132538714553
  0.8014977407300603  0.5992213583602563  0.0023337157526847
  0.7995647022683267  0.6009397286702070  0.1995562345083541
  0.7962704388367571  0.6015516384116724  0.3972590255577584
  0.7912358161302461  0.6014918479687686  0.5911423118786838
  0.8044399270622230  0.7957895952761442  0.9949868046058001
  0.8022968663864379  0.7991101168811755  0.1981275335258328
  0.7965807870194405  0.8010703934004567  0.3981210001832028
  0.8033545662795923  0.7993683998887181  0.5965902917421853
  0.7881581820848998  0.8111365349634022  0.7970280840125055
  0.1977793474907628  0.8009739026957848  0.5993584529164152
  0.5997307928071718  0.5955564738923264  0.6006188089222787
