Zr Ti V  Cr
 1.0000000000000000
    15.3990340272275770   -0.0170018773457157   -0.0022529018582575
    -0.0170107766548915   15.3787801482628375    0.0165544931564424
    -0.0022517709109467    0.0165430754876648   15.4057927644380346
 Zr  Ti  V   Cr 
   3  13 107   1
Direct
  0.1957484646267413  0.2016351970948601  0.3807563440382458
  0.2039608421869619  0.6195851317448893  0.3847158965994341
  0.3841010787151130  0.7949167258497695  0.3902582003650650
  0.0015330725256082  0.0051665294267960  0.9973830272119436
  0.0006890644854713  0.1960236792074319  0.8071828678956690
  0.1942121951016733  0.1993527121862379  0.1788714758010068
  0.2020816584678189  0.5907657772628007  0.1836599076260243
  0.2097872539284257  0.7999566954791573  0.2130533695847631
  0.3935948980314418  0.2043065489359209  0.6019383519723972
  0.6094675754592513  0.0122812177198983  0.5935360636617610
  0.6075636723955832  0.1925590774647443  0.4097738482041258
  0.5898688074297518  0.2023467854469156  0.8110884886297161
  0.8029095753838114  0.1967753545743138  0.1961421736607623
  0.7847831930404209  0.1953730761862684  0.5928388354173743
  0.7978892032336630  0.1990372169137611  0.8017684522035466
  0.7993228205555526  0.8023819930823027  0.1980077196528712
  0.0035280216024520  0.9980862589515923  0.2058597896940964
  0.0016005154398177  0.0013011742752395  0.6014835838818747
  0.0017227017066267  0.9974730616816398  0.7980756405451090
  0.0001253480829597  0.2026982420287507  0.0052709682400717
  0.0008725332711614  0.1654165166201316  0.2354662327428753
  0.9942491304912978  0.2040893668728502  0.4010494164043875
  0.9990846871898978  0.1989327681976586  0.5964769407049171
  0.0002037113368962  0.3999407677792674  0.0015620055407760
  0.9999247944583077  0.3992751438520106  0.2016032398345962
  0.0007957540480968  0.4008226528499778  0.4009818662177230
  0.9988811962597519  0.3991734150207504  0.6014178261467691
  0.0007845087038656  0.4006158019676111  0.8007375396685662
  0.0008706954514734  0.5999417163870238  0.0011947230843389
  0.9999364521865854  0.5988925348996798  0.1992642008226831
  0.9956742837650476  0.5992554583395976  0.3993649035385480
  0.0010713063989088  0.5998326978981156  0.5990562430983793
  0.9998612046874825  0.5996745319166130  0.8012391957097362
  0.0021345386628494  0.7990365915829761  0.0027402560151963
  0.0018358575995007  0.8004581427098800  0.2016716136768607
  0.9932369305561648  0.7958013528021929  0.4001228087466738
  0.9995315214393428  0.8013463136544778  0.5997436673980205
  0.0001044191154786  0.7987883568390642  0.8007374435283231
  0.2031157908300573  0.9999663255559327  0.0003693911263176
  0.2009379898866182  0.0028285655196623  0.2016914612271806
  0.2015842336646235  0.0021052232388750  0.4020622772753667
  0.2007065026202364  0.0036939384622697  0.6003518046494724
  0.2023083301979277  0.0006664957273533  0.7992581877527167
  0.1985461884150681  0.1997025678992395  0.9901780316635838
  0.1961402988050808  0.2011214150121034  0.5990255394116278
  0.2015004567008729  0.1996445726053765  0.7973175834680339
  0.2001124809853293  0.3984130781068776  0.9993501965615863
  0.2006117238422741  0.3960358518814968  0.2006660171211310
  0.2000205283973828  0.4069284509228953  0.4010375788124788
  0.1995529700166893  0.4012337571607433  0.5991009738224529
  0.2000062009689156  0.3995352184322877  0.7999665745997293
  0.2004302327451288  0.5996472532015329  0.9933859678281836
  0.2000944436283104  0.6016854718854437  0.6001793550149708
  0.2009238712030950  0.5997398057336395  0.7982039685905811
  0.2008005824926060  0.8000734740279694  0.9996151807474574
  0.1824974882379895  0.8196820165876512  0.4094430994978661
  0.1996186836371460  0.8018813527380857  0.6033151916791869
  0.2002279300367162  0.8022304662329918  0.8014686917210648
  0.4014950126667072  0.9997808025711035  0.0023424622050433
  0.4009655781637430  0.9978427180352814  0.2013542515540346
  0.3994724991512975  0.0046446970393829  0.4011165195176511
  0.4021537480649524  0.0002936294940499  0.7988540605547167
  0.3987139544937029  0.1985641903138534  0.0026072756094464
  0.4008810193478341  0.1982143811001423  0.2018951778395098
  0.4017867333143102  0.1994807945764079  0.4000548861115777
  0.3961535331432104  0.1993735009319036  0.8056333670030232
  0.4004076193142203  0.3985413325670281  0.0019909037910029
  0.4007814760257077  0.3973619983283708  0.2017657726106665
  0.4003728589203917  0.3951223898862429  0.4013762314205934
  0.3995361992874488  0.4016282923795588  0.6012210917655137
  0.4004435577707968  0.3992703399090625  0.8005446090153614
  0.4003752342684778  0.5990326542251989  0.0008209494026437
  0.4036103901035969  0.5968489145825377  0.1997943399230729
  0.4088514617995734  0.5903372069552936  0.4000921384472889
  0.4005577004633059  0.5988044530587574  0.5994629841434685
  0.4009926027848812  0.5998523626354129  0.8012543943634570
  0.3997356424943096  0.7997698528124861  0.9975995506012223
  0.4055283139739900  0.7995469092088049  0.1911183687612899
  0.4001776639663786  0.8006460627377828  0.6019741376709365
  0.4006398895756968  0.7999662356344864  0.7997499187889987
  0.6014033638179065  0.0003003003750288  0.0007022786103038
  0.6028607585020755  0.9997867536463085  0.2032568227527825
  0.5946917476552862  0.9949940735508881  0.3986434100403967
  0.6007559682129681  0.0001880645717887  0.8014582924574654
  0.6001975574866537  0.1996737606875038  0.0069250056486375
  0.5975512743922271  0.1981751159428238  0.2012998476081057
  0.5923862456003884  0.2052963201164368  0.6076292287084973
  0.6011641316841433  0.3994433051499813  0.0013071559881287
  0.6006807316386004  0.3973304174404889  0.2026373502516206
  0.6013669250466042  0.3992108878964564  0.4019878996696782
  0.5996614357194667  0.4017998041427692  0.6021418298276391
  0.6004053500309156  0.4020825725507466  0.8018736189665340
  0.6010512730904182  0.5996558483958092  0.0012342363255896
  0.6021621384888971  0.5993027574328328  0.2002141307226449
  0.6022472118441607  0.5988427748886638  0.4001384420261018
  0.6002893529831592  0.6021335884537901  0.6005580865688114
  0.6005903903006744  0.6004599263290022  0.8007741356480803
  0.6012253308051243  0.8002668749943227  0.0006493081441821
  0.5990307551905596  0.7988075760243787  0.1997435962430519
  0.5993401131159164  0.8004127506111450  0.3996646388488486
  0.5988472417885961  0.8010942890762084  0.5995740690929079
  0.6000408942575963  0.8018036538705098  0.8004938182178820
  0.7997603520762413  0.0000097618950472  0.0008623985556650
  0.8027903688571510  0.9998716080689938  0.2006302624719654
  0.8276437818769438  0.9984260098631902  0.3983428967197658
  0.8061339841622646  0.9969231590126382  0.5985376773798811
  0.8007939743936152  0.9981909821255662  0.7986284153972343
  0.8009029881742811  0.1995249510646909  0.9980313131993315
  0.8028896282358917  0.1977004179028953  0.3962258479050824
  0.8006438490077862  0.3984670294966478  0.0004304043541057
  0.8012520086180084  0.3989675396900709  0.2003129013598242
  0.7997042891609288  0.3982609438628510  0.4000569164339023
  0.7997541274078437  0.4006290538152121  0.5998477995430719
  0.8003644085155339  0.3998996237526252  0.7988477904627461
  0.8012670341320299  0.5988795266756474  0.9995818221211036
  0.8003590192924674  0.5969326089066038  0.1991790143360372
  0.7989815080426089  0.6001450181906957  0.3991326901205908
  0.7999428206075838  0.5992203250633460  0.6000070736917996
  0.8003049555176032  0.6001198047165419  0.8002763866358594
  0.8014075243993313  0.7999556486663734  0.9970434467858436
  0.7974035724882088  0.8013358769585649  0.4022178037727526
  0.7987964930523102  0.7994434143207635  0.6010016876558397
  0.8004947711376800  0.8001427752187178  0.7999028616224372
  0.3986052807927001  0.9979503547495403  0.5993955649796345
