Zr Ti V  Cr
 1.0000000000000000
    15.3990340272275770   -0.0170018773457157   -0.0022529018582575
    -0.0170107766548915   15.3787801482628375    0.0165544931564424
    -0.0022517709109467    0.0165430754876648   15.4057927644380346
 Zr  Ti  V   Cr 
   3  13 107   1
Direct
  0.1917671939472864  0.2016291469243462  0.3729369360512771
  0.2021916460629546  0.6180435755512229  0.3840296075780447
  0.3818587800342026  0.7953540016055055  0.3901652058749396
  0.0017463059277985  0.0064565814065769  0.9963805133974722
  0.0003257102317249  0.1946409037330513  0.8083946635746968
  0.2032188245211419  0.1995868021851776  0.1754447645829573
  0.2035695956740595  0.5911003327252209  0.1836392398813755
  0.2076792243447118  0.8016131199367202  0.2138438182857461
  0.3910076798374391  0.2037871404731688  0.6035944774722086
  0.6095628852601217  0.0146494881670840  0.5930418876862708
  0.6042946256118407  0.1922519425831550  0.4129178873332913
  0.5897259252258225  0.2031975664362267  0.8127361372089192
  0.7956278605051870  0.1966014240115649  0.1968344383690376
  0.7847426881343812  0.1950556228713480  0.5936374992134584
  0.7973191668643740  0.1989653367113393  0.8028873039549941
  0.8036411070566550  0.8026454074708645  0.2006167922987186
  0.0033981558665910  0.9981813260503569  0.2049394339157091
  0.0017338247611549  0.0006441462574647  0.5997152768500015
  0.0017539986173939  0.9975619953448199  0.7977383909032248
  0.0007664172397566  0.2029622480243371  0.0066240883708937
  0.0022269477781765  0.1983860257436245  0.2022866136227851
  0.9916820415365243  0.2025297106322024  0.4015476210367963
  0.9979512639133123  0.1991604173534784  0.5981418628327840
  0.0005524328844211  0.3998477318371154  0.0020154126409807
  0.0002073304374225  0.3982400269232071  0.2017890877304055
  0.0006582235814281  0.3992603974294388  0.4013346058583162
  0.9990501135840051  0.3985762678604945  0.6019032358460871
  0.0009526000216464  0.4004196235258797  0.8009195491528804
  0.0012758227157768  0.5996185026205304  0.0010328242312367
  0.0005237137851462  0.5993355616778840  0.1998122377316204
  0.9955819355003419  0.5960456201238887  0.3988521930921146
  0.0011152485521465  0.6004162239800325  0.5977350437454008
  0.0002644322413811  0.5994817320833973  0.8011096767970635
  0.0026574421661830  0.7989886347271222  0.0024911036266804
  0.0037809240826618  0.8003498309706922  0.2006894582506002
  0.9979961130017714  0.9006936944056742  0.3997340686214416
  0.0003222025136518  0.8010574180064194  0.6005662889424680
  0.0005312298340030  0.7989124732433489  0.8003188901663004
  0.2031621799979752  0.0001920074244814  0.9998371189524932
  0.2025691669686630  0.0040409804853854  0.2011636704706716
  0.2013000391075861  0.0023659035921775  0.4017611657394727
  0.2020790966431723  0.0038893687484699  0.6002609439038672
  0.2022206517817363  0.0007269616026936  0.7988324882396970
  0.1993123934166564  0.1999189561954421  0.9878529998035797
  0.1951883034629914  0.2011299386303409  0.5962291898561619
  0.2014428958275093  0.1996365785189448  0.7958422610414889
  0.2001669207948091  0.3982824051660902  0.9993932621360312
  0.2013435209888196  0.3958618476542106  0.2007997014058734
  0.2001270706878660  0.4052360479360919  0.4017463996978139
  0.1997746141639362  0.4012427098305755  0.5992370237028010
  0.2002602612600667  0.3994710583099791  0.8001819669523274
  0.2007798615928784  0.5994997650727825  0.9935983344715185
  0.2007648323550985  0.6012874250074073  0.5999982204167301
  0.2011155711461753  0.5996412570190643  0.7982009446225209
  0.2010747419730720  0.8003092679816783  0.9995875253739742
  0.1781987440887962  0.8178598064897672  0.4089351665420305
  0.1995668422564792  0.8016978353481919  0.6032501540236203
  0.2006268026747454  0.8023723451423687  0.8015689904219605
  0.4016177785033010  0.9998970662169165  0.0020280101106917
  0.4022824255827430  0.9981694637672753  0.2011729393569066
  0.3997369689980406  0.0043716937117256  0.4009574444983344
  0.4026532202388545  0.0004460685392145  0.7986235937951431
  0.3993212294982430  0.1986123707760495  0.0022036659541112
  0.4009167449149629  0.1987273719795622  0.2019235735691659
  0.3994893235264657  0.1992697243170025  0.4006252101326130
  0.3959254656773611  0.1993942350850944  0.8056496062439518
  0.4006090073377004  0.3986976504670763  0.0022161364781745
  0.4016860209349715  0.3978626615980736  0.2021095246315617
  0.4004087941637967  0.3951034612750564  0.4018418728266901
  0.3997053650262205  0.4013449987504252  0.6014546341144956
  0.4007399894407571  0.3992621998650809  0.8006972707830198
  0.4008076093798560  0.5990274162588746  0.0007221234292303
  0.4041765150221757  0.5970923735681651  0.1997604043792184
  0.4085923273298139  0.5906568546906136  0.4001135780977622
  0.4008802516723823  0.5988771921651559  0.5994739068236291
  0.4013919027819828  0.5999771706804287  0.8012384362711730
  0.3999038398841947  0.7999029198409823  0.9977166135107981
  0.4051249029592880  0.7997621836959827  0.1914039239507254
  0.4001094343389655  0.8007524964155864  0.6017478560540468
  0.4009378046369343  0.8001419794788838  0.7997301014076754
  0.6017683637822607  0.0004202647018050  0.0004956233499770
  0.6024649063703482  0.9999737820843779  0.2024411422287652
  0.5963215470375143  0.9950205571774476  0.3985882792154053
  0.6009636188848734  0.0007847590769992  0.8014793439354093
  0.5999815471812087  0.1997986549536708  0.0076930171893963
  0.5976071210502897  0.1983275000429376  0.2021457560069138
  0.5917396829963077  0.2063514048458572  0.6093475186063362
  0.6015551955051909  0.3994324239848604  0.0016228578397123
  0.6006721494278422  0.3974536265324592  0.2029549685264455
  0.6013070891472599  0.3990995037402912  0.4023640492478107
  0.5997323456701353  0.4021209794143565  0.6025850144327874
  0.6006436615728018  0.4023441442227377  0.8024092248874490
  0.6014760616234167  0.5997791532488451  0.0013022951044981
  0.6027943166334749  0.5995519424723040  0.2001624679078979
  0.6023483681465969  0.5986240749061128  0.4002210073884369
  0.6006600441650088  0.6022850538337066  0.6008594895037107
  0.6008919760564425  0.6006200454975897  0.8011330022922961
  0.6017510812033472  0.8003653230592863  0.0010623268594852
  0.5995093932658069  0.7991311086780390  0.2002038803794579
  0.5985868509055582  0.7999170453242856  0.4000488606148664
  0.5989408267610820  0.8015881277459738  0.5997151688480534
  0.6004621851108010  0.8021454454112446  0.8004184007558124
  0.8001593782731755  0.0001231719636152  0.0004819320621753
  0.8023835131649992  0.9998697209505168  0.2000044402785564
  0.8202778988148287  0.9956757275208321  0.3972448450853801
  0.8059053920518259  0.9964037934077652  0.5986473700905685
  0.8007729450566963  0.9981328485025703  0.7984412325874592
  0.8008894715506882  0.1995289977244151  0.9986577936439790
  0.8003166718802990  0.1973195195403792  0.3965303280861036
  0.8012657537566648  0.3983134893349416  0.0005645386790405
  0.8011703801687740  0.3989186106229137  0.2006214089927221
  0.7996226915990871  0.3975784686804377  0.4003443355633832
  0.7996437069613787  0.4006665972998494  0.6001112349342662
  0.8005917278934919  0.3997592263525824  0.7991129081563216
  0.8016610325683150  0.5988162120358856  0.9998674532967358
  0.8007524812379214  0.5967066378776967  0.1990448842621655
  0.7999374490302102  0.6003755682772549  0.3992707436926381
  0.8000319257168905  0.5991220557651554  0.6002714536586602
  0.8007866781653484  0.6001483895107520  0.8003555626603157
  0.8020577223066442  0.8001398173134178  0.9975546049619857
  0.7973474241675012  0.7998430894826393  0.4024323744146945
  0.8004933099494133  0.7992163667618045  0.6005039437811819
  0.8006029915241866  0.8002472303065027  0.8002098756051330
  0.3991993026695050  0.9982517601018599  0.5991070254947262
