Zr Ti V  Cr W 
 1.0000000000000000
    15.4708467865148371   -0.0457987880927962   -0.0198442725602326
    -0.0454938160247508   15.3995902028152862   -0.0270542228467451
    -0.0197944236660485   -0.0273036633962630   15.3709555907435735
 Zr  Ti  V   Cr  W  
  16   2 101   1   4
Direct
  0.9895016270567040  0.2161723132239045  0.1953832166272447
  0.0282105019968046  0.5895820975636074  0.3814073181357248
  0.2013509883052725  0.2288567022658420  0.9945201434026563
  0.2230254991079171  0.6220807675469705  0.0012657227111899
  0.1936137872799499  0.7817190982434364  0.2282489695850504
  0.2012784489250215  0.7941580797347362  0.6328624743505294
  0.3616590161777227  0.4387681407703384  0.9996702730731860
  0.4123569958585881  0.4074379155612408  0.7770679945094121
  0.5973347925888005  0.9962092824538326  0.3861682833899721
  0.6558597463514309  0.6196716856184428  0.2257989886892706
  0.5775695830772866  0.5810907916399729  0.6633310971940494
  0.5765951354433481  0.5681658351316260  0.8955350133151313
  0.5935328164949286  0.7585177845388663  0.0384504995317854
  0.6013742377753686  0.7840971170677360  0.7992253727263852
  0.8232226685167682  0.4535865570039551  0.1993396773856523
  0.7839338955628128  0.6091680110143091  0.0242042656770002
  0.0072280582667286  0.2040468673480684  0.7999773437597678
  0.7911770607337741  0.8089116870256321  0.1648764223174697
  0.9960354600234254  0.0047438971241313  0.9939752757010880
  0.9935815249277270  0.0000547750108340  0.1917653456175362
  0.0008218405830305  0.9990337778254844  0.3884149374923196
  0.9985539062946249  0.9979003978251941  0.5925316201273271
  0.9996179171563426  0.9978209948445078  0.7948128513001792
  0.9917566624720504  0.2033106311216986  0.9918239799663097
  0.0008862250508686  0.1979660488876439  0.3991337089946750
  0.9980917413518027  0.1962943638819750  0.5931448374617863
  0.9867213078249454  0.4077328567484975  0.0031339891110538
  0.0170030891514381  0.4174141797545257  0.2016096959392074
  0.9995600442950801  0.3972913332764036  0.5877039566269848
  0.9995814492923676  0.4019268905205358  0.7892074324234912
  0.9908885138161569  0.6065973385409468  0.9898819422247415
  0.0259602768040559  0.6091015753073330  0.1777955739684637
  0.0041823893173320  0.5975325746597230  0.5887383358570030
  0.9994600952361344  0.5974060084903483  0.7958887907981583
  0.9929981249807173  0.8017092019803347  0.9920737680057575
  0.9945708063910098  0.8036182444812661  0.1887308885329842
  0.0007758782322470  0.7997066335803713  0.3890455163107426
  0.9951055815078480  0.7960555958417607  0.5894926786532928
  0.0064522040709403  0.7986828217636278  0.7914999303287619
  0.1953721964078376  0.0128435254627624  0.9990614309442747
  0.1968339150134449  0.9912710027920365  0.3956387737400007
  0.1992403506669495  0.9988947988856949  0.5960888221285620
  0.1983424812244976  0.9990040707446178  0.7974497319593862
  0.2019078594325300  0.1279759187277111  0.1943634866162273
  0.2016964433392270  0.1938406362023102  0.3947496851870450
  0.2027405358152031  0.1963274218901757  0.5941875005874339
  0.2068998531347620  0.1990533994541016  0.7893992492123694
  0.1750404181677555  0.4231263190312013  0.9936069199336919
  0.2065185443366440  0.3947528779651616  0.1884937897643175
  0.1970298238724828  0.3956259248102053  0.3963911384850855
  0.2003128706657391  0.3926259995917716  0.5976159592061274
  0.1967100151059112  0.3994135879844727  0.7967991471543565
  0.2126446270148948  0.5906876875704141  0.2070757066031321
  0.2224771289491789  0.5925672494322837  0.4029355035026393
  0.1990546809545080  0.5906279396338436  0.5995802757980196
  0.1935668924846759  0.6019156484286043  0.7945683111042107
  0.1899901132734405  0.8188162417882393  0.0152167815974385
  0.1945687167042895  0.7900579218196417  0.4226361890539371
  0.1953304085492397  0.7988013547360577  0.8237020779120421
  0.3971939936540077  0.9990990589266974  0.9964857926921217
  0.4014499440600275  0.0006427662292254  0.1946871353853535
  0.3907419789659903  0.9935083784538128  0.3940247109858049
  0.4000082813132850  0.9943454891187591  0.5945560382081748
  0.3984348000142141  0.9947507383383428  0.7966621041580119
  0.4032217830788774  0.1983158689907105  0.9928127566298682
  0.4004093293683177  0.2011805358404989  0.1924345180192661
  0.3986002061823543  0.1975382437633046  0.3920292535937762
  0.4060813903766651  0.1970659785689418  0.5924324099541514
  0.4000324987566809  0.1971938045964582  0.7933877215197529
  0.4033002596081031  0.4008155010231517  0.2011304984175622
  0.4008442762488252  0.4048333910212530  0.3914083663804813
  0.3975736642369935  0.3952391708338059  0.5839648466955932
  0.4220800930685288  0.6321659210580725  0.0151195759814834
  0.4010197436351216  0.6075884229511985  0.2111032629656167
  0.3912446787131706  0.5975662971463988  0.6053475524416340
  0.3837757110692713  0.6039837618273817  0.8187947404131554
  0.3862019110876975  0.8047003520777546  0.0067047416104941
  0.4003500995346710  0.8030040676589941  0.2036013922727032
  0.3945385027893365  0.7902885627966038  0.4002945125851843
  0.4051449441503601  0.7969750388324889  0.6011770697076847
  0.3919947900870905  0.8006443557919434  0.8026121999480544
  0.5967825321674590  0.9993606250832373  0.9903992206667839
  0.6007950813164032  0.0024861079030982  0.1838870604745336
  0.5991935317971686  0.9973835747399630  0.5964286162531320
  0.5977554726979907  0.9929168311963539  0.7958663730204001
  0.5949528140218198  0.1989955251267123  0.9911440203989391
  0.5963937917665869  0.1993793326298295  0.1939750652397726
  0.5982870279900193  0.2018676152358620  0.3975198023343901
  0.5996824525884012  0.1927777127970297  0.7892489335009681
  0.6177433430178147  0.3915018799104608  0.0022954128316821
  0.5972244482086891  0.3914673090365830  0.1994541527932845
  0.6047237155382983  0.3987277488123592  0.3986760842918814
  0.6022847125389375  0.3856407511228977  0.5991700968164556
  0.6097165072815245  0.3841481650418306  0.8032952993333893
  0.5221614228060786  0.5222801076726170  0.1007859956345736
  0.5987937576636048  0.5944739220390229  0.4323138919361422
  0.5941983149270333  0.8189921663256358  0.2279590006915931
  0.6006614889855610  0.7911647711200712  0.3971221808395613
  0.7938673415165761  0.9998375031366171  0.9918963747571390
  0.7983014771320082  0.0072187334980662  0.1892179230578121
  0.8041832476548320  0.9976442279155970  0.3897568669693665
  0.7981528772177978  0.9916291391816726  0.5917697049430626
  0.8003948291362988  0.9972567369307016  0.7932327536860109
  0.7966062925329285  0.2027246756261520  0.9936486858159548
  0.7889438126904911  0.2067978614721040  0.1927744849756285
  0.7991814974284865  0.2000895781437411  0.3911978632577716
  0.7953036948225510  0.1944816858430330  0.5949643033689483
  0.7981137544710800  0.1966806095368735  0.7935319314913156
  0.7965688852927532  0.4032619724422339  0.9915456385214545
  0.8085921233601314  0.3980430977089301  0.4002700609332284
  0.8010457628507723  0.4007596857828374  0.5954733800814613
  0.8047949796792412  0.4012567224346718  0.7940844928853401
  0.8834768444070403  0.6862775600572386  0.2750955796337881
  0.7900114348653808  0.5950743022684669  0.3932577024941046
  0.8058059919942833  0.6019390503822235  0.5900998501538474
  0.8028494103632057  0.5991169555267970  0.7861467704477693
  0.7993430017580376  0.8089041050261038  0.9784226165342904
  0.8012987002283981  0.8010968587337522  0.4038322639567060
  0.8087209071994085  0.7971901927939216  0.7878297408551496
  0.6034155010659740  0.8007346386758493  0.5921576253198495
  0.0001891007614734  0.3896848717896915  0.3884834920908228
  0.4138216520004658  0.5975028833186914  0.4083395903062616
  0.6004886051407183  0.1913753132386367  0.5923282476851445
  0.8014139675840559  0.7947267146610009  0.5952121202072603
