Zr Ti V  Cr W 
 1.0000000000000000
    15.4759761583231921   -0.0117366079554953    0.0050420112375745
    -0.0117382705328058   15.4638317269542895   -0.0006798090525287
     0.0050607535930454   -0.0006880630623193   15.4980063975636977
 Zr  Ti  V   Cr  W  
   5   8 106   4   1
Direct
  0.9987761901784169  0.2011443787557445  0.6006772214289606
  0.9912623892269525  0.3998058167149914  0.1986587645922342
  0.0136734438247646  0.6181362746429580  0.2020565311466499
  0.5986874512366751  0.3851233663458049  0.0238392507631511
  0.7869259289164996  0.0222076609725050  0.1995604773174273
  0.1995892848789471  0.7938651851195370  0.8007621828616303
  0.4024780574050173  0.7994209930583015  0.1999405642779234
  0.5825031826566271  0.9972945739088619  0.1967568959279692
  0.6140579718946509  0.2059753836954241  0.1936580000110865
  0.6008080813414757  0.2077882202220296  0.6048854251621719
  0.5996449695518850  0.3894730939393680  0.7887000127326831
  0.8227556326037384  0.2276957914492954  0.2089410637199196
  0.7690064152296858  0.4088738174766723  0.1988419282716994
  0.0003087327223992  0.9988027398328291  0.9987931291789655
  0.0012606471779076  0.0024246939973815  0.1996539371752785
  0.9997250682255789  0.0005393616881284  0.3998286563183754
  0.0012111283143830  0.9965023348856773  0.5992488043799600
  0.0013630113283081  0.9983242225423438  0.7996000315511786
  0.0022120234883702  0.1972718779211921  0.0009493554236695
  0.0096735236418509  0.1949024892594463  0.1986122562241012
  0.0007666312428041  0.1996479941589260  0.3953466915915244
  0.0007641402764822  0.1985381358306806  0.8049153319126212
  0.0022984988651722  0.3974158548829579  0.9940303355449535
  0.9997557062868297  0.4010115372524600  0.4046749590925791
  0.0011432889638718  0.4044354315973056  0.5996648230928434
  0.0014629908178585  0.3979438422445573  0.7976690869590225
  0.9995740562635217  0.5976581484968261  0.9976978878536363
  0.9948907048028630  0.5982696860194107  0.4032200315919405
  0.0010616771248961  0.6018430506363077  0.5995349976563059
  0.9951502603866396  0.5988186321555312  0.7990801364882282
  0.9994077138204689  0.7999328869187139  0.0011019632675675
  0.9971684058075264  0.8131793617537739  0.1998547970113623
  0.9992765588719629  0.7991938565730979  0.3982415652176808
  0.0010454067698993  0.8006165962538452  0.5983075040370810
  0.9991980429024332  0.7995283981397255  0.8000604045221366
  0.2013506606744849  0.9991575218822161  0.9989555771531445
  0.2006872305910863  0.9996238541777230  0.1996918896037953
  0.2013996858738997  0.9994575269134341  0.6002777431103100
  0.2024580163124321  0.1978348558946628  0.0004195716458516
  0.2051251390913797  0.2003764609336684  0.1996485084240944
  0.2013654820670237  0.1991076465542942  0.3995030808955221
  0.2049694185644766  0.1994487028012411  0.5994179983410938
  0.2023845832463399  0.1989001029405593  0.8009956830134785
  0.1992119086261571  0.3971944695263803  0.0006158339563298
  0.2023835523809359  0.3987718910223429  0.2014034068462242
  0.1993230881191577  0.3976078759177368  0.3987026983286470
  0.2008522453560758  0.4009559693984719  0.5984611623563314
  0.1998724483796657  0.3980463955438981  0.7987621507933869
  0.1997749889038832  0.5976187312006438  0.9989360322927799
  0.2029419776567344  0.5982567890578081  0.2645313614326232
  0.2009140328743915  0.5997872172651900  0.6014176245727972
  0.1995004915100397  0.5958747151588117  0.8002263671210129
  0.2005202673417975  0.7988624813625764  0.0020457436555541
  0.1984400658046465  0.8001313574198036  0.2006165821292612
  0.2003600213696871  0.7999675414636455  0.3983065201154573
  0.2004646890576286  0.7990324547088931  0.5962057797341040
  0.4005475135576414  0.9984085978648940  0.9987656553811348
  0.3949953614729386  0.0032655403455363  0.1995228523185686
  0.4011690978034632  0.0011060461782642  0.4006942539197642
  0.4003649452206926  0.0003060531285513  0.6002368139901382
  0.4001429269233474  0.9991996638906905  0.7995944720139279
  0.4046262952563489  0.1983478382749009  0.0008561360480548
  0.4033016583374134  0.1984636182145642  0.2001036629891448
  0.4042013329562884  0.1995638662629103  0.3984215130461667
  0.4002554794405057  0.1995669577581160  0.6006227813940960
  0.4023641477518981  0.1985958416937854  0.8020840806185743
  0.3945439734617258  0.3985676067072326  0.9995968112764522
  0.3977198919109241  0.3995453281042154  0.2006877829666681
  0.3981256805032337  0.3993946297731581  0.4013806232780779
  0.3995224039943587  0.4003894770052655  0.5993942337889693
  0.3984028157756466  0.3978386032983810  0.8000358092277747
  0.4007956874352088  0.5972786895836435  0.9986152127630533
  0.4007267351575600  0.5994817689960891  0.1993110297002577
  0.4016986241624059  0.5992071708690307  0.3990997551063450
  0.4003023383627181  0.5995879559469149  0.6005654344529581
  0.4032180981617099  0.5972163535968971  0.8004355451296767
  0.3996936601827614  0.7989208232980044  0.9975482053770950
  0.3994198879925236  0.7999716525810692  0.4012240960549196
  0.3998989487869817  0.7999102408255011  0.5997754910055824
  0.4025133287683932  0.7983524194035068  0.7994873473845381
  0.5997199534596218  0.9944853872890429  0.9961893748835173
  0.5996437463236881  0.0013922965173048  0.4021996894540977
  0.5993788562679794  0.9982228220924929  0.6000141243683225
  0.6008607765674768  0.9967027786805543  0.7976575718744545
  0.6037490065015900  0.1872471767843247  0.9965659242383916
  0.6030673943947310  0.2002032520210542  0.4009600981643852
  0.6015613978679741  0.1942995072971896  0.8031284141975102
  0.5854684817118412  0.4069944200526658  0.2151152614399880
  0.5991779678885734  0.3990823144111521  0.4025331988854729
  0.5986178813594667  0.4044211783936222  0.5957362682080531
  0.5999301593290747  0.5987203348251403  0.9993542102358067
  0.5993666961185120  0.6021094830864554  0.1996575583106046
  0.6003407761387776  0.6016037104051022  0.3998592959377626
  0.5993860870104628  0.6017734730103098  0.5987964590064881
  0.6036086678124485  0.5984469578040151  0.7997263547508302
  0.6011285871704262  0.7977436203744126  0.0005233695927447
  0.6022526474155487  0.7998436387235338  0.2000906943966600
  0.6012405175760267  0.8003785711332122  0.3994074652252096
  0.5996328106861112  0.8003069941937436  0.5986875631189641
  0.6004678962946296  0.7989691795377343  0.7993149341099809
  0.8001452462578831  0.0013780468020189  0.4043276970163360
  0.7990889168609600  0.9996271582223558  0.6010964794183846
  0.8007465849536164  0.9980264850885053  0.7969085452024520
  0.8025393495415294  0.1985049723300425  0.9972542721967970
  0.8012022157929607  0.2002606251650845  0.4066533191649037
  0.7969433394349655  0.2014839932135336  0.6033668694594071
  0.8013702314691965  0.1993889836925375  0.8013590730676657
  0.8046468504048402  0.3993455427533614  0.9972504617283054
  0.7975549186321126  0.3993772978540561  0.4028324693175748
  0.7989325597200299  0.4019348024262779  0.6003065636054650
  0.8018771153267920  0.4019626834144777  0.7987895510326490
  0.8002581054403791  0.5984328417341439  0.9951481670328921
  0.7982283912087620  0.5989534913565819  0.4009722006227064
  0.7988087332760139  0.6003333892593121  0.6048628938252212
  0.8003084586558686  0.8002213445230726  0.0001671488593533
  0.7991335134322577  0.8032922819055912  0.1997978949835210
  0.7999203678218479  0.8020999081009688  0.3997396212220145
  0.7999664844699220  0.7995349648504696  0.5984890812178436
  0.8000429013599073  0.7947928771424840  0.7992490909845203
  0.2009228508242624  0.0000690022160790  0.3996796720016498
  0.2013597613247706  0.0005598626409944  0.7999015118048306
  0.8010630958703141  0.9977810225992728  0.9930994089258709
  0.7957568816067007  0.6047381830110761  0.1984936392331450
  0.7992225186494268  0.5982381001110459  0.7998398758933224
