Zr Ti V  Cr W 
 1.0000000000000000
    15.4244097105604929   -0.0012107223225386   -0.0042394490092486
    -0.0012099076426666   15.4412294863263000   -0.0024734284807045
    -0.0042424892746054   -0.0024736538270091   15.4407019588637713
 Zr  Ti  V   Cr  W  
   1   3 110   3   7
Direct
  0.4027052001451930  0.4041072498787303  0.1971522223796394
  0.9997185976256994  0.3901346688770239  0.9994058908704991
  0.1990376569794071  0.9977419558740886  0.3997750347986102
  0.8008538106407957  0.6017883441749701  0.2091743538659141
  0.9990757561729378  0.0012299725141049  0.0011963800604884
  0.0005244170999588  0.9997666711067780  0.2010491235270681
  0.9972130092461128  0.9997720529514614  0.3993103452168413
  0.9993263107608953  0.0014523446757813  0.6010703897338863
  0.9996539155744837  0.0001363156557990  0.7999560164140401
  0.9997586556982629  0.2006180643949699  0.4001242635101189
  0.9999316890622287  0.1990431124616403  0.6011554911720943
  0.9995539144022095  0.1995258726006156  0.8025979027800055
  0.9994382690851074  0.3976646443461769  0.2016516254102884
  0.9994496953274722  0.3992470635295468  0.4006890217384427
  0.9994903808631849  0.3978292574985930  0.6006846747316146
  0.0002651452292016  0.3991385725645334  0.7974330827288976
  0.9956009236762737  0.6012166894695845  0.0025040431832886
  0.0026568125206032  0.5970064955689800  0.1989233236312449
  0.9985831719752836  0.6001804521133044  0.3984656513734313
  0.9993599001728956  0.5996316093025309  0.6018257009465136
  0.0004266363774262  0.5991528085814722  0.7998731248111913
  0.0002547689340715  0.8007788707295563  0.0001955740176083
  0.0034666099234741  0.8013986109618738  0.4017376060942585
  0.9992073490131439  0.8011810148038372  0.6014923683888225
  0.0006991362551665  0.8008944872262822  0.8001897446850297
  0.1998151800425980  0.9987974664827975  0.0007677634829686
  0.1996821882713671  0.9998855320513639  0.1989671896497055
  0.1996891780075752  0.0001135673553048  0.6019891252669524
  0.2005761241721963  0.9999042864674667  0.8000207729844135
  0.1960119834862442  0.2005334523061309  0.9999199541044057
  0.2010290494030770  0.2004281698142375  0.2006712843375046
  0.1992568411808401  0.2035141025955486  0.3995427206642848
  0.1999363229186626  0.2003916154795903  0.5998476076785789
  0.2021649331301544  0.2007192018612116  0.7992042359925138
  0.2008616186767421  0.4006972899377774  0.9994396683522369
  0.1961134874156832  0.3991876935526391  0.2005151664490102
  0.1983574650455749  0.4045896018717946  0.4011776719084882
  0.1998182781768348  0.4001785148309137  0.6001823956035629
  0.2005619953857364  0.4009166605382817  0.7987923105480409
  0.1975292958204347  0.6003366651053914  0.0013495909788177
  0.2007723820148670  0.5986062575075828  0.2037866129407107
  0.1990420338752480  0.5986856507717661  0.5965839592386789
  0.1997198678447763  0.5999526845487804  0.8001740817650248
  0.1977987523124858  0.7990931961143130  0.0014897811703461
  0.1346036275066939  0.8014389086604369  0.2032699972961131
  0.1999924435898486  0.8003065707454716  0.5966366509608467
  0.2001242433838253  0.7988364449671663  0.7987301979368462
  0.3993362132946608  0.9992808373085558  0.0002853006797507
  0.4005161259889387  0.9992053418466722  0.1998913884325164
  0.4019612267890644  0.9992351388929880  0.3997556098937966
  0.3997185830162446  0.0002049476057645  0.5999330753116934
  0.3992771573046697  0.9992846936026567  0.8004782887223703
  0.3986650049843541  0.1999941624650408  0.0003361666425383
  0.4003243161656315  0.1970264148463457  0.1990992348075468
  0.3998809463959735  0.2004217973397692  0.3998755876365896
  0.3992771087666909  0.1995836074139152  0.5993457293938403
  0.4037453148209894  0.2003993563145979  0.8005257202312800
  0.4002099742300647  0.3998361208021054  0.9934889400389200
  0.4006007615064064  0.4002202819617745  0.4039476685161165
  0.4002093186285112  0.3997499991333560  0.6007625457569874
  0.3998070995445174  0.4007167017047867  0.7987343974912283
  0.4002093605035218  0.5998334418429520  0.0030091508220688
  0.3955604103311064  0.5990741484616842  0.3962743203074536
  0.4003364038421096  0.5999748020482909  0.6000978776952911
  0.3999031398791891  0.5997176018254308  0.8013028144310612
  0.3996348071845144  0.7998409944092685  0.9998977058043924
  0.4009973747073759  0.7999848412048058  0.1995042181858913
  0.3967013352414781  0.8002268582952153  0.4002226424616193
  0.4003430071065539  0.8001476212829268  0.6004967128432315
  0.3994005522061059  0.7996092235294668  0.8000801535146361
  0.6010886626135585  0.9992544769106851  0.0009070894504202
  0.5999859951007162  0.0004986713049784  0.1999992068341662
  0.6004866718447647  0.9997599894110942  0.4002471879233114
  0.6001508003017085  0.9997168502303159  0.5993930209098915
  0.5995850013685711  0.0026061394965733  0.8000766663936159
  0.6016799541023756  0.2008436071529258  0.9960878109816123
  0.6003092578257168  0.1989759219162350  0.1985485987856958
  0.6005820673147179  0.2008717290167168  0.4005583384665872
  0.5997747158789770  0.2000734063333131  0.6040838485641639
  0.6010479786021451  0.3996841572907404  0.0000496369437839
  0.6056142655381389  0.3973127032842624  0.1994568117102255
  0.6003443871046567  0.3999259378806187  0.4002418946959283
  0.6000481116002623  0.3999171959840639  0.5994507813333261
  0.6038828912238760  0.5995557197324238  0.0001882788648149
  0.5950983263374855  0.6002491327534782  0.2002026766211322
  0.6030768774585082  0.6005533321530127  0.4001162692684176
  0.5983570916327232  0.5997580678470252  0.6003832317309377
  0.5984233023135610  0.6008230270506026  0.7990478681636403
  0.6001368670763345  0.8000312044930927  0.9996702565746686
  0.5986838223830758  0.7997686365216700  0.4004670136915869
  0.5991677335631971  0.8007084084340759  0.5999791346215793
  0.5992342265162325  0.8015343337594666  0.7998348820946334
  0.7999051396165370  0.9977853396210897  0.0010313492799208
  0.8000168016637983  0.9988735688136090  0.2005509707695413
  0.7997268611393249  0.9990418036785660  0.3998061883597466
  0.7997485655784249  0.9993854107881236  0.5989356079054682
  0.8002448712771282  0.9985208632006520  0.8004638213827153
  0.8047053454943955  0.2017808342806708  0.0007169477426050
  0.7991089663120464  0.2000122581086060  0.2003932092558322
  0.8000840654384811  0.2015003603339247  0.3997445717816981
  0.8005837156840198  0.2006240286115546  0.5995452219918884
  0.7955762546504824  0.2011990445469303  0.7996048249407848
  0.7984310115580258  0.4052189695958736  0.0002633179176927
  0.8010356553163518  0.3983450339259604  0.1999795401102239
  0.8007333692122248  0.4049239857773539  0.4002475241376321
  0.7996410182035270  0.4001062674910288  0.6001802681557851
  0.8004530292645182  0.4008447774918502  0.7983243906169889
  0.7997579636666359  0.5997476949223444  0.5989630420623999
  0.7991160401677470  0.5997532757744269  0.8001423464595622
  0.8007553250376047  0.7953227948080051  0.0013545868499383
  0.7988736998270871  0.8018022496683583  0.2004349210709113
  0.8020552622245055  0.7956718013153224  0.3991373213851387
  0.7996353186515930  0.7999779271839130  0.5999821639178297
  0.7993865494709846  0.7997995132287122  0.7984424602173092
  0.9997735212518266  0.1985087833322626  0.2001605277433955
  0.5999172311955847  0.4003115227253920  0.7996378680330740
  0.5994374232122153  0.8011372293588043  0.2001610907228440
  0.9998162395232340  0.1959730140955706  0.9974014822470105
  0.1972753374546835  0.6010913000075987  0.4002836010833402
  0.1987065488126377  0.7930789204602373  0.4027200329536040
  0.3987420320739254  0.6051132188924476  0.1996959609692752
  0.6001622342620221  0.1974465971201351  0.8008191908945017
  0.7986497810562048  0.5998837796165023  0.9943766878839012
  0.8003844372862050  0.6006680108501882  0.4047339949306741
