Zr Ti V  Cr W 
 1.0000000000000000
    12.2882735461728885    0.0000000000000000   -4.3445607757035454
    -6.1441367710433559   10.6419570608175889   -4.3445607757035454
     0.0000000000000000    0.0000000000000000   13.0336823299999995
 Zr  Ti  V   Cr  W  
  30   9  50   9  26
Direct
  0.0034327405557731  0.0342466686250295  0.3947956588086902
  0.9867709055076060  0.2000666884933575  0.5871628021278296
  0.0157987825270816  0.2150405517554664  0.8129965408136923
  0.9868469704207763  0.3979785735013363  0.1835532344144609
  0.9982804152835575  0.5936405761869505  0.0135828256926873
  0.8760310783339585  0.5574901188729747  0.1584352091275723
  0.0192143907954958  0.5913695031917612  0.3876954244193110
  0.0139298135814035  0.8032910682000323  0.2063658361712997
  0.1975951806224769  0.9831823798199015  0.1835176293132679
  0.1965229220297044  0.0017304354181238  0.5907237873911887
  0.2041438294079542  0.0070878805706095  0.8004613890176924
  0.1364400239602530  0.1440330151046319  0.3348150124294695
  0.1966824149615166  0.4319169309483752  0.0286447598294663
  0.1904343962437016  0.3808313431103371  0.2004058222896960
  0.2064438454169787  0.6217163278133035  0.0151536262188966
  0.3517023185162465  0.3391055928646526  0.5290253111158558
  0.4046709323219763  0.3992042219417348  0.7817950026466053
  0.4060166652313210  0.6027755559617697  0.2110439591275463
  0.4170872656157571  0.5835507842722046  0.6164464384736384
  0.4119400709863673  0.6225221330914860  0.8115731891876102
  0.3985782501828614  0.8178431291565449  0.2188590575230491
  0.4069633353115131  0.7953148186271776  0.6060910741527117
  0.4072759171828196  0.8188377195228402  0.8073615127427196
  0.5804945855807191  0.1859156008681606  0.9804693035911953
  0.5687459936458341  0.1935269217669334  0.1932615822771858
  0.5927570113090062  0.1750698766541933  0.3957007117115020
  0.6275491523754948  0.8043911297450844  0.8170830934150257
  0.8681974985790551  0.8679876086016710  0.0529113004396861
  0.7789142122986566  0.7848825813813172  0.1683059480564849
  0.7937419836905352  0.8025084881058281  0.3974939556973821
  0.9916094780279041  0.1927342863104181  0.1973560454687803
  0.9930542221248574  0.2784773462802067  0.3750347151770618
  0.9915326957605310  0.4044629411124157  0.6003201521374338
  0.2115815980776915  0.8111969181163139  0.2325553674539781
  0.3969801918220106  0.1793545240753887  0.3799008813511998
  0.5959089890623452  0.5751813369398558  0.9917344154886132
  0.6020671931030041  0.5944889357793427  0.1872481528807586
  0.6301201659239720  0.6040853023232838  0.8177510252812870
  0.8064282934282465  0.0206752601617033  0.2110310039893966
  0.7856345273255971  0.0005361123286364  0.3993827284151767
  0.9966367322276577  0.0023912527462373  0.6006636394262443
  0.9883532059355993  0.1922760336761273  0.9939590799465537
  0.9675596591369695  0.3903014307827795  0.9795796386726691
  0.9910713359637030  0.4071117483493208  0.7996765954904392
  0.0003704719781606  0.6058626416575718  0.8051682457124615
  0.0091356794323606  0.7904664140258626  0.9762082733544635
  0.9943493411125021  0.7957068345941452  0.5943377202674799
  0.2077177629733453  0.9938435253442585  0.9948630599455566
  0.2250587101419714  0.0136531949820190  0.4077738791960303
  0.2038736359163541  0.1956389195174159  0.9980873008503585
  0.2286350745585822  0.2065090968756407  0.2049585806645319
  0.2047140298816742  0.2019751564919222  0.6087643148442158
  0.2080297084573875  0.2077681770063521  0.8014255783291100
  0.1990810817720101  0.4008502705903181  0.4005234769475184
  0.2201548408568419  0.5991290822183375  0.4186187391412113
  0.1865984147517472  0.5880165002348601  0.5961541541954541
  0.1966472048901162  0.7916717201112865  0.4021807163381035
  0.2006969171403745  0.8024686375280413  0.5996649641272978
  0.3884705338236069  0.9960939274614037  0.9835423982221718
  0.3951085120210760  0.9873156588909746  0.1828178175288079
  0.3951679964898331  0.1933561550314602  0.1855554862328011
  0.4155926737513058  0.4001861583858904  0.3937544400066857
  0.4034904316535642  0.8210007526629840  0.0100483345929986
  0.4109018167421859  0.7998375235958192  0.4161742490505284
  0.6019669632427197  0.0003157970576441  0.0018254168199198
  0.5973081184637564  0.0034214350824767  0.1969669683713507
  0.6101366081423776  0.0003245772367681  0.4118834987645688
  0.6070765624476147  0.0011128810066509  0.6041497367822498
  0.6052673420787530  0.0022343721766929  0.7959148912410366
  0.6032409489203969  0.1933875112018621  0.6029623249829389
  0.5944872145855445  0.3824445104458805  0.9762240678065567
  0.6030537579236754  0.3870750196495742  0.7928264848456594
  0.6114644171379715  0.6008161031169531  0.4030348520108419
  0.6243994697266699  0.6009133196396677  0.6065644081374025
  0.6140538815138942  0.8292365865099659  0.0191379144048453
  0.6052340669303653  0.8046563622055296  0.4085241800987370
  0.8082898749095034  0.0140684012545669  0.0028674589872609
  0.8107045972411089  0.0012528098038961  0.8057867828805042
  0.7982171460400683  0.1925566322473378  0.3988098498702957
  0.7939962095898722  0.2055343882183909  0.6015171020095702
  0.7828112092639576  0.3859712421100088  0.1866708331133145
  0.8042549326597106  0.3970460169568238  0.4001265106958824
  0.7921807735423391  0.3984497447448494  0.7944988597546218
  0.7848805710755473  0.5802168243610857  0.9713375159000687
  0.8101745222536156  0.5961952786087742  0.1937860252467142
  0.8037644779186395  0.6041567826946648  0.6045645879701181
  0.8106679306892629  0.6046195923921027  0.8011330584329659
  0.8084338807933843  0.7951618165865374  0.6024086571541385
  0.8274904214704700  0.8039748491211948  0.8068016003013713
  0.9914382990344915  0.4035696916936965  0.3995317965147588
  0.9994705026867299  0.8003208044480365  0.8008726010528241
  0.1986268183036512  0.8079206375945936  0.0002443728913587
  0.4184396223641064  0.0006835908930868  0.4096621868060718
  0.3968859559296901  0.0069410055914823  0.7878833973819522
  0.4003489624776573  0.1987212914487968  0.9915069008071221
  0.3996726618117159  0.1980119408620840  0.7999254900834765
  0.5984729984776983  0.1974039344247165  0.7924352196817482
  0.7774423572070053  0.3795635022817883  0.9743098147226145
  0.0216719475146730  0.0195572536656300  0.0159945038863371
  0.0002466599054712  0.9973156365794692  0.8024456888694463
  0.9923602457585784  0.6015188520093222  0.5959166730910338
  0.0000102258602335  0.7995496365812239  0.4005550595282701
  0.1871208344622625  0.3868458502503958  0.5933552178407998
  0.2009244037696158  0.4109042615985656  0.8033644084242638
  0.1865199608796822  0.6126494831427439  0.2318443169418976
  0.1955545419438722  0.6075211384959255  0.8004917995691669
  0.1876742028674213  0.7984952170546072  0.7955858878683243
  0.4068891636940512  0.9947690454873288  0.5947230586103410
  0.4087449111910664  0.1923515470984967  0.6038638343501053
  0.3965083687770763  0.3953390585719070  0.9945019619892366
  0.4067565661300333  0.3929834874417431  0.1989103493428010
  0.4086062325834272  0.6108350880830957  0.0028664739823242
  0.4147973381595160  0.5990046203174050  0.4127947314480754
  0.6052786097599783  0.4018053494529246  0.1884381735256875
  0.6061999790803094  0.3999112127414553  0.4012924914814979
  0.6010259043039088  0.3977882974386382  0.6025045783393627
  0.6003188790276746  0.8122319003168078  0.2032185650474095
  0.6200811623484274  0.7999546702892295  0.6048871509339211
  0.8043054491949312  0.0034464761660073  0.6037335869932816
  0.7894693680129941  0.1907545683496847  0.9881206814548728
  0.7816394368891212  0.1983383983447858  0.1928683916637095
  0.7943223557264851  0.1982851580845829  0.7922622511767704
  0.7998082334275082  0.4044423147798553  0.6024864478181603
  0.8032749131365676  0.5934402236277868  0.3937321803475353
