Zr V  Cr W 
 1.0000000000000000
    15.4863295998759050    0.0024137293282322    0.0105674120120943
     0.0024156779473548   15.5040449564505511   -0.0174543962439357
     0.0105707746262879   -0.0174578174046017   15.4782021514271442
 Zr  V   Cr  W  
  10 107   6   1
Direct
  0.0005215679885779  0.9698783776443147  0.7579343268343504
  0.9979647377024713  0.1990882379246070  0.6094057096347774
  0.0002269477488326  0.4335005212220365  0.0395987375579819
  0.0002208117588768  0.5799320718584959  0.2191565337166562
  0.9606654180003146  0.7945118478826628  0.1931376170156808
  0.0004227411870639  0.7983331913789814  0.5984328224005998
  0.1979465962981630  0.5927770613144719  0.5958676363785446
  0.3584417922192589  0.8034497950134597  0.1992098569767742
  0.8398677377482849  0.4291123600375458  0.3998206286026298
  0.7500802950832188  0.7916378390114311  0.1983510092324982
  0.0007924101971049  0.0062992731090266  0.9991600933364587
  0.0031110590438852  0.9989973060987051  0.3930556484136521
  0.0005870188950620  0.0021089750146792  0.5713296657215483
  0.0009018803278906  0.2003646924285622  0.2018719026741101
  0.0016164589836581  0.2016513014769949  0.4007523669603025
  0.0009127429836044  0.2053610393557426  0.8101130627513762
  0.0048650987093655  0.3875292006207681  0.2321893579571571
  0.0316073515539179  0.4007135705400382  0.4081225631991612
  0.9965120850018899  0.4030901485415110  0.5998680029505954
  0.0007421027980137  0.3979524160795225  0.8023521294365937
  0.0005476275650123  0.6235302051076330  0.0116078767519388
  0.0055859972125500  0.6083003562334940  0.4169897144707864
  0.9937532630462536  0.5972753046542739  0.6085468746031900
  0.9989826179322849  0.5928030992445101  0.8084733467098746
  0.0010677420391680  0.8121333951752455  0.9921530579128831
  0.0019798248217338  0.8012040761767273  0.3949143091126156
  0.0002975120319577  0.7825268945163883  0.8038658754860953
  0.1996245782678255  0.0025989484384177  0.9974054180694478
  0.2002710621802736  0.0020454762638852  0.1983450362823917
  0.2021846772429450  0.9992535386780944  0.3972899198049247
  0.2010496176552095  0.9993080773505256  0.5979945526335478
  0.2030079373540875  0.9998708095954690  0.7995881619966037
  0.2016491907329809  0.2007685085480789  0.0010357571354903
  0.2018575101554389  0.2015905448032294  0.2004505365161211
  0.2016154261514818  0.1964072499343854  0.4007237509813911
  0.2015634432850885  0.1990286696872096  0.8020542030122046
  0.2035319512386726  0.4005326677762062  0.0003495541186538
  0.1995023525224606  0.4004709392353216  0.1971634993750295
  0.2028175554991024  0.3975542179947615  0.5363230902972500
  0.1999911945972460  0.3996509991455691  0.8031705521196922
  0.2005230309453756  0.6023585936819091  0.0009276563851013
  0.2054470348472234  0.6007417643082203  0.1985524806400177
  0.1998456396901080  0.6023362798834008  0.3923243212109577
  0.1997863274802853  0.5999108877668369  0.8048997927371914
  0.1992823835107029  0.8027915329571257  0.9996101130110725
  0.1714538718970250  0.7976648090584775  0.1966899752711479
  0.1991019024378170  0.8002847262156894  0.3973238209077569
  0.2062750788925412  0.8003509729726287  0.5989491096263110
  0.1993632775538509  0.7995772678567155  0.7989565658653717
  0.4014773416487677  0.0005826072976705  0.9983043103243914
  0.4021566482253880  0.0042307766540310  0.1980786517598151
  0.4009249097329667  0.9985956506016938  0.3986919080717781
  0.4023028552152840  0.0002755159481098  0.5983896877795575
  0.4003425765082822  0.9993010540951648  0.7970328790861085
  0.4013189844096829  0.2002101788394060  0.9991200690779999
  0.4013766965282329  0.2007625991016499  0.1999639107536358
  0.3997801670347105  0.2000598322594743  0.3997807735441974
  0.4021770593953681  0.1994579550246380  0.5993223066945936
  0.4009974204708424  0.4001683474291442  0.9998761212345966
  0.3992826646783372  0.3981508139973655  0.2008510464643715
  0.4023619143727146  0.3988447398991153  0.4009623483076910
  0.4003194759715601  0.3992635691619048  0.5998507339406621
  0.4009834124092425  0.3997665165633967  0.7994761057746133
  0.4019779710876270  0.6008634108312692  0.9999875606049501
  0.4032883436864693  0.5943165706684201  0.2002029742421173
  0.3996557773006811  0.5996785380434582  0.4003490528142409
  0.4052541211377890  0.5988842724247972  0.5995544256219297
  0.4007688271415697  0.6000470324031538  0.8007525557527020
  0.3992394075870873  0.8011389127056546  0.9946994185912084
  0.4007575822818170  0.7998434235591295  0.4026086360538069
  0.4010558691726009  0.7998794000348819  0.6002663739778041
  0.4001850896974068  0.7988366234549756  0.7987256171490444
  0.6007012693061163  0.9993315648143731  0.9986831690730600
  0.6011059279742821  0.9963780073369908  0.1987495681936048
  0.6007864852303928  0.9978787769457207  0.3978037314054345
  0.6009232559423852  0.9990896336549397  0.5971124312171092
  0.6006206189258936  0.9978760005340165  0.7978070731667154
  0.5996901239669766  0.1986801073671185  0.9998863605212959
  0.6016378426782688  0.2006675942097975  0.1990321416002900
  0.5999813151280468  0.1987565443622088  0.5993837915137322
  0.6004859213761407  0.1996102367922520  0.8000990923347484
  0.6008159336697894  0.3989513564443039  0.9995977981565094
  0.6032844185808932  0.4004246795273564  0.2000999113105256
  0.6030424647423431  0.3994186827431011  0.3985651393499787
  0.6014613716027415  0.3993115694850721  0.5983437596848985
  0.5999963737554399  0.4000828917322213  0.7995221554723311
  0.6021200729524315  0.6000193273688685  0.0038927521449319
  0.6034870615671136  0.5997351637006935  0.3961489739231062
  0.6014929569168646  0.5993591963204775  0.5972330655727394
  0.6020288439359479  0.5997291627996827  0.8019115949326956
  0.6006550079226233  0.8004999830030644  0.9981555616048057
  0.5640356318953927  0.7900564433039650  0.1989806063153659
  0.5994420419462566  0.7995819854476028  0.3987132503184044
  0.6006525538038950  0.7992941597825886  0.5986910684442869
  0.5997545936921799  0.7981565250124872  0.7986026544991547
  0.8015237890559823  0.0014300188360732  0.9970513987330130
  0.8016641776727980  0.9977749317275865  0.1982846968787635
  0.8000584853247341  0.0004361120493674  0.3981560071235273
  0.8019663966320998  0.9999091201315294  0.5989447470324962
  0.7981981939635306  0.9999082745694411  0.7989917681188977
  0.7996290205620087  0.2003722914264595  0.9997996566025740
  0.7996826556073112  0.1997564740685197  0.1992360738219606
  0.7996784623547295  0.1965854382792371  0.3988154244669682
  0.7945342253269715  0.2009918891875293  0.5998099120983035
  0.8001795137228958  0.1990373646627524  0.8014982135767080
  0.8055845094116846  0.3986800684309361  0.1955680262111711
  0.7983749541013462  0.3995963573377326  0.6012864879887124
  0.7998809657855760  0.4000484935807019  0.8008148694170539
  0.8028159105091812  0.6010002413157844  0.0002234030894211
  0.7925886185641492  0.5946383804372918  0.2068386955234277
  0.8022593232532482  0.6162488788874338  0.4027265796816029
  0.7980265772014423  0.5997991476708567  0.6003732931781116
  0.8006322927791774  0.5991754912284536  0.8022643947832839
  0.8020875693627121  0.8024187227961531  0.9970854485636635
  0.8058640793015207  0.8055713239108644  0.4008292042877131
  0.7946700841562870  0.7999984281866763  0.6004643717413513
  0.8003934191575389  0.7988027767781488  0.7987555354974961
  0.0003801814360844  0.0044580856541252  0.1972331381691476
  0.0007954032772267  0.2011166915638694  0.0038967713376968
  0.2047481764862910  0.2007041541796118  0.6011474119455786
  0.4014002458111828  0.1997965460199093  0.7995921330499721
  0.6001049277180629  0.1986300636925390  0.3985515225792636
  0.7981459274308499  0.3996718611220516  0.9984887976127010
  0.6006130272532872  0.5974410584244962  0.1993664031257418
