Zr Ti V  Cr
 1.0000000000000000
    15.5054759955686290   -0.0026938295988576    0.0222345561511436
    -0.0026911951043345   15.4937529874400166   -0.0133710719798359
     0.0222461462953622   -0.0133733789628594   15.4975574155639322
 Zr  Ti  V   Cr 
   5   5 111   3
Direct
  0.0109556329476103  0.6125956258814632  0.1989168088529585
  0.4001234707533066  0.4004480294081339  0.5993244059733064
  0.6003369598263845  0.1999895161032716  0.2004513921633713
  0.6106726009428340  0.7996050609699884  0.9914742716280214
  0.7930592023934372  0.7980975425002518  0.8092402910502099
  0.9955888235217999  0.7872739375991920  0.3834494692760871
  0.1862986511637492  0.6017578843773971  0.0177153997306473
  0.2030212690215490  0.7978354566089925  0.3971964785242388
  0.5987517842396595  0.2018511920454228  0.7987863300735394
  0.8192665533426580  0.8047473678996352  0.0184841697098449
  0.9990639227731887  0.0007090402748771  0.9970642326190661
  0.0016782349012914  0.0025856765235086  0.1981254580958991
  0.9986676468406749  0.9995996896734191  0.3981552149436893
  0.9986027990885854  0.9975860154037937  0.5976092939883096
  0.9997477999742601  0.9998114111789151  0.7985621241515901
  0.0011185049313667  0.2008233248074621  0.1990799521579676
  0.9993063830976594  0.1989137496156442  0.3994422823332672
  0.0002466341944505  0.1983187904967396  0.6003416871143017
  0.9980618065442117  0.1998202141508814  0.7985429074939150
  0.9991562930470940  0.4000169240937559  0.9983990599169792
  0.0007820734140047  0.4008862256329510  0.1992917724540377
  0.9995397269313477  0.3980483378239087  0.3991795169560449
  0.9982813019739925  0.3991815025306937  0.6007989836758598
  0.0004577613948009  0.3995877740279394  0.8002418894836250
  0.9923402714865303  0.6005938818195328  0.9931244917257126
  0.0000737874553969  0.5935455195242315  0.4055570408719468
  0.9982525156881112  0.5998635431532363  0.6007842435608979
  0.9971115659514164  0.6006712858943584  0.7984299740458576
  0.0087399247637442  0.8008736606766484  0.9960751819067948
  0.0037614983631192  0.8106906489968613  0.1930305685215507
  0.9987545992485884  0.7992667139495416  0.5995458630194399
  0.0011512982444752  0.7992548325967802  0.7980394608897901
  0.1996894008723952  0.0018700654398003  0.9980445070829908
  0.2004450237822293  0.9989986859636217  0.1994874831796623
  0.1990935745853273  0.9996507911444690  0.3987464392452788
  0.1982835254781394  0.0001864695720719  0.6004555047935338
  0.1988460544640988  0.9967313635360017  0.7990331925953706
  0.1994721045215994  0.2003302580352523  0.0035561804852682
  0.1997095780063836  0.1996759342852525  0.2007249253547248
  0.1997381278173886  0.1998091894223087  0.3996403559291795
  0.1984430539229178  0.1987029594309213  0.5972762728080053
  0.0020678427544856  0.1997772252963769  0.9971846195566283
  0.1990348263715837  0.3973718537727158  0.0003199479047537
  0.2006077827122531  0.4020498956683770  0.2004115562855608
  0.1996218708929841  0.3987079140456604  0.3993935359931572
  0.1952070802646890  0.3980648811943795  0.6010049184481076
  0.1987871483705698  0.4042580852032786  0.8018177808517590
  0.2114025456984589  0.5996300464632160  0.2091996967087314
  0.2012624817202355  0.5963154555104089  0.4034180262983946
  0.1983643644633028  0.6008165672595429  0.6006715416912044
  0.1978948668892394  0.6003924998913613  0.8000643930686534
  0.2027076960840954  0.8020754100734496  0.9996482469489015
  0.2032496044683928  0.7997726258476677  0.1971427004640609
  0.1980661477961653  0.7999895541764418  0.5981053615551983
  0.1996841119275340  0.7987774166087503  0.7995688774128556
  0.4011053802543402  0.0004917679405418  0.9993132880068899
  0.4000735783684192  0.9982533178652940  0.1982925107475943
  0.4007711757335808  0.9993773824202697  0.3984841643385080
  0.3992452693578719  0.9984536733341978  0.5982796025281464
  0.3976473610786966  0.0010247690531722  0.7996717864952476
  0.3974635994106571  0.1997846419269895  0.9981135686517980
  0.3962658404382990  0.1994566284854421  0.1992124528275589
  0.3998765493019735  0.1986571636441113  0.3989364209134560
  0.3976455929885752  0.1952110066612016  0.6009466053145019
  0.3949074955033298  0.2003618370099873  0.7996809183799795
  0.3997202035962250  0.4007273301129443  0.0005260819118351
  0.3999939886666499  0.4010599764340884  0.1978275209226273
  0.4001849488159664  0.3990701892059411  0.3951961781165599
  0.3972751303444337  0.3998176505411815  0.8043333157576800
  0.4018008616282115  0.6005589166793855  0.0019494169509251
  0.4044389726469639  0.6012408870071877  0.2003003112628874
  0.4018715739960778  0.5997847418455837  0.3997021547981284
  0.3991918658099126  0.6046431870613963  0.6000436967991628
  0.3967441688394445  0.6010044411611116  0.8032561814163521
  0.3994508964106482  0.8000972797536193  0.9987694457734209
  0.4022908074665928  0.7995476682193757  0.1980322973191362
  0.4022068211399807  0.7995679497821807  0.3982359961562678
  0.3988926449758684  0.8012296032012066  0.5985495588644346
  0.3962478854137836  0.7999187280582599  0.7986618564892426
  0.6002927683597216  0.0042381666763164  0.9971902119320333
  0.6009514242784016  0.9946414843635697  0.1977214252399913
  0.6002031494704005  0.9986385312718188  0.3986565090548193
  0.5975689592385078  0.9989312639260427  0.7964201771311664
  0.5999191846913898  0.2012931959979009  0.9959746122246917
  0.5995445713685208  0.1993541219524250  0.4039733042111107
  0.5999617278721903  0.1981981228644814  0.5984692201269104
  0.6008798492889638  0.4003376714938239  0.9997901115430323
  0.6004226417833366  0.4046092708157760  0.1996030699955354
  0.6007676896954858  0.3999872483377976  0.3989976695284948
  0.6040190951228572  0.4001602057217301  0.5995545221144993
  0.5987536978632494  0.4029221932935277  0.7995004295330216
  0.5999551519907432  0.5961552785592534  0.9986508440605132
  0.6000966830066092  0.5988373488535268  0.4006547439563318
  0.5997422609710662  0.6008761647235999  0.5993628486547214
  0.5971068415953721  0.5996697873855674  0.7976916485355189
  0.6006287585418155  0.7993389620783208  0.2000050623205910
  0.5988884028508189  0.7999139227437504  0.5952583885473337
  0.5897726938848230  0.7996107646394958  0.7888415472926479
  0.8008418657233827  0.0047751408690021  0.0002098519218066
  0.8001572175410619  0.9986069614329376  0.1992986927725606
  0.7991604512364064  0.9992823955478159  0.3991794741626546
  0.7990219841138948  0.9989441668752840  0.5988680915996737
  0.7972876160834049  0.0038112285074413  0.7987074982709634
  0.8014380465368249  0.2016950060846858  0.0003979054555536
  0.8046604769658716  0.1992565093422344  0.2000042463769882
  0.8001520699922514  0.1997129760002240  0.3998641536164205
  0.7994854187179534  0.1985204454167246  0.5993198542749677
  0.8009722431900402  0.2008823032316882  0.7993268576753456
  0.8001578730945423  0.3992259777573598  0.0009827782813954
  0.8019629127043519  0.4018467245154834  0.1999007838680654
  0.7997147108385836  0.3991020350244218  0.3991607584084196
  0.8005935954310244  0.3989664101353249  0.5998263956561837
  0.7987877928136260  0.3995134808697989  0.8007285275548802
  0.7985002255234499  0.5981150968751174  0.0027369572854987
  0.7998181548386312  0.6007959743535064  0.2003848999320569
  0.7992303288796360  0.5979799225261069  0.4007197142842835
  0.7989232410210075  0.6006223482855483  0.5999038895954136
  0.7970075843009771  0.5950616619611427  0.7996396722581784
  0.8028083020482993  0.7998709049222891  0.2077210311873488
  0.7977682627840484  0.7987129005083374  0.4004222264132200
  0.7993711243658179  0.8006274644425211  0.5977736238809261
  0.5989864931260698  0.9985611362846013  0.5971431794635522
  0.6019339011470325  0.6014754367058116  0.1999075232276463
  0.5999730926911474  0.7988746919946601  0.3983402329707708
