Zr Ti V  Cr W 
 1.0000000000000000
    15.5250581035635555    0.0249023373092759   -0.0029593452149727
     0.0249075060967649   15.5258599297975692   -0.0072275987838562
    -0.0029689522119990   -0.0072397786097423   15.5108223676839163
 Zr  Ti  V   Cr  W  
   5   2 106  10   1
Direct
  0.9982555146026570  0.2003757242595556  0.7995119704550946
  0.0006919996629948  0.8005060945605621  0.2026463541075224
  0.4001631367203839  0.3947144906656347  0.2038406748311291
  0.5926131778515777  0.2040714628526453  0.1998758224978582
  0.7910167795614939  0.4021313554099153  0.3990555245691663
  0.6160607102625674  0.4152725765327653  0.1809748587953657
  0.5784337202316080  0.3793854108973075  0.3599642016915500
  0.9996641802359124  0.0010199724679278  0.0005645221329354
  0.9989238331662139  0.0049423861614353  0.2009317856358710
  0.9994872066848087  0.0008973115934653  0.4015858699429631
  0.9989808925830204  0.9997258879064915  0.6001257038243361
  0.9997382952736292  0.9961010334706886  0.8005564111128720
  0.9993034693109927  0.2005413595809699  0.0038950185663473
  0.0003799140715879  0.2037655241236811  0.2012006743252757
  0.9990962698301853  0.2000461662620433  0.4001728865595530
  0.9985770135204327  0.2003532895043018  0.5957068948219456
  0.0029089779819371  0.4003896622187931  0.0037121334342004
  0.0030916379240140  0.4001015260289968  0.3985006384176450
  0.9998387648402736  0.4008276081359325  0.6009085289259526
  0.9996846225061067  0.4045639715850394  0.8020513665783383
  0.0007662710062923  0.5999185662665592  0.0003731329595831
  0.0033669634321658  0.5935973957865091  0.2001878619365884
  0.0004853122612052  0.6001849068660023  0.4003272390602231
  0.0005080686581358  0.5996396973088836  0.6005212343983887
  0.0010040463135354  0.6006647048908310  0.8006538696376146
  0.0009547407472597  0.8001929344315911  0.4054914265536352
  0.0000285292879325  0.7994681092204138  0.6012772126526433
  0.0005168420726462  0.7988505804334032  0.7995258105375435
  0.1994001734442652  0.9989171635175748  0.0004952506982709
  0.1984744899581156  0.9979398634535095  0.1999992782314307
  0.1994742218639009  0.9990914408033876  0.4018169860961390
  0.1993128839514974  0.9998349397981373  0.6013008615704809
  0.2000631489535631  0.9994236628805460  0.8010955794002874
  0.1975855808959856  0.1939041716211455  0.2013346079898236
  0.1995471655842270  0.1991361272354819  0.4000686922904666
  0.2001432248375343  0.1991217707093347  0.6004169068227783
  0.2038055787743289  0.1993622472597023  0.8004922910516826
  0.2018759561059556  0.4004115975455566  0.0309021079074854
  0.1986131747939981  0.3986230193116273  0.4065775217846372
  0.1994994693690285  0.3992839925242624  0.6035563129746098
  0.2005552750858395  0.3998023712975358  0.8004742273213938
  0.2018316246908434  0.5990877996073363  0.0018087073277038
  0.2039571120160849  0.6033901345519977  0.2003021126444581
  0.2013342320704498  0.5990375659136473  0.3994343254100755
  0.2007234537700461  0.6000061299978602  0.6014697100871558
  0.2016285685596119  0.7992940916373237  0.9989561626539903
  0.2047825620902983  0.8005812207772991  0.2003594969237406
  0.2015127230715013  0.7996436728765303  0.4023484242997279
  0.2004869678944621  0.7995300688070723  0.6016451310167853
  0.2008407327764934  0.7995544214100861  0.8007749049980417
  0.3996906440994222  0.9998404191039448  0.0008059355449830
  0.4008370542899410  0.9965422671749700  0.2013493801920909
  0.3985046931971641  0.9985771181348537  0.4015478812046780
  0.3998500720185663  0.0001876834434279  0.6016263293431698
  0.3994607794498667  0.0000843897329976  0.8011544991154660
  0.3993306974480623  0.1998251478733589  0.0012888156905007
  0.3884186038680091  0.1899637752025884  0.1999381544497274
  0.3973037086023761  0.1973060581586837  0.4033878309947116
  0.3989705517858656  0.2000612881871968  0.8012815115073354
  0.4006697521666889  0.3986128820385381  0.9973476166912411
  0.3907166678152908  0.3985168379562138  0.4085304228863204
  0.4011852151177698  0.4002011281890263  0.6020753620465904
  0.4013872007761634  0.6027088505662600  0.2015222629374203
  0.4019918856167466  0.5983331207337651  0.4024123363181961
  0.4009821779883547  0.5989948474332845  0.6008453731274204
  0.4009570999471547  0.5999412610977389  0.8002561205707464
  0.4011221862278090  0.7994381092021549  0.0000858601000346
  0.4022186363346186  0.7991734506943559  0.2005071204576206
  0.4000109175429351  0.7999324570909463  0.4016793057404612
  0.4004151776030100  0.7990899745798073  0.6015235345773053
  0.4003478755624745  0.7993530500005559  0.8004860697360456
  0.5995231332658997  0.0003135783027852  0.0005846482416009
  0.6002894051255697  0.9971237272379467  0.2006417588967983
  0.5984325381951884  0.9968941925829025  0.4008356671957029
  0.5995891066961069  0.0001269086960467  0.6014621270418672
  0.5989908081048808  0.0001833575674419  0.8001095492951832
  0.5981753143896320  0.2007758878761519  0.9956115897476044
  0.5971201695925541  0.1888448814229952  0.4061370065122401
  0.5988826055713512  0.2009352776132673  0.6005113530611145
  0.5971054056087413  0.2000583160564144  0.7991137040482778
  0.5999610898219243  0.4012626307150074  0.9923566468789149
  0.5995417963136151  0.4006116608017405  0.6021887786649648
  0.6000675715115965  0.4019518414244039  0.7977610078071574
  0.6006400869569440  0.6013005365632548  0.0005424533959229
  0.6012776187905857  0.6055778037271641  0.1995952617383554
  0.6012454632719526  0.6090088707899111  0.4000491547664964
  0.5998240276837584  0.6011504078514155  0.8003960148038367
  0.5997838684487607  0.8007435576366391  0.9996735138903593
  0.5992234344901141  0.8021687045023260  0.4011324693244986
  0.6003121864807377  0.8009107984096142  0.6012507426798953
  0.5997734623997922  0.8002006974598793  0.8011775931172123
  0.7993639605661645  0.0010285177012338  0.0006257778594485
  0.7987934914631163  0.0016416977204277  0.2001401751134016
  0.7997419569077414  0.9989515805539799  0.4000343817914246
  0.7993984777932718  0.0007720927364498  0.6010104371267673
  0.7990797491545346  0.9995657763733929  0.8011914073310069
  0.7972973280028440  0.2003675894710309  0.0005114528036886
  0.8012540838071510  0.1990537233705618  0.1997143860153757
  0.7974451452084067  0.1953216816649711  0.4005439903115325
  0.7984054957728971  0.2007489246735001  0.5998729330480292
  0.7939847772611937  0.2009970209520187  0.8001643580808926
  0.8011191226049085  0.4009732092452106  0.9978627204390642
  0.7993358002703088  0.4000151455112082  0.6025623475909258
  0.7999032162232816  0.4017411456448346  0.8008728924319863
  0.8010586150284716  0.6030798052644353  0.9980586405678296
  0.8003022756373445  0.6065831435040496  0.4014066351382527
  0.8002380477823490  0.6005226703097442  0.6010596949895787
  0.7992894757371304  0.6009594397826197  0.7998924372857141
  0.7997733289773223  0.8010110543819451  0.0002943113142042
  0.7974236003345836  0.8019251894943736  0.1996384140414267
  0.7998983671338361  0.8019817875677111  0.4001997033353456
  0.7992933951741990  0.8006547438987268  0.6010422464625921
  0.7997847503925848  0.8004331498628826  0.7999039681892873
  0.0007858258618454  0.7999682535864601  0.9967924746590829
  0.1996757088122053  0.1998572403002123  0.0011230190763003
  0.2011835662109425  0.6003359811984956  0.8013222717205337
  0.3996918276938049  0.2002177336799816  0.6019882164620237
  0.4001392436377542  0.4002117147900078  0.8002552193693295
  0.4012684906281033  0.5992567636152134  0.0006136717286621
  0.6000241222338324  0.6007149887590465  0.5999541846656697
  0.6012510821662529  0.8009800630230476  0.1994319784552256
  0.8064815593606942  0.4017650731512011  0.1941770702013500
  0.8012540733391347  0.6028733084832293  0.1993758338834651
  0.9975565510106291  0.3986902265026278  0.2014516888781601
