Zr Ti V  Cr W 
 1.0000000000000000
    15.4759761583231921   -0.0117366079554953    0.0050420112375745
    -0.0117382705328058   15.4638317269542895   -0.0006798090525287
     0.0050607535930454   -0.0006880630623193   15.4980063975636977
 Zr  Ti  V   Cr  W  
   5   8 106   4   1
Direct
  0.9991104215085855  0.2014565181957561  0.5999526309019469
  0.9965887734242853  0.3993491501099756  0.2013615831133322
  0.0001193537925843  0.6177290842947881  0.1801875421143975
  0.5976619098916857  0.3852313666702041  0.0249031053772198
  0.7869539548763911  0.0211930084505798  0.2013606467231089
  0.1973905846708361  0.7950135422304985  0.8030456612245203
  0.4066632664105551  0.8016377774426948  0.2014454615800556
  0.5819922390771898  0.9976058398879670  0.1951470791311515
  0.6146380595565276  0.2055207468148114  0.1938774338573040
  0.6005310113090638  0.2081298145884771  0.6046207781440807
  0.5987215092831807  0.3897121229022887  0.7887713467615108
  0.8241274799438189  0.2284368805811070  0.2094750833685777
  0.7662963671459453  0.4083885382393784  0.2015407774245169
  0.9995082423632230  0.0000153474924935  0.0000524034411657
  0.0011119232137391  0.0027333671512667  0.1996276215885889
  0.0000775087471772  0.0006664241928687  0.4003097394649398
  0.0013627032533011  0.9968842435886387  0.5991134748285072
  0.0014587457706505  0.9976226655535974  0.8003431059378883
  0.0023672505424240  0.1969116119435369  0.0007120638473577
  0.0104716244784445  0.1947582829233914  0.1991428941660216
  0.0013748628377581  0.1996405250004098  0.3955650444269619
  0.0015584648377200  0.1990866252266851  0.8038003307721432
  0.0019554492991143  0.3957772347311853  0.9949296981715848
  0.0000530562099157  0.4007097587592139  0.4060201743675343
  0.0010926090499655  0.4046239136394751  0.6000263239145583
  0.0017588729001978  0.3986428520726391  0.7982145722535228
  0.9983911229803489  0.5989587029989393  0.3952731645664678
  0.0001420853849132  0.6015940764074468  0.5982089927143432
  0.9960844666664448  0.5998014802935175  0.7986248716532073
  0.0001681485626497  0.6639022023207773  0.9972458998893440
  0.9975363220224613  0.8121072289301234  0.1999214501293709
  0.9991201034899286  0.8002599063329385  0.3974633113483869
  0.0007385786684954  0.8002936497490361  0.5973848210233897
  0.9995744583767066  0.7993048161437554  0.7981336703688483
  0.2006531620942300  0.9979451674889437  0.9995832240973546
  0.2006936766924914  0.9988671388767472  0.2002399919247567
  0.2015433533886876  0.9990638286873682  0.6001462888246708
  0.2032996889376186  0.1978219402964653  0.0005974863101051
  0.2059105086241193  0.1998073524403219  0.1999531084898051
  0.2016952984873899  0.1991661370784429  0.3995403871055257
  0.2052763925152688  0.1993909965639759  0.5991447015114200
  0.2026571898740688  0.1985321187744999  0.8010944606743187
  0.1991140078946281  0.3972318052260531  0.0007741036635170
  0.2047039006157410  0.3979337071010738  0.2016254830529930
  0.2001186292940491  0.3985514150860609  0.4002720866560592
  0.2009648521439593  0.3999204467068428  0.5995374119036053
  0.2001332243882741  0.3986298857091731  0.7988028851100987
  0.2003438705159249  0.5982520063945094  0.0001711427348748
  0.2042816911074645  0.5986679601921754  0.1999505074706583
  0.1999727013767060  0.5985094677981423  0.3987591488955016
  0.2006419802087992  0.5997548337101422  0.5993077265294818
  0.1987222434705372  0.5962724149258875  0.8007480638526953
  0.2025178285185669  0.7984833965767576  0.0021537062320696
  0.1981383173245233  0.7998978213035856  0.2001828548468587
  0.1999975653021359  0.7994582826213269  0.3988651961225260
  0.2005147512060855  0.7995221957260876  0.5974212081832624
  0.4002993995205020  0.9988555858477958  0.9990650814582939
  0.3948711831760015  0.0035197483601629  0.1999910228085570
  0.4008658423578813  0.0006452004718065  0.4010219964470964
  0.4003830195239010  0.0002695676107798  0.6002576042835115
  0.4001223168159397  0.9992775903809387  0.7995481998637910
  0.4045124966539090  0.1985230767823394  0.0008227949040991
  0.4039276460544772  0.1979837852002271  0.2003913008651790
  0.4042501161904769  0.1994423604563809  0.3984869740133853
  0.4004292233699140  0.1993678045396825  0.6005992322886711
  0.4025359759376560  0.1986822707018595  0.8018196184450456
  0.3942340969220188  0.3982540670086553  0.9994165493998485
  0.3990113609044101  0.3986965825498668  0.2007374953475513
  0.3993545142768118  0.3981154890980461  0.4018701575470557
  0.3997713983342898  0.4003970343726135  0.5996335922314103
  0.3982185874809441  0.3979014667798791  0.8000915316477047
  0.4008986086495875  0.5969796883024326  0.9987026368345767
  0.4004692909407731  0.5992620799987480  0.1986886601615231
  0.4003825901825290  0.5986616927752497  0.3999507224149744
  0.4004782546096806  0.5995205124262369  0.6013181548613244
  0.4023584465832374  0.5974015462021395  0.8002994817151114
  0.4003179813583154  0.7990663250143140  0.9979191278936903
  0.4001699987838707  0.8004792511666746  0.4014319823466076
  0.3996937463240956  0.7995956323581751  0.5997979878711162
  0.4025345055831937  0.7983551326264443  0.7996890504027739
  0.5989877621257564  0.9949806913574561  0.9958590180434856
  0.5996445674374927  0.0012680537301721  0.4023148159987979
  0.5992561578100281  0.9981523724450594  0.5999139658720930
  0.6009571803554777  0.9966034616323181  0.7975168207629960
  0.6034098688255622  0.1876586107566089  0.9964875619346495
  0.6034565351568547  0.2000008884278532  0.4010097548074030
  0.6017786228120227  0.1942448826296613  0.8031077612558855
  0.5837459888085313  0.4069385741677419  0.2164920498251680
  0.5991641206776173  0.3993398325085998  0.4031240259508902
  0.5987455294113090  0.4045730963576641  0.5960738326793004
  0.5992475014618560  0.5985487334490877  0.9996223671994873
  0.5976834258315084  0.6019557741949069  0.2004989317726177
  0.6001338804570419  0.6016604860578777  0.4003809233324263
  0.5991055854348867  0.6015803163766303  0.5984194129152415
  0.6040075458072758  0.5984174090953993  0.7997432439862262
  0.6008500912855113  0.7978519848363653  0.0007166876949951
  0.6029449848957482  0.8000042550285104  0.2006599189276305
  0.6011077457371392  0.7997902970143252  0.3996905323241542
  0.5996919415967440  0.8001458555219053  0.5986622656980467
  0.6001200558981289  0.7985988263668263  0.7987128170296517
  0.8002352337091733  0.0012568328066535  0.4051196967454088
  0.7990565112246590  0.9995328910738772  0.6017236480156649
  0.8009771580450687  0.9981621533844182  0.7976767040645083
  0.8018608433750467  0.1992414224135791  0.9978174142328488
  0.8017564829924694  0.2005470032196625  0.4074553614585436
  0.7969545515283564  0.2015200671843845  0.6036996044793086
  0.8016892484442327  0.1994211467689271  0.8015659301300794
  0.8041191185157303  0.3999336081106973  0.9973601303827310
  0.7978837942461873  0.4001251713515926  0.4038352290489294
  0.7988224223657739  0.4019235479648625  0.6004941931642943
  0.8019710338740086  0.4023569443239965  0.7988320586761843
  0.7998676248076126  0.6002261979514990  0.9954165132436030
  0.7990765288656638  0.5988249806170957  0.3999448792072908
  0.7995344066985298  0.6002775617435692  0.6041850125792321
  0.7986488686553332  0.8013553538622875  0.0006291938654897
  0.7994938335325898  0.8028689098519877  0.1998895440476857
  0.8002018460944403  0.8013987679018848  0.4000464151831920
  0.7995129716975877  0.7994396565285913  0.5983749368499468
  0.8010654100558713  0.7949443910777292  0.8003618182346584
  0.2011081832609942  0.9998136618809578  0.3996491842760770
  0.2014023268785571  0.0001748021171037  0.8001791193777646
  0.7999963572980926  0.9985734044599263  0.9941041531932996
  0.7938587983748397  0.6037069758393827  0.1987987024255898
  0.8003491475523026  0.5986776477985543  0.8003198261573328
