Ti V  Cr W 
 1.0000000000000000
    15.3947628529237015   -0.0004726939770559    0.0021267196503963
    -0.0004726263884090   15.4017912768726095   -0.0008921615345846
     0.0021270963932924   -0.0008941263393480   15.4191178141427301
 Ti  V   Cr  W  
  13 101   9   1
Direct
  0.9942817780928442  0.1907218452406794  0.4007069451527208
  0.9997913815761288  0.4027836046797763  0.4006714668743234
  0.2064407562713831  0.0063251638784151  0.3925403837443449
  0.1982987163060489  0.1975480637768488  0.9968226252942756
  0.1984134764124962  0.0980731178646262  0.7988469023528698
  0.3971404876034823  0.0057726774139958  0.2038852883686858
  0.3945583389972005  0.1944289582994244  0.3961430044540137
  0.3998041376054235  0.8022358071929705  0.3980628475718705
  0.6047292042974323  0.1942107289494251  0.3991103325098069
  0.7986925276615757  0.0091358579832470  0.9978610237411819
  0.8015703715429318  0.0078416689579974  0.3998798737070063
  0.8000059636981224  0.1915642675285709  0.8047588089782893
  0.7993316497616961  0.4015283703610996  0.8017028411798084
  0.0014548910498067  0.0004640044335655  0.9995376619405238
  0.9999558072953730  0.0000900664395438  0.2001911782208854
  0.0021262878723407  0.9970063378287511  0.4005818819499282
  0.0013511765677027  0.0000640544271000  0.6007437310436837
  0.9977313026780682  0.9998518134653436  0.8008165356406711
  0.9979828293674070  0.2004806322638842  0.0011031091674303
  0.0014158568511233  0.1995439975339658  0.1984369372578530
  0.0024222942224121  0.1987818871734088  0.6038417914004544
  0.0071792171003894  0.1975375175767602  0.8013800514110766
  0.0003235084819331  0.3999690644004091  0.0005148606376331
  0.0009545133020430  0.3988655489166898  0.1984591383187823
  0.0005285129172756  0.3977960873434369  0.6033420712386729
  0.0036576351900667  0.3975980909587858  0.8016061123140887
  0.0003279984375034  0.5996052390128391  0.0002067815498608
  0.0002566616891146  0.6010721161483702  0.2005486719921048
  0.0000193287911456  0.6015101455871480  0.4007480347307552
  0.0006653124321412  0.5999179676314681  0.6006963645156783
  0.0001450071196092  0.6002479266628954  0.8010670900563142
  0.9995361839637537  0.8005420011519653  0.0006305290645225
  0.9999128856196067  0.8018917665038230  0.1997691679364501
  0.0006480170095904  0.8007456265903352  0.4007845589762782
  0.0004654765690377  0.8017569628168586  0.6009096693780863
  0.0009503137336113  0.8018879076772083  0.8004995708474764
  0.2010214532928935  0.9990943322667487  0.0029321554985320
  0.1978142345165921  0.0019050824843549  0.1968538406735235
  0.1963934709133391  0.2038335614482134  0.3982098533301937
  0.2040403083683190  0.3999560060395800  0.0001616128329185
  0.2003053669999611  0.3986827688135177  0.2010346808839091
  0.2023679134149674  0.3994552196365511  0.3996136465725993
  0.2013108444750895  0.3971919860843606  0.5994384588431094
  0.2002791102863207  0.4008608029365751  0.7998218425692383
  0.1998401880463379  0.6005681162041629  0.0018064691242442
  0.1995342659744028  0.5997998049467477  0.2017921757511927
  0.2009377291683854  0.5998026531051479  0.4006375283461769
  0.2003665975034978  0.5992268037492773  0.5987774043377223
  0.1999299557935521  0.6007051570466879  0.7982130547906996
  0.2010194068279500  0.8008300308827672  0.9998051450222258
  0.1993961465356336  0.8003159251533801  0.2006408747829264
  0.2000986657085884  0.7992963583424220  0.4001851440430433
  0.2005251967301759  0.8022586129480782  0.5999285170395129
  0.2003817479350079  0.8003114717004455  0.8004853066565918
  0.3997381940046209  0.0013612934861543  0.9980442854248645
  0.4035869142437747  0.9997196920908077  0.4042155895716143
  0.4017577281870393  0.2028593271674990  0.9975409994707225
  0.3999265515417965  0.2026858651386478  0.1962297955257826
  0.3974630672039181  0.1996242064832732  0.6035825872399928
  0.4012663754018724  0.1985853199594301  0.7997620851363354
  0.4005359908296250  0.3997099924103545  0.1974853374314380
  0.4012810990061639  0.3993987009993560  0.4001192096822218
  0.4003457692683930  0.3980989144225634  0.6011219654861718
  0.3989585841506480  0.3984060958672646  0.8039152017643398
  0.4004322566435548  0.5962592793583399  0.0002830272795242
  0.3999182313749569  0.6003101659446547  0.2021174426903417
  0.4000996653668368  0.5992760477791299  0.6007645233085301
  0.4003453872042164  0.5999701019764567  0.8005452444585235
  0.4004111368710206  0.8001165798187029  0.0003787373334831
  0.3999198355187225  0.7996817054271624  0.1976441938570036
  0.3997062704738500  0.8001978697152896  0.8013004782951020
  0.5972889325351268  0.0005196704419386  0.0002668356943167
  0.6015884503808904  0.0000904327760114  0.2005957457209533
  0.5984789984061828  0.9967912760055601  0.4009526220980903
  0.5998259998294568  0.0004295313259279  0.5998386173856826
  0.5996048681463275  0.9983535241068731  0.7996713034515388
  0.6012871949552390  0.1997852865719696  0.0010165276068093
  0.6016507913559332  0.1989687823328155  0.1993633406330399
  0.6004541620400377  0.1993670993338965  0.6012717551235793
  0.5998157126957731  0.1983498649750767  0.7999225964421033
  0.5966105955348728  0.3996050936239072  0.0014205435133894
  0.6000368919073508  0.3994118689251652  0.2023879206811405
  0.5988947917687979  0.3988684783773490  0.5999048845253064
  0.5992121303739332  0.3991162219529520  0.8005878234108104
  0.6004197176329445  0.5997832583322751  0.0015980377923963
  0.6011644141275212  0.6014108992821825  0.2018926957956602
  0.5996024490712399  0.6003400634432944  0.4012589700100251
  0.6000567751312400  0.6000084908213116  0.5999510628064215
  0.6006231971887638  0.6009202711661777  0.7996926945963657
  0.6003083694310878  0.8005628752081854  0.0010496681737604
  0.6005894176324361  0.8014137247460140  0.2002514113525458
  0.6020237171439612  0.7998648371901974  0.4002610925469232
  0.6003466681236218  0.8007157217244670  0.6005137300338378
  0.6008476396143668  0.8005715233642723  0.8012450051060686
  0.8003044593783574  0.0023416068927273  0.1993782883496396
  0.7997191820161378  0.0012081609860453  0.6008733756498125
  0.8000830281146940  0.9965570640124809  0.7975778067543491
  0.8000919912732141  0.2054276599536721  0.0036847393070529
  0.8019853336589446  0.2017735011677870  0.2025510520576410
  0.8003129057271811  0.2060452605266166  0.4006307553831774
  0.8020331753419797  0.2004127217776702  0.5992511388254097
  0.7986551816241847  0.4012863468707022  0.0034199763398894
  0.8002236881057745  0.3997861402606098  0.2019832959715470
  0.7967109624632642  0.4026461429431958  0.4008341162120436
  0.8003635950260851  0.3985240206919310  0.5991835657508490
  0.7998044100984979  0.6000241817255914  0.0017195493952780
  0.8004051957061361  0.5996475044633580  0.2015928527928111
  0.8006057014724963  0.6014377216641910  0.4005320397614853
  0.8002687673488597  0.5994816750236762  0.5997604769765768
  0.8009752864084491  0.6012663574990471  0.8001116282653403
  0.8012066849333325  0.8020901536328857  0.2001703428621366
  0.8002240176907686  0.7999489630612998  0.4000298454804432
  0.8011399572816643  0.8011698076339065  0.5993748773422729
  0.8002645376081791  0.7993046478358156  0.8011516805576665
  0.2010639200803173  0.0017484739205846  0.6017330633287075
  0.1992094687950382  0.2007352997107373  0.2000933540740983
  0.1995700029957860  0.1987775025435681  0.5944541080151078
  0.3994609478031877  0.9998536340047602  0.6013652914633733
  0.3995440837289796  0.9998434750363636  0.7988104269178570
  0.4005595356508400  0.5984618074801081  0.4008700437700638
  0.4001072449807651  0.8009068841527225  0.6027610617351294
  0.5992561451417863  0.4013725438268944  0.4005402230354962
  0.7999194026158069  0.7989340361519238  0.0006511863449901
  0.4005744121160181  0.3998823908198860  0.0012608051216482
