Ti V  Cr W 
 1.0000000000000000
    15.4073529780286407    0.0026422717652441    0.0115039126781883
     0.0026423919818586   15.4169890810637895    0.0057190451176722
     0.0115025714523025    0.0057202193077188   15.4178430470237693
 Ti  V   Cr  W  
  13 101   9   1
Direct
  0.0014093672351958  0.4007863537129260  0.5956267993836529
  0.0009812991765507  0.4000229254322936  0.8086220588550209
  0.9968221187243509  0.6004896162755919  0.0089549619568509
  0.9905931792803631  0.6038389020731104  0.4149727461999281
  0.1975126624350658  0.8091663956227875  0.7990265088048863
  0.4041480855293828  0.9988425359098119  0.4002692829802216
  0.4014126039838082  0.6038505477917114  0.9984443343383815
  0.5998923664929758  0.3977290697990878  0.3905591967005064
  0.5994159072834072  0.6067197902754941  0.3939329943850046
  0.5993824331596876  0.7934790712016188  0.0020579735051836
  0.7986788285182418  0.0002943277611855  0.9982531877940813
  0.8072840607481182  0.5982370719446544  0.1890161948256865
  0.8080661074174891  0.6035311877823062  0.5926758007066972
  0.0018546069352592  0.9991744518149928  0.0011855402161582
  0.0002823103198307  0.0001425487514268  0.1996525768965393
  0.0008351792389820  0.9980790204383081  0.4012410147521497
  0.0012297398820079  0.9997499614055858  0.6010507622510779
  0.0002517247298188  0.1987519430298297  0.9997683187720892
  0.9997450509855044  0.1985169145136385  0.1998049790512258
  0.0002900313239129  0.1994822896268391  0.3986128576359775
  0.9972214945618127  0.1975664987886405  0.6017561544437965
  0.9993624880893871  0.3980883579378314  0.0020214599825502
  0.0006012259251312  0.3987864451664792  0.2003350350128108
  0.0029405703065522  0.5999476947767771  0.2041513253941865
  0.0053145750284129  0.5938882234981384  0.6066350339358392
  0.9988034002787971  0.8010501411674836  0.0019584671695909
  0.0006528354005914  0.8002444487161333  0.2027717640357063
  0.9988763099019003  0.8013571692665559  0.3991233165663023
  0.0010981038145740  0.9969779130941274  0.8002556486508219
  0.9988062288541182  0.7984324247167268  0.8042620556270150
  0.1999168912142721  0.0013969968784043  0.0007309591812272
  0.1990638673551104  0.9998425912512766  0.3999927586713302
  0.1997794320064772  0.9988443063646184  0.6000979634171367
  0.2012778753544973  0.0036879008308389  0.8008913982276313
  0.2001804898997014  0.2005239317357702  0.0003482625126632
  0.1996869542550979  0.2015267406884089  0.2004185154341132
  0.2000713535732472  0.1999285446960610  0.4009175671521447
  0.2006738951364199  0.2002584789930005  0.5996269386827012
  0.1999327843524515  0.2018309367614502  0.7991169648543510
  0.2005299260741084  0.4012583138077696  0.0005036418377611
  0.2003537646053737  0.4008036159408143  0.1997088369961996
  0.1985156958991291  0.4010017669420510  0.3986238585424400
  0.2027348989800110  0.3990877256135552  0.5998022724300062
  0.2022587895800722  0.4016535748092480  0.8007622805944931
  0.2002965498592996  0.6010477220942458  0.9999951429208844
  0.2006066160161434  0.5996584780056731  0.2018316755737054
  0.2008013197114733  0.5995040135581448  0.4014538575955572
  0.2003319508430362  0.6003754652309184  0.7999341989906893
  0.1993755905296533  0.8001565738134895  0.0033612001299594
  0.2003518356559598  0.7996129079223651  0.2009710765104900
  0.1982428499461705  0.7990294195316419  0.4004409016576448
  0.2046677360156615  0.7980287563305882  0.5998155081067242
  0.3994756633432365  0.0002857790816990  0.9998399680983423
  0.4004965987626215  0.9999528188151842  0.1981800705071072
  0.4015468299904107  0.0001898686196571  0.6026957947405306
  0.4006546131054681  0.0000221708309345  0.8007853123013521
  0.3994372064292429  0.2009834848872784  0.9990591197439354
  0.4009154472120504  0.1996996983555843  0.1998944135182154
  0.4003157262513076  0.2027019558229910  0.4005077781831591
  0.4018565481960676  0.2008747755947559  0.6002810345475005
  0.4017988897157707  0.2002758603928408  0.7994732640001317
  0.4011188758394089  0.3990719501515063  0.9998803214958898
  0.3996811148028722  0.4008530266213390  0.1994482802557460
  0.3990149719832279  0.4007984949964916  0.4002756687186544
  0.4011371115710683  0.4016092226493878  0.7990313897999913
  0.4005022934696094  0.6001777453875703  0.2009367827883782
  0.3991206981387225  0.5988467200615450  0.4003281613164709
  0.4018966578376688  0.5994484851531732  0.6005192225443643
  0.3978544083122233  0.8018183004608240  0.0001620834460216
  0.3996765157357948  0.8006558452123517  0.2008695760554053
  0.4016866235523301  0.7969743175383162  0.4003919005313269
  0.4009512156908143  0.7988517173287942  0.5990627976925762
  0.4039197118256144  0.7992785796122516  0.8004715561782529
  0.5999176237837084  0.9999897277082426  0.1975119867780871
  0.6028948454302226  0.9994560170049749  0.3984594487562544
  0.5992114584064546  0.9999363255063384  0.5990603350300480
  0.6007063876148097  0.9992148247163222  0.8011361374905457
  0.6011404041445804  0.1996630904108551  0.9988153289178255
  0.6006234807424043  0.1995914690426748  0.1988518763020199
  0.5998257328732010  0.1983880584947714  0.3980826569986118
  0.6035951134063839  0.2000345903684844  0.5992481899399583
  0.6002562150137550  0.2011968897969549  0.7992724653193979
  0.6000359443383791  0.3992304887103494  0.9981034793444493
  0.6003301960439554  0.4003555101165219  0.1952459078107926
  0.5995745691256475  0.4030525544641400  0.5990634638026473
  0.6008138224275223  0.4010730786234330  0.7991363974001919
  0.6010948005772934  0.5961799946956401  0.9967780973120903
  0.5983064672910955  0.6008368732779810  0.1934814337176596
  0.6008954563368958  0.5997318956446062  0.7980394762748954
  0.6004012545913164  0.7998990920177677  0.2009329231689790
  0.6007913559903422  0.8026067215216167  0.3987366777063351
  0.6011246424438796  0.7997020483916399  0.5998777496966227
  0.6017574738085799  0.7996538481027986  0.7990252057587325
  0.7992173439830339  0.9997355334549963  0.2007627910701557
  0.8008717040626233  0.0000957021831502  0.3982846879082250
  0.8011852371760654  0.0025644042096835  0.5995144034575214
  0.8003019131887956  0.9990756674576211  0.7985979062252370
  0.8001079060451657  0.2016878564586537  0.9975701840040204
  0.8003960081091139  0.2001578892628061  0.2000419660812959
  0.8011064235360681  0.1994163813044229  0.4030368858998894
  0.8011792282892374  0.1994782737238790  0.7948677541726451
  0.7998467910041356  0.3991506090423607  0.9987366829419545
  0.7998902726392626  0.3981369130832904  0.1984073178172753
  0.8016481967367192  0.4000438257914835  0.3966141933964162
  0.7976357394167444  0.3944628680276073  0.5972317187121814
  0.7996081870204548  0.4016700448598929  0.7982449062800518
  0.7971603507854719  0.5986933001494762  0.9929630615706434
  0.7962195044713966  0.5992458092684897  0.3960252317988569
  0.8025942786322466  0.6001562630239512  0.7970239051341805
  0.8003697486956483  0.7971732537763566  0.0001589850620241
  0.7997940994544996  0.8017574869619057  0.1991192615485797
  0.8001280059735342  0.8004905930034956  0.3998856685305109
  0.7982660929055634  0.8023369865221752  0.5981911994562352
  0.8009277499824766  0.7997136663987281  0.7971382619423818
  0.0004710782439306  0.1971941750595384  0.8007545826728318
  0.9997776866575473  0.3969682280846291  0.3968178519943878
  0.0008255519124003  0.6037373799013215  0.7998324363911941
  0.2005557709573704  0.0001287001594852  0.2004084002015755
  0.2024109538641304  0.5992049069594618  0.6000824639983350
  0.4010983535792846  0.4000363341675736  0.5991162230238933
  0.4010290987077059  0.6005673368962128  0.7972088599526520
  0.5968833517286928  0.0017357115685543  0.9997979923590936
  0.6001898883497901  0.6009296856837387  0.6006661215252626
  0.7996482617498181  0.2000147074305700  0.5973425445447970
