Zr Ti V  Cr W 
 1.0000000000000000
    15.4218125631900325   -0.0059686382723848    0.0062585989012477
    -0.0059677460242910   15.4281327699692579    0.0068346148581175
     0.0062604253005019    0.0068382331099848   15.4329886035241781
 Zr  Ti  V   Cr  W  
   1   3 110   3   7
Direct
  0.3988629471299506  0.8024256072590918  0.5977771862235733
  0.2012424755740774  0.6063122743848266  0.1904169354963287
  0.1984042241275931  0.7901528276937326  0.0074353847517794
  0.6002106589267336  0.5975460185654464  0.5815084403802318
  0.0021826457147469  0.9979207587164436  0.0003289662213157
  0.0003954405768437  0.0032136601926385  0.1993909591885398
  0.0006307402951628  0.9946876963320977  0.4001919814518375
  0.9995030317382431  0.0013487832856947  0.6013730259360073
  0.9990450434091883  0.9987939880713534  0.8015837891885343
  0.9991452924258608  0.2000005157532954  0.0028868618527491
  0.0005016054854824  0.1997657214510151  0.3962530342441001
  0.0011131372812739  0.1996322152653450  0.5990204679772826
  0.9991321592796529  0.1987058545387797  0.8012436524025633
  0.0051004345377511  0.4005037919102048  0.9999959793952029
  0.0008646182045202  0.3974564710915061  0.2001773280160789
  0.0010584463241629  0.4035441274654724  0.3991733842274904
  0.0008330840770911  0.3995841807966268  0.5984795825071390
  0.9974072641254390  0.3993365570727217  0.8009615461675043
  0.9995920022745719  0.5996261881449427  0.9995817216842908
  0.9981641885851638  0.5988718595405469  0.1993340781386433
  0.0013844823210654  0.6040355836737485  0.3985711928383722
  0.0007160791030221  0.5986580002385388  0.6005829249788577
  0.9998384054779091  0.6012402598345076  0.7991834534027735
  0.9987854482040617  0.7990247791494105  0.0016564327147461
  0.9995222203380542  0.8005210673482156  0.5969371180799384
  0.0003493953905027  0.7988960671824665  0.8001744717849272
  0.2007118911085951  0.0014197328180463  0.9995145520782918
  0.2001638707716515  0.0012007165422006  0.1998529544979792
  0.2009460556811220  0.9991350296440030  0.4006904702912629
  0.1997986661979035  0.0053327913359302  0.6009654515588151
  0.2007049099880595  0.9978270675462261  0.8013293080380213
  0.2004875831465180  0.2019913119099118  0.9991112118506282
  0.1951480047665396  0.1996001797339713  0.2017201921958262
  0.1998701809823676  0.1998714702774410  0.4031491590905573
  0.1997200150159929  0.1988469681700288  0.7958406549286374
  0.2004968132774239  0.3975480074893485  0.1955900003634807
  0.2006664250894094  0.4022894549882066  0.3982590885155687
  0.1996890155515374  0.3948695240470315  0.6003188818572857
  0.2010136211284640  0.3998743819499860  0.8023821594633127
  0.2008258132744676  0.5910104384675161  0.9936315728380494
  0.2000482467647504  0.5965258416007208  0.5997724496102558
  0.2009943139402597  0.5991689228453688  0.7971555248980542
  0.1990967275613679  0.8032166699994143  0.2038170279311670
  0.1945934919387484  0.7985539110540683  0.4003926885560116
  0.1956222712893643  0.8004605582964929  0.6009361961229116
  0.1997135418808243  0.7977104838576050  0.7991851942855863
  0.3990369980524852  0.9990363413289562  0.0006541326481933
  0.3996966307395057  0.0003557461781820  0.1992117740523323
  0.3989918731006730  0.9976709053079987  0.3983138672250592
  0.3997054566605369  0.0043818311387185  0.6006005017440970
  0.4004194895369061  0.9969392509964637  0.8022405836959823
  0.4005040853356454  0.1991151396614435  0.0011488312961257
  0.4009696631167673  0.1985292167420624  0.2008782936750861
  0.3995549985473260  0.2007079469194494  0.3980441118575644
  0.3994848053872211  0.2007187607387320  0.5988142822084644
  0.4010306109543614  0.1989811451824264  0.8007888416429646
  0.3965031685434979  0.3990190793009513  0.0006898857357876
  0.3999400115409095  0.3997337294574519  0.2007021274466590
  0.3993197315613105  0.4017656993662677  0.3978396260556840
  0.3991182937754595  0.3991881590196144  0.6001403675726330
  0.4005067697961189  0.4007495239195407  0.8002143883096773
  0.3996816562530667  0.5993755872792615  0.0010355182186294
  0.4018503682009230  0.6006672449941599  0.1997362008117937
  0.3984354584925918  0.5998239075497266  0.3989277394827118
  0.3977690649754823  0.5957793952497156  0.5999085376972955
  0.4052445168141461  0.6001245829053595  0.7992147312764559
  0.4010243963646277  0.7985283344385108  0.0022783501525490
  0.4002798270514685  0.8007980110523828  0.2004797811061597
  0.3981238891293828  0.7979015827982934  0.3948266949100817
  0.3996586228334795  0.7988589137684788  0.8043601286168865
  0.5991164890683074  0.9989926538838128  0.9987021711352314
  0.5993867065296100  0.0003676297606745  0.2000980186396759
  0.5987830297889927  0.9979531143064556  0.4009625786890115
  0.5998875968385532  0.0044767040728665  0.6010030629587371
  0.6006102469114811  0.9984522513431796  0.8006015393244235
  0.6016922291461854  0.2004999771685589  0.9971792403458193
  0.6037429987673868  0.1998707869125237  0.2024429466437934
  0.5993103250511157  0.1998359923807565  0.4034735990908692
  0.5985359979736729  0.1997587815390688  0.7960776314400102
  0.5977870491059454  0.3983794464244395  0.0005394359528954
  0.6003937670872936  0.3986781362520037  0.1993107066273907
  0.5992055484284831  0.4023853830118301  0.4010841196932933
  0.5997484008080153  0.3934687370609133  0.6003306258155393
  0.6014448327930240  0.4025011311265947  0.8001249073630510
  0.6003137062729125  0.5983728930094621  0.0012971034084486
  0.6009229455712380  0.5993885213124237  0.1990865379943312
  0.5996687230981222  0.6006987805211191  0.3949890042619627
  0.6004212546149108  0.7998041810470135  0.0024273452697924
  0.6013777352539271  0.8008479450236126  0.2010911271414123
  0.6007451883612226  0.7988950603147945  0.4004930504603214
  0.6045069800967271  0.8033632973409515  0.5998822887307927
  0.6008506649435803  0.7944973890113103  0.7996249933853360
  0.7999027831188616  0.0000101546788303  0.9991253867957465
  0.7994031331738738  0.0027444881549246  0.1999794942384199
  0.7988083021790038  0.9979078688776513  0.4004034710888974
  0.8007063975631712  0.0026870321576820  0.6013574755843478
  0.7998260380530143  0.9962952318374007  0.8012583740132661
  0.8002455487199400  0.1992426780559246  0.0059064829260989
  0.8002724352503690  0.2002832194503411  0.3971225736952566
  0.7978825587442535  0.2000024687360707  0.5947509646394370
  0.7994958979503199  0.3967813848404398  0.2010188349864935
  0.8007936179047231  0.4024203704243849  0.4001109187175894
  0.8019735736839466  0.3972339928278283  0.6014048820549277
  0.8007212666246245  0.4015111434588894  0.7999788221569725
  0.8012291254149178  0.5996972108372082  0.0017606012100261
  0.8006602177862352  0.5979760934328083  0.1992799865923810
  0.7994602349068050  0.5999554109572071  0.3996791998639015
  0.8018200242623450  0.5983968520919561  0.5994338145220071
  0.7968333616066935  0.5993607572210083  0.7999207525327623
  0.8012961432977389  0.7994777591782833  0.0018021557611552
  0.7996778125584759  0.8012503609819788  0.2004581516361642
  0.8034048941134430  0.7989637844821279  0.3995414053838062
  0.8008612276021789  0.8005256898956248  0.6014222254385206
  0.8008798099520594  0.7990205081816112  0.8001345689539909
  0.9989570138702607  0.8013709801100217  0.2014840328976755
  0.1998244891336945  0.5995019399094131  0.4009525573828664
  0.8010659788205561  0.3661287794632030  0.9669374420083660
  0.9970799420344992  0.1992829896345466  0.2014610423430379
  0.9980067638757225  0.8001678626333293  0.4019343895097729
  0.2003839161761380  0.2006337589698362  0.5993594628129348
  0.2008930159663279  0.3968904410315544  0.9978651334352755
  0.6005069731429131  0.1998160147343822  0.5998584499344184
  0.6009296123918780  0.5989836159493890  0.8083230789592553
  0.8024972538405686  0.1994551934689593  0.2011363854728826
