Ti V  Cr W 
 1.0000000000000000
    15.3947628529237015   -0.0004726939770559    0.0021267196503963
    -0.0004726263884090   15.4017912768726095   -0.0008921615345846
     0.0021270963932924   -0.0008941263393480   15.4191178141427301
 Ti  V   Cr  W  
  13 101   9   1
Direct
  0.9948728115931015  0.1911504455798148  0.3997137246437210
  0.0003092380885061  0.4043428703182406  0.4002502368576344
  0.2051372518826307  0.0064233374140444  0.3958759630486245
  0.1975469400461062  0.1984111940033131  0.0068649952409068
  0.1961220871713770  0.1979327546947346  0.7957749343876017
  0.3976353770920705  0.0049128956507374  0.2015179548465064
  0.3939571934866155  0.1958457386110454  0.3968315171162302
  0.3997875591935026  0.8014257777161837  0.3957066581429280
  0.6050090183686957  0.1962565905850311  0.3987968895601312
  0.8000290458345092  0.0097878970564234  0.9968991384434348
  0.8037872865486165  0.9958716279568052  0.4003642829436466
  0.8003772641726600  0.1914253602689960  0.8045801165042971
  0.7992346815893726  0.4014782379939274  0.8017264773926287
  0.0021623638500983  0.0015552851131331  0.9985303260363209
  0.0002352607660570  0.9997366029647785  0.1999905964534783
  0.0030860193626430  0.9996302810776386  0.4005939884785602
  0.0012403652539800  0.9996287220115394  0.5994022298756171
  0.0006108696156955  0.9997400405170573  0.8006081667494531
  0.9983264911723400  0.2009227236160953  0.0005881199796401
  0.0012030762070345  0.2000223135244591  0.1980366102129035
  0.0010920646628580  0.1994076430808849  0.6025843632239081
  0.9998578684116584  0.1991602808250287  0.8004746059287392
  0.0013742340078260  0.3998098970126468  0.9995652951182131
  0.0007435996004683  0.3987082015096664  0.1974991689477403
  0.0005491985541414  0.3979703007747589  0.6035058757293599
  0.0025756905547400  0.3987879725235020  0.8015461604232700
  0.0005197226126745  0.5988137295609274  0.9997258271982387
  0.0003920683713539  0.6022699874701640  0.2007575061019547
  0.0001991628187337  0.5981578830548758  0.4007789357011342
  0.0008005835566090  0.6005014500799708  0.6000676540437969
  0.0002285449503140  0.5997378560195464  0.8011345150097410
  0.9999805234328647  0.8006093816746354  0.0003849160928422
  0.9994474206896523  0.8021152412836096  0.1974551613418896
  0.0000364347186030  0.8009942978654641  0.6021960452035063
  0.0003181364022433  0.8007702256365458  0.8004380209276043
  0.2015930504816977  0.9992619605969663  0.0003777846793979
  0.1978349623644865  0.0021671270704815  0.1978278884946719
  0.2005317837097074  0.9983452273518361  0.7992458744533844
  0.1964290321060820  0.2039714574578393  0.4005363027105439
  0.2044256342522210  0.4004344533658137  0.0013149985885224
  0.2001429890283316  0.3990381894641960  0.2023665687311322
  0.2031800706338268  0.3997466763887576  0.4002847417305305
  0.2013977509682743  0.3986455406990063  0.5992435051552897
  0.2005250268766320  0.4005603027223253  0.8000476049146550
  0.1999762040287518  0.6004742587162329  0.0020482845153986
  0.1995962181904295  0.6002865990031834  0.2022719106538811
  0.2002189931512101  0.6013447055790032  0.4008543267227014
  0.2005738783280621  0.5992825137935387  0.5992916846455261
  0.2000635173665177  0.6006111797323956  0.7985642408534496
  0.2014913118919233  0.8001605066520384  0.0007463147793008
  0.1983330642554559  0.8013514632100668  0.2014161917502035
  0.2018943227739321  0.8011185887195804  0.4001605723786100
  0.1999126337105709  0.8007076207197870  0.5978636747928945
  0.2007664508271345  0.8002288522540356  0.8011273280383802
  0.4001933302074165  0.0016424825609889  0.9975699768519743
  0.4027072100864804  0.0003469721459444  0.4038450162591448
  0.4011999756350001  0.2030838905736268  0.9986743999379116
  0.3992207035557736  0.2023725081268270  0.1973347600030614
  0.3981984290282059  0.1995424228697185  0.6024423142740730
  0.4001114647054246  0.1986781089668380  0.7999817483837692
  0.4004783188353438  0.3995528465651594  0.1976761960802093
  0.4014843659218851  0.3995261453095398  0.4005164446692178
  0.4002563517838137  0.3978102536453434  0.6019076349564136
  0.3999408924563871  0.3991069737174978  0.8045292879169433
  0.4005267438789450  0.5957797798893545  0.0001694544245909
  0.3997198818965206  0.6000940239567218  0.2018032034536174
  0.4002150890572531  0.5987375775775021  0.6008722272548879
  0.4002391572133746  0.5994966857822430  0.8004965732989967
  0.4004353868220347  0.7993593013038152  0.0003598863582932
  0.4000912163626651  0.7995658067470875  0.1969249125934998
  0.4007283149963858  0.7989172758411077  0.8010980868351671
  0.5974797444786102  0.0008018497776401  0.9996674613579768
  0.6015976198844083  0.0007312001650628  0.2001413125021410
  0.5979574594056738  0.9971630775306959  0.4010574031612254
  0.5995215619185137  0.0007114316069892  0.6004137779737690
  0.5999693449251328  0.9984920473082367  0.7997231164540380
  0.6007812021201437  0.2000235127455555  0.0011518641466191
  0.6012241984867146  0.1989974798385194  0.1996457787179206
  0.6000788327678902  0.1992477929751902  0.6016288789472707
  0.5993297791682718  0.1980788737188614  0.8001224402782416
  0.5966209214138576  0.3993185079417902  0.0013296879795075
  0.5999672323184920  0.3993814157100090  0.2020589101589121
  0.5988915471383712  0.3985512121284550  0.6002712399754407
  0.5994234923149913  0.3984734504157901  0.8005744057540525
  0.6004413667090747  0.5994917631816625  0.0011466406060645
  0.6011236832347837  0.6011786483455920  0.2015867592425911
  0.5997879936484609  0.6003728558953877  0.4011837178115377
  0.6002075672353220  0.5997082707816350  0.5999362033100155
  0.6007434504731628  0.6005652352442025  0.7996199795892263
  0.6003864914139392  0.8005636416737599  0.0006296631048086
  0.6006713253556963  0.8013773040490363  0.1994658958138258
  0.6014694092781308  0.7997543269604406  0.3998289264050656
  0.6003180710032495  0.8005223695142195  0.6004328893837824
  0.6007100360878869  0.8005249311012032  0.8011288657453360
  0.8004224619231802  0.0023229043472765  0.1989282217244630
  0.8000086380818989  0.0012136060703589  0.6011512656875482
  0.8003360897000795  0.9963258074735567  0.7975338822812701
  0.7995292291404478  0.2058313959728947  0.0040100856994161
  0.8019449979779786  0.2016553018597855  0.2026526740569040
  0.8000716472796361  0.2052332733177626  0.4004876817786028
  0.8011101662909903  0.2001392951695930  0.5985059301610433
  0.7988379526961774  0.4011551132506511  0.0032907674170495
  0.8004079018997933  0.4005571266375314  0.2016071292158503
  0.7966000563424583  0.4027004815977207  0.4006458509733038
  0.8003522749940850  0.3988088195694535  0.5990877804518735
  0.8000943371720394  0.5997773293395973  0.0013755620716943
  0.8003190078002614  0.6008569836568998  0.2016330168683972
  0.8020106016040514  0.6029213943234734  0.4004453688459962
  0.8003106779600255  0.6002687356051709  0.5993212762561636
  0.8007488471532085  0.6012010900270413  0.7997949476676123
  0.8017901365537611  0.8025150291465745  0.1998554536609514
  0.8323705696718920  0.8010841841807289  0.3995381546894993
  0.8019871335313268  0.8014730868939979  0.5984602970332665
  0.8002014435532477  0.7993541974970462  0.8010683313991496
  0.2009610173110107  0.0003960819944100  0.6009388619917658
  0.1988236427177668  0.2004099738141156  0.2039326165905234
  0.1990782326242017  0.1992303350293889  0.5963319805301236
  0.3995699819100311  0.9993522941236700  0.6013291053547666
  0.3999744047752993  0.9991600475423948  0.7990116985248384
  0.4004025347923594  0.5983074972539060  0.4008684779474990
  0.4002444413391274  0.8002357665781588  0.6023661153988566
  0.5993330808023437  0.4016898686085966  0.4006244838761309
  0.7999276478804157  0.7990471885608470  0.0002751891620076
  0.4006431481158403  0.3998089715277863  0.0013396168765310
