Zr Ti V  Cr W 
 1.0000000000000000
    15.4218125631900325   -0.0059686382723848    0.0062585989012477
    -0.0059677460242910   15.4281327699692579    0.0068346148581175
     0.0062604253005019    0.0068382331099848   15.4329886035241781
 Zr  Ti  V   Cr  W  
   1   3 110   3   7
Direct
  0.3989109995651204  0.8024778682688102  0.5978195374939851
  0.2013217402626760  0.6063427523362130  0.1904375535054108
  0.1984315494968483  0.7902475390251272  0.0073735006274311
  0.6002272289260622  0.5976465842574863  0.5814733884417400
  0.0023118436424527  0.9978168852885736  0.0002592262099472
  0.0005021472562695  0.0032225379835427  0.1994392563043836
  0.0006740749821261  0.9946471810201821  0.4001193296075439
  0.9993447924354601  0.0014066438118854  0.6014207502062975
  0.9994465585267023  0.9985820164821243  0.8015409368115508
  0.9991278229216456  0.2003955764278077  0.0030539431340475
  0.0004098362263755  0.1997575555014651  0.3965085704044893
  0.0015174902184547  0.1996599022634479  0.5990228320551257
  0.9989619893807025  0.1987730988896527  0.8012006590291905
  0.0061388319794571  0.4004315722419716  0.9999536870134157
  0.0007011053908684  0.3975056761016116  0.1999714616713165
  0.0012519441348595  0.4035317784179672  0.3992368775876887
  0.0008560487585438  0.3995333182248458  0.5984587910771554
  0.9975258682330445  0.3998350723951347  0.8014344209044627
  0.9992649877735026  0.5993327801937691  0.9995515980706307
  0.9983157226800620  0.5989505848945523  0.1993352940865264
  0.0012851474213637  0.6039605805060614  0.3985424104668880
  0.0007371856653118  0.5986944790491451  0.6006528572546300
  0.9997815294952533  0.6012398347201163  0.7991842910730372
  0.9989778384458444  0.7990536011395534  0.0016154597039300
  0.9995733683704286  0.8004745844779571  0.5968983947430605
  0.0001882489147220  0.7989632045393815  0.8001391914111540
  0.2007706064544200  0.0014028934397212  0.9994794552644064
  0.2001952864784743  0.0012213871459514  0.1998732501613895
  0.2008819806895394  0.9991590733687492  0.4007547566038138
  0.1998552277013487  0.0053048532851169  0.6009574329191872
  0.2006747493602790  0.9979411998537229  0.8012369565018644
  0.2004916352681059  0.2017517954129656  0.9989552417434376
  0.1950777766259506  0.1995758270979414  0.2017328707895783
  0.1998854775332538  0.1997824159179546  0.4032221148276502
  0.1997302585258246  0.1988641703457052  0.7958758981597300
  0.2005933703674332  0.3974574642698513  0.1957984342332804
  0.2006107675809633  0.4022622846064002  0.3983424936571622
  0.1997361449625933  0.3948675828914928  0.6003666378760990
  0.2010987937214430  0.3997421198286390  0.8021810957266012
  0.2009895648810296  0.5912064797332955  0.9936106514330125
  0.2000567144039146  0.5965374124506981  0.5997884359915059
  0.2008826206667083  0.5991866842772831  0.7971515691221547
  0.1991032299093901  0.8032655368572729  0.2038540942677299
  0.1945918852898584  0.7985949944331843  0.4004371300824514
  0.1956361626256997  0.8005342338288296  0.6009541369860550
  0.1997432010143301  0.7977841652362173  0.7991186587572414
  0.3989473268412097  0.9990099267778531  0.0006250247140083
  0.3996972395871360  0.0003570426206736  0.1992178219113017
  0.3989773998774934  0.9976798301158393  0.3983795808805154
  0.3996497867806451  0.0044197046500220  0.6005593936023841
  0.4005185039161090  0.9971009780642651  0.8021715531338208
  0.4004161184765488  0.1989114475898401  0.0009859445274318
  0.4009929689621186  0.1985204904851099  0.2008599183806602
  0.3994168046989681  0.2006509290226102  0.3979863089095793
  0.3995266172312949  0.2006878881371172  0.5988858534750054
  0.4011220442604849  0.1989586426029394  0.8008547647787828
  0.3963486338139182  0.3990430036620676  0.0006869931709378
  0.3998461830255294  0.3996705212968945  0.2008707013728676
  0.3992898664258306  0.4017383879833313  0.3979062598894391
  0.3990501175095461  0.3991259648347653  0.6001804425493389
  0.4006254895666650  0.4005586837532192  0.8000133158722561
  0.3996425105205308  0.5995098251276818  0.0009458447356847
  0.4018695106976909  0.6006743752182616  0.1997190790956665
  0.3984094143543452  0.5998496964039345  0.3990022407912867
  0.3977748763357337  0.5957698454216339  0.5999269701527307
  0.4052853310786141  0.6001378276097286  0.7991950506903053
  0.4010416768775942  0.7985674129026914  0.0022643848338078
  0.4002445170879033  0.8008708981952696  0.2005048678783645
  0.3981235481152056  0.7979316412101736  0.3948496755999235
  0.3996608700083111  0.7989059725834760  0.8043063752260556
  0.5988544904298400  0.9988229629405178  0.9986415287475254
  0.5993385639349650  0.0004324874744188  0.2002209194299563
  0.5987481014927958  0.9980160021967324  0.4009311908039080
  0.5999942889204196  0.0046045407669868  0.6010142005659768
  0.6004087183675572  0.9982491026143870  0.8005547922876783
  0.6014429544937712  0.2008575251043663  0.9977622116055784
  0.6038466717051607  0.1998495042428242  0.2022613952709124
  0.5994418097174812  0.1998546173667032  0.4033429751540166
  0.5993277771632782  0.1995986130355694  0.7962017451110960
  0.5963451653687535  0.3982700197393034  0.0005285795370042
  0.6006301391467939  0.3987385875959726  0.1990711665027237
  0.5989901310189814  0.4023135972119393  0.4012263812596964
  0.5996046944588098  0.3934216003306326  0.6002697680730232
  0.6015668360148868  0.4026952905480304  0.8004573678001998
  0.6005819177511204  0.5980141374051425  0.0011894991750650
  0.6008142334208010  0.5995222134769410  0.1991732625425868
  0.5997122564849898  0.6006900098623016  0.3950122437153115
  0.6002263607990086  0.7997564900427929  0.0023774353472100
  0.6014924048418039  0.8008044907039258  0.2010670859452177
  0.6007527016522134  0.7990323641823087  0.4006159049620368
  0.6044715695587457  0.8033807025255307  0.5998526230756559
  0.6010132636171792  0.7946789346499937  0.7995896989186260
  0.7998597860433212  0.9995447934149555  0.9993605256671089
  0.7994149504380779  0.0031482249723085  0.1999323458733206
  0.7988416108855630  0.9982280198027759  0.4004545266318268
  0.8006605520050671  0.0023396741121036  0.6010180427864583
  0.7998924823386823  0.9971127459995639  0.8012719575877546
  0.7999563295020906  0.1981081848958966  0.0046467918066451
  0.8003403629905518  0.2001684653969994  0.3971533552401342
  0.7977687089191274  0.1998773295946392  0.5962345708817690
  0.7993897822497308  0.3966525341284204  0.2017747149600276
  0.8008013711178033  0.4022124083959800  0.4002526529349180
  0.8019475049172897  0.3974615298115394  0.6011181604736731
  0.8008639214983607  0.4007486960798681  0.7993106367336317
  0.8012201335431167  0.6002853511536661  0.0015595742870422
  0.8007593460394676  0.5972703748610427  0.1987420997692626
  0.7994225481888907  0.6000790978441134  0.3998122835597938
  0.8017759456215403  0.5984908747310045  0.5996000302906612
  0.7967798259613043  0.5989912186612844  0.8002321761538820
  0.8012614066967354  0.7995305663080879  0.0017257799088914
  0.7996853470004779  0.8014624662240970  0.2005709340665085
  0.8033717561727044  0.7990130493825134  0.3994631086146048
  0.8008821603010668  0.8006989163976437  0.6015557867639530
  0.8008632433722532  0.7991178375551854  0.7999795744461111
  0.9988907933855464  0.8013024709149442  0.2014265766923960
  0.1998299586677417  0.5995394172937427  0.4010417969633217
  0.8006838063745918  0.2995961941217954  0.9007611397706261
  0.9970312740304760  0.1992564925938570  0.2013688286821962
  0.9979939374431104  0.8002179143493843  0.4020332235857371
  0.2003448729053926  0.2005805935079061  0.5994508588362637
  0.2010098878248922  0.3968784561249747  0.9978635073611402
  0.5998144561192595  0.1998021926001617  0.5995105624507814
  0.6010960144786006  0.5988743581739340  0.8083337383414390
  0.8024613286397260  0.1999708461456446  0.2006184177811257
