Zr Ti V  Cr W 
 1.0000000000000000
    15.5605004684825037    0.0303255126318240   -0.0385586955404674
     0.0302728279200678   15.5530849979154286    0.0655903308017144
    -0.0386454446837789    0.0657938000358750   15.5388918105482556
 Zr  Ti  V   Cr  W  
  13   4 102   4   1
Direct
  0.9541449995969558  0.9531157168952475  0.4191029954138554
  0.9923545922752811  0.8733059319046158  0.7973777327581490
  0.2451886338876419  0.1956549365412437  0.5992595798653141
  0.1969848301663745  0.6026943945733073  0.3982761400993347
  0.2030079147115457  0.6033656126327853  0.8020736306381079
  0.4044105732147910  0.8065802044207590  0.5972383956581059
  0.5989491041106985  0.1869650956834994  0.7948447971759389
  0.6343863466761730  0.8292154164999324  0.0055933564762263
  0.6180172771694251  0.8041512439694493  0.2371130620904877
  0.6013177657547878  0.8226333293734085  0.4517124606521471
  0.7444436573658675  0.9927495309795882  0.3716770230175392
  0.7940372792200371  0.9873867174960107  0.8015175335916892
  0.7704704384731901  0.6410635924677460  0.9981623741705102
  0.4228541858278105  0.0441984256424383  0.6150195289718161
  0.4018906388195748  0.4010287788332817  0.2018115487290717
  0.6184306934662642  0.1739872187764977  0.5846993857874658
  0.8181537569832602  0.7741535712258598  0.3671752689051286
  0.0060856803735112  0.0053349395225832  0.0067694531452032
  0.0013873520745367  0.9980768579331983  0.1987660346537536
  0.9936466415294148  0.0009095043960514  0.6222714001578794
  0.0018476363750474  0.2013624256015823  0.9994803382508414
  0.0001415383258887  0.1974844835454977  0.2030308574412602
  0.9996278128814715  0.1972585393539838  0.4024649275734466
  0.9969222245898322  0.1976624492283361  0.6014583486501951
  0.0023904210382025  0.2025277130267052  0.7996205073249891
  0.9981008048506796  0.4031354153896504  0.9996365987195234
  0.9990575321469850  0.3981846349195114  0.1994612204533037
  0.9978317660520782  0.3959971874511894  0.4002524408326385
  0.9998725239796302  0.3983958763491344  0.6000518274644546
  0.9993243291561137  0.4002160319706332  0.7986843139662457
  0.0060801632049012  0.6016774081350391  0.9956191092844628
  0.9988084230256847  0.5948393184462021  0.1950009941778847
  0.9914835703841847  0.5908849372377062  0.3987777542185177
  0.9946324710624570  0.6002064811742164  0.5991451381898451
  0.9933550371022696  0.5996589456045845  0.7982999699525158
  0.0113624620932475  0.8007754284549522  0.0013490893450077
  0.0059602084427537  0.7977030789902502  0.1972555021555731
  0.0145437269962512  0.7649738158899719  0.3916150873570062
  0.9978272565663663  0.7960548514728503  0.5880434485458879
  0.2022276112516637  0.0032799629469675  0.9979163512515743
  0.1987311189623281  0.0014521417395571  0.3988625517664485
  0.1857827412129136  0.9980417138776843  0.5980519154074044
  0.2017311482151732  0.2005193844013781  0.0014835555298713
  0.2002482537161442  0.1996366500995128  0.2003893377760395
  0.1962470854278879  0.1974520302914256  0.3971389218548330
  0.1981601250986595  0.1986868041790955  0.8037082056029751
  0.1994757204084895  0.3982623206919437  0.0015793371800463
  0.1981387849121237  0.3957772445927442  0.4001004148966707
  0.1981713871687857  0.4030097697651689  0.5999889330138803
  0.1976736897101912  0.3963090762393682  0.7996858910956220
  0.1999645633702635  0.5998483043129017  0.0042588763335348
  0.2012621234583962  0.5985266188992961  0.1957280094157180
  0.1982329510995387  0.6018903831059981  0.5995648396899227
  0.2038021837918360  0.8045860971884993  0.9997279600196683
  0.2018452683643176  0.8014855920001062  0.1984296310217866
  0.2037998662182864  0.8066335125592951  0.3985822322399150
  0.1965125052893135  0.8038140693988797  0.5995648344216792
  0.2023821979894508  0.8062776036190242  0.7984939505352590
  0.4034082385615099  0.0023528491364081  0.9993957432821405
  0.4017475300966311  0.9996745766625024  0.1925155192549169
  0.3919966945540785  0.9993238426038251  0.3841625321972330
  0.3986545056594905  0.9969646754200452  0.8086225048524184
  0.4003152357401569  0.2033251977878713  0.0022508538915156
  0.4004204357803807  0.1984281321471785  0.2018035657928819
  0.3969343673069946  0.2019395717574543  0.4059501219020627
  0.4418497533535575  0.2210283945906916  0.6111538398763859
  0.3934904005128726  0.2042501970974111  0.8019372946954784
  0.3982604422305486  0.3997367096207368  0.9982806620125050
  0.3980030373926905  0.4001164464889980  0.4022181354119945
  0.4003684139042043  0.4057116730732449  0.6008970141323469
  0.3969845991834917  0.4066498614103077  0.8019217549311097
  0.3970167492732875  0.6011761382298348  0.9978701978741692
  0.4004248363193950  0.6014748990451877  0.1989393634501418
  0.4019330741513880  0.5998445711514757  0.4001931409627911
  0.4012719685456111  0.6009389337448492  0.6034201203754262
  0.4011835569366877  0.8013130203342400  0.0026668412162967
  0.4044497431367141  0.7976922754842355  0.1976752460466153
  0.3999094587371134  0.7994913823090580  0.3912181106008899
  0.3993487597489797  0.7949649867530970  0.8064937656348116
  0.6009157396075631  0.0226308187968303  0.9934309255151018
  0.6000321537702789  0.0023795696523510  0.1907641969325256
  0.5688046966050739  0.0111618186830995  0.4032461911131864
  0.6082411531903981  0.9863593744030416  0.6043568643904617
  0.5916911571267411  0.9859614738787310  0.8029321914133424
  0.6004670196271117  0.2065791139208835  0.0027249722826115
  0.6006793698542563  0.2003956792477309  0.1996035004800025
  0.5964906292525872  0.2008076606266968  0.3942053857035719
  0.6010894281069872  0.3996822313842807  0.9988544805661359
  0.6041980197916498  0.3972376519934852  0.2010477752845872
  0.5976111388993403  0.3974748256425531  0.4006641536946454
  0.6022606181017403  0.4047242625032486  0.5995562449212857
  0.5986603520296991  0.3972338221494193  0.7984784519228313
  0.5855400592150229  0.5924316929020667  0.0021394241425798
  0.5997582819469167  0.5967758671363378  0.1992533292289366
  0.5966978367960986  0.5968718433706314  0.3973897898602606
  0.6004975656794500  0.6026083094464806  0.5945684532441513
  0.5958052666102669  0.5958727484155902  0.8046008191104763
  0.6108647024258578  0.7928890555274336  0.6318866599221844
  0.5960540763062302  0.7945247558403006  0.8040985444493021
  0.8017537827078017  0.0122521314788371  0.9981605828736450
  0.8027842632355395  0.9992473271450570  0.1854345423824197
  0.8001545737118855  0.9937629201967405  0.5988623601458397
  0.8023021019565020  0.2066207715986491  0.9996916910091265
  0.8022455340575824  0.1966518214918865  0.2008370088712218
  0.7965647845051695  0.1975364406556412  0.3990272636056794
  0.8056484486136808  0.1959263916489060  0.5970021124815591
  0.8036980341596756  0.1979881966247033  0.7989395686965838
  0.8010605390935541  0.4022838367814316  0.9991272918975680
  0.8005477317156797  0.3985262551179709  0.1982963757729742
  0.7968447993353619  0.3934543782718142  0.3997052691322897
  0.7983374403816312  0.3975554568701144  0.5994428003917227
  0.8017412534953230  0.5953828264435000  0.1994176475771655
  0.7948816936057251  0.5894950307339996  0.3988053078500625
  0.7971072787639059  0.5963718297061020  0.5981355381573690
  0.7960126306701727  0.5901081434273927  0.7953780495013625
  0.8305830005373990  0.8264287146284537  0.9715232289797070
  0.8107785925704920  0.7965115465423014  0.1684000757321195
  0.8036562906092903  0.7931918564577006  0.6111613975422499
  0.7919632942242991  0.7810305371553463  0.8091577306050797
  0.2011721301435687  0.9998340108590589  0.1972902122924902
  0.2022132100254984  0.0011380087855160  0.8001123475772033
  0.1967365289005180  0.3988047288583357  0.2002426182308821
  0.7983487311624639  0.3954465251042893  0.7984817337107508
  0.4038760891938362  0.6020713975909361  0.7979116587208707
