Zr Ti V  W 
 1.0000000000000000
    15.4529206753737594   -0.0089219929548298    0.0139355642811389
    -0.0089343212131673   15.4627799901828133    0.0191221628419376
     0.0139437596884260    0.0191164033920139   15.4587375740632638
 Zr  Ti  V   W  
   8   6 108   2
Direct
  0.9919463323724546  0.3872321472580478  0.3662110577038318
  0.9973953358914875  0.3859145884827394  0.8094704410831758
  0.0320276289483133  0.5962445468268316  0.0026695142952968
  0.2439204894139239  0.5992309196581226  0.0013847029353774
  0.1986502473821785  0.7978359472010180  0.6036639882550565
  0.3990627345118549  0.2018893187322503  0.4022578387767703
  0.8153155841865377  0.0204653845603928  0.0140035342671126
  0.8082520691733520  0.3998115641056841  0.5964161888138669
  0.9841617537782213  0.1975964370531159  0.9751545933379556
  0.0064073199815648  0.2133716431140716  0.1907143471644711
  0.0014219669970490  0.1804164909336411  0.7840123969890398
  0.1918336446559654  0.1974568058724756  0.0069693171041467
  0.5909065253167448  0.3986401249101580  0.6010171366822251
  0.6122991957553088  0.5995408303059205  0.0021173802586896
  0.0125336060633185  0.9978733766413316  0.9983222564936080
  0.9984127404283176  0.0001465611589415  0.1973735862247857
  0.0013996348046041  0.9972330345041046  0.3981878816227186
  0.9991688073055660  0.9988525855283734  0.5979903140266493
  0.9998270172949804  0.9902116281380594  0.7994186342898070
  0.9964252638850634  0.1892579127083949  0.3965833746747312
  0.9990594018185726  0.2000671944695166  0.5909346102075905
  0.9976948443198336  0.3935837613706561  0.0059295675480804
  0.9979060188534861  0.4118229067212363  0.1725377759968081
  0.0093204546473882  0.3978914388404011  0.6001021567194389
  0.9982135473790155  0.6036983745338202  0.2073818316653438
  0.9983983569843450  0.5992678328509479  0.4022869093878153
  0.9989846696072679  0.5960868491397793  0.5992465142399521
  0.9962342413799607  0.5988837682003337  0.7974970485122074
  0.9985743284032153  0.8023471798603915  0.0010223128344253
  0.9987618556614725  0.8005584492895331  0.1985080142570047
  0.9983267382810282  0.7995857241722233  0.3992971010151821
  0.9938734226982149  0.7996175947395421  0.5999113480042937
  0.9970668705729933  0.7960955232159849  0.8012160447244729
  0.2029561684605708  0.9989055184654615  0.0024420072797526
  0.1998821860003263  0.0006771684176738  0.2009993436835688
  0.1984924762722722  0.9998604038875569  0.3995823033260142
  0.1996846631678991  0.0032579364657414  0.6007190597110560
  0.1982989509587814  0.9997898025281871  0.8028343291076186
  0.2016264880666742  0.1984719647372808  0.2031116502632587
  0.1934003507193086  0.1999687636795659  0.4022645609925784
  0.1982452447260568  0.1997568491479018  0.6011132366489587
  0.1987654591803216  0.1980360523057055  0.7983395456148704
  0.1995723079590337  0.3978043271243604  0.0016544071212867
  0.1950448749307412  0.3992307870414488  0.2044056783459323
  0.2000465396025353  0.3985672526417788  0.4018235399461103
  0.2011184575802835  0.3973692125104508  0.6026707262456777
  0.2019904464599378  0.3966516253058950  0.8034715796756068
  0.1971202950450970  0.6007965688145194  0.2035039982179175
  0.1987640152323536  0.5974542001826352  0.4031009337503705
  0.2002567324241634  0.5934742945355842  0.6017650685024177
  0.1930417065445585  0.5964489678338935  0.8009688052370511
  0.1967864240152906  0.7990168155554733  0.0028549157281306
  0.1989469808091158  0.8005973678333542  0.2012299955382678
  0.1994592848756037  0.7990681576002655  0.3974021122716883
  0.1988411545814155  0.7984898852505732  0.8071589142585760
  0.3990193636882581  0.0007772170461631  0.0008500803106692
  0.4000129023072638  0.9998635355772366  0.1992092981207588
  0.3983063728986104  0.9966132482120870  0.4006322772168388
  0.3989507399142576  0.9996355512993613  0.6034073698433262
  0.3980413601289212  0.9988066516492194  0.8029754856575255
  0.3981722324430125  0.2047240232549720  0.0000474221537103
  0.3999008188795266  0.2006070739125471  0.1967396284815490
  0.3991780290031884  0.2005985882198492  0.6063087053519243
  0.3987455195293862  0.1988793076655413  0.8027749511847503
  0.3954192067295984  0.4013831481898457  0.1954562298077256
  0.3968678690685667  0.4050884372707385  0.3971249819541784
  0.3964145573485405  0.4002451790093856  0.6052994150507032
  0.3968769009025751  0.4000373277059588  0.8075640252746853
  0.4303693556556470  0.5944894856789555  0.0011394815091554
  0.3992472884385121  0.6007842731898786  0.2016775526021999
  0.3989562594271101  0.6001599363134923  0.4023518435460735
  0.3994014700218936  0.5983271869974305  0.6028317002358246
  0.3992206948508580  0.5996544592059542  0.8022130084394811
  0.3992705705444387  0.7964569043225060  0.0019865852171068
  0.3996091661516586  0.8004797579053820  0.1998462993904178
  0.3994839012617525  0.7977634473486996  0.4004054663538332
  0.4036731070896525  0.7987509586648217  0.6030090309632988
  0.3984233303400450  0.7986444286351920  0.8033108352741405
  0.5988783523264475  0.0020264040337137  0.0010756798034709
  0.6036824383374620  0.0020218577711211  0.2014519964577525
  0.5967152952617788  0.9999442283459544  0.4014831898544238
  0.6001047973603448  0.9998762300442618  0.5998834776497567
  0.5994068245045292  0.0001319648578953  0.8018023281867921
  0.5964436357678323  0.1999187430187968  0.9987380685460924
  0.5996021653299990  0.2015537203852141  0.2010781844980482
  0.6051042747920498  0.1996840065812860  0.4001386315689671
  0.6010405868147217  0.1976557460420114  0.6007569256092770
  0.5987149116634999  0.1989358467865751  0.7988590625416364
  0.5933911902827363  0.3966314061907016  0.0021816302600528
  0.5971766133502154  0.4011893570966478  0.1992630817618841
  0.5948144339097686  0.4002359608978051  0.3970460228165253
  0.5955702292169885  0.3999987777803122  0.8039911470547638
  0.6008928168603269  0.6023231557935322  0.2053758480635799
  0.5990489437569408  0.6007857971497794  0.4022642684084947
  0.5996420908012651  0.6020462910311700  0.6005590381568483
  0.5997950739826242  0.6007542520559032  0.7969503877192274
  0.5998817450720160  0.8045574345277345  0.0009711258723248
  0.5992840233140796  0.8017133302069673  0.2005010101931303
  0.5992792675951233  0.8012775140147146  0.4008251147932714
  0.6003119341962880  0.8015147060241462  0.6007943079906815
  0.5982514212533003  0.8002289125775909  0.8022482642900576
  0.7989667927089461  0.8659059152853059  0.4004825843839232
  0.8001342691051032  0.9999942602257469  0.6013724996605991
  0.7998474842105948  0.0003086083126000  0.8014413811811582
  0.7897586339604999  0.2146722410135584  0.9970659331648879
  0.7972964709665906  0.2002283452373279  0.1946627011190971
  0.8024258027003357  0.2068095507160673  0.3974262704280955
  0.8002348885460062  0.1958636619669735  0.5972785865119034
  0.7960395303366075  0.2016278039360815  0.7979203517458459
  0.7954600254575958  0.4064915972228454  0.0009828647424927
  0.7988980347063073  0.4036035500603478  0.1972813529843831
  0.7890351697258922  0.4015191146695437  0.3924351111605862
  0.7906871265097727  0.4021576612119974  0.8035513420448909
  0.8081768221828364  0.6028459823912807  0.0005531059590616
  0.7991624859797083  0.6050812019424524  0.2012399010624494
  0.7988790186776744  0.5979083494201320  0.4020393762311540
  0.7995984459198741  0.6045508869208288  0.6005585676998205
  0.7989164711716337  0.6000610783994336  0.8001008420420513
  0.8002233728209588  0.8026308795346101  0.9999577917647225
  0.7990485549949995  0.8066068186174308  0.1993373453979660
  0.7984662583100718  0.8017920203094775  0.6008151100853152
  0.7969372014153748  0.8011087504992025  0.8024837531750701
  0.3949848002689952  0.4017396469522829  0.0023152106253390
  0.8015177481932615  0.0036484208849355  0.2109355385200916
