Zr Ti V  Cr W 
 1.0000000000000000
    14.8099829811875203    0.0734862162152667    0.1255336580073212
     0.0724678734789845   14.8847734620026824    0.0786948824999393
     0.1248717028971956    0.0790865768364885   14.8666571639448755
 Zr  Ti  V   Cr  W  
   7   3 108   1   5
Selective dynamics
Cartesian
  0.5711733575961195  4.8806811248665278 12.1540980557210538   F   F   F
  5.8244657937769251 14.7125656879911162 11.8092083770402621   F   F   F
  5.8724642382418510  9.4378890989592854 12.0733477934636309   F   F   F
  9.3930905840502881  6.0525361953144161 15.4377781579681983   F   F   F
 12.3012272848460764 14.8740180399755122 15.2947023148349821   F   F   F
 11.4569742774179222  2.3270918709505808  9.3507491198427637   F   F   F
 11.9736542345921873  5.9220144856695951  3.3847152208628213   F   F   F
 14.8227495822942927 10.4495555609108468 11.6077199571802332   F   F   F
  9.1271356245781732  3.2153792700708297 12.2314038578292301   F   F   F
 12.6364079774586884  2.6163227988470110 12.5716517639058551   F   F   F
 15.8098179629647131 13.8081216813253853 -0.1144754747332180   F   F   F
 -0.4597606366744559 -0.7539768443604159  2.0454971416320116   F   F   F
  0.8561842064141876  0.4238703341410036  5.2901545451651328   F   F   F
 14.6369683505839525 14.9461140557891863  9.0281145575667914   F   F   F
 -0.0917010813772822 -0.2952312754493418 12.4412704048843636   F   F   F
  0.0259473559848987  2.4799676562619499  0.2826779188358738   F   F   F
 14.7370908827394267  3.4161523994525158  3.3494348913295333   F   F   F
  0.4817219839473919  2.9659086689195999  8.9054474820144023   F   F   F
 15.9170892318857415  2.1254788815480157 11.5940735864508753   F   F   F
 14.4479954943387590  5.5476994439473835  0.9197723272487501   F   F   F
 15.7737179983631925  6.6932964264600843  3.7404579354633656   F   F   F
 -0.1090139984753372  6.0723547081795441  5.7189866133123877   F   F   F
 -1.2381456998063760  5.3609281267743816  9.1204352129588298   F   F   F
 14.0414541547654323  8.0165707351911912 14.0336435763048417   F   F   F
 -0.2487808017587135  8.3135868324241180  1.9892162037950845   F   F   F
 14.6255420502909530  8.9955817311261566  8.1514389852920441   F   F   F
 13.6746224182322269 11.5080813063635361  0.1905083253976727   F   F   F
  0.8544749643380328 11.8583765747130006  3.0756511206228243   F   F   F
 14.5179018804664981 12.0128309187203381  6.0565307035738707   F   F   F
 15.0838333669417324 12.9340802705331974  8.1235583820567943   F   F   F
  1.2545281737153833 12.7025152748020904 12.0499777941623130   F   F   F
  3.0282574602807832  0.1651303170998404 -0.6821436163265443   F   F   F
  3.1042522189742532 -0.0224426120041715  2.4064755376694165   F   F   F
  4.2624846078405074  0.9089665847231742  4.2137889721458146   F   F   F
  3.5238974032885495 15.1849756821739916  8.3336367856295084   F   F   F
  2.4689344232110821 14.9679000804948270 10.4841384062905174   F   F   F
  2.1703518347020303  2.9280125746748618 15.0414644724829074   F   F   F
  2.6123220673738987  3.6376373089879563  2.8144467550582704   F   F   F
  2.5826353975927634  3.6247479735613251  5.9196493921871651   F   F   F
  3.3523809512338971  2.7644075456952382  7.9572974102043226   F   F   F
  3.4858926139872435  2.7179772366377457 11.1406882473615703   F   F   F
  2.3495722107689336  6.4983905458302722  0.0185657207888418   F   F   F
  2.2440782054756823  6.1450870254089942  8.6456982601275882   F   F   F
  3.6010101399544330  6.5299925820020537 12.0768186607833421   F   F   F
  3.5457302952587182  9.4633123283052019 15.0077061081229886   F   F   F
  2.5416888254544641  8.6625624478502008  3.1867611001919864   F   F   F
  2.1412469173280928  8.9754255341245699  6.1128454003284611   F   F   F
  3.2386203294762654  9.3443102196467098  9.7659517743738533   F   F   F
  2.0636515675494258  8.3877551727023700 11.6383054523033316   F   F   F
  2.0509441809999496 11.7231994614112764 15.7084355310228112   F   F   F
  3.3033427462476372 12.4601351627507420  5.6725272463437975   F   F   F
  1.9022670567423767 11.8094794136887931  8.8753586660355293   F   F   F
  3.4424338123185843 11.9160739729635186 12.2619307772025490   F   F   F
  5.8902364061002404  0.9588624025753201  0.3273678535804043   F   F   F
  6.7135118085296170  0.6486582806405640  3.1276572290900129   F   F   F
  6.3259615292375297 14.5682083310190169  5.5900100378322097   F   F   F
  6.4862795784203460  0.6204706006651292  8.2112578686979969   F   F   F
  7.0094497718347561  3.4172463747190460 15.3075167001628252   F   F   F
  6.2381039285315421  3.5565916830811251  5.7655722525119337   F   F   F
  5.3216687658410891  2.4907355216198357  9.1428757102882550   F   F   F
  5.4015807591401881  3.2671826559955681 13.1494617143718830   F   F   F
  6.0184917859176670  6.9362181319455543 14.6889342772102207   F   F   F
  6.5537243263863356  6.0701541186601329  3.2056442169247714   F   F   F
  5.5194201695916405  5.6549984956979555  6.9143087890901871   F   F   F
  5.8150510441163403  6.8617904250727246  9.3536162071289741   F   F   F
  6.0626237171434747  5.4227548660773719 11.3713991494094344   F   F   F
  5.9958387825075450  9.6549117510750300  2.3308297006721173   F   F   F
  4.6593120002872235  9.1983560869654308  4.5049308258119982   F   F   F
  6.6675298429259637  8.3288240960407478  6.2287273482083370   F   F   F
  4.9408760782513363  9.8032401295866212  8.1672151130412747   F   F   F
  5.8318922743643666 12.1675901165832787 -0.0512896229339499   F   F   F
  6.0977137840173574 12.6521413589879277  3.2242268159082625   F   F   F
  6.9388596834183200 12.0480665075140418  5.9793255725913204   F   F   F
  5.6835911148788929 12.0862990582864676  9.3209728866475903   F   F   F
  6.5465583047858207 11.9806972907546747 12.8480298569052298   F   F   F
  8.4400450258638529  0.0850048646822155 14.2484706097363674   F   F   F
  9.5617750300625985 15.4136500939372905  3.0277279093732195   F   F   F
  8.6522583387947147  0.3797398626418660  5.3996048630467071   F   F   F
  8.5161630614351669 15.0568015344392450  9.6621943330456350   F   F   F
  9.6963050901427099  0.6128170601127244 12.3355423069875716   F   F   F
  9.8251024054033014  2.6209345592947231 14.6863704891401277   F   F   F
  9.1080340394421313  3.4648732866186829  3.2779345617459259   F   F   F
  9.4482985284937424  2.0437017361305871  6.5010380047962357   F   F   F
  8.1822140599358573  3.7924364702784641  8.8296596803557676   F   F   F
  9.1986782041827322  5.9016888369172591  3.5093508972475669   F   F   F
  9.2242386490040538  5.7799296296126572  5.9433504175217182   F   F   F
  9.4779911252029923  5.7040582857876680  9.5140199357798529   F   F   F
  8.5664432013062282  6.7451672622759231 11.9630969560546063   F   F   F
  8.4076037896299844  9.5972643791755576 -0.0479051760677253   F   F   F
  9.2651303883021630  8.4013314297541406  3.3248651505495750   F   F   F
  9.2519754924447941  9.2189752855513198  6.9223495672918123   F   F   F
  8.3058891026210482  9.4883777649182885  9.4105904399216147   F   F   F
  9.2857125695093572  8.7978563898703968 12.9885972909915495   F   F   F
  9.4550537265352386 12.4854449902032663  0.4847534718635492   F   F   F
  8.2802004628536423 11.7870834755351268  2.6378714300603114   F   F   F
  9.4256003143403344 11.4427826195186171  5.6764336497171914   F   F   F
  9.5815040269751357 12.6713863369820796  8.3330389458496246   F   F   F
  8.4062929026071096 12.1779824120332414 11.8876877470674263   F   F   F
 12.2718981294054217 14.8598423369496100  4.2711058723692545   F   F   F
 12.5638500205165009 15.2180502244127158  6.7684913214742313   F   F   F
 11.0366545244187080 14.3496333919923629  8.7658678039182263   F   F   F
 11.6288321422272087 -0.5571958415120898 11.6046657534499769   F   F   F
 12.6588227566034544  2.1919724087568895  3.3252856723399229   F   F   F
 12.1296063045856837  3.4267742085381379  5.9547306819349810   F   F   F
 12.5831968669561842  5.4245748051809812 14.4978919512908373   F   F   F
 11.0443902959152602  5.3215284836899643  6.9174047068434970   F   F   F
 11.6899791007551705  6.8462465486558761  8.6148370196834154   F   F   F
 11.6161519077626316  6.0606014615805348 12.3895998870164412   F   F   F
 11.9224446548739316  8.2534806881360137  0.5545493186736808   F   F   F
 12.7322095136213917  9.5302954418368699  3.3358667827508630   F   F   F
 11.9322297776894555  8.4939611846886418  5.8205094630288459   F   F   F
 12.6122291379884750  9.2445839415450788  9.3310620660555195   F   F   F
 11.2556318480404638  9.7055707311648121 11.9474953589210386   F   F   F
 11.6478434204811698 11.0069273278021207 15.8420102648562739   F   F   F
 12.1001388899817108 12.6720296424599450  3.3599192812652801   F   F   F
 12.4356533062279286 11.0074668875302439  5.9472322760481111   F   F   F
 12.3942470853375344 11.9136470164465269  8.9773637021143280   F   F   F
 11.9714930159155006 12.2415082386708445 12.6686856540235979   F   F   F
  4.3368834780939354  5.1714506122055273  3.0203153339799362   F   F   F
  0.0065035165714118  9.3351933441016488  4.6816740367656351   F   F   F
  3.5952922709105226  6.7854365931234675  5.2872299726669381   F   F   F
  3.8641073726784669 11.2636412849347689  2.5175679891505194   F   F   F
  5.4799430972259700  2.8569603407868751  2.7049962920395685   F   F   F
 12.0767037168021574  3.4095533767419077 15.9414982872012843   F   F   F
