Zr Ti V  Cr W 
 1.0000000000000000
    13.0684620354858811   -0.0110335895574531   -4.5714282125584491
    -6.5595371464815502   11.2710471525459539   -4.6162902905983367
     0.0313786509492098   -0.0005022557475526   13.8031773150163382
 Zr  Ti  V   Cr  W  
  30   9  50   9  26
Direct
  0.9954018398595408  0.9931195986326823  0.9882430681892674
  0.0103698004156547  0.0075315074465615  0.2132061887131459
  0.0022789064886613  0.6121852228546615  0.3966783892474028
  0.9891156252222048  0.5987564818771683  0.5997085369672401
  0.2097332851058767  0.0089281781727073  0.0020169772842651
  0.2158047007022225  0.9953270069818263  0.2169804326594233
  0.2037651423985239  0.9995361887884415  0.5985832656693701
  0.2035430449986901  0.2117821122986678  0.2067028544481558
  0.2061178987371922  0.3968263361850777  0.5992543765615832
  0.2044447918445796  0.4048817197104516  0.8159366722686859
  0.1900422139254117  0.5882607505894384  0.0054242703681292
  0.2048352766857773  0.6019529455966106  0.5845427225891320
  0.1750723784077347  0.5972401145966441  0.7889403323977746
  0.2063671734882735  0.8214163264314369  0.7891037706059406
  0.3908670630030575  0.5855347904590154  0.3794126440035395
  0.3822705584390653  0.7896976048779385  0.9958286574975269
  0.6062388442181355  0.9968864510938367  0.1938227546388344
  0.5982213577546803  0.0050308093816794  0.8305511730922731
  0.6112266038620698  0.2078935113439832  0.1927095073563225
  0.6056860238441428  0.2064423175334476  0.8076566105654472
  0.6000396612692336  0.5986756070576725  0.2010040491118706
  0.6031568333892622  0.7984211145176620  0.0012253283826931
  0.5973460378425772  0.7944589111039935  0.5897484002752211
  0.8031211736975377  0.0119171819515020  0.0109415263165024
  0.7937520693215094  0.9887288094053468  0.3890126713109436
  0.7952228829291379  0.9908165146211788  0.5976978344054464
  0.7967961017260025  0.2006913016529157  0.6049439810723537
  0.8072439497346591  0.3881575831472864  0.8095430020402917
  0.7787609480378311  0.5919402938734838  0.5923243562141475
  0.8095860418641180  0.7847382542847755  0.9867507981571045
  0.0052243289829914  0.2152092209325037  0.8154517536698105
  0.9873397786330107  0.7913259160222140  0.8012345504753278
  0.3877599328418779  0.9874131892465146  0.3885654008561983
  0.3970395523516554  0.9842407530087918  0.5906876316917983
  0.3996193788696312  0.2273083705306807  0.6087612805461239
  0.4093098519338155  0.4043666787651420  0.8041646878003404
  0.5802591366384302  0.1957484643749821  0.5795415872960520
  0.5870040587678491  0.5800761718634619  0.7859809623957603
  0.8114510579903846  0.2105894926448464  0.9185049463915865
  0.0013681919425499  0.9992880147467378  0.6022991537524561
  0.0061425410027297  0.2134450122793066  0.0133722314669146
  0.0025371285302054  0.4029260898228261  0.0156251949212774
  0.9963087103715319  0.5973685792617275  0.0078499214050336
  0.9964537857120924  0.5918584397860062  0.1923373875896387
  0.0085937220185643  0.7777445876698292  0.0031622897601702
  0.9986057596433192  0.7857029883360035  0.2009536209472623
  0.9920438177056364  0.7980142766543689  0.3909176323974838
  0.1816986349463350  0.9883946773631579  0.3942940701679948
  0.2038997948369957  0.0204881872884065  0.8027762059717430
  0.2045202089004572  0.2134780205544482  0.9980623316997677
  0.2149103121956756  0.2142417131924219  0.4209776183523984
  0.1893464389670555  0.1948972953249825  0.6013885903935208
  0.2076121634340616  0.3951877453007309  0.0203938609829690
  0.1831246105060957  0.3974351621298455  0.1879511969532116
  0.1910237835578228  0.3928482442530131  0.3856698899633622
  0.1943551189461537  0.5963449642058782  0.2038909425438909
  0.1902255904551013  0.5923605651817693  0.3727353736981357
  0.1709590061861496  0.7824161661956375  0.9917821715365955
  0.1872923084052361  0.7772924279817636  0.1922443028428283
  0.1945520064487379  0.7924163788075731  0.3865036694020040
  0.2308172231914081  0.8156392508163924  0.5930283765699131
  0.4034606280756360  0.0218525822937376  0.8053505603678491
  0.4089680366504913  0.2119321357256871  0.0037622836436820
  0.4173524899161956  0.2167990719689644  0.4121322377028258
  0.3986560179500438  0.3991617911134653  0.0042267895223527
  0.4016659419969127  0.3954223541461104  0.1930905492706755
  0.3933609591608404  0.5965229586735937  0.1842769044575878
  0.4028198658886352  0.6055349113714262  0.8065029777332913
  0.3973222178735761  0.8014680471337476  0.2059597965787998
  0.3898327859133832  0.7940055761680650  0.3861181549949011
  0.3922529485415066  0.7880541136090573  0.5851054771875873
  0.6021799369866091  0.2002666395212398  0.3969124667053933
  0.6034287127224602  0.4027728766047236  0.0045256562582758
  0.5935323981980865  0.3915532414324113  0.3864378233592828
  0.5931062085164988  0.3981694523678868  0.5960073731114803
  0.6089281144624238  0.4071038098834793  0.8045322148489016
  0.6042059901905904  0.5946358006889864  0.3978556332525265
  0.5828215614860421  0.5855619968360130  0.5836262004140923
  0.8216777782467737  0.0124797650122562  0.2175615024401275
  0.7055340937372889  0.1266236118024805  0.0079597173656389
  0.8258831806226447  0.2175059476876686  0.2087963446557976
  0.7991206539381593  0.4045445849368127  0.1911411912006743
  0.7955115622150070  0.3960146065070519  0.5952334218456966
  0.8067759045076368  0.6027688491907420  0.2032737251092807
  0.7922593129008780  0.5992519984596060  0.3914404068964178
  0.8051183552258898  0.5860036299546943  0.8011735222796484
  0.8028013931493985  0.7906510189068741  0.4027358129063056
  0.8060042488554680  0.7985077008228324  0.5958756487089852
  0.7848232362276736  0.7932982596261325  0.7788593448981730
  0.0048155533509898  0.2210801202330230  0.2097473086596512
  0.0018691484223947  0.4058969812621717  0.2003384751269001
  0.9950410179092742  0.4037987978415261  0.7968353282083769
  0.9754978863618000  0.5812594331772778  0.7999672312279289
  0.4023411737772529  0.4018117205545926  0.5927244338154024
  0.4186992992501204  0.6062490619853578  0.0170501118581975
  0.6094220685916717  0.2214553995568563  0.0012911214343176
  0.5837265315700505  0.7818443041817588  0.1923636611934782
  0.8121589616789877  0.4156395160812231  0.0225861433452001
  0.0032868923708702  0.9926003147504936  0.4038564365714581
  0.0038922505707236  0.0025656953914621  0.7952631891712320
  0.0005255861789539  0.1993316075531553  0.3986473184462028
  0.0042306076937433  0.1972160050803526  0.6023051505626517
  0.9965407755607040  0.3982353135155017  0.3903913477131836
  0.9866859737489928  0.3879148318294586  0.5938448005752673
  0.9950468085859199  0.8096955431260411  0.5964481621874845
  0.2073183649501110  0.2032569433645353  0.8070964987460364
  0.4104992507482638  0.0140059374111521  0.9967919585262744
  0.4055831750041397  0.0041814235214312  0.1922368711970946
  0.4106162748352304  0.2096756406855146  0.2053447661476248
  0.4068269246606814  0.2134300941201656  0.8119231020766322
  0.4070675748873017  0.3974799442164337  0.4028412032331883
  0.4042614892206838  0.5885534600919188  0.5958519101159199
  0.4090652947980791  0.8004881099903450  0.7910517826263703
  0.5849599270936633  0.9928385786964331  0.3916155781644414
  0.5812943984113540  0.9927140826784326  0.5778992655377925
  0.6022367302663840  0.4036798276951504  0.1961020218109281
  0.6062635186346187  0.5946620947610372  0.0014870639342608
  0.5861175371508152  0.7875873538834912  0.3774631671880683
  0.5968979287233354  0.7886641606585646  0.7902918583314121
  0.8170525655391536  0.0058786426379665  0.8114713695193053
  0.8020138457759763  0.2070474783459712  0.3971126109242873
  0.7999917132472160  0.4028327336719878  0.3950682803657637
  0.8035054327992748  0.5881443645567832  0.0034193825720970
  0.8030136780329485  0.7908751286915433  0.2003570628368930
