Zr Ti V  Cr W 
 1.0000000000000000
    15.4771126092992706   -0.0171409429028663   -0.0108832458615090
    -0.0171377985850307   15.4835452709138899    0.0089453070842751
    -0.0108770206815257    0.0089383803551370   15.5150560916889226
 Zr  Ti  V   Cr  W  
  10   1 106   6   1
Direct
  0.9996852419453908  0.0326998284178758  0.9584635951836084
  0.9977851227619073  0.2044061918881857  0.7916889347678244
  0.9907907434451264  0.3829030986657328  0.6014634606826861
  0.9888602190253083  0.7858855857997344  0.5950362325941958
  0.1700982532187865  0.9937112770640532  0.3343705361094186
  0.3800976708306792  0.9966855449355013  0.4063471668716806
  0.4045557871273509  0.2029367284970549  0.0010342348576742
  0.8105483288639342  0.3993096813447874  0.4165669373124065
  0.7726758741318600  0.4018386452755756  0.6343923075901737
  0.8084381190455682  0.6274960640657623  0.4167013293002788
  0.5975191925904613  0.7989066430000272  0.5996756487105643
  0.9896199343289106  0.9982212760210595  0.3925984948554569
  0.0002003949660818  0.9928928751696368  0.5875556269740363
  0.0016026983011932  0.9924177700821875  0.7758230975283903
  0.0021644668526227  0.2158303371512245  0.0048168939967842
  0.1019046446987763  0.1017086800953246  0.1902691883968837
  0.0028686796612623  0.1973526995052077  0.3976760203136008
  0.0024037464110667  0.1855211260961932  0.5888544932220818
  0.0028694067135908  0.4070099311185656  0.0057885228844958
  0.0132533300047519  0.3962531917175828  0.3911167164078954
  0.0021642271835842  0.4075714695759926  0.8091157808801226
  0.0008495407235311  0.6029521705927632  0.0001116314117682
  0.0005880005069930  0.5949724849968261  0.2018948645332790
  0.0096647472646789  0.5974154132257753  0.4006720520249554
  0.9984295226435426  0.5897622953368939  0.5983295949129548
  0.0012837654499235  0.6004553220949519  0.7967318072383325
  0.9998371993511800  0.7978991426795783  0.0014895294428996
  0.9983833239130022  0.7993434695361618  0.1964901408823178
  0.9977230481957542  0.7981131111909360  0.3934054938761019
  0.9989876410051305  0.7985603874916142  0.8017174432954931
  0.2027696120708305  0.9995242324588449  0.9952078585129186
  0.2000239538246443  0.9966424461159600  0.5833056466445605
  0.1990900774233189  0.9981122757917016  0.8002379405085396
  0.1981251568893518  0.1993273093167564  0.0004611037084803
  0.2049955694357327  0.1975174294134923  0.1984729139011593
  0.2056379149085445  0.1940729491000999  0.4010016581214939
  0.2012261300127045  0.1957475174620052  0.5997631612045234
  0.2021113099238214  0.4010404501986340  0.9998698627042547
  0.1994942998291825  0.3975551494535715  0.1994633020246302
  0.2045808926548801  0.3974709052527847  0.4018180118341295
  0.2010528576815485  0.3954801515236647  0.6009702263336311
  0.2001735927227966  0.3981627392785488  0.8012142559654462
  0.2022049951460284  0.6001047813148961  0.9987133511281060
  0.2014219690169249  0.6001047889163896  0.2007458000502320
  0.2031464300137967  0.5979668071828851  0.4015220633255153
  0.2005801704090962  0.5993348011198121  0.7999523052634101
  0.1989820663414503  0.8011646224974147  0.0008695829631813
  0.1993704999983253  0.7976628012115552  0.1999972967964652
  0.2001167492493642  0.7952481419807801  0.4024632904835125
  0.1984937760922034  0.7969710519221214  0.6000768478927694
  0.1984532949042113  0.7986120016477197  0.7989126096039902
  0.4013678317913061  0.9969849689024366  0.9992907039490840
  0.4001035232342952  0.9985940108655634  0.6068032334525422
  0.4005327236303327  0.9985365342158901  0.7997928922034470
  0.4024034722697826  0.2006076855429824  0.2050286369044619
  0.4039019832179288  0.2027420740712301  0.4027326560921571
  0.4013560139292623  0.1996690871149031  0.7973120095544389
  0.4008756695490047  0.4057186357797091  0.0022641390520919
  0.4008119020405286  0.4016443111185516  0.2022436463480826
  0.4003031703207883  0.3998445870534803  0.4010979826032842
  0.3966619543528247  0.3993640751302080  0.6029231333799984
  0.4005947042561107  0.4002370620882789  0.8017622923079806
  0.4013919212928027  0.6019747319391259  0.0010776016652196
  0.4005967260305888  0.5990487518353224  0.2021514220061443
  0.3998167689961861  0.5990605872591183  0.6021837880500662
  0.4004463741305128  0.5999158104549404  0.7998795888237740
  0.4001984643158465  0.7992962081363807  0.0008858791135211
  0.3997430579313634  0.7982005971429404  0.2009138764760289
  0.4009709258275426  0.7937003960951019  0.4013965036474390
  0.3973159676660340  0.7977394957310971  0.6016531897262586
  0.3991928361997390  0.7991489102193887  0.8011754153703580
  0.6008873867812234  0.0007086456714933  0.0009209732048869
  0.5966703284789134  0.0006060218060775  0.2007281282799872
  0.6004776983605671  0.0011327438028712  0.4018469026666491
  0.5990136985214040  0.0032434366531198  0.6010969297109513
  0.6004111091510167  0.0014114603604138  0.8010353564612036
  0.6076009924963008  0.2012781329461728  0.0017503169838553
  0.6021969593645250  0.2002134888743974  0.2028846536696639
  0.6018582334008483  0.2013484961370404  0.4035412531279494
  0.6022411902800832  0.2021859361970660  0.6013865610252913
  0.6014164183617214  0.2007662314933550  0.8008077562241301
  0.6027905298495477  0.4016161399546728  0.0037657665820782
  0.6022556128621340  0.4004186222023755  0.2033364757247841
  0.5995328746543166  0.4004916697602536  0.4005366649761906
  0.5860228277821797  0.3994201785922273  0.5998455930856721
  0.5986088900365590  0.4006138765644567  0.8051570675756401
  0.6011859284309723  0.6006521428642559  0.0022780304057511
  0.6013020334530910  0.5995681985593656  0.2035202959860151
  0.6008120753534705  0.5996686842919241  0.4030973249502955
  0.6002517514244716  0.5963504564936908  0.6017216511406169
  0.5996415628476972  0.5999525282661491  0.8020363412846296
  0.6002084685601240  0.8002878426704242  0.0024218275571204
  0.5994064093761881  0.8004576012049659  0.2012007081794533
  0.5985542235308521  0.7997057713052300  0.3985132482553943
  0.6009245477266619  0.7998216633324061  0.8041623890162594
  0.7985694760650202  0.9998924529393474  0.0015145040399940
  0.7984250304573322  0.0009427931539715  0.1979113745675980
  0.7970885210001545  0.0021301363772313  0.4000701738344108
  0.7988826382971671  0.9996700664781513  0.6026409590347301
  0.8015902854993906  0.9997929829861378  0.8002429279091884
  0.8044983661231963  0.1994242937356989  0.0032570637874744
  0.7992433820860690  0.1997765625655096  0.2040347767124003
  0.8015737335270214  0.1947581894470071  0.4016421106964720
  0.8024001241250482  0.1968236832329915  0.6016749176205936
  0.7962978008000708  0.2018751276990963  0.8010771985616577
  0.8002286354787878  0.4013777394132507  0.0072366774470934
  0.8042942692257596  0.3995067034640640  0.2022083005047151
  0.8018546035402367  0.4011235949039227  0.8208201532843868
  0.8000252744436291  0.6023865181334790  0.0018886189596410
  0.8007431097756295  0.6020908484035453  0.2047784598794304
  0.7992217722903976  0.6049586325405722  0.6143641253546288
  0.8005497727500830  0.6012532779155415  0.8045185976880094
  0.8005886711794782  0.8023381825305202  0.0021140672583739
  0.7990578002041259  0.8009874223388475  0.2018442037075970
  0.7970522622767456  0.8152401364699616  0.3993483311535451
  0.7898511725782384  0.8031450997167606  0.6030861655671846
  0.7999085379843022  0.8014520775401415  0.8040811150044374
  0.9972859458643321  0.0023561476064582  0.1941172798309226
  0.2043473415579549  0.1980936177988236  0.7992823662832372
  0.1991186934123365  0.5948030404007513  0.6008207368939189
  0.3989665435310060  0.9991215414787905  0.1982746420356489
  0.4016020672824031  0.1988015337074123  0.6015050848776673
  0.4004856355714602  0.5982355046164604  0.4026548574980268
  0.0007975570799861  0.4034496275781046  0.2004080479268872
