Ti V  Cr W 
 1.0000000000000000
    15.3720038313806135    0.0023998420144863    0.0001449001601191
     0.0024007571799185   15.3633006247875361   -0.0006442210894229
     0.0001450310074229   -0.0006449824026597   15.3697544548857330
 Ti  V   Cr  W  
  15 105   1   3
Direct
  0.0063522079773040  0.3927044303286463  0.6014547952665550
  0.9904323510769337  0.7998497728189302  0.2042994055986440
  0.0085825577958232  0.7976087690661822  0.6018003515427539
  0.2013044701219664  0.2059215774730087  0.3921447922123425
  0.1961364517703287  0.2068753111277407  0.6018966655148607
  0.1978688467936604  0.3956640207532117  0.2054761990585594
  0.2010722165784327  0.8010280463421073  0.1972218448726019
  0.4004800828035510  0.9967750869867524  0.8078420370215763
  0.4020326382117957  0.5979820811779436  0.8011271183837841
  0.5922040316072048  0.9971236886336019  0.9965873893451904
  0.7927010764545532  0.1979516532345061  0.7959557965629266
  0.7997080289623013  0.4040873654986367  0.1931092086178388
  0.8021628697200798  0.5932212543792436  0.0028198955974441
  0.8065453068473902  0.7979138519459437  0.3917606409728918
  0.7979892946967381  0.7965742532722998  0.6041390351538188
  0.9983860916300010  0.0001903524636984  0.0014788641396253
  0.9994577991801327  0.0014218088336302  0.2008687759624740
  0.9979984293878021  0.0006024559528872  0.4015116839140699
  0.0000206057582030  0.0005396961156345  0.5991041158300300
  0.0013292468986721  0.9997867470199905  0.8006771157815928
  0.0009578670856274  0.1980777324998318  0.9997802373772737
  0.9983578077559960  0.1993324303086227  0.2013826121101513
  0.9975626710431102  0.1964001793634712  0.5981926313319226
  0.0004310123992859  0.1991385453117194  0.7990934552910386
  0.9958730013228519  0.3995742696423604  0.0005117338523630
  0.0000198483056226  0.3986324194099462  0.2005505388508839
  0.0004006528636895  0.3983821530790690  0.3976415925599355
  0.9998405963613362  0.3983480345226838  0.8016952213629619
  0.0022003223498104  0.5996017729373819  0.0018232744486946
  0.9997300913470031  0.5972400734727300  0.2014138003564924
  0.0000153083873246  0.5986868073961609  0.4006006059770217
  0.0008330006353833  0.5979227527571163  0.5986780000092859
  0.9995996500052408  0.6005191214773051  0.7993141497198363
  0.0013804917864355  0.8006147845866415  0.9997577856283414
  0.0029909213477128  0.7996818636135015  0.4015755758869296
  0.9994517213793593  0.8002316516733426  0.8028623994103011
  0.1992906094747916  0.2034365182691220  0.9993586793969167
  0.1973638034863428  0.9991197503433109  0.2044775097188963
  0.1993742042049144  0.9999575277964479  0.4010577192852554
  0.2002579743698649  0.9999984287203036  0.5999472885990677
  0.1996967520472205  0.0005782352589313  0.7979217097267952
  0.1991797306797043  0.1943386955625744  0.1952125730957366
  0.2005798506450124  0.1983120343540480  0.8031309064832881
  0.1987400095229555  0.3998472213626305  0.9986740879438402
  0.1993787099563504  0.4032882029958345  0.4055816210937713
  0.2040999694243428  0.4044529212924186  0.6025302056448139
  0.2000549306655073  0.4013521890030640  0.8005921367759324
  0.1990705186956896  0.5990370037967906  0.0007613983136028
  0.1988114152136017  0.5997153464039515  0.2020698771060057
  0.1986914483772531  0.6013756717258998  0.4005020986499790
  0.2004914170934876  0.6021813600381963  0.6009141208545279
  0.1973745015378485  0.6000025196009522  0.7997267762910415
  0.1993477873678350  0.7973078603573786  0.9993981982890316
  0.2003670370534515  0.8007723259828551  0.4037674242084677
  0.2052132656438603  0.8002165789406406  0.6024583306606363
  0.2010108606715117  0.8013700569397122  0.8022572829401063
  0.3997015547196517  0.0004038858117328  0.0038538317055074
  0.3964737384023680  0.0001899892708730  0.2004533693478049
  0.4028670615446930  0.0000847980037020  0.4005241322543123
  0.3995679256508231  0.0002295481441599  0.5981981607034128
  0.3982064825666873  0.1999829907594726  0.0001655471540338
  0.3992550619486320  0.2005420782147398  0.1982208529477475
  0.4018483200780147  0.2011146655011524  0.3993102588017787
  0.4001103394727735  0.2003079321496214  0.6000138563054443
  0.4025658814146506  0.2022025996237567  0.8001210242427209
  0.3993465370743499  0.4016075651048008  0.0011400350464200
  0.4016988690130278  0.3993593026800163  0.2006212917344107
  0.4002916375028391  0.4004309835509288  0.4003152684079949
  0.4014535993317220  0.4011826417694346  0.5998750798078435
  0.4006660383634805  0.3989640606510039  0.8006787381866206
  0.3993295541060812  0.5988657001780271  0.0037561907729762
  0.3994269066377186  0.5996829995944256  0.2012863274355096
  0.3995943692026694  0.6001666666616328  0.3993861934844284
  0.4012306504935959  0.5999175360314236  0.5967069415472622
  0.3975550346225236  0.8002530506699689  0.0003958737142504
  0.4010291552069279  0.7994489318634650  0.1994672795505802
  0.3998735404808128  0.7995369468825703  0.3989466344467231
  0.4009699203886211  0.7993244456899082  0.6014789772599619
  0.4018924057229224  0.7987342900410085  0.8008884650577601
  0.5991407218005088  0.9994842201595345  0.2049237802722289
  0.6005196863883766  0.0000381971162995  0.5946253782843910
  0.6043526433556298  0.0044615756852356  0.7937024514182016
  0.5990294053023959  0.2025134836021862  0.9944758660950644
  0.5990721809829385  0.1995874528889358  0.1976575160354160
  0.6004123655469544  0.1973091724528563  0.4006387074904106
  0.6007378786681528  0.2006469161920386  0.6031088896412308
  0.6036510283340980  0.4011148085925435  0.9996225290089229
  0.5976222557672556  0.4006636966634268  0.2001734046061968
  0.6010106511920582  0.3987091711874199  0.4002190058204250
  0.6008936845009349  0.4007791490323127  0.5997071152579267
  0.6010131710176679  0.3972575418303586  0.7990804468586354
  0.5970891654661735  0.6000493576165349  0.9996245308732115
  0.6002304006214312  0.6010917049898625  0.2018071510853180
  0.6019324746147271  0.6018231890741315  0.4000041629339882
  0.6012218336165244  0.6006214303754641  0.5988476267563527
  0.6036849012865788  0.6002257036575059  0.7988440397336615
  0.5995771613103089  0.7969762427147922  0.9982005804056437
  0.5986259008291158  0.8002968190337012  0.1977911103614886
  0.5992274807104496  0.8043699064102516  0.4001366080272292
  0.5992232800196653  0.8004518542571425  0.6003022802282997
  0.6009866577889038  0.8021567607970671  0.7997421052585001
  0.8015475581258746  0.9996398543335314  0.9993230073101750
  0.7984526016479995  0.0002318907865195  0.1984173234297873
  0.7966678653642284  0.0017209634578577  0.3988512593513865
  0.8022450044668190  0.0001091343057098  0.5980641022960518
  0.8011215455512127  0.9971801639328142  0.7987250321087837
  0.7991261381970579  0.2025016728724136  0.0012709183042611
  0.7985562203415609  0.1989268319327518  0.1981961516650431
  0.7995676331130072  0.2019636974919986  0.3974303055271807
  0.8005797056207443  0.2016159797316154  0.5961310366938970
  0.8007296303146859  0.4001673383899337  0.4005637232675401
  0.8006004252701083  0.3994999753636194  0.6002688403635954
  0.8006604816655897  0.4037252267483396  0.8014139836055402
  0.7992676708605893  0.6038444536819279  0.2031997323597187
  0.8017142301832383  0.5970726302453164  0.4001124535494440
  0.8021324556481889  0.5971334645319761  0.5992482714216478
  0.8012643301255558  0.6009815477028960  0.7973646750560976
  0.7989025193936137  0.7998587091573049  0.9989102717492391
  0.7950075462743980  0.8001655598255308  0.1937147452870932
  0.8004380515010175  0.7990955695363107  0.8028149012304306
  0.9964947623266868  0.2000176689070585  0.3989003754877806
  0.6004615507079603  0.0011238016334132  0.3995789949704470
  0.5975877249313587  0.2006874298935021  0.7975957995560443
  0.7998309341816503  0.3983928836219892  0.9957019373298541
