Zr Ti V  Cr
 1.0000000000000000
    15.5054759955686290   -0.0026938295988576    0.0222345561511436
    -0.0026911951043345   15.4937529874400166   -0.0133710719798359
     0.0222461462953622   -0.0133733789628594   15.4975574155639322
 Zr  Ti  V   Cr 
   5   4 112   3
Direct
  0.0106805596315328  0.6127522023506545  0.1991076872839295
  0.3997118940255897  0.3990433762699934  0.6009329979418531
  0.6005870427048111  0.2003770145036535  0.1997140856406610
  0.6108770800081637  0.7998373876857047  0.9908390698162960
  0.7936370406431771  0.7983973379989467  0.8095529692976408
  0.0002912563070490  0.7872093255735092  0.3831843995639500
  0.1857000809202273  0.5991531185388201  0.0158688913224371
  0.5972212192235659  0.2022699072789315  0.7985803047529643
  0.8196752321124368  0.8041057844528736  0.0182812938403088
  0.9990767621937690  0.0013464479376168  0.9965491856009611
  0.0011684152864160  0.0032183459366957  0.1976558349528809
  0.9992411994741949  0.9996730258176653  0.3975221509706300
  0.9981098845544791  0.9975725902038037  0.5978260765074223
  0.9982808691370940  0.9990082147734344  0.7985539654931888
  0.0004944462287151  0.2000918116388920  0.9984874375246678
  0.0015132345691944  0.2011204219980268  0.1983491585139753
  0.9999254374450286  0.1989684563055615  0.3998552331659673
  0.9988519700145859  0.1984606753217383  0.5996244374462518
  0.9997858682507555  0.1999140761979351  0.7990234992989602
  0.9991189564848206  0.4000621597101834  0.9986723953583722
  0.0006886677903244  0.4006490979473393  0.1993710473112005
  0.9995289526192312  0.3978898971017034  0.3990386509070282
  0.9980354859856970  0.3987064444861025  0.6012870585302542
  0.9994009036978561  0.4005357924068346  0.8005967023343497
  0.9925003902424618  0.6007225635633869  0.9932579176542550
  0.9996862625070818  0.5931012581172156  0.4058738921358575
  0.9976791594520682  0.5994598434211875  0.6012022253587403
  0.9973932738422726  0.6000475565649082  0.7986926283805720
  0.0091507960945559  0.8009471858107489  0.9955536723411270
  0.0034370684535014  0.8111187458342185  0.1919043394517556
  0.9992342732612143  0.7985905649897893  0.5996093981222874
  0.0018761592877243  0.7998057397244988  0.7979544651512167
  0.1996227483790758  0.0009042699125619  0.9993694176644083
  0.2003271967305763  0.9993459007462111  0.1997988845948724
  0.1999586385836077  0.9987240073430417  0.3995108642487699
  0.1981506819466741  0.9983904254340229  0.5987863156578551
  0.1987537321546408  0.0003774187947155  0.7989593308909294
  0.1990109446515089  0.2004879365493209  0.9999244981283593
  0.1997904938668986  0.1996359679601725  0.2001421006863518
  0.1994130852886476  0.2002545248669292  0.3999354939137768
  0.1979657907063009  0.1983150872633981  0.6001081420146694
  0.1981995738283270  0.2002324599632440  0.7994903824420052
  0.1989606745510855  0.3984357084045355  0.0011555808509340
  0.2006614893312492  0.4016814022474537  0.2001951888560183
  0.1992348622864810  0.3987229676561453  0.3998859868056208
  0.1948288588940168  0.3993325431524369  0.6001091968382660
  0.1981484214021615  0.4009937312241024  0.8017002553822078
  0.2114278748146727  0.6009946366880475  0.2089691243022495
  0.2011563085367839  0.5984800549460217  0.4035492087172124
  0.1982251150608250  0.6009630421570369  0.6007562287731524
  0.1978840914243667  0.5996809992965969  0.7998608267295751
  0.2023712943465245  0.8021555734463420  0.9995777902585373
  0.2043215317694709  0.8016889908943717  0.1999728339912298
  0.1987300125124540  0.8002514190108156  0.5973260732716230
  0.1995258638314495  0.7991025448675106  0.7997754022596650
  0.4008913331691797  0.0012244588203183  0.9987675904984132
  0.4004457875055729  0.9976694544466368  0.1988967386970307
  0.3999868695981526  0.0007756737236562  0.3984005555466500
  0.3993976528097268  0.9977713126598212  0.5976124302045999
  0.3988169592366688  0.0002729457162174  0.7997870125607169
  0.3985582011351376  0.2000987953434645  0.9992873601296418
  0.3959823204012943  0.1997740091648081  0.1983514561282172
  0.3993285343837459  0.1989215392440999  0.3990926748486380
  0.3988182992871889  0.1946726922838286  0.6004083754169970
  0.3957901557331164  0.1997460056658752  0.8002319608496837
  0.3996339691281104  0.4004598691611951  0.0007413579573670
  0.4001191527401356  0.4007670860065296  0.1977343830557145
  0.4002458542979120  0.3985899415379929  0.3955726410991087
  0.3978949576414639  0.4005621563876661  0.8052502183494298
  0.4022260637205866  0.6000027949348746  0.0014912013591621
  0.4039645232046458  0.6023782370358256  0.2011793544190335
  0.4010719512140025  0.5971012388102055  0.3999713970676799
  0.3996216019460290  0.6050400767800794  0.5992166825384609
  0.3964331636462853  0.6004348596605953  0.8034743777591000
  0.3993473277753598  0.7998148507366135  0.9979460588945046
  0.4020477177561612  0.7997045934049938  0.1948442939492377
  0.2681098245238105  0.7991317273210924  0.3986237239959678
  0.3980942449744989  0.8010172126382702  0.6000620097415198
  0.3958118467384974  0.8002470293327202  0.7988345077080127
  0.6003486334684458  0.0045695716170689  0.9970427044406862
  0.6010967113180979  0.9948880535422687  0.1976635137696670
  0.5995035174394487  0.9980432905754698  0.3988397501482057
  0.5977427910388684  0.9993675733456021  0.7962630655118689
  0.5997656498415083  0.2015383772459244  0.9952609462438337
  0.5999410437959748  0.1995436051040503  0.4037728395883757
  0.6000680839433976  0.1980641753860755  0.5986613235047791
  0.6013790112970469  0.4003561747434586  0.9995299869369916
  0.6005196527542553  0.4046780585187187  0.1993254098464489
  0.6009840226675430  0.3995083066738229  0.3990958071787463
  0.6040966782289761  0.4000913129001452  0.5997065402399773
  0.5987296335790380  0.4026216129716330  0.7995733900054667
  0.6000664586586368  0.5961189052249486  0.9986202630276271
  0.5994289842512551  0.5992712067623986  0.4006803317443031
  0.5997769362337304  0.6007027230145955  0.5997135824024596
  0.5971781101680548  0.5996077970956896  0.7978196858071553
  0.6001297165537144  0.7997063829417097  0.2002700814460265
  0.5977603493305779  0.7998563912181059  0.5945410138627645
  0.5904400809815016  0.7998514802619536  0.7887717897806298
  0.8005435532215293  0.0048612749151386  0.9999029602300398
  0.7998547405216968  0.9993021546815497  0.1989986281241748
  0.7997338650798886  0.9996900094148257  0.3992914567890989
  0.7986495517414307  0.9991107502566047  0.5991032992342287
  0.7977209170943745  0.0044695733466038  0.7987821939499862
  0.8015345421383883  0.2017966835793164  0.9998082372346835
  0.8048024169959012  0.1995458811039953  0.1999266260059377
  0.8002646545907079  0.1996963031730002  0.3999185490242266
  0.7996327980805781  0.1985232343003634  0.6000552523459615
  0.8011309980084116  0.2010190305678705  0.7993678490528678
  0.8000384245531569  0.3991980633746657  0.0008939891311484
  0.8020719477179313  0.4015809506974439  0.1997093592111310
  0.7998681373556393  0.3985980929988738  0.3993120209753917
  0.8003897766151168  0.3986140142752171  0.6001256495152265
  0.7992128899039099  0.3990042260112858  0.8008321380649559
  0.7987422475826499  0.5976751602385386  0.0025797478084502
  0.7992754618966518  0.6004134646959735  0.2002892514345006
  0.7989912363678928  0.5972684832983948  0.4008786861631058
  0.7985382666999752  0.6001556415836456  0.6004123143285242
  0.7971376664661245  0.5950687286839583  0.7999017792624152
  0.8027675137792372  0.7999814948016918  0.2075455003607095
  0.7986605250636732  0.7987582164497911  0.4005826356148836
  0.7998561008056144  0.8006355288661418  0.5981813478549711
  0.5993733444347193  0.9984162605915669  0.5970568487810241
  0.6016715252278961  0.6018040490102194  0.2000354176076788
  0.5992468802404952  0.7987096603712236  0.3980837388277715
