Zr Ti V  Cr W 
 1.0000000000000000
    14.7668904951090898   -0.0158161882333206    0.0691101305642305
    -0.0136211433651554   14.3505728735534905    0.0266547947778874
     0.0697682745283305    0.0258345201295757   14.7728914043337962
 Zr  Ti  V   Cr  W  
   3   2 108   7   4
Selective dynamics
Cartesian
  0.3512220495884427 -0.0410538745255778 11.4908672603364259   T   T   T
  3.5470745566984951  6.0757914975503473  3.0266561403202417   T   T   T
  8.7901036356288440  3.2122367817244051  0.2682958567193373   T   T   T
  3.2181781682943749  8.4427589825200933  5.8696744309969766   T   T   T
  8.9764033071152802  8.9275127072949800 -0.3464116243307447   T   T   T
 -1.0944982611703511  0.1127122930191519  0.1373976898268805   T   T   T
  0.6435924416363487 -0.7708895791915480  3.4016485702571981   T   T   T
 -0.1122407255465371 -0.5429085606475942  7.9362770068505100   T   T   T
  0.1315344819432764  2.7777809411178440 -0.4952895492089900   T   T   T
  0.2106705909321085  4.2461275821351601  3.0730660132004051   T   T   T
 -0.1008934751154507  2.6464539786826862  5.5844001795809231   T   T   T
  0.8897464132878781  1.8338523840481418  8.5756830766080103   T   T   T
 -0.8088307172780980  2.9162505138506405 10.7364046783016072   T   T   T
  0.6922970461628100  6.3315659199687229  0.5538583918048260   T   T   T
 -0.1848087788724096  6.5404457450188929  3.0262925622700871   T   T   T
 -0.1785062548062082  6.4197397463784061  5.9257796940462182   T   T   T
  0.4556760970353291  4.3112572978242252  9.1372052986860268   T   T   T
 -0.6726099313897907  5.5701541422926297 11.8425444648846661   T   T   T
 -0.3900034461140675  8.3548230368293055 -0.4127943904364039   T   T   T
  0.6680485162916724  8.7001056342264391  2.9918719449327438   T   T   T
  0.5055307559139506  8.7528084862389601  6.5546489885396690   T   T   T
  0.0965641558892017  8.1484967447980381  9.5015189464838912   T   T   T
  0.8379990750315842  7.8972021973160871 11.8766944766947926   T   T   T
 -0.4161512522158172 12.0342765178444715 -0.6510153538913529   T   T   T
 -0.4953958187860895 11.4618047712706357  2.4618247402156106   T   T   T
  0.2935104319717062 11.0987386987394476  6.0275462436979668   T   T   T
  0.2142630707384587 10.6376200301491544 11.9594369414489634   T   T   T
  2.6028606341410665  0.1355913985285504 -0.5326329044117054   T   T   T
  3.2362331388175414 -0.4501230365016448  2.3952819954895497   T   T   T
  2.8561049722625507  0.1419297798542438  5.7714112969158569   T   T   T
  3.2297576595375843  0.0454535645434433  9.1028156490073968   T   T   T
  3.7155713467364757 -0.9627859820378216 11.2164621831103801   T   T   T
  3.5892725469303386  3.5961371061309757  0.5237454024532994   T   T   T
  3.0997641854589091  2.2497081932312470  2.6196163087324011   T   T   T
  2.3070774337984674  3.5879790990372618  5.7162229807298557   T   T   T
  2.5986020804924386  2.6287138044715856 11.7339207899851132   T   T   T
  2.8550481247458102  5.5669659789316839 -0.8280034811700335   T   T   T
  3.4571486202280495  5.7168828169879653  6.7308496979699548   T   T   T
  2.8000860847424640  5.4232045764978070  8.9736486509241296   T   T   T
  2.7532365735575297  6.3801619236714613 11.3497620047677739   T   T   T
  3.7365954430309278  8.8475034883954553  0.8241255212934140   T   T   T
  4.4167710420849238  9.5986900557806543  3.5647167870076970   T   T   T
  1.1665825233504898  8.5101724870075603  8.8883837779635808   T   T   T
  3.3410552560944136  9.1245968794428052 12.1284405314861559   T   T   T
  2.1590188435390498 10.9212383394718895  0.1540680565083111   T   T   T
  2.7959946131396185 11.4806661205415352  3.4197165315585520   T   T   T
  4.0173812743780379 11.2639275492561026  7.0215261074308799   T   T   T
  2.5371617573062646 10.5695419314189678  9.0049780424736596   T   T   T
  2.5710460095183669 11.4933548058578019 12.2395630467779490   T   T   T
  6.6526646666921740  0.2421115592534290  7.9960729469844836   T   T   T
  5.7105336804246738  0.1549333991997723 12.2275233461284571   T   T   T
  5.5449696556069510  2.5539558087099925 -0.6871867172350704   T   T   T
  6.1926948248641631  3.5294095282359930  3.0256176711794702   T   T   T
  5.6078442856495592  2.3641083262189495  6.3645271998960213   T   T   T
  5.7482719229414379  2.5866901387124255  9.2709429641084711   T   T   T
  6.5833427508922497  3.7523463288072789 12.0824004568926604   T   T   T
  6.2357953093451988  5.9738256176226248  0.4959552020712008   T   T   T
  7.2947868358958958  6.2056848152650508  3.8891213081633467   T   T   T
  5.8345107883151313  5.7526845451165798  5.6985292903253084   T   T   T
  5.8427585256721937  4.5692192943697574  7.8127080730702350   T   T   T
  5.0105316294516973  5.6198646115261468 11.5016197530516155   T   T   T
  5.4136921510781253  9.4645029081154046 -0.9248423057615088   T   T   T
  6.5138326573791181  8.5461251342861821  3.4461148618465889   T   T   T
  6.5780338327305552  8.3373551042497773  7.5535744485800338   T   T   T
  5.2773601961899512  7.9152797820663494  8.9703909931954531   T   T   T
  6.6005330908017177  7.6011295823569531 12.2970257325832275   T   T   T
  6.0501795514770613 10.7182458981014221  1.3615842595606791   T   T   T
  6.4510838673600732 12.4285170670272418  3.2760569846182257   T   T   T
  5.1073575650950218 11.6978782710395492  6.5922209124355806   T   T   T
  5.3252847579275491 11.0095520576986381 11.0467527259793492   T   T   T
  9.5243703751783055 -0.1848666362230268 -0.9299544658900183   T   T   T
  8.2671313693243924  0.4971955908023807  2.4623002130485561   T   T   T
  7.6648951135665602  0.9916119157097253  5.3593871568405316   T   T   T
  9.1744112607188555 -0.2700290349246628  9.0849572779646106   T   T   T
  7.8651572143585238 -1.2222120040381759 10.9608613872611205   T   T   T
  9.4965314420279210  2.4978752205996382  4.0170837369788410   T   T   T
  8.4812964306414251  4.0249545073983857  6.0148102712870362   T   T   T
  8.5815287494281218  2.2321208168878965 11.4264552891729672   T   T   T
  9.9960266185163569  6.4932116918379386 -0.2923676886216607   T   T   T
  9.2600375162118098  6.0266193724676906  2.5351705186517535   T   T   T
  9.3576789826470836  6.3734036909976286  6.4690066126635557   T   T   T
  7.9345340962913662  5.6432344271027741  9.4372397275124982   T   T   T
  9.6638873634621536  5.5280958958686792 12.2729204480844469   T   T   T
  9.0363100548089630  9.5955440244188264  3.3181092037729703   T   T   T
  8.3131562598106132  8.4068534037883058  5.7018255557853745   T   T   T
  9.5398720217248236  8.9359258058769235  8.6678231697496031   T   T   T
  8.3401046738378533  8.8551117659497223 10.9116956751274294   T   T   T
  7.5646867975451286 12.4383469565572096 -0.4734209773326529   T   T   T
  9.6754915170219853 11.6897291845918865  2.1052462938115948   T   T   T
  8.7496745012697943 11.7516176835551232  6.1772872434391939   T   T   T
  7.7922894278579697 10.7201456669230648  8.7374786668923061   T   T   T
  9.7457400297809134 11.2806688202952952 11.5334895115041824   T   T   T
 10.9391795905573126  0.7671138495624774  2.7385888678890522   T   T   T
 10.0300537289991176  0.9730375017390882  6.5783737257941217   T   T   T
 12.2929509302311271 -0.4893263473620783  9.3172045870091562   T   T   T
 11.2998071128780992  0.4137111687402842 11.4016457080154936   T   T   T
 12.3041462914159965  2.3164463065281509  0.9282661471848596   T   T   T
 12.3547144821726196  2.3283339619266750  6.5104944757055154   T   T   T
 10.6309490823611608  3.1821005589322220  8.6658036154478193   T   T   T
 11.9952844345957530  2.6259905800209413 12.9707006500769104   T   T   T
 12.0743288766581749  5.1811086905930033  0.5464829680547875   T   T   T
 11.6327369284834905  5.5610826473648416  4.3323612025138916   T   T   T
 12.1198680960607312  5.1295788843355687  6.6988308165265638   T   T   T
 11.5126613660629520  6.0042607608465417  9.1635411371412516   T   T   T
 11.7746266253563032  4.2596769057552981 10.9182992320973540   T   T   T
 11.7530643481482677  8.4541153357462235  2.4495853983249987   T   T   T
 12.1350175739316288  9.2089152099001499  5.9227594572797582   T   T   T
 12.1510985579917250  8.3135912335895554  8.0908059984968457   T   T   T
 11.7139393526910229  8.4981927387010430 11.9753668336038341   T   T   T
 11.8517653314061615 10.9978866440573313 -0.4756930027572512   T   T   T
 12.0516643958117502 11.7001001949337962  4.1748681426863232   T   T   T
 11.9720043979943842 12.7508019236073853  6.6878743127542082   T   T   T
 12.5716323206864953 10.9647117677101793  8.9460846572871233   T   T   T
  0.4595551000320872  0.2722730113998153  5.7593772922046238   T   T   T
  5.8402538741555503  0.7451983323080645  0.8736798681264892   T   T   T
  5.3076563123914058  0.5528249988003824  3.6116828124169182   T   T   T
  5.5045031544389946 -0.3717128216215883  5.7205250563712937   T   T   T
  5.8940196742441007 12.3320628384594837  9.2289865042344097   T   T   T
 12.0591260548001173 -0.9205367863842289 -1.3083703376255242   T   T   T
 11.6060006407515335  3.4576766320024408  3.0122526783280881   T   T   T
  3.4192474433193474  2.9413675488380027  8.0872690668908316   T   T   T
  8.0792846499398010  2.4051988393799082  8.1031359977101634   T   T   T
 11.7756574741003952  8.2652259143415723 -0.2317044646936818   T   T   T
 12.9026623201395498 11.8750920854481254 11.2870745035151021   T   T   T
