Zr Ti V  Cr W 
 1.0000000000000000
    15.4771126092992706   -0.0171409429028663   -0.0108832458615090
    -0.0171377985850307   15.4835452709138899    0.0089453070842751
    -0.0108770206815257    0.0089383803551370   15.5150560916889226
 Zr  Ti  V   Cr  W  
  10   1 106   6   1
Direct
  0.0001902148520394  0.0351792786738538  0.9639288164822283
  0.9969036669847348  0.2051224336342840  0.7884511042108245
  0.9924995145900584  0.3849660871000377  0.6027237779273594
  0.9901356055488565  0.7909378268876636  0.5909566593720683
  0.1669409845611612  0.9968795310570857  0.3696980120939147
  0.3899343531062308  0.9964556949828345  0.4006071831040642
  0.4029632253264910  0.2033002006627024  0.9984932468600949
  0.8061118718148992  0.3948106897584588  0.4298098004485426
  0.7845948702176236  0.3987748708789315  0.6765515932760406
  0.8030562790306576  0.6201072689630073  0.4066679698238167
  0.5978035844282849  0.7988681048419169  0.5984224096811182
  0.9818744837454270  0.9977045093271918  0.3934553348001765
  0.0013879969215658  0.9954795865641274  0.5887293227619672
  0.0017302993734138  0.9933314175143594  0.7799200527205659
  0.0005009009687872  0.2250081554356035  0.0015062643930315
  0.0005105170301285  0.2052095916305041  0.1978770836215895
  0.0024897111846978  0.1942305248123318  0.3937320827396382
  0.0031201671929459  0.1861053345530841  0.5858239957334744
  0.8629484552809932  0.4027414188013000  0.0074127749525110
  0.0083322556002271  0.3988193618401459  0.3920942494871595
  0.0057179927958717  0.4082296849286918  0.8173301424712277
  0.0003531249950550  0.6062968546531996  0.9997067413960240
  0.0013824734777880  0.5963601573087913  0.1988068817671098
  0.0066764658339351  0.6000753141612952  0.4006143180784359
  0.0001171035637914  0.5927458505840733  0.5994875428622515
  0.0025112789907956  0.6011243821975072  0.7988144878724457
  0.0008076584670860  0.8048389115337590  0.0004623336226799
  0.9991892693187043  0.8005641356448592  0.1963693336376985
  0.9989781156863363  0.8010834250945668  0.3911778090350311
  0.0007262278941876  0.7998204082927511  0.7993412933547172
  0.2030129491301889  0.9991591423249437  0.9914309647061699
  0.2027958402605455  0.9989675858463285  0.1796534049451905
  0.2021165683795306  0.9978930976217311  0.6040845232035827
  0.2017594665684141  0.9976071095592558  0.7973475859312235
  0.1962827980350582  0.1991621924488686  0.9966383347178140
  0.2018274610044797  0.1961120645771143  0.1983350607178264
  0.2025009110358508  0.1987563082221147  0.3983767986840459
  0.2016555707270911  0.1960085358399055  0.5964327741046368
  0.2033676795747902  0.3982267361986530  0.9976340937241589
  0.1983509101614311  0.3985359765216711  0.1964961499375757
  0.2021438071878927  0.3983450691723454  0.4008456092689775
  0.2010954021870709  0.3957435368160224  0.6002152734957322
  0.2015982139190547  0.3980731833730152  0.7999695609364073
  0.1997674528242437  0.5981699095853292  0.9982894176345185
  0.2009411063247110  0.6001795490152947  0.1987888182272776
  0.2015637842381369  0.5985781914001829  0.3997347498027896
  0.2017606784027926  0.5990587586178914  0.7986203825906601
  0.1998509410091167  0.7997542079507814  0.9979311049754063
  0.2001393580662745  0.8007997034350662  0.1986602410233760
  0.1974926573068750  0.7947459036779344  0.3997800994790639
  0.2002560284623686  0.7980712963574287  0.5982613742565552
  0.2000006716689718  0.7973438523394693  0.7987844662767175
  0.4028976091840982  0.9971299893396578  0.9952568455977627
  0.4004817355006490  0.9983225879254111  0.6036452954673734
  0.4029207849139050  0.9981425271931573  0.7984652930723830
  0.4008026828820433  0.2004060820951622  0.2027569443907508
  0.4005744923285690  0.2027261168166191  0.4002346797686304
  0.4011504476927717  0.1985838510965384  0.7946724003266994
  0.4005435436739973  0.4054893134193299  0.0009812193744358
  0.3993573109992843  0.4008175425164993  0.2009509410801585
  0.3988030459474764  0.4001095375421169  0.3997683690823102
  0.3973033323078186  0.3989071313113498  0.6008754647647812
  0.4012784805669067  0.3995016395529166  0.7997718655513728
  0.4011758718653557  0.6015465274393156  0.9995548482199021
  0.3996105167572165  0.5996294677508403  0.2004888404499510
  0.3997745122584800  0.5983821364573739  0.6005510738906665
  0.4008303989899653  0.5995506649697727  0.7987059864950260
  0.4004252444024146  0.7987077051680311  0.9994106186067855
  0.4000972967691575  0.7987543221076732  0.1993919488399422
  0.3992165352222150  0.7928148771079573  0.3992390913113424
  0.3976500074381995  0.7972048184432999  0.5990174526872929
  0.4003192680923485  0.7988993395868280  0.7988666162555020
  0.6024733404798679  0.0006352949188770  0.9993882342455855
  0.5991922863059079  0.0007624833672957  0.1992583101402234
  0.5984102376081327  0.0003902516058747  0.4002269415975575
  0.6001455738857975  0.0026382681581456  0.6005814548734939
  0.6018188150153675  0.0002709240189784  0.7999908344379930
  0.6061032452104165  0.2007638327892518  0.0008349729330690
  0.6016359609493205  0.2003187008074740  0.2009656855534605
  0.6000876075553031  0.2011550105365338  0.4013686183711818
  0.6010760742198613  0.2005721622326255  0.5997108372793769
  0.6014842951581824  0.2001972634261841  0.7993465057851665
  0.6024324766691826  0.4016457137011468  0.0021261062120163
  0.6016170082889573  0.4004429982904513  0.2028853232424986
  0.5971462002944010  0.3996312138460926  0.4003173925589451
  0.5898367723941174  0.3987780626727178  0.5996581210656918
  0.5987233133658034  0.3994080359320021  0.8030242522678387
  0.6010071249999772  0.6009625249921955  0.0012657655543575
  0.6004711046411992  0.5995947610748100  0.2010084754005114
  0.5976316470505952  0.5992792898357036  0.4016562633014358
  0.5999331987423873  0.5959926161886470  0.6006612718513824
  0.6007427098497200  0.5992561676864279  0.8010715968637599
  0.6009142749629255  0.8002939011606911  0.0009958659488778
  0.5999819646055061  0.8005506944691662  0.2001020318317205
  0.5980634064238153  0.7988586055682930  0.3972837688340415
  0.6010403381116868  0.7994567926555163  0.8026947708057039
  0.8003880216621180  0.0011706472581716  0.0019250719208745
  0.8000024002983207  0.0009872932357073  0.1979721223702621
  0.7943859687943330  0.0004564905836100  0.3993947307185229
  0.8002146285543601  0.9977118278706376  0.6017515147334968
  0.8026945141594068  0.9986243920131943  0.8000264754684032
  0.8025990416588846  0.2012324200534025  0.0000830117878716
  0.8007755439389597  0.2003279421259529  0.2021691142846219
  0.7992078973555750  0.1933768325320872  0.4009223230317672
  0.8015760406792860  0.1944094698320633  0.5997405621731897
  0.7957349489100405  0.1977956526752237  0.7979606861324621
  0.8038224581058296  0.4009136342507179  0.2085313366461173
  0.8053145516332927  0.4008350568899097  0.8763949287591921
  0.8013620728587092  0.6003963332719999  0.9998707750764904
  0.8007090540830657  0.6015232722470142  0.2002884665867936
  0.8000586783664895  0.6028044402813069  0.6091196310240801
  0.8012865054906089  0.6017536505836661  0.8021867814046447
  0.8009913902282455  0.8031242136535340  0.0008331719005450
  0.8003580210596974  0.8013730586999660  0.1996542015290816
  0.7968319994181943  0.8109094836169121  0.3985081615327228
  0.7909208262023142  0.8020251055782528  0.6022596005339373
  0.8005675538005037  0.8005175228438132  0.8026967404643127
  0.9998112375841145  0.0025713955951518  0.1965797638363642
  0.2042773344185571  0.1979205887319271  0.7963258262820565
  0.1992996674838819  0.5954749209492315  0.5996319137653621
  0.4006048569568369  0.9992301604066162  0.1937194874074167
  0.4011193664904740  0.1987135865588101  0.5988172240869908
  0.3988285142136779  0.5977265995382979  0.4008215600423231
  0.9998664846631451  0.3998045410605687  0.2041657803102131
