Zr Ti V  Cr W 
 1.0000000000000000
    15.4486336428758069    0.0121581116209415   -0.0069918741920984
     0.0121590392488944   15.4505015656762907   -0.0015177914306970
    -0.0069892847668974   -0.0015156966616515   15.4491826341844032
 Zr  Ti  V   Cr  W  
   4   8 107   4   1
Direct
  0.0006500773396116  0.9649423733990472  0.9964422266599505
  0.0022046262491049  0.1822653816788097  0.9632985049754578
  0.0112094685056706  0.3832494701937351  0.6045775358454617
  0.6022902471306149  0.3961536109682863  0.4047945386867647
  0.1918647486657893  0.2086632525483303  0.5920274578182902
  0.1933957424728915  0.2023419867612781  0.8060662476918802
  0.4072249779600244  0.6020875696332442  0.5985061867767909
  0.5986901343222311  0.0031439142152891  0.4001212113161285
  0.6990790197650706  0.6953973946000637  0.2065119796901041
  0.5948360871966388  0.6112403500270425  0.3847434963927344
  0.6037511579277659  0.8031168578585633  0.8014160753594095
  0.8091238186708960  0.1989352431215617  0.8049326250654297
  0.0003821917558420  0.0013048380367060  0.2004803117826918
  0.0008040823823286  0.9984977692739674  0.4005569133298596
  0.9987994448102230  0.9941229846790383  0.5983174375477844
  0.9999785950643858  0.0052349537393097  0.7932617371252453
  0.0007148459687750  0.2004115006372534  0.2003735113821875
  0.0001705705041222  0.1990674982468223  0.3983687900148660
  0.9906847604666614  0.1859945089975836  0.5920923597194969
  0.0007081581043901  0.2060545626501250  0.7664327964085665
  0.0014368331055469  0.3975087642875437  0.0010795111399371
  0.0027121909170259  0.3975135842376887  0.1986628721525392
  0.0027127546167732  0.4006069962219700  0.3975414640207309
  0.0019704708101397  0.4014454111866813  0.8058135324778911
  0.0013650964860608  0.5938331348294204  0.9985969178316699
  0.0010347135484909  0.6001114929171379  0.2008759706822707
  0.0016931859168974  0.5992292003049186  0.4011983160411922
  0.0010278820981806  0.5989429976143982  0.6010040113530600
  0.0016723069147078  0.5996533263754612  0.7980161044476111
  0.0005319092672619  0.7784379099886242  0.0009492448384223
  0.0026418604471237  0.8001230812930495  0.1991620293002304
  0.0008137856609375  0.7996388339854309  0.3993253486129341
  0.9997121382863656  0.7987612432084726  0.6006215995260866
  0.0017167438694259  0.8006884305152531  0.8018426544372225
  0.2032742936885861  0.0039107636959745  0.9999148035402834
  0.2004941408038402  0.0020548704033968  0.1999989917753318
  0.1998984988391329  0.0017763171060155  0.4012631515638330
  0.1988615343604431  0.9992826895562823  0.6001278194211376
  0.2009080151623580  0.9998659559539217  0.7977604033422322
  0.2070505727711410  0.2025877449764656  0.0030307519444106
  0.2002501546405355  0.2018791094695116  0.1998558644481180
  0.2008008673698365  0.2013744601557690  0.3977171730064197
  0.2026261141447676  0.4010103128326618  0.0018073575043200
  0.2013305691115972  0.4017508782490870  0.2015612272878609
  0.2007408261627359  0.4016092551907175  0.4018445728896574
  0.2113225041501837  0.4071250183926810  0.6003655983540709
  0.2016827956373447  0.4050441632084841  0.7993620000843659
  0.2010956147863657  0.6013100766203771  0.0012186159789362
  0.2002904534897940  0.6007799539026449  0.2000344445781656
  0.2041264551551242  0.6026198307995841  0.8005561414760161
  0.1992372185960077  0.8019298859539068  0.0011436708360602
  0.2014786099870124  0.8020975201811792  0.2014615424256390
  0.2003160576541523  0.8009568635368445  0.4002457283160416
  0.1994635964984217  0.8015010736143824  0.8005667020228919
  0.4013531499060063  0.0000682615865869  0.9982899632990058
  0.3995980096963783  0.0023273708842644  0.2000552078458860
  0.3972166457864968  0.0017220974759034  0.4014527166461556
  0.3986022764596905  0.0019120448286118  0.6017186227880280
  0.3987127508199614  0.0009951160173384  0.7999980522765274
  0.4027789745484853  0.2011824600196976  0.0000569834570612
  0.4011439328765438  0.2012330113035685  0.2007143352366293
  0.4004550571628534  0.2016690798107696  0.4005123042258703
  0.4010633584467497  0.2012860691428567  0.6009968229217761
  0.4003858382101558  0.2023153042637942  0.7990983378089110
  0.4021263521312289  0.4002442319410494  0.0008803400227702
  0.4012758751804112  0.4015411757092922  0.2002375635775660
  0.3970281673613003  0.4015031829865188  0.4010715179069611
  0.4046888398391715  0.3993678654042140  0.6009414006173383
  0.4000185774350338  0.4054170211569628  0.8010563201424843
  0.4018771523252039  0.6015073698383056  0.0002043499435994
  0.3980976147241081  0.6010827879364646  0.1997194514409663
  0.3961110126122435  0.6023511897369030  0.3980790680406154
  0.4008664323405985  0.8018883474816668  0.0014304018478013
  0.4009738979588032  0.8008334655806938  0.1999367860712500
  0.3994549314244142  0.8019925667316288  0.4014284362979313
  0.4011311594398882  0.8035475951825332  0.6012209053137605
  0.3986390752332851  0.7973758302292172  0.8008815877682338
  0.6000568805903229  0.9996094277610440  0.9986112183144271
  0.6010766686722365  0.0018966322418537  0.1971985256380290
  0.5999586011281720  0.0029011693440905  0.8002112493828657
  0.5997640316018370  0.1993669600380388  0.9999181970077999
  0.5999941589600067  0.2004385983705564  0.2004768216108083
  0.6005060579413369  0.1952060017573910  0.4003179201552615
  0.6000163412392665  0.1978108913353767  0.6030526283807779
  0.5977364780540956  0.2004453665428719  0.8017382383481362
  0.6016280442914388  0.4006458833130756  0.0008354477532222
  0.6017819683471025  0.3965689393505599  0.1973673039327563
  0.6030324554463857  0.3980515083611233  0.6076537126494722
  0.6020449973871453  0.3981268849374823  0.8024268357216373
  0.6016689546195541  0.6006055832803202  0.0017976362675152
  0.6043930034162363  0.5990902435034646  0.6039722824110569
  0.5964875892192621  0.5991355436808921  0.8014550717471659
  0.6024674738075929  0.7997103876854303  0.0062588874545710
  0.5992430078362235  0.8049392138594740  0.2021028647921377
  0.6003158115005743  0.8057500071169276  0.4003070261341766
  0.6020171987389559  0.8021830162494642  0.5987445888141854
  0.7977640739797491  0.0019403340233921  0.9992574608106064
  0.8010337378382807  0.0032884753635625  0.1996751241563657
  0.8022270319419555  0.9997944227650070  0.3993804573845753
  0.7974056085189567  0.9989741025597799  0.6003596353137466
  0.7992677766421974  0.9977520644725680  0.7990103280717781
  0.7956767522787419  0.2012313377715189  0.0035980174547831
  0.8019737178358652  0.2007804911553149  0.2004640614037591
  0.7989579265404663  0.2013278508935559  0.3998340979106896
  0.7959456313489632  0.1981231174269751  0.5964722060933672
  0.8008402802668482  0.3993829356508878  0.0008398630810351
  0.8022291929259583  0.3997660204954539  0.2000321422710366
  0.8076968750163335  0.4006844014615293  0.4018431248358090
  0.7986422960427580  0.3983957721244316  0.6003730706012688
  0.8016021707536346  0.4033056782700677  0.8012677830696605
  0.7983388493971600  0.6003468955001851  0.0015577010851404
  0.8044064177084761  0.5974792817641721  0.2001400636909648
  0.8024738599960682  0.6016088812850771  0.3997250213835623
  0.8010095564922337  0.5986291885420360  0.5998796814594133
  0.8008750834008747  0.6001793274759037  0.8005642678219780
  0.8025846184946396  0.8000464886351685  0.9996681222824095
  0.8003258167791633  0.8000160417476564  0.4023558533159758
  0.8000795368843256  0.7994296062725462  0.6006986668128224
  0.8028186920229424  0.7997064831631890  0.8004989580674420
  0.1994861437619969  0.6018602250408748  0.4005903681841911
  0.2001236972168678  0.6027749963416672  0.5999873684947273
  0.2002450488910248  0.8003209138054886  0.6002802332555519
  0.5986939882719013  0.0006343534509445  0.6032956784314993
  0.4003260581867480  0.6010985162202614  0.8050863063543064
