Ti V  Cr W 
 1.0000000000000000
    15.4533176427851515   -0.0008865403605514   -0.0001136557864103
    -0.0008863085543239   15.4597859856343174    0.0001179633137350
    -0.0001136322034286    0.0001178166101631   15.4536212137375468
 Ti  V   Cr  W  
   3 114   3   4
Direct
  0.2019830439228982  0.7993787275396009  0.8033297215847625
  0.5932376107149187  0.8000773710586023  0.8015289584560633
  0.7978072426984149  0.7968207331958750  0.3999890982669109
  0.9998927034627375  0.9958312180456721  0.2003624755660939
  0.9991572589706356  0.0012784082138924  0.3989106156746575
  0.9998350263310078  0.9996748397387529  0.5996534165733063
  0.0013166814522683  0.9992671396529651  0.7984357052943485
  0.9994366520875100  0.0029218402341871  0.0010328158053829
  0.9994396067245730  0.1999922609190781  0.4024888192424205
  0.9997077624771347  0.1996214072486139  0.6010764181037872
  0.9992272673755823  0.1997847328498993  0.8034353840890825
  0.9996068729178557  0.3968457653266462  0.0007831062604287
  0.0001899362186994  0.4044656647148028  0.2001040950299486
  0.0001196505994720  0.4000019186092570  0.6005263619376604
  0.9997293534095459  0.4010893009550106  0.7994426163469707
  0.9999450104289681  0.6000237198419589  0.9994119451556286
  0.0002013189671387  0.6012554786107626  0.1997296341618751
  0.9999811356933876  0.6005692280370067  0.4004700121223047
  0.0002190352817815  0.6000145015935493  0.5998247664432168
  0.0013425353535523  0.5997523759462804  0.7995575064452864
  0.0013241010522640  0.8001663980116236  0.0001753591547105
  0.0004486265214336  0.7997291766894818  0.1994607908649022
  0.0003716415649252  0.8002779904580823  0.4005918976736736
  0.9983632881518276  0.7998793198834586  0.7996224327712954
  0.1999342301859238  0.0011547505858403  0.9994417696351037
  0.1981729165901814  0.0015924875798878  0.2004130182481012
  0.1992706545087057  0.0006257407767325  0.4007378880566093
  0.2001652340324497  0.9994265199634215  0.5999380345752124
  0.2004835371795443  0.0013681806568109  0.7993681032821872
  0.1976976425630072  0.2002361412749690  0.0005515592065957
  0.2040488745853115  0.2000567367371489  0.1995068009223860
  0.1982804533090172  0.2000801109731773  0.3986659359036839
  0.2003078100266565  0.2001832188209001  0.6009849439301945
  0.2014507150167801  0.2003096362159191  0.8000011125224291
  0.2004387710557951  0.3991591736533401  0.9998560291547181
  0.1989994995665941  0.3994951991341505  0.2001607097911493
  0.1997648271702936  0.3995948763722877  0.4001471767947948
  0.2000390888868080  0.3997987187758750  0.5995125525299906
  0.2005059778029895  0.4001025717694839  0.7993959203848421
  0.1997951373088460  0.5988192009384532  0.9992606482656541
  0.2001346702226774  0.6001449132251494  0.2000535485009535
  0.1995337791303568  0.5991495559541842  0.4004664391742191
  0.1999525703802212  0.6003573471291410  0.6001399607451868
  0.2004004718194169  0.5982986997161216  0.7999445428998981
  0.1995545254236868  0.8005862892416674  0.0018135399298161
  0.2041398151594457  0.7994914851163493  0.2000441326778540
  0.1991954305910114  0.8002202751631943  0.4003757628005627
  0.2001144864470068  0.7997134125944735  0.5985038357170739
  0.3994378697329566  0.9998159372114308  0.9991720849567182
  0.4000143762165885  0.9948726375780177  0.2003958559142432
  0.3996322917407497  0.0001926728735703  0.4006614585223707
  0.4004766682296637  0.9987137768657748  0.5996845301975675
  0.4000478358044676  0.9992278131049254  0.7991612869767643
  0.4038194856943917  0.1992871611112843  0.9995125477326410
  0.4000231316503191  0.1989603081929564  0.1994093611996703
  0.4006856470178866  0.1996236710867546  0.3996728768421949
  0.4004054985228488  0.1993173289031913  0.6006072554624242
  0.3999392533388761  0.2001297910018779  0.7999769668294108
  0.3993618630805132  0.4006421976309332  0.9998810562437351
  0.3998041758711513  0.4023853060706367  0.2003238127533065
  0.3997991634148940  0.4002823398611852  0.3997788478574974
  0.4002255826181488  0.4007107033903202  0.5997596338848955
  0.3999053130110892  0.4006789914229297  0.7992376681798987
  0.4005555645902323  0.5998742267898531  0.9990413519171147
  0.4002317151083868  0.6041669911149550  0.1994571666832396
  0.4000295000876596  0.5999591496659381  0.4007748541423529
  0.4004452589650548  0.6014810526925044  0.6000852453118899
  0.4004825421474429  0.6003351012337557  0.7999422294004128
  0.4005574191389949  0.8003339466297661  0.0036848535647842
  0.4001312808423828  0.7999147002917993  0.3962770271162281
  0.3997695738126948  0.7998497878380051  0.5984180161283755
  0.4005382383063492  0.7997891872166312  0.8006736907705999
  0.6008599307542852  0.0048419320160928  0.0000100611173592
  0.6000683191005840  0.9994880507634905  0.2007924683564150
  0.6006390276940148  0.0014563181066791  0.3998829024795664
  0.6002314766342209  0.0004748354109629  0.5992410075785554
  0.6002728768572385  0.0019291449158370  0.7990850390701048
  0.5997519967382197  0.1993775796707916  0.1960565959434628
  0.5999397539006296  0.2005091958798416  0.3992297617520154
  0.6002914979598087  0.1997585545537096  0.6005960409370790
  0.6004312416609846  0.2002477893963729  0.8034584901848500
  0.6002491487785033  0.3958576662231856  0.9999972192858243
  0.5992751184518410  0.4012805397584810  0.2002728310753383
  0.5999370806823613  0.3991977307937643  0.3996330833231622
  0.5998054599915758  0.3994651030248756  0.5998815201680341
  0.6001576376125727  0.4002799552543067  0.7992722091261216
  0.6005929859824615  0.5976910299531909  0.0000323330490120
  0.6001746006078463  0.5997664059053553  0.1996281821149931
  0.5999385864593936  0.5986606976453118  0.4000175059758955
  0.6001658163810778  0.5999037667459443  0.5997225641504221
  0.6002804167615002  0.5975709753835489  0.8000588966555748
  0.6002005312187719  0.8008327817224919  0.0017291850821473
  0.5971898306560515  0.8006362968680735  0.1995256017030507
  0.5993895014101035  0.8001661843267281  0.4004846859984498
  0.6000134582148114  0.8004464382907927  0.5976706511206841
  0.8000353722315690  0.9997186693607376  0.9996866376951176
  0.8012110276663481  0.9995237066856419  0.2002016555251329
  0.8000526678401834  0.9993795699488530  0.5988410002017290
  0.7997757296708121  0.9948122692944996  0.7988795810349866
  0.7991509103382159  0.1991798951185476  0.9998707053711978
  0.7975140756261314  0.2000545950033043  0.2000360929762809
  0.8011007997950699  0.2007847928982630  0.3980904084304565
  0.7996366234822081  0.1996085337781802  0.6012860500710082
  0.7993796132520010  0.1988757881204435  0.7988031001087358
  0.8001732987338093  0.4007771906998455  0.9990342367793877
  0.8017611155940566  0.3999056570389215  0.2003970280878216
  0.8000165082448079  0.3998226316575871  0.4000439724524577
  0.8001132021263275  0.4006780755441584  0.5998994025536172
  0.8002176756908752  0.4022757499049025  0.7987757752804636
  0.7997436490302604  0.5994529111150509  0.9994789165921866
  0.7992716668977906  0.6015756120444109  0.1990246968367296
  0.7999914405966234  0.5980848348965335  0.4003693004955560
  0.8004684845108792  0.6003965808602948  0.5996781831084185
  0.7995505548736247  0.6046571183168460  0.7997089695022818
  0.7992652425970018  0.8007165155549192  0.9962551394457313
  0.7986435352730719  0.7999248307681937  0.1970949066481306
  0.7999147120876723  0.8001578334924658  0.6050246921296210
  0.9998296535718797  0.3997653804561320  0.3999871351140913
  0.0007639518151461  0.8000379852863189  0.5996879100380093
  0.7998290470602084  0.0020846336980243  0.4000423385945427
  0.9986858123082965  0.1997437115361212  0.9940924729007159
  0.4003792496354482  0.7994178087031669  0.2001793563523292
  0.6000168102424350  0.2005625369962505  0.9995217678865511
  0.8043370709543403  0.7997518358217677  0.8008371746324069
