Zr Ti V  Cr W 
 1.0000000000000000
    15.5250581035635555    0.0249023373092759   -0.0029593452149727
     0.0249075060967649   15.5258599297975692   -0.0072275987838562
    -0.0029689522119990   -0.0072397786097423   15.5108223676839163
 Zr  Ti  V   Cr  W  
   5   2 106  10   1
Direct
  0.9979596577732027  0.1988061947480763  0.8016389476632546
  0.0013147983459369  0.8006135438334815  0.2022249540704918
  0.4073348308317516  0.3916043942359120  0.2015557815882189
  0.5916661184719262  0.2083911913975859  0.2026750090013540
  0.7942028311472487  0.4020630166583256  0.3998521472734516
  0.6175033582750943  0.4176545887926295  0.1821641721207697
  0.5823867292560010  0.3859470830080787  0.3639852307710938
  0.9988677311553998  0.0066996629165703  0.2037344138784728
  0.9991668972747756  0.0008254347141161  0.4014181754069245
  0.9994592556198565  0.9998998918964915  0.5995117448238108
  0.9990105515382189  0.9953368647088008  0.7973117884487465
  0.9986355223141096  0.2032640113588498  0.0045347343195206
  0.9990403302424133  0.2045195816505404  0.2017652150430789
  0.9995022207345554  0.2002477433701010  0.4013188259626064
  0.9984362093967519  0.2008401288339322  0.5962714348192143
  0.0016454363592016  0.4006529133540505  0.0041341137692595
  0.0039022147450925  0.4001360987893465  0.3971873284822616
  0.0009966373992942  0.4008849384979298  0.5999700681879525
  0.9998866482693086  0.4042472705968145  0.8020289681036736
  0.0003001772322436  0.5999464192383738  0.9999228802523279
  0.0014885030977322  0.5932123935268055  0.1999982417766069
  0.0008201389940472  0.6003025267039931  0.4002968065539009
  0.0002380195713426  0.5990617427456453  0.6000521945869471
  0.0008002969245831  0.5996309171486248  0.7997870339738450
  0.0006302448758997  0.8002047365511681  0.4052383145126426
  0.0001533911015803  0.7986659448760036  0.6004414119134411
  0.0005028115298180  0.7984113346522613  0.7994866529381024
  0.2016094355821645  0.9992006485600168  0.0013790911991183
  0.1969814261908214  0.9988119855108243  0.1987501478689557
  0.1999213116834178  0.9992914935223388  0.4008832073226092
  0.1998457707170576  0.9999395342764339  0.6004667230015613
  0.1657631278049981  0.9998960034634288  0.8354259895349181
  0.1975207811199891  0.1986535317168555  0.2014307450039994
  0.1997716417785607  0.1980473264025225  0.4011237797333325
  0.2001412121893284  0.1996810724642359  0.6004146483055381
  0.2036014077498788  0.2004517497792577  0.8005093786561849
  0.2022344033901070  0.4010761278917887  0.0001750133942899
  0.1968945497580856  0.3995262956827972  0.1997097305965584
  0.2002585146589666  0.3989432909150902  0.4012241907260961
  0.2001336555787318  0.3993010206238699  0.6021229249060499
  0.2003439331942911  0.3998841858991508  0.8015201189913438
  0.2019817066488441  0.5996742968989743  0.0002825572832887
  0.2040530291647997  0.5983866256323692  0.2004655913021859
  0.2012570293373400  0.6004661917621326  0.4005515588613386
  0.2007269901850500  0.5990248299521889  0.6010163276929674
  0.2007312482923855  0.7995465448313716  0.9993719775312586
  0.2045477705861783  0.7986043211425805  0.2000513471746466
  0.2017053923212255  0.7993827383350370  0.4014307409843655
  0.2007079162225618  0.7998237991936431  0.6016014265084886
  0.2002083931884037  0.7991580289184118  0.8009964266837331
  0.3992616160261855  0.9997197070597725  0.0006970106881237
  0.4002204696091159  0.9963994398702481  0.2015902985778415
  0.3989366094002168  0.9983255351437671  0.4012943472348932
  0.3994148989819748  0.0001631711128690  0.6014029596745402
  0.3999504575027658  0.9999322318296688  0.8005160545083616
  0.3992950141268089  0.1998256464346768  0.0014789513325641
  0.3886310301333988  0.1889042680370467  0.2005883367073646
  0.3973515129055508  0.1978808791592634  0.4027358982245094
  0.3987326762957085  0.1998122039703659  0.8011303805659861
  0.3997411179280296  0.3988681541879507  0.9964205821038391
  0.3928338699699685  0.3983777345682037  0.4074438047807129
  0.4005707982277251  0.4000028003669443  0.6016842899348573
  0.4013463705074620  0.6011389661071376  0.2013300304298787
  0.4012106623391059  0.5976947346090488  0.4015556018722099
  0.4010964280173465  0.5986449773686200  0.6003839302612423
  0.4009095233614101  0.5995270512879968  0.7998314662621497
  0.4012469533623348  0.7983890587957386  0.0000388442510590
  0.4012370823848010  0.7983556402214945  0.2003601784070146
  0.4007115916216595  0.7993010526153469  0.4014232067795305
  0.4002281124772605  0.7983034523271293  0.6012222747762432
  0.3996152183344244  0.7993548733167087  0.8003960191132037
  0.5989294013881242  0.0007462533817213  0.0011847849228533
  0.5995321059525663  0.9984853859648697  0.2012815094021336
  0.5982839711565545  0.9974636715175278  0.4006457825827071
  0.5993708034880814  0.0001148527600943  0.6010105101388938
  0.5986599488787521  0.0000261305775875  0.7997847383274805
  0.5974643748643892  0.2013851107786773  0.9968458102428200
  0.5968229982603059  0.1915369759318843  0.4068108726283363
  0.5987451793587009  0.2013926457104948  0.6005833187730863
  0.5968099565297771  0.2001813498112156  0.7997307377493049
  0.5999873003896414  0.4013859179598506  0.9927535561870149
  0.5992745242220103  0.4001921674689657  0.6038028482314638
  0.5995966035330110  0.4020134383679257  0.7984630812988237
  0.6000065658346334  0.6009276708123948  0.0006499245197655
  0.6013965409887705  0.6062192527478852  0.1997263107838876
  0.6009181557410026  0.6021584792774850  0.3987798576144396
  0.5993142650650320  0.6010413085782976  0.8003930508663568
  0.5989572117656361  0.8000793448609564  0.0000072826228465
  0.5989131615900244  0.7997848553523411  0.4010239480904884
  0.5999253043246391  0.8000904618642534  0.6006304801960423
  0.5997249054545691  0.8000584255128463  0.8011651284642539
  0.7968177287955789  0.0011222696483749  0.0008701923380028
  0.7991293657389238  0.0021763109516004  0.1991933888397792
  0.7989786743398090  0.9990027962223264  0.4002079898986631
  0.7988763627689695  0.0006571508172946  0.6006169439701521
  0.7995343916253580  0.9995318303350048  0.8022130718128339
  0.7970245335509050  0.1998256197173867  0.0012524360347595
  0.8008058008508779  0.1997099704331679  0.1998306350930527
  0.7969270336036625  0.1958440841663601  0.4003879882622651
  0.7983544581165709  0.2005389359683149  0.6001507221898289
  0.7934231824558228  0.2012161667486401  0.8003554989943211
  0.8006252259772199  0.4016141306493641  0.9982550240403076
  0.7997816395038790  0.4000689958899445  0.6029395439705034
  0.8000074926160776  0.4016609575360074  0.8010708731590767
  0.8002655752746786  0.6027273104882501  0.9979735705171301
  0.8003407191446680  0.6063441163015704  0.4013466160528271
  0.7999568197234577  0.6007053856988183  0.6010962147289178
  0.7987892181568381  0.6007277488153281  0.7999840359001985
  0.8001938966061499  0.8015436532623239  0.0003465887426792
  0.7976048591505167  0.8018947731233967  0.1994132400208356
  0.7989981793017673  0.8015285536978836  0.4000540169820928
  0.7989850593711736  0.8005293864206594  0.6009898184512015
  0.7998591584451182  0.8001699737675861  0.8000695096668552
  0.0007274246160736  0.7995361824963384  0.9965682504546919
  0.1995977000651234  0.1996272115346915  0.0008685392948175
  0.2009323268872509  0.5999693142728750  0.8010509490724979
  0.3997636103421011  0.2002593700128448  0.6017425268458058
  0.3995675109128677  0.3998805145405262  0.8002682869254977
  0.4008881787482628  0.5985825879930005  0.0006833349757806
  0.5999942630026052  0.6000746349401525  0.5998193021009499
  0.6008543301683043  0.8011604309120499  0.1997659470778733
  0.8075267635924109  0.4022453149641806  0.1944597786089843
  0.8015426978377300  0.6032464232805963  0.1991064375974226
  0.0017857616085950  0.3993407103296479  0.2010347044961563
