Ti V  Cr W 
 1.0000000000000000
    15.4171836946855763   -0.0006458025225840    0.0021743795697675
    -0.0006464432342440   15.4108214600062574    0.0048957167363750
     0.0021730867805691    0.0048939939426410   15.4267125679285311
 Ti  V   Cr  W  
  13 101   9   1
Direct
  0.0009035247582118  0.4016083360198658  0.4029127972064747
  0.2066587782474776  0.1983172134147772  0.7946855105217122
  0.1973008569697385  0.5969580135561372  0.0045908765583305
  0.1984622542045006  0.5975635163340216  0.7921279816482361
  0.4002555675514800  0.9947565670089306  0.5992165840918602
  0.3956122905302955  0.2049012971222634  0.6054920899291768
  0.4024396928500095  0.6025746472343374  0.4017976994255345
  0.5972881488394395  0.9989893031001915  0.9949977272987572
  0.5949155028341634  0.3991739630707355  0.4056608176224907
  0.5903497516632651  0.7980455509351243  0.4020429246474478
  0.8360428447003554  0.4081115189654048  0.9871541561303059
  0.7982572008105281  0.5881495780343433  0.8096561190802278
  0.8037391749338129  0.8029324577612059  0.4029374768813833
  0.9997967843626936  0.0011908104560787  0.9994566288018881
  0.9988214733348847  0.9998716848690640  0.2006212749957771
  0.9996372760283949  0.9994116270659453  0.4001464524072665
  0.0003195134332276  0.0011857029379443  0.7988012935078012
  0.9981620411274514  0.2017053675457210  0.1982331752693408
  0.9994075151509690  0.1982773870453266  0.3988001819494417
  0.9985727597929331  0.2000798192638714  0.5993255120835994
  0.0002596498381246  0.2004891123391058  0.7995027167418670
  0.0005532490377811  0.2325168225608686  0.9980047755905436
  0.9984741285400529  0.4006341044495516  0.1916742966207727
  0.0049648297223559  0.3985798328494080  0.7964166800795039
  0.9991898985339664  0.6062396498805577  0.0006684988876438
  0.9975060409849525  0.5990850225646495  0.2010041818461012
  0.9987231736855414  0.6013779509446332  0.3994281583650511
  0.9973084853248272  0.5999360124141059  0.5992649293128554
  0.0000155353895150  0.5985160375310393  0.8002851042741609
  0.0029239661447222  0.8013282618998055  0.9993587905243938
  0.9977337320298708  0.7994453919141925  0.2013102713396327
  0.0028540287805023  0.7996048510303776  0.4010753403696768
  0.0010832313581943  0.7988795666741449  0.6018854894595942
  0.9992240580151835  0.7993143199267990  0.7991055566587579
  0.2002012887907453  0.9983042484202581  0.0002166154444191
  0.1997999008598748  0.0001069624563568  0.2013237860214490
  0.1995772913646797  0.9996424541844980  0.3999532583978844
  0.1974858655598159  0.9987493104804590  0.5995992531126881
  0.2013130129923909  0.9984585877946753  0.7985357935272646
  0.1991968579617593  0.1994973233196591  0.0009049983908820
  0.1994292014348941  0.1999036768107618  0.1995944055247597
  0.1989833788930417  0.1990041841332000  0.3988149239002755
  0.1970593108153091  0.1998582440236049  0.5958647277788565
  0.2006963400244150  0.3980267097142232  0.9985561531846076
  0.1978544558704651  0.3996579386978177  0.1990933225230054
  0.2012419023215379  0.3995876603151176  0.3995486253702393
  0.1991462589101520  0.4006097798460554  0.5987001027505784
  0.2016954933331429  0.3995798564828790  0.7994269993292058
  0.1996718884448986  0.5994862950495098  0.2042630348525402
  0.1978912896271319  0.6001052616136867  0.3998529732647089
  0.1994357920530901  0.5998456584212617  0.5958712349842378
  0.2001917863684230  0.7993522418650412  0.1965214390494304
  0.1997439443263150  0.8005919049098529  0.4004279881235315
  0.1998951111017933  0.7985910820139905  0.6021014864775031
  0.2013921009888948  0.8004070444806720  0.8042776527795688
  0.3994210692483583  0.0000313616291781  0.0008091829849657
  0.4010195077342031  0.9993160744114399  0.2006431397308612
  0.3991797721946985  0.0005393612456277  0.3996030285381564
  0.4021060012462204  0.9983456045818274  0.8016346270508343
  0.3993266126637693  0.1992994308457061  0.0016749105851860
  0.4004295025787397  0.1999386269689895  0.1997699251583177
  0.3995792395727646  0.1994791625806787  0.3984161355325154
  0.4045206917127162  0.1994310054103116  0.8035102286428167
  0.3978259657196980  0.4000103234079072  0.9984261245344168
  0.3992488981394230  0.4006815473452823  0.2003657916821204
  0.3968248730570804  0.3982345965254186  0.4012452156436978
  0.3993865116249226  0.4035308264165900  0.6013875496340705
  0.3999970407381230  0.3996782452109505  0.8002477480500662
  0.4007120509266219  0.6001674070475370  0.0002408351312758
  0.4012584727002125  0.5997871063499863  0.1994465048772890
  0.4003523398364955  0.6001112115655473  0.6020075440204901
  0.4031107556091424  0.6001816037420572  0.8001573364640540
  0.4005238469866206  0.7992834333099221  0.2010121063048292
  0.3952591141141168  0.8020182617180758  0.4007620053395371
  0.3989022704382961  0.7968997199492307  0.6024301057570665
  0.5993779245987223  0.0010210363404890  0.4004390931699128
  0.6022126379531370  0.9990612337418643  0.5989156010369561
  0.6005130313179343  0.9998696337251571  0.7961197119223971
  0.6016495705195116  0.2034310848326335  0.9996296366410007
  0.6001062313063579  0.1998456589894283  0.1996536788207582
  0.5982265831688590  0.1984116758612227  0.4005962802996313
  0.6016378603249629  0.2004959965182513  0.6002058699862898
  0.6010028767805767  0.1993762411050607  0.7996935365113287
  0.5940690263469147  0.4006885619380519  0.0002504906529150
  0.5994403509690980  0.4003838323506930  0.6032869483461739
  0.6008981454996203  0.3992214945649000  0.8008269935533242
  0.6013518598745953  0.5988873180038649  0.0007234411394638
  0.6001133184158776  0.5989478413571497  0.2020003545248520
  0.6018428655673815  0.6000534925225190  0.5994925944859675
  0.5991791313111364  0.5986207522875905  0.8004294355916254
  0.5993184366343882  0.7974838860209119  0.0002382021719936
  0.5994058210193050  0.8004746934468446  0.1987327607088012
  0.5989961190220880  0.7990510992971311  0.6032006615380876
  0.5995908874005365  0.7986742056309106  0.8007146885350898
  0.8017066911651574  0.9996839506453515  0.0007588021265186
  0.7990973797966542  0.0004073132706495  0.3998243260846086
  0.8003815075806793  0.9986894815557151  0.5986500008740452
  0.8003571945556298  0.9986579785994654  0.7992330305996111
  0.7996058455684880  0.1991503415833325  0.0003319741522681
  0.7979624824607733  0.2008409704806551  0.1986439617267307
  0.7996627581572003  0.1993877578377748  0.3989692751182434
  0.8002795648754196  0.1987417517134231  0.5985072193400118
  0.7996241450488097  0.1973073926754302  0.7987142735781384
  0.7972055796374093  0.4008369399508946  0.2006577394584421
  0.7991170607400067  0.3990425795163962  0.3989503984796425
  0.8008001403021707  0.3998730014846791  0.5983809785595453
  0.8011325956143822  0.3932346289040187  0.7953402034694932
  0.8005571660924597  0.6031600790533217  0.0067478414284307
  0.7984646376922580  0.5985220691222665  0.3992692254947206
  0.8000625279922702  0.5992505676465743  0.5986145353614610
  0.8003610106792229  0.8012802863733477  0.0005642539972102
  0.7984984977462951  0.7996022247857478  0.1998663928751766
  0.7997514872396805  0.7977386548696971  0.6039021675592321
  0.8003506369181480  0.8005737890224004  0.8021155356347196
  0.9992173020601821  0.9987280767883865  0.5996588390731628
  0.0003148796456334  0.4002994642652071  0.6016595201124862
  0.3991183931280874  0.7995401245249808  0.0001540004732754
  0.4003095561820293  0.7987093540172054  0.8020026848459505
  0.6003235701199577  0.9999013563612269  0.2022270109578426
  0.5981870440578705  0.3994719230946562  0.1979636080920547
  0.6016815029250340  0.5993614892841268  0.4006669591438368
  0.7990676677670522  0.0003639407690655  0.2003463759745044
  0.7982155739412464  0.5999517464684498  0.2012801371742140
  0.1978292701644223  0.8041659679437567  0.0007736269847505
