Zr Ti V  W 
 1.0000000000000000
    15.3687751858679373   -0.0034047973547748   -0.0004629384474201
    -0.0034058626285429   15.3762737440467472   -0.0028872120149207
    -0.0004620936853672   -0.0028876454386987   15.3933118945991367
 Zr  Ti  V   W  
   2   2 106  14
Direct
  0.8019123876211497  0.9920108523668840  0.7963738232510376
  0.8151974313837055  0.3863190313441180  0.0151963849911123
  0.1960438306413147  0.4020631017494399  0.3911212701403426
  0.1990060067835460  0.7997583780279067  0.4001698403471334
  0.0002600588409654  0.0024633159638354  0.0022821436519667
  0.9999341813299881  0.0003649315639627  0.2006720986960504
  0.9981736059966374  0.0001612228162630  0.3985816363284934
  0.0010974783886879  0.0022815451289176  0.5969987814401317
  0.0048523798449790  0.0014073526339191  0.7990782455963761
  0.9964475050841977  0.2020681476068958  0.9990651504688525
  0.9999611968375915  0.1997086709496091  0.2001175743394843
  0.9984717933569816  0.1993067818441663  0.3997860808498616
  0.9998690926235810  0.2004783309074674  0.5995106990224836
  0.9983538581468352  0.1994584863122054  0.7993168451776547
  0.0119272234626423  0.4000639189502592  0.9975588121547051
  0.9947994878205745  0.4004054375817127  0.1983786582275842
  0.9968333698817288  0.3987766335884768  0.4006840743652975
  0.0036456202228755  0.3994391655177462  0.6007835939009402
  0.9967308369787496  0.4014368972044938  0.8015092584640857
  0.0002282986003202  0.6006560933320919  0.0012853392555705
  0.0041196895293283  0.6013944952570044  0.2008703546118223
  0.0018567172286268  0.6020007319517588  0.3999383242866971
  0.9984881631485788  0.5990610712715838  0.5980318175054256
  0.9993766906658341  0.6006910793834271  0.7980077140455584
  0.0005141593811822  0.8015024114324506  0.0005909495622884
  0.9961699977689895  0.8022102021570373  0.4018010288518543
  0.9992447442556726  0.8003285857300902  0.5998352222215901
  0.9993714167599619  0.8007900016925649  0.8005094010222834
  0.1994685742760253  0.0023973621720503  0.0005696939310745
  0.1989400861053822  0.9991270315171540  0.1998357248461544
  0.1993394748934273  0.0011485571742755  0.3992890935371416
  0.1997884855185691  0.0013252099593695  0.5983316768371650
  0.2003680578830018  0.9961281864811133  0.7993093829062948
  0.2007006574803939  0.2040538794189564  0.9989387950441071
  0.1994768848415129  0.2019203546215965  0.1996439791982822
  0.1992246620990534  0.1994617145433945  0.3990171148023240
  0.2024932104250121  0.2055561060250435  0.6005032573322602
  0.1989559575972062  0.1988182467060038  0.8012026164735555
  0.1993302339445642  0.4046107784337844  0.1916817741256137
  0.1999137962605423  0.4036376043529746  0.8021761457271939
  0.2006125092903098  0.5971842229415590  0.0042890755531065
  0.2010525312582533  0.5951665222005176  0.5943496341291619
  0.1995122636756350  0.6047947068593135  0.7987843484513844
  0.1990556551724166  0.7999516801002554  0.9949605122961310
  0.1000999302236515  0.7974080466629543  0.1969501880025202
  0.1995168931998922  0.7991581422658903  0.6046502796264716
  0.3987691858665128  0.0020170048869788  0.9999926727854851
  0.3973386057084201  0.9968667383361316  0.2009624171295775
  0.4036962753581201  0.0008453982790981  0.3997571315261493
  0.3987940539473601  0.0039182291019059  0.5980463015397856
  0.3997071564402455  0.9985705423306973  0.7985617141533852
  0.4026820019156849  0.1980900786240682  0.0004892795304998
  0.3983448181644359  0.2004075518240749  0.2019599325673909
  0.3999253658134894  0.1996711932134465  0.4030141131053796
  0.3989516667740543  0.1974800113932955  0.7954523807413039
  0.3978793890470851  0.3985394709496196  0.9996863542326654
  0.4022821131928680  0.4003170458605292  0.2010258474267705
  0.4023308193355146  0.3987636436706664  0.3989770896428212
  0.3949951495247078  0.3959189104594427  0.6000421568371038
  0.4034230953774732  0.4010882131560335  0.8004297655362512
  0.4004435523907412  0.5993820523827317  0.9990712777369826
  0.3974195072253522  0.6015273179280610  0.2009992196814767
  0.3963781915721232  0.6006819067642620  0.4008934946305563
  0.4026421822164838  0.6001713476581301  0.5970999501889444
  0.3996916530218211  0.6020188639486632  0.7987994597129054
  0.4008611450730383  0.8012345245292973  0.0007564556731920
  0.4017419638862264  0.8020944933685958  0.3970415384011844
  0.3995103562967636  0.8013655168312664  0.5998325606306769
  0.3966834579166160  0.8008323282990454  0.8005878753381106
  0.5992790130815062  0.0062484404477148  0.0000291112857742
  0.5998389983058945  0.9974956753467284  0.2039413780714950
  0.5983345927813518  0.9997426455210692  0.5954810889540866
  0.5963122902640720  0.9990064332322394  0.7984402026841703
  0.5975864886993502  0.1991701866649281  0.1955729533555884
  0.6000879378697127  0.1969869461075181  0.3986974735661437
  0.5950689762169571  0.2016134187437179  0.6008998255836108
  0.5993826567340274  0.2050360784417018  0.8042873870462531
  0.5981689745814709  0.3963778007426933  0.9954327742839832
  0.6025265462463489  0.4025027978183661  0.1989097850916331
  0.5993671330799035  0.3992300435858862  0.4001077483209610
  0.5989071467820175  0.4028310334022593  0.6041035898356054
  0.5994936681283944  0.5972973766314711  0.9993235561367991
  0.5977289986701269  0.6023782978141283  0.2014948297832540
  0.5994639074900671  0.5997398782939468  0.4036084708138565
  0.5991882546552530  0.5971313097372360  0.7950028583281542
  0.5991716843739537  0.8006527782631053  0.0015868223468529
  0.6007257254243389  0.8038481907891484  0.3971849796362105
  0.5983374820606039  0.7960590941707945  0.5997166595995629
  0.6021311852872794  0.7992171399440534  0.8017341551753125
  0.8003643662733375  0.9970200232682559  0.0042276297186770
  0.8005609270464190  0.9976099189668146  0.2008824144732430
  0.7966136602344371  0.0004010564166037  0.3982226700220659
  0.7992848267514713  0.0000671210790208  0.5938938372378259
  0.7937530025459533  0.1887295995431224  0.9989377612816448
  0.7991058838259169  0.2040996932261558  0.1986167387657337
  0.7985534284682133  0.1994257345516029  0.4000170378091678
  0.7986915910867554  0.2005278528803114  0.6001350598983904
  0.7990462682860645  0.2010656470499597  0.8001854015277627
  0.7995343030257079  0.3991241062821833  0.4023308753839916
  0.8007897924296286  0.3992005045924208  0.6004130022336300
  0.7973070108540924  0.4010010385974189  0.8014638306212262
  0.8009791779310864  0.5979801294068841  0.0004360866338957
  0.8002524432126179  0.5969354224502316  0.2007209479164092
  0.8012251965762360  0.6007324062502846  0.3998841042655250
  0.7965518992524681  0.5987076875939253  0.5970773988573923
  0.8004951361170227  0.6000770851853126  0.8001030163303440
  0.7992241300774938  0.7981877178366578  0.9978940748295118
  0.7929936742851863  0.7966634431456018  0.1977811417256982
  0.8001808414647106  0.7992871243230890  0.3986386964353782
  0.7992321971276780  0.7989962892273957  0.6037932199514173
  0.2040159116160382  0.4000804836590951  0.9973254305440966
  0.2001539465477078  0.4007840014383933  0.6079420814149640
  0.2006182237046794  0.5962482059340907  0.2043144347087407
  0.1994249274906202  0.6012337100753551  0.3982204585937237
  0.1988599991453010  0.7989659005119590  0.8000904015683696
  0.3988351647811406  0.1995889287456050  0.5997984690971289
  0.4058681651039189  0.7988218863271636  0.1982143422847991
  0.6009636905427088  0.0003076618443292  0.3994012173110849
  0.5989855988004629  0.2026317012460354  0.0002576462445537
  0.6007219777126158  0.4020717107782828  0.8008106523749311
  0.5979665852097740  0.5991018465412584  0.5980718691461627
  0.5965203283641558  0.7989178818557749  0.1982048217711408
  0.7980883730752167  0.4012875001840029  0.2118166880482369
  0.8002326256878665  0.7927081805856442  0.8008515977703646
