Zr Ti V  Cr W 
 1.0000000000000000
    12.2882735461728885    0.0000000000000000   -4.3445607757035454
    -6.1441367710433559   10.6419570608175889   -4.3445607757035454
     0.0000000000000000    0.0000000000000000   13.0336823299999995
 Zr  Ti  V   Cr  W  
   3  15  74  16  16
Direct
  0.9938724820432167  0.0005279222769398  0.9969617527574860
  0.4176956625081419  0.9953834048787767  0.9908883442088567
  0.7991306520301499  0.0000167047300816  0.5937167717131721
  0.9925868891536883  0.2104499703414338  0.9989767570337826
  0.0037658784191071  0.5972794317107420  0.2043246731266095
  0.1996104222705646  0.1963797751032537  0.5966632443556799
  0.1936608388039389  0.4009330243905362  0.1949494884828019
  0.1996294571539439  0.4025949462505742  0.4056847653181104
  0.1967346139448653  0.4075567087034844  0.6105965469566997
  0.4028060446587672  0.3965681540718740  0.6024570243542707
  0.3965208224421298  0.6022511268308512  0.4012785568656538
  0.6004936022643120  0.0012025616888107  0.1975713478909141
  0.6009064669226885  0.2015702200583675  0.3924407654539822
  0.5971176939549288  0.1997049707938232  0.7993633417152093
  0.6006872926387993  0.5985799316142938  0.1985936749671998
  0.5961837005775931  0.8012431666943662  0.6049339699956472
  0.7953355394800137  0.0002443464131188  0.8034307336613830
  0.7977074746323487  0.2011887330899301  0.2032567933351181
  0.9972834903365003  0.9994661009426963  0.2056396212913563
  0.9949679835046260  0.0000695603544198  0.3999007033603377
  0.0040405636598641  0.2049090566130621  0.2053880358496181
  0.0016431853933529  0.2006920701094333  0.4009125412485620
  0.0014292718397372  0.2060160793515514  0.6011264087427255
  0.0055456071093785  0.4098402225006667  0.0013344682536405
  0.9977131613168506  0.4039938839972525  0.4021619500535760
  0.9989355179968057  0.5951201574705702  0.9938263169662097
  0.9939934151534138  0.5941614364420721  0.5955262284198557
  0.0004946081400223  0.5961265727940334  0.7997470552250948
  0.9976715953415509  0.7962504792562810  0.5987981695104310
  0.9968855995335577  0.7947474932299612  0.7968006111362258
  0.2040318689102316  0.9933129422475486  0.9969770589377911
  0.2009523298669633  0.0009277625826248  0.1979465997650727
  0.1991940842788085  0.0006273087527965  0.4034747725012731
  0.1944317529904149  0.1891960023288318  0.3869194470749763
  0.1980333024750119  0.1982454053166145  0.7972829862872141
  0.1992355355407752  0.4036502464259111  0.8073426910695135
  0.1983854914726129  0.5965460951480501  0.9973474598219320
  0.2077687183413766  0.6084507828100063  0.2045883386672172
  0.1898039760270236  0.6010626270591056  0.3974469422116314
  0.1979785663527446  0.5937974625208622  0.7994932008268064
  0.2011033482985917  0.7947082564524861  0.9960944495457218
  0.1999472126298791  0.7961003827639715  0.1985623529584777
  0.2028951727488121  0.8008308154456980  0.4037169052161628
  0.1950542586062126  0.8022003310824832  0.5952594150409332
  0.3884280378308351  0.9926109628826834  0.1934347918980148
  0.3929152487735932  0.9981841819061750  0.6026517327536907
  0.4045261715808906  0.2049331077718771  0.9983352795544906
  0.4031610690991135  0.1957969622047417  0.1974394006643913
  0.3993453809229630  0.1984947622150400  0.3991509662375552
  0.4066588761443328  0.1989336219508019  0.6027175896915133
  0.3956787510460660  0.1981205409818504  0.7968315552714458
  0.3963380419474218  0.3981944387396577  0.9952266021498725
  0.4005061911846053  0.6001842888384035  0.9986619633629952
  0.3936472621490247  0.5988931573446762  0.1930329205921883
  0.3973070567147619  0.7819205842651767  0.9948301168504941
  0.3970277406727537  0.7963199719617586  0.1950003831986314
  0.3982398436020830  0.8021255970207580  0.4028046683551545
  0.3953341055879822  0.8059150845093811  0.6097550496109483
  0.5999836305266461  0.8025130762697699  0.8124489139455543
  0.5945182455655884  0.0069882626010664  0.6088216618032649
  0.5922994741473511  0.0021796137832201  0.8078653092118954
  0.6051245824604293  0.2051254172142262  0.0060779307121574
  0.6057590920224398  0.2081115121258672  0.6045237615470677
  0.6014937172189672  0.4012806804229192  0.0035001590487923
  0.6042561642087183  0.4033124600009624  0.3993677839412748
  0.6049849977412858  0.3965184144152125  0.5990628704270736
  0.6043414037805179  0.4057821391000273  0.7997346204412158
  0.6032867094610656  0.6001243993910589  0.9963554785568606
  0.6044927872007418  0.6005031216870562  0.4040398393773403
  0.6025816152605353  0.5962016074684490  0.6081581760864333
  0.5990395684811770  0.7987909513885239  0.9996423925308612
  0.5968413506108852  0.7969089544151117  0.1923837064268168
  0.5901985469949097  0.7881378295240437  0.3868139081761896
  0.7888278312715068  0.0015686396679441  0.0055994199924570
  0.8036265790489212  0.9945943305224654  0.2002706006796885
  0.7997378988700300  0.0016273705317356  0.3890749339979038
  0.7975719376834834  0.2060127046245007  0.9999259196568846
  0.8151700705719445  0.2115083946079206  0.4166731491775043
  0.8011348017296459  0.2109683040312292  0.6011665104179228
  0.8046257447210176  0.2107805631248712  0.7995812920052541
  0.8061187429525950  0.4067079798080123  0.2046877776180147
  0.7966325877949602  0.3955374228574990  0.3960562523445862
  0.8057167148404412  0.4023673230124684  0.6030591137511354
  0.7996516101749110  0.5975482668228073  0.0011085486026050
  0.7979599009555886  0.5980356831740701  0.1988536757999040
  0.7981009798130069  0.5937074364241004  0.3940897678445006
  0.7991886181983917  0.5936689047148207  0.5984997483634341
  0.7966087647102613  0.5918637035826702  0.7982422420465602
  0.7911530135367032  0.7910134260020373  0.9948460736682536
  0.7967411786389932  0.7954258918596097  0.1987812722821201
  0.8022568639955686  0.8014705776384370  0.4009977118451186
  0.7906369345879355  0.7864570481504835  0.7930850447533891
  0.0098612363031052  0.0011542906364024  0.6020534594244903
  0.0027607262328363  0.9970205795919911  0.7933032585654062
  0.9944178438651080  0.3937599530784765  0.2015641747412416
  0.9985102071322434  0.4027341327529010  0.6036959823145580
  0.9991241487092738  0.4051189675246806  0.7974396756909585
  0.9953708659314175  0.5948328597313982  0.4004488801288413
  0.1957486716266742  0.9987327938451350  0.5991717586462050
  0.2033743403806683  0.2007863903898104  0.2026976277323145
  0.2006199457386450  0.4039309421678108  0.9962497379602517
  0.3974066161983079  0.0079373414607511  0.7886964175626359
  0.4069354808918340  0.6026206618771565  0.8074560692564128
  0.6290026593427612  0.0142913213458212  0.0139862460442719
  0.6034831049997216  0.2153783497962945  0.1989328543326618
  0.6025164373996068  0.3947820930266809  0.1984578416830252
  0.6048822967878222  0.6013850772381446  0.8064247575524771
  0.8035952411227885  0.4027476575414703  0.8000518122780954
  0.0056209357987859  0.2098596947443604  0.8028288716369302
  0.9989748423640454  0.7920972071969927  0.9949096290255649
  0.9998106716477740  0.8008372997288173  0.2001587821376371
  0.9986648134835217  0.7968135366858407  0.4014658742207505
  0.2008573273196149  0.9974951811376529  0.7978501581372300
  0.2012858662022098  0.1986375832322774  0.9988112509377872
  0.2029327210940225  0.6101518865804538  0.6057236263205095
  0.1963553171523339  0.7882107724020654  0.7906636742339080
  0.3972577092914101  0.0000447490739782  0.3999039393152454
  0.4066584754504491  0.4022155031585584  0.1990999391149197
  0.4014147785879236  0.3949721319633560  0.3969822491963383
  0.4024210296153996  0.4025224500897182  0.8048937525790404
  0.4055115703451699  0.6067767384192642  0.6141416272725171
  0.5985474284831330  0.9977168503271856  0.3987855928624526
  0.8002801533455072  0.4016787193918803  0.9983761962706156
  0.8021549483579826  0.7940619766642549  0.6018024133783656
