Zr Ti V  Cr W 
 1.0000000000000000
    15.4411249493602298   -0.0057725826640909    0.0015034816595225
    -0.0057736157285930   15.4404920489432147    0.0129561230258158
     0.0015050534304008    0.0129519398306557   15.4493068869615229
 Zr  Ti  V   Cr  W  
   2   1 100  10  11
Direct
  0.3947314396003663  0.1958492248043102  0.9991663594586652
  0.7967664676443827  0.3985921222167007  0.2009660993308069
  0.7916301515087223  0.3967238534781783  0.6032272943261523
  0.9982097763774990  0.0011078414534458  0.9992879850526203
  0.9980046821773945  0.9993173323133723  0.2000678639922747
  0.0007359165752121  0.9988629168527671  0.4005995273169231
  0.9989804238074669  0.9979305421759875  0.6002921558028006
  0.0004875489952418  0.0001808672829569  0.8007405308882776
  0.9995981145298988  0.2003250861538786  0.9991587900125206
  0.0029077199345031  0.2011561712597316  0.1994811000255324
  0.9943037367089465  0.2009936373097512  0.4019094892708311
  0.9999267090704984  0.2010430096721973  0.6013398005595834
  0.0009553877957276  0.2013949455547007  0.7991029100881172
  0.0037070058011563  0.4015751284261271  0.2000363211383222
  0.0011783577533653  0.4013086792065335  0.4007688413575803
  0.0031645447491219  0.4041598488867777  0.6000139309109760
  0.0012411421321074  0.3987968245044350  0.8002615002966673
  0.9996053335330287  0.6005267598041456  0.2004087314181574
  0.9991966531085666  0.5994852442977952  0.4038464418219813
  0.9964318365696628  0.5990496836191523  0.7959327662768224
  0.0015971553669603  0.8008460300888063  0.0006742638717032
  0.0009067175368534  0.7991510065430458  0.2008127439271089
  0.0000733156512092  0.8000455993249970  0.3993242821444108
  0.0002819960464440  0.7960497001863317  0.5984916542073887
  0.0003334894101656  0.7998240826129377  0.8006646542198164
  0.1995759413843095  0.0016978284853788  0.3995794559713040
  0.1990797541602504  0.9994845904955925  0.6002878924389758
  0.1986124076656730  0.9981037124846750  0.7978417161718556
  0.1998681321134096  0.1000461552791462  0.0009086774854392
  0.1996833466883857  0.1990757871066844  0.2027735019961386
  0.1978562421530645  0.1987307385574630  0.4014828934443412
  0.1988074487873689  0.1991683682280049  0.5998858828289243
  0.2010163365377486  0.4032448852315834  0.9996492644897550
  0.2002323902835456  0.3998820439151641  0.1980626575251897
  0.2041014619933342  0.3982308999495911  0.3988478096265344
  0.2002811264394094  0.3983788815620724  0.6011562013225140
  0.1995968610524905  0.3994724624966464  0.8021880318583572
  0.2008644867635376  0.6013908127552128  0.9988815215925954
  0.1985824200626671  0.6003610579906806  0.1985079561751999
  0.1985998855693812  0.5999088533042350  0.3978595567407726
  0.1979565089912226  0.6001015307584237  0.6010973445528537
  0.1994468812933712  0.5994121663340128  0.8011015146216378
  0.2022046695622014  0.7993280298527389  0.0008918129592583
  0.2002400136725158  0.8000473570497449  0.1987565022209928
  0.2042242402219135  0.8010743884011414  0.3980933274144766
  0.1995942462610472  0.8004405159367829  0.5995726291873253
  0.2003781139251871  0.8003028468744049  0.8012881246917753
  0.4007655647080358  0.0007029543051990  0.1997242426951654
  0.4003637108813942  0.9986560609492698  0.4000456045914355
  0.3996913742106056  0.9981135020423505  0.5985441343282165
  0.3995681715758118  0.1996000298639403  0.2062380644743697
  0.4010257590462095  0.2025290007134358  0.4045382113470718
  0.3983666618513227  0.4014508313952806  0.2044921996480261
  0.3980508877441903  0.4044519967409487  0.5968247161392767
  0.4012304830638113  0.6010473781634801  0.9979937686474358
  0.3999970130184428  0.6002061856905212  0.4029986408869033
  0.3997698250434387  0.5983648609611625  0.7946699368507081
  0.4035623900150611  0.8008340967704625  0.9995085092484466
  0.3992418325891809  0.8000400514428814  0.2040496206778513
  0.3995285742229966  0.7960138444715410  0.5964298080794109
  0.3999862647318886  0.7983173273789862  0.7975924396739512
  0.6009137465402546  0.9944209736078226  0.9988359467196547
  0.6051094269523254  0.9998027372001902  0.2015658883788530
  0.5985562563819059  0.0002628873484125  0.4001634534309019
  0.6007192292285430  0.9983728749237930  0.6006760618430028
  0.6033334921181334  0.9982673850581060  0.7984289717707659
  0.6033935366622462  0.2014792990909019  0.0011006977669104
  0.5990002766857091  0.1997427335754566  0.2007217541266912
  0.6043519416524358  0.1994449600907093  0.4024900336177664
  0.6000403586301679  0.1983269097633406  0.6014261236619606
  0.5971616925998756  0.2003751296862447  0.7994626522188065
  0.5986214913586843  0.4017596673354917  0.0009553574241680
  0.5937808527804148  0.4011836989567967  0.1993381205394896
  0.5938727510157858  0.4005555900528752  0.3997050144509086
  0.5967866833305708  0.3995148628941398  0.6015091884022715
  0.5999708410667232  0.3998555907269685  0.8015151449697251
  0.6001088100887887  0.6032753154335968  0.9997967779512924
  0.6015296951174722  0.6007060977649172  0.1987189038574202
  0.6018232849058196  0.5996775771110510  0.3993300387556822
  0.5965136803805905  0.6003733270859898  0.6006738860185338
  0.6036956241236029  0.5975402759592494  0.8002171510959241
  0.5993593427424991  0.7987476687301910  0.1970245481742181
  0.5962415275163057  0.7992525596122869  0.3981041628910506
  0.5996378547425845  0.8004678230544503  0.6000578441022620
  0.5991996245744777  0.7986555080102637  0.8025242785397957
  0.8007294120586310  0.9975702289496590  0.6028179991813729
  0.8009491270890056  0.0004729193013500  0.8045275782356264
  0.8007347250230805  0.1973103780083842  0.9981094758464757
  0.8013174597934350  0.1919634547964165  0.2064205618445047
  0.7999202068173051  0.1954260291500090  0.5967187037091405
  0.7994324135680302  0.2004256627814552  0.7973032301388584
  0.7997934677879536  0.3992336947419984  0.9981261356980592
  0.7972972449689208  0.3958904611278445  0.4055900122380136
  0.7994380302129351  0.4018035029438436  0.8031245066602960
  0.8010285690504230  0.6018286723190390  0.9958061841529658
  0.8023530623559587  0.6044359636195012  0.1998244045515036
  0.7990501168334297  0.5992250941424256  0.4019025036752272
  0.8035152807596154  0.6023003432727912  0.6041544888110615
  0.7955063866861373  0.8028433609428107  0.9999172041693106
  0.8005093942250501  0.8036227357316118  0.2017129025077463
  0.7972738179290962  0.7997960621875987  0.4000702212677636
  0.7984418127531514  0.8016755720176396  0.5987061084925063
  0.7996097720332284  0.7960465720272445  0.8003553029413836
  0.0006134100862270  0.4013270763571207  0.9995011955693592
  0.0000207937974394  0.6008108079439624  0.9989770720350765
  0.1989300705381047  0.9998739965937189  0.1999475674342275
  0.2020631701101870  0.1989713062608223  0.7995002306094188
  0.4004711343947838  0.9982726657398883  0.7981438363553642
  0.3993680886724257  0.1995336878219723  0.6024627562184273
  0.3998007211637415  0.4040764802055241  0.0016744563538960
  0.3995980887946863  0.3992564847105172  0.7998891283678778
  0.3994950353457633  0.6008905425746576  0.1993821655196277
  0.7996297289712245  0.9996343254857437  0.3994097614165783
  0.0004152170763512  0.5998835619518955  0.5994661068399607
  0.4052918246286402  0.9966684256632676  0.0021757818858632
  0.4038297155031401  0.1990103149631221  0.7990101036590630
  0.3993018609440694  0.4004075731629976  0.4007030009920666
  0.3983808341810696  0.6011162366050733  0.5988921753147023
  0.4000474340735045  0.8015306412905768  0.3993761516318676
  0.5982686898748131  0.7983987701835256  0.0004416710153838
  0.7992707802616513  0.9994540214767668  0.0025667154780604
  0.8006404291634913  0.9991386645429283  0.1923390791026526
  0.7992818809982171  0.2015186127309231  0.4000273977548919
  0.8004507502715750  0.5992535584692560  0.7991777781781899
