Zr Ti V  Cr W 
 1.0000000000000000
    15.4219977637485020   -0.0153525296692176    0.0018800521315798
    -0.0153399539639544   15.4042384266248558    0.0149563524432868
     0.0018828811446291    0.0149768248118706   15.4308175709018371
 Zr  Ti  V   Cr  W  
   2   1 100  10  11
Direct
  0.6090798449449213  0.9829186647926242  0.7830737106989296
  0.8059971126531108  0.4049941750977258  0.2029370965041611
  0.5974187841531973  0.4026138910718769  0.1972402848357494
  0.9996810882092139  0.0019746874077362  0.0004607046570423
  0.0002590742065493  0.0004770987894255  0.6009938826286823
  0.0014160268537950  0.0003918063756787  0.7999669984190686
  0.0049328359986511  0.1995438955667953  0.0010783917680381
  0.0010414407701790  0.2028726188403608  0.2008382083949719
  0.9969885777731379  0.1995444098470973  0.4000638514248254
  0.0015283730220277  0.1998577357219440  0.6008361269326314
  0.0013510172939568  0.3993248053499302  0.0030408436876539
  0.0010185195769591  0.3996116511143968  0.3981931211311233
  0.0011781409596608  0.4000717728479939  0.5997561217395954
  0.9999812526819624  0.4000422375021673  0.7994869267938215
  0.0037995930265234  0.6003987567105328  0.0009771199316798
  0.0017098683189508  0.5985941602301726  0.1999998413229317
  0.9995658763207808  0.5995050956083902  0.3995111716859367
  0.9989688454692223  0.5988738831005543  0.5984865017558967
  0.9997558369587128  0.5997567520848340  0.8007162380279006
  0.9983157810839369  0.8028049715799339  0.9999185414077146
  0.0002048666923539  0.7992498180218424  0.2011336602944669
  0.9988002693346455  0.7997123403960391  0.3993240020499799
  0.0019038306436135  0.8007155362828677  0.6003368297103836
  0.9950977907075627  0.8009182611989589  0.8000104177380839
  0.1998664921921074  0.0037449184269677  0.9997423119193239
  0.2014513086450612  0.9988793365041708  0.2015439269775739
  0.2005927087603987  0.0010164741543606  0.4003241748449796
  0.2008831839152488  0.9972560432299410  0.6008504534298484
  0.1996459649878899  0.9990633004577542  0.7990265120941029
  0.1999674609166251  0.1995728837403383  0.4014157857343285
  0.2005585010555425  0.1989294039532591  0.5999669600298874
  0.2008807169049993  0.3859243565904402  0.0001902825897179
  0.1994523311778510  0.4005828494373821  0.2014492741188197
  0.1999874980954456  0.3991685205332540  0.4019346319404509
  0.2002810685099968  0.4053506499170794  0.7997880021317685
  0.2039910155706495  0.6018016482562752  0.1958226577046916
  0.1994103175818174  0.5987034867283320  0.4011854981562112
  0.2008192797133922  0.6026327229485332  0.6050966657229609
  0.1979150388726222  0.8065597232341816  0.9995466986280898
  0.1991429907926864  0.8016224723877472  0.2015970835275180
  0.1985889641766721  0.7997592862452790  0.4047183253095898
  0.2030065500666814  0.7978778547495353  0.7964777000674775
  0.3996420257791189  0.9966097981323683  0.2003647511588158
  0.4008623370887003  0.0019293285498519  0.3976710939978528
  0.4042038294603968  0.0018265091157638  0.5987079622644207
  0.3973790851153764  0.0003319246831312  0.8007152023595767
  0.4009228282768459  0.2002952044993092  0.0011471090629072
  0.4021329280922348  0.2022539729604491  0.2021561115495819
  0.4025051437502452  0.2011325914674515  0.3992988729980075
  0.3996508335604823  0.2007675526425180  0.5995969993622328
  0.4015177643784344  0.2011502817103170  0.7989932693399741
  0.3987586405950628  0.3989828523637450  0.9988143318492372
  0.3965824864764078  0.4063659436862614  0.2026869976505709
  0.4003029295734877  0.3992124776428850  0.4008156425753408
  0.4000757674212568  0.3991778000110536  0.5987242729630726
  0.3995763383375255  0.3997764609714486  0.7972310276998982
  0.3957790847966936  0.5956072947822444  0.0017390778125581
  0.3998513590637280  0.9680550273870886  0.0004347971953882
  0.3993316396702088  0.7965720031916013  0.2038915399342175
  0.4013074695590130  0.7999586935456597  0.4003581973762381
  0.3952009210937917  0.7994863887700834  0.5974346684716512
  0.4040547660407572  0.8034472566495805  0.7961598696788874
  0.6004720934560652  0.0046156928124373  0.9984135626215020
  0.5993255187736973  0.9984758251143048  0.1982443711897448
  0.6008910201957901  0.9996455109583564  0.3977723947417468
  0.6003330344967641  0.1985429149585268  0.1949862960567710
  0.6054248635455585  0.2010632394319182  0.3977983121868861
  0.6000381617376289  0.1951150601816985  0.6043450471664310
  0.6014978275441595  0.2008201047843749  0.8040744676000858
  0.6006382112027550  0.3956634029878041  0.9967141552311111
  0.6004130686710762  0.4002612292662862  0.4034201936772900
  0.5994258945437573  0.3996619888154753  0.6005978719805533
  0.6000369218155660  0.4048124350385270  0.7981340498265178
  0.5974101611586715  0.5985886889597537  0.9961955235053185
  0.5946594209564842  0.6047255582817860  0.1972488428587751
  0.6009669915100992  0.6001528074761386  0.3996123124385823
  0.5995302117588034  0.5992888283138140  0.6020491710921481
  0.6015743060501637  0.8039733968799707  0.9938130867028222
  0.5989311370635115  0.8015156256527917  0.1963969546764680
  0.6013840366186005  0.7995335489754140  0.4008059053721009
  0.5981539951472670  0.8023706553101890  0.6014169451774997
  0.8021909378319420  0.0019800456415038  0.0005568626314685
  0.8014592844691767  0.9988952469838209  0.2007693231861304
  0.8011380493498811  0.0036431424363415  0.3995701604103779
  0.7966455170299332  0.0000249667856705  0.6009298316102019
  0.8087869465375997  0.0014877571293623  0.8004851871817019
  0.7958409485471358  0.2002102635632512  0.0007328485304489
  0.8014307869600868  0.1963843661045304  0.2045493698757867
  0.8011326599330573  0.2005799859671627  0.5970688113288924
  0.8009886701667845  0.2006388278926448  0.7994764762611941
  0.8025426674265628  0.3996564342318825  0.9970718823416344
  0.8000822599197730  0.3957270184397218  0.4070365123658052
  0.8006642017804305  0.3991715962275318  0.6022115411653057
  0.8014024091561255  0.6006787476792153  0.9998048649296520
  0.7978607553444454  0.6071654018013084  0.1991407836133386
  0.7989478831825489  0.5989319794308335  0.3999696905412339
  0.8006136608799201  0.6003174828532470  0.5991958856546420
  0.8006372028160702  0.5997970446606915  0.8003479923394056
  0.7997859413559520  0.8012506523109689  0.0009179762921985
  0.8002584044908927  0.8024053484012725  0.2004917397698966
  0.7999051728150607  0.8008147665830442  0.4009161898228963
  0.8023184198040084  0.7995852190247142  0.5985050316043049
  0.7964339373382257  0.8019940082893773  0.7993360123378889
  0.0017167280784751  0.0003227312202502  0.2008318689166777
  0.0002703671994723  0.0001956227294823  0.4003176124809600
  0.0009396786009044  0.2014233109859753  0.8006376061420103
  0.2014075387477427  0.1991369796253688  0.2021703624159763
  0.2004655488032660  0.2008906682176022  0.7995599575260662
  0.2005806790161498  0.4004594789738071  0.6006360999252269
  0.4002358895798632  0.5994005957977063  0.3998796524718709
  0.4003553399610394  0.5996995491194007  0.5997271883243215
  0.3994669132822453  0.6004426586138601  0.8002411055958397
  0.8020862917763825  0.3998835792651290  0.7993287962131229
  0.0070058296816193  0.4031308544152756  0.2013261015902150
  0.2033176983912925  0.1955006169770339  0.0015877406253553
  0.2008371253021613  0.6144169318125985  0.9970549673004896
  0.1931567674478135  0.6017177076661193  0.8055812188160656
  0.1996583425512502  0.8006099916841463  0.6001620298627899
  0.3986068126073303  0.6018836126962602  0.1945564806447587
  0.5988774997805170  0.9994664057808503  0.5879502067153518
  0.5992160142138581  0.1997186321041187  0.9979459166310866
  0.6050494127600342  0.6005140213675865  0.7996398183469104
  0.5983462703576831  0.7855902707371412  0.7989949398578758
  0.8001502764901601  0.1996421057203409  0.4007369279410282
