Zr Ti V  Cr W 
 1.0000000000000000
    15.3990340272275770   -0.0170018773457157   -0.0022529018582575
    -0.0170107766548915   15.3787801482628375    0.0165544931564424
    -0.0022517709109467    0.0165430754876648   15.4057927644380346
 Zr  Ti  V   Cr  W  
   3  13 106   1   1
Direct
  0.1818872003778379  0.1918492901043798  0.3803446167544637
  0.2044161736005992  0.6213019000513375  0.3878111204032741
  0.3859500448497012  0.7949626585536148  0.3897648099011393
  0.0045133834667184  0.0012203053529900  0.0351802812934783
  0.9999674958749675  0.1951658927165558  0.8000313476368466
  0.2018644202095831  0.1974814581500209  0.1793634287107316
  0.2030007527629396  0.5885415875772153  0.1855913352623765
  0.2113253565783349  0.7973947108131459  0.2138360119773604
  0.3892265197915766  0.2018429659898356  0.6029920083867414
  0.6087242628743561  0.0147330636847096  0.5937708695807763
  0.6028913001024025  0.1928785383494717  0.4133820003009053
  0.5882579069755138  0.2036208053154524  0.8125131633361087
  0.7950073340876652  0.2006602547290744  0.1974381055812607
  0.7826442701690213  0.1965484484058631  0.5946487738507952
  0.7963689745919345  0.1989768274800873  0.8026575303354044
  0.8019130873359189  0.7998131090035941  0.1973502163576546
  0.0017210023841936  0.0019379018016077  0.5969181487647189
  0.0007295397950445  0.0002150515797947  0.7962749012217183
  0.0005155240317591  0.2022048759090151  0.0052000332640954
  0.0003865403418845  0.2052791320276496  0.2009897574942932
  0.9858633215035818  0.1987723041097382  0.3985806888695028
  0.9979955637291992  0.2025008063288382  0.5951819310951677
  0.0008264520361490  0.4000619274276905  0.0012595801693409
  0.0007098183220311  0.4006514066250391  0.2020873108574810
  0.0023641227603443  0.3986630891645832  0.4010074706727303
  0.9994417281023402  0.4000891187109350  0.5999483365820079
  0.0008407778843662  0.4011805522964939  0.7996585446911152
  0.0014704246808483  0.5998087856999120  0.0006629969831747
  0.0008099910919905  0.5990588452168192  0.2002835648801129
  0.9973551626208496  0.6002389557815078  0.3990467901400964
  0.0015414039790164  0.6006950638636612  0.5978454555167887
  0.0003379487285326  0.6007907414981620  0.8005518496107602
  0.0034056104287901  0.7987655178545917  0.0036101247362263
  0.0034057920969090  0.7966687062976626  0.2010961656206154
  0.9952706686147976  0.8076294534446596  0.3989077294306274
  0.0005332608380342  0.8000969946041225  0.5995481226210156
  0.0007751582263467  0.8020315703504578  0.8003480361225632
  0.2033872872829853  0.9986248230398249  0.0013219858725948
  0.2069673284846178  0.0028342806935893  0.2010473898713874
  0.1659517191688944  0.0013007544027028  0.3675885993537744
  0.2041027028998856  0.0039904725196865  0.6009598206660240
  0.1996724175191647  0.9999937593177718  0.8001958684687430
  0.1993671926525937  0.1991765499148316  0.9886016010720413
  0.1951914242318233  0.2013069155557589  0.5984484046480478
  0.2007950590939025  0.1993396248619549  0.7964664648698967
  0.2005346265285529  0.3978951784828303  0.9991802801611737
  0.2016705616734258  0.3937701863175066  0.2020408133427158
  0.2003416837963264  0.4004180889280394  0.4015816258984376
  0.2005274358428648  0.4005112822091315  0.5986127886802914
  0.2001426056663136  0.3995703654928923  0.8000518050024145
  0.2010976499245880  0.5985417981161967  0.9943474042462775
  0.2013202732363590  0.5999146924413428  0.6002223085401172
  0.2010126165604452  0.5994132799960525  0.7980341083963590
  0.2018648975766801  0.7987253905284728  0.9972041622249739
  0.1882188989162864  0.8262385985478427  0.4074620476534783
  0.2005549700191128  0.8006381604328060  0.6019623724532686
  0.2010521259631510  0.8015156887419717  0.8000646489760544
  0.4016196032775871  0.9992758585685173  0.0014319682950393
  0.4026638238180796  0.9976637183862326  0.2018400826546208
  0.4012478997099205  0.0044600479816404  0.4015910074289932
  0.4021653815665274  0.0002960751085010  0.7982185721860097
  0.3993475697111737  0.1983169943082692  0.0021469533635475
  0.4010925381738286  0.1987007886462113  0.2011368203966575
  0.3957676797210314  0.1980928287682027  0.3996879977424072
  0.3951748168158047  0.1991464141566545  0.8052885084228851
  0.4006764740722506  0.3984956753072859  0.0019218262386416
  0.4017044825623020  0.3974346984847283  0.2021486011126778
  0.4001893217247305  0.3938285077163139  0.4014204124155449
  0.4002125771323605  0.4007981227851208  0.6007437504135961
  0.4007856734919465  0.3989138705376193  0.8002015091637024
  0.4012469490926159  0.5986629403021193  0.0001853105791316
  0.4047207007423199  0.5963267231473545  0.1993112531096045
  0.4092630638357685  0.5893185814685857  0.3998228781177289
  0.4016827424280563  0.5982808494119921  0.5993248033759210
  0.4013952334040792  0.5998757607679687  0.8009831686023401
  0.4006988259906428  0.7995531741818268  0.9970655554631750
  0.4065364595648919  0.7983368961813023  0.1904000767111783
  0.4012351741068229  0.8000548595318561  0.6009543080813580
  0.4008314498322051  0.8002140920878588  0.7986763978636373
  0.6014834672194628  0.0003886961468718  0.9998833132363116
  0.6010225832945714  0.9995824250146726  0.2017444590678937
  0.5987749929390604  0.9954304932614436  0.3987996062966214
  0.6009848044978987  0.0008951671938749  0.8012925053564781
  0.5997226936917099  0.1997943382028948  0.0070695068278589
  0.5974851362117366  0.1982996151454687  0.2020700300380427
  0.5902301849782976  0.2067718811512360  0.6095525900809752
  0.6015221071596630  0.3993492994445617  0.0013076560345639
  0.6008942566785437  0.3977160839218236  0.2028907501245916
  0.6015678941385558  0.3990586425894140  0.4020995508041077
  0.6000772662013264  0.4020395084109561  0.6020282631008906
  0.6007101114065593  0.4025358364253614  0.8019429458548855
  0.6016985312465656  0.5995865284488253  0.0007811843528895
  0.6031340811713701  0.5994643503122202  0.2001174829787986
  0.6033348692688044  0.5986766159740849  0.3998817156940275
  0.6009745730655586  0.6021121788596344  0.6003387317948733
  0.6009681462207240  0.6006569071149805  0.8006195215354879
  0.6017743121863720  0.8000572401008300  0.9998941467816447
  0.6001951690651350  0.7990733213491868  0.1995233154562637
  0.5998919176584872  0.7997150599825303  0.3997274947725224
  0.5994876866359458  0.8014825730722293  0.5989496211224777
  0.6003543258953516  0.8022438342985034  0.7994044950683137
  0.8007803765673925  0.0000561715241678  0.0010552904509100
  0.7971923087835039  0.9996881229673713  0.1982889813144943
  0.8103145062322638  0.9968506502281952  0.3941081273747324
  0.8036866338850578  0.9968688931138091  0.5984501757008126
  0.8020552604977483  0.9987687221711401  0.7992916022162195
  0.8007147809135595  0.1996138862236491  0.9971360439475754
  0.7981269766926171  0.1992848929189859  0.3964765041186855
  0.8014597696636749  0.3988892709660060  0.0001496773064043
  0.8011375912070258  0.4006802413725846  0.2002965368803434
  0.8010455718030151  0.3992379370987416  0.4003457167195051
  0.7999161369264836  0.4014449809994971  0.5997430871411202
  0.8007486226402279  0.4005127440226364  0.7987966402337230
  0.8017779689487975  0.5987357099279914  0.9990004817596325
  0.8008897038322337  0.5972025500261822  0.1984385638526610
  0.8013439312602675  0.6006525146558651  0.3994294591029249
  0.8000779021687124  0.5994653169917807  0.5998715984716233
  0.8010058562894877  0.6008477703691131  0.7996846273477268
  0.8024140052546295  0.8002289068699753  0.9947330248046564
  0.7984446862234563  0.7997900408635749  0.4017606428503382
  0.8001292813435270  0.7993306973147011  0.6009442497403392
  0.8005999402258781  0.8008222183434651  0.7989530461467513
  0.3997595138910984  0.9977259142702395  0.5990799495297479
  0.0063189217791595  0.0088333066268865  0.4039493066150757
