Zr V  Cr
 1.0000000000000000
    15.2952760032414474   -0.0845502242906712    0.0133068623570022
    -0.0843139541618782   15.1063095402070537    0.0836343868621964
     0.0130248262741130    0.0838217274281229   15.1199980943660055
 Zr  V   Cr 
   5 117   2
Selective dynamics
Cartesian
  6.1328768939430365 15.3616884980265986  2.5424327136676803   F   F   F
  8.9845847041518905 14.9600013913560232 11.5999484923490552   F   F   F
 11.5174829530550422 14.6130080283880766  9.0977835446716799   F   F   F
 12.3182955130437470 14.6382237653439002 12.8665728120393279   F   F   F
 12.1324686994929589  3.5658058575422045  3.2609047680739560   F   F   F
 -0.5419609635920785  0.8189340755636577  4.0365213404522002   F   F   F
 14.5273140743450107 15.3236591730379743  6.9697429904172754   F   F   F
 14.9297935483338797 -0.8416241457306003  9.8977204052911976   F   F   F
  0.7786359841147894 -0.0882822472746018 12.5155177679429706   F   F   F
 -0.6462576222320279  3.3115073689924719  0.6111102800034993   F   F   F
 15.9821530113352281  3.4821262875184429  3.0778219433132286   F   F   F
 14.7640052428529831  2.8271899739176005  5.7380218730375345   F   F   F
 -0.2289432877145183  3.9788695956814850  9.6724983655420385   F   F   F
 -0.3577490887427657  2.1251791740598658 12.0604185378029882   F   F   F
 -0.1048163021262049  6.1292648886537027 -0.2934627406859897   F   F   F
 -0.2133746891927514  5.8564368468055017  3.5013813705297152   F   F   F
 16.1878945154849774  5.3828258436995640  6.2738761835155108   F   F   F
  0.4690161603487026  6.5235378692241364  9.9752851096953297   F   F   F
 16.1126627121691435  6.9040291498103903 12.5880985407110693   F   F   F
 16.3172864366605737  8.3784662793535229  0.8744228011961215   F   F   F
  0.6360169670042319  9.5875577675544097  3.2790885002251224   F   F   F
 15.7244634103057574  9.2404532857495365  6.1007785491582869   F   F   F
 15.1368858857731681  8.6351631097238055  8.6351368168209977   F   F   F
  0.4318182749216200  9.3419108684492880 12.3174068006022228   F   F   F
 14.4836312807314158 11.7871547606745768 -0.6035359484290127   F   F   F
 15.1197604952785891 14.8091441486453075  0.5312063814611909   F   F   F
 14.6963592693010963 11.5064528133672592  6.4194415184740441   F   F   F
 14.2801984714963819 12.1088777807309000  9.0425785724098091   F   F   F
 -0.1687335098443673 12.2450122076006949 12.0247619849842184   F   F   F
  3.6978747114202286 -0.1572789519132959 -0.2737712312576513   F   F   F
  2.2757313337110849 14.9831825277682533  3.1779912551729490   F   F   F
  3.5652959920972807 15.2899871693152356  5.5574768009284821   F   F   F
  2.7676228475823641 15.3000951929270510  8.2039118143592678   F   F   F
  3.0691296097464651  0.8355517771648010 11.8692081273125591   F   F   F
  2.0976356558156204  3.0481705906893946 -0.5869863291863316   F   F   F
  3.5340718189308484  2.8504877689515906  2.6613815870427371   F   F   F
  3.4591747752956219  2.6478504100830533  7.0135223475488315   F   F   F
  1.7584065496345203  2.4049803071923685  8.9680483403135920   F   F   F
  3.2748883769855950  3.2297869890772710 12.3942637280359165   F   F   F
  3.8531405424543674  6.1521379019589153 14.8479987186123221   F   F   F
  2.8837919363277051  6.5431087618603758  3.3841039961731898   F   F   F
  3.2022546838211050  5.1016746515816376  6.0403620448638629   F   F   F
  3.5955515676721101  4.6636003095076104  9.0211510322340303   F   F   F
  2.6782373406778244  5.6518178607492411 11.3781596805279062   F   F   F
  3.2939140317208007  8.7950160425208850  2.5260989596130652   F   F   F
  2.7531370962327042  8.6474751867075241  6.3206499588532932   F   F   F
  3.1477130789718593  9.9496597754610132  9.8258597561050962   F   F   F
  4.0240034741635524  9.1765603650403413 12.7497136480242972   F   F   F
  3.0135146225664546 11.3973847759152775 14.3711345165948092   F   F   F
  3.5646492481507965 12.7144103564493900  2.8747459730890688   F   F   F
  3.0700125765144213 12.4240334124584120  5.7436837399514244   F   F   F
  2.7395469670527661 12.7902326881666362  9.5810630555289453   F   F   F
  2.8885801092471928 11.9697858058375353 11.9450555058646621   F   F   F
  7.1802371721834772 -0.4464791458658533 -1.1838832031985584   F   F   F
  6.0894775454684282 14.6337832545828856  6.3704295384717549   F   F   F
  6.3619096561530224 15.9399245658605473  9.0882699760376155   F   F   F
  5.2082846798221896 15.0803196178942756 11.5969501366525574   F   F   F
  5.8607981854654145  2.9050720491517414 14.9117150950583017   F   F   F
  5.6878143608606182  3.9013019730540464  3.2798120168960021   F   F   F
  6.1355791032722058  2.7100166370860763  5.2479101784812077   F   F   F
  7.0817872248279130  3.6984731242583750  8.7034615461935090   F   F   F
  6.3804380441104991  2.2454399047047620 11.2787836398868251   F   F   F
  6.2669404262056716  6.4698427362624589 -0.6271895589394177   F   F   F
  5.9712792893390105  6.1128078047287699  2.6115360685815014   F   F   F
  5.3406171432363463  6.1393147399474071  6.1758787463330869   F   F   F
  6.2278869517971280  5.7742221091697710  9.8023675709149583   F   F   F
  6.3620005145859251  5.5436860020920138 12.2175629752168398   F   F   F
  6.1388470349609703  8.9017074989871308  0.1629429193503902   F   F   F
  6.7162804403591192  8.6411118523259578  4.0325513230871959   F   F   F
  5.3499073051904524  9.4635836977270955  5.9736838061242512   F   F   F
  5.7584083104484538  9.1657986776265634  8.4948375759470292   F   F   F
  6.4693585192935128  8.8457789495545107 10.7277354097828379   F   F   F
  6.4104641851918682 12.6354084389696926 15.4319944188087312   F   F   F
  6.3068102960271082 11.4815026912876608  2.8541096546873668   F   F   F
  5.9749800783178229 11.9879908465375600  5.4919306885132215   F   F   F
  5.1427784986356624 12.0350125592958950  9.1391551662074715   F   F   F
  6.6414290987248972 12.0055170002266518 12.9545140148146878   F   F   F
  9.3166444026702120 -0.1182815235904742 -0.0016966629988571   F   F   F
  9.5520699533524116 16.1109210641422536  3.5446676253347746   F   F   F
  8.5509000613448567 15.1270668659845136  5.6530829277443599   F   F   F
  8.1822607238432923 14.1799608660539658  8.0794263095631997   F   F   F
  9.5479417254419161  3.6519184473780171 15.6394352731353514   F   F   F
  8.4473851064318648  3.3021037126469586  2.3815451972770258   F   F   F
  9.5754864308019521  3.7148913398392809  5.9039066400093096   F   F   F
  9.8411141272370273  2.6836837125576487  9.4771519764145413   F   F   F
  9.0310528239335763  3.0539454602657328 13.1114494569231308   F   F   F
  8.5495781377191573  6.1125760678764713 -0.1298122812634696   F   F   F
  9.6905019821076923  6.3919918815327872  3.4141292946717972   F   F   F
  7.7068268246475506  6.1816393947410155  5.8000802673154590   F   F   F
  9.3818332396181621  6.7246780996810136  7.9620931661712868   F   F   F
  9.2284659059940797  6.4247492973557998 11.9610553296981017   F   F   F
  9.8976763643583627  8.9761095762823189 15.6891092178210307   F   F   F
  8.2605501457024744  9.1387412864241924  2.2462323865215645   F   F   F
  7.9743546853913152  8.8216431180571853  6.5447743960657405   F   F   F
  8.7323645871612694  9.2438325904738061  8.8583299355085394   F   F   F
  8.3703154307246947  8.6412516722888046 12.3492117147945191   F   F   F
  8.9519233772967137 11.4326552778255675 14.7092875608014424   F   F   F
  8.7850059044793429 12.6228050471106510  3.0665566970430036   F   F   F
  9.6372605200705248 12.3832814480008615  6.8128319723002173   F   F   F
  8.8597299281289068 11.8491208690675425  9.6640655803471045   F   F   F
 10.2484384269714361 11.7248679301813681 12.2906014181211631   F   F   F
 12.0207901675573741 -0.2894393132836660  2.9517847572363696   F   F   F
 12.3314726321938952  0.7875695399423431  5.3729885472524419   F   F   F
 12.2849852445154752  2.5872477912275307 14.8190240636157533   F   F   F
 12.7719010207889792  2.4495682427214711  7.0978526436830256   F   F   F
 12.4107524687717312  3.2461655926814070  9.5995497679658861   F   F   F
 11.3341327020850944  3.0593807352569486 12.0627823291683551   F   F   F
 12.3359016151966649  6.2312692437741628  0.6870138514253770   F   F   F
 12.1032211886878667  6.3196073017378378  3.8678904864975894   F   F   F
 12.5460515839329307  5.8841803955891141  6.2168776018570071   F   F   F
 11.8801007568938299  5.7200584319532854  9.2644445326625391   F   F   F
 13.1202390812513485  6.6500413117363877 12.8845255592778578   F   F   F
 12.0387231102661989  8.7355282733545998 14.0674520137931616   F   F   F
 11.6099501525109972  9.3813175769456567  3.7982413317927546   F   F   F
 11.7307314987338582  9.3803460230306523  6.3793063005987420   F   F   F
 11.1968477171199208  8.2058187235793500  9.0411584396424391   F   F   F
 12.2524577463846960  8.7544818714942725 11.4867890602238614   F   F   F
 11.6499146321172162 12.2262466340013560 15.5761219434572737   F   F   F
 12.6160672243374030 11.8738141321700503  3.2103930937344951   F   F   F
 12.2092432418908636 12.3259553283439054  5.9339550493455020   F   F   F
 12.4710129706924562 11.0646048489148505  9.5693383963307390   F   F   F
 12.6333921891832013 11.0678812156547348 12.8263470666739412   F   F   F
  3.6948869870899661  9.2959902266397307  0.0829417134275198   F   F   F
 12.9830784754904371  0.6244012242111181  0.8783404066340769   F   F   F
