Zr Ti V  Cr
 1.0000000000000000
    15.5054759955686290   -0.0026938295988576    0.0222345561511436
    -0.0026911951043345   15.4937529874400166   -0.0133710719798359
     0.0222461462953622   -0.0133733789628594   15.4975574155639322
 Zr  Ti  V   Cr 
   5   5 111   3
Direct
  0.0098125874639596  0.6115038118453101  0.1992967859454026
  0.3995137565131351  0.3998773127356371  0.6000362518174973
  0.6003630469248806  0.2005525617707235  0.2004978745927572
  0.6108921347205100  0.7995229915427802  0.9911928052225523
  0.7926353647476667  0.7980043459519406  0.8085318203397615
  0.9949895995954717  0.7863477673430525  0.3836500665122105
  0.1859140974175472  0.5988281934919151  0.0164818339895770
  0.2028950638910681  0.7983449475343213  0.3977574271778832
  0.5969216175656985  0.2024924936055671  0.7980212585892932
  0.8198556491965079  0.8031448767005713  0.0179038019671216
  0.9973640712499121  0.0014909491404347  0.9971571480435382
  0.0019452698287215  0.0024265295060437  0.1977805000655291
  0.9990070460166892  0.9995900727999077  0.3978501158982633
  0.9981196483102706  0.9976117795913562  0.5975052024222766
  0.9985478667548080  0.9987403655766350  0.7987379275561466
  0.0010339183680517  0.1992960078733066  0.9986401178214508
  0.0019384816674419  0.2002854456509056  0.1986403063418016
  0.9998363971185423  0.1992181413844252  0.3998934718307642
  0.9989754466788329  0.1985229957361421  0.5994219991702757
  0.9996821298305195  0.1998948504742232  0.7988824017451545
  0.9988135599116549  0.4002309457461463  0.9985092143446923
  0.0008034925671399  0.4005723031821355  0.1995827414991226
  0.9994696341273027  0.3980736775184744  0.3992260009905313
  0.9979570790586435  0.3993123969356849  0.6009678071096017
  0.9992799681059727  0.4005917268359969  0.8003658358223762
  0.9923458493709570  0.6011914745759638  0.9932602211213437
  0.0002269338958783  0.5932883130241767  0.4058377576702167
  0.9982209823597468  0.5999595112429302  0.6008928028292480
  0.9976073027571690  0.6004963577501568  0.7983883929702983
  0.0099374973347555  0.8024721248806705  0.9955174071643975
  0.0055391318139558  0.8114506223825392  0.1926471532390487
  0.9987402972623689  0.7991043590981196  0.5994291771841820
  0.0013919579271056  0.7998530721126821  0.7977939508499614
  0.2003330195602062  0.0000660654739757  0.1336101689582333
  0.1992528025418444  0.0004085744057356  0.4005615219695069
  0.1984348795869031  0.9991918679455067  0.5993750435656774
  0.1982745970525442  0.9999691581376107  0.7972326382002203
  0.1990398881480827  0.2018516344219541  0.0003360208040408
  0.1996183773244095  0.1997529382614083  0.1995453898165871
  0.1997564111277746  0.1999699749620129  0.3997809489384846
  0.1980626891748636  0.1990404031283267  0.5998301348808210
  0.1982785911309584  0.1994949981371230  0.8000371135585989
  0.1989882423743694  0.3989937670339395  0.0010882453202106
  0.2007989767045995  0.4013604663103861  0.2006977069048078
  0.1996511579431814  0.3984502796710324  0.4000133415649039
  0.1947252234374429  0.3991228321591263  0.5999693325289953
  0.1981637538473518  0.4013846270873550  0.8012983479387561
  0.2109877894718019  0.5992844970968497  0.2088526588096511
  0.2012019528899656  0.5964159039648604  0.4034439376111348
  0.1983971422559147  0.6003670619769521  0.6011257879179678
  0.1979564984410331  0.5997367366265505  0.7998653144142724
  0.2027972892218848  0.8015778193692508  0.9997818998182554
  0.2044408457340941  0.8000473245073025  0.1968524632998829
  0.1981045182950124  0.7999093525860217  0.5990587508889869
  0.1997757239077343  0.7994270685620661  0.8004505352108888
  0.4029460121635852  0.0002745116669625  0.9994900868553394
  0.4009378309033280  0.9981457228907548  0.1979001727277996
  0.4006231782596084  0.9994356156247757  0.3981218491756964
  0.3996334044116652  0.9984758898620752  0.5983993583903835
  0.3976434759369689  0.9999214717521433  0.8004525160410446
  0.3977902877598423  0.1990927022842904  0.9993032524767490
  0.3952418695233318  0.1990260169910787  0.1987325770575293
  0.3994220463877600  0.1987232738764870  0.3990320219981260
  0.3987159410739117  0.1949093210956550  0.5998642018749774
  0.3957840970931196  0.1998104121733319  0.8000532791218227
  0.3999120423925653  0.4006706598656151  0.0005993989827136
  0.4000904390219610  0.4010142452180927  0.1980732146145703
  0.4004379120036767  0.3992261901615812  0.3954201019961145
  0.3980380658620214  0.4006070020336834  0.8047734922628230
  0.4020735320647295  0.6005393350064855  0.0016761692095628
  0.4044600390756958  0.6013202834826286  0.2001833143974027
  0.4018158053693971  0.5995876674330048  0.3998383478583261
  0.3994418609957239  0.6044667521910075  0.5999860732639760
  0.3964293254402100  0.6007137039575017  0.8030632585005386
  0.3987385878866097  0.8003846315456243  0.9987615734262940
  0.4022222939043162  0.7998432006642255  0.1980669915663546
  0.4023071716588904  0.7996145978270089  0.3983007228924703
  0.3989062789670806  0.8010749818280469  0.5985791280173940
  0.3957009455052212  0.8001934448510529  0.7985852881050962
  0.6008886723154214  0.0044517620180199  0.9968777414728853
  0.6014416185547519  0.9949436285003498  0.1978146380864098
  0.6001618423496522  0.9988131482980723  0.3987524815014634
  0.5975829677941334  0.9991792136156900  0.7959778639595794
  0.5998237280012855  0.2017682585601026  0.9956582442723959
  0.5995415649289249  0.1994144609473631  0.4040248967173055
  0.5999958530159096  0.1983420881816126  0.5985603139853677
  0.6010827019225413  0.4003607478253235  0.9995815469611642
  0.6004691147728840  0.4048104896871164  0.1996019776242781
  0.6007149616478041  0.3999334960124292  0.3991894020404200
  0.6039675053541249  0.4002262544361848  0.5995861823489752
  0.5987609430263503  0.4027935947026330  0.7993511506999265
  0.6000027298100570  0.5960663276385740  0.9985510141646290
  0.6002399710985563  0.5988101973311555  0.4006503545660495
  0.5996847991487448  0.6007186395444367  0.5994769564020742
  0.5971802279954460  0.5996452481675392  0.7977510469175635
  0.6007964549761571  0.7993048828499725  0.1999671792686699
  0.5988949949675401  0.7997488832885516  0.5952257322989951
  0.5894975187434446  0.7996470968509357  0.7886219373778924
  0.8001331210785378  0.0048716869619742  0.9999251468586526
  0.8002089298729542  0.9988069757786366  0.1994927032753871
  0.7992695727579783  0.9995835056461482  0.3994228999730124
  0.7988209697551909  0.9990764467926982  0.5988469054128648
  0.7974576705535301  0.0042813139768592  0.7984438241951651
  0.8013525097466916  0.2020701276521983  0.9998400837715233
  0.8047436880307320  0.1998038540890899  0.2001857921880276
  0.8002065227233122  0.1999141801539181  0.4001000398309481
  0.7995705368696158  0.1986877155525132  0.5998609913560744
  0.8011504319512438  0.2011901577720696  0.7991777724167135
  0.7999825005773927  0.3993335242603850  0.0009049382906379
  0.8021182064893349  0.4017256476231156  0.1999073588558422
  0.7997284157433734  0.3990441988192029  0.3993673204601685
  0.8003121320249102  0.3990174286724866  0.5998784592849977
  0.7990780579696788  0.3991885998998904  0.8006437801384223
  0.7987055484067095  0.5976780149087937  0.0025169598405783
  0.7994642594654202  0.6004596535508083  0.2004541546271256
  0.7992245113824914  0.5979204673694856  0.4009143132500139
  0.7990362184630578  0.6004719404123626  0.6000589756553064
  0.7970733675809012  0.5949204274100466  0.7996086256588114
  0.8028982285312759  0.7998198879676036  0.2074994268257568
  0.7976421247690874  0.7986768202587966  0.4004541206282663
  0.7993451387822023  0.8006279195291945  0.5977009258055482
  0.5993714685787953  0.9985870836686930  0.5970629507402280
  0.6019250287746307  0.6015194936501671  0.1999135960405334
  0.5999928937830481  0.7988087988597852  0.3983041532670229
