Zr Ti V  Cr
 1.0000000000000000
    15.3990340272275770   -0.0170018773457157   -0.0022529018582575
    -0.0170107766548915   15.3787801482628375    0.0165544931564424
    -0.0022517709109467    0.0165430754876648   15.4057927644380346
 Zr  Ti  V   Cr 
   3  13 107   1
Direct
  0.1920175207298847  0.1994812262772049  0.3731409814645508
  0.2019848099559726  0.6231377203264670  0.3876434917567013
  0.3799474294852471  0.7962809540520160  0.3927813534143711
  0.0019381259084581  0.0060738470264970  0.9963409417189638
  0.0004528960716204  0.1948436785208816  0.8095214562893206
  0.2031696533773444  0.1992349993653963  0.1755291612538821
  0.2017377298835665  0.5875659301115097  0.1856264381508985
  0.2072573453371201  0.8019644938570989  0.2160204507586137
  0.3927467744817831  0.2047843329661786  0.6038709958313372
  0.6102002743343746  0.0144103881211952  0.5922574570822562
  0.6054859995431325  0.1916182039443113  0.4124364636418127
  0.5902255761248578  0.2026182791660266  0.8126181626650428
  0.7950579676147583  0.1968128380281222  0.1958725410675714
  0.7844913119831608  0.1957732101801088  0.5934515967531840
  0.7977187545757712  0.1989461216108828  0.8024715785201961
  0.7991183676708674  0.8026866354777010  0.1972400169256068
  0.0039693440909834  0.9991943157115502  0.2054629790070828
  0.0020886581031094  0.0010500404597943  0.6011623538991117
  0.0020034057538312  0.9972165320193749  0.7977500367274908
  0.0006950874435059  0.2030253238957790  0.0071947537158962
  0.0013828998805422  0.1979873621482943  0.2025773491174577
  0.9925419146810412  0.2034168127818746  0.4013170942642734
  0.9985550519598912  0.1986452943707520  0.5971379703141299
  0.0004509337209520  0.3998968349676453  0.0018339684477152
  0.9998039003616381  0.3983758155179393  0.2016381953604775
  0.0006275949964778  0.4003074150933080  0.4010639517093286
  0.9991318553632702  0.3987763548380274  0.6015302783614745
  0.0008594119133030  0.4001465210998846  0.8009118733013200
  0.0010465607295678  0.5999967618444466  0.0013888554733940
  0.9996503664015729  0.5983377203689708  0.1992041231314348
  0.9951066753931008  0.5987864999528453  0.3991934862391232
  0.0014476449624666  0.5994807838922875  0.5988900478734988
  0.9999945670101740  0.5994107484377129  0.8012462430259062
  0.0022072815073057  0.7990540895490920  0.0022224263438788
  0.0011243094936105  0.8008720698614076  0.2008681103398946
  0.9940619918395008  0.7949240685670161  0.3994932781511287
  0.0003488048955470  0.8012749823610943  0.5990442726324704
  0.0002266726066249  0.7985047422667356  0.8002839259558974
  0.2033543697984852  0.9998946852870403  0.9994790968800334
  0.2016409920500838  0.0036750160096342  0.2008892022350173
  0.2024441557846064  0.9995725786797732  0.4017612314881734
  0.2009517949262353  0.0028939953867356  0.5994681879792201
  0.2027386099614177  0.0004420629526842  0.7984185245978377
  0.1991955731789262  0.1995647128339751  0.9878353188909008
  0.1961215077074432  0.2008014209956366  0.5960221461396263
  0.2014162060153319  0.1993766496396534  0.7956935258350267
  0.1999780874368011  0.3980426081224014  0.9988642217582685
  0.2010502427227187  0.3939709637682351  0.2004735459184539
  0.1999656717275751  0.4066326318328665  0.4011179760201931
  0.1997877890191668  0.4012128933805221  0.5987692989870107
  0.2001387094190832  0.3994153882640981  0.7997326749692332
  0.2005578583284573  0.5995101769450720  0.9943655927330801
  0.2002684520303817  0.6013152892654653  0.6013568066302520
  0.2010052454891647  0.5995692093653310  0.7988585334253351
  0.2006434034656912  0.8002431957589428  0.9988499759536080
  0.1523994729336253  0.8495606167485450  0.4068782103639600
  0.2003545279160610  0.8016813095650736  0.6028054527467619
  0.2004204269863505  0.8019813602888488  0.8010358615972544
  0.4016998109316377  0.9999599611413507  0.0022058827295964
  0.4021537804171833  0.9982082377860708  0.2012521556259677
  0.3999697669863249  0.0050425552293677  0.4008847784143867
  0.4025829837309414  0.0004073792622117  0.7986829303244013
  0.3993802341034176  0.1987286089048354  0.0021998078040875
  0.4014584143976987  0.1986810563502763  0.2018181103691381
  0.3996570297446309  0.1999706193763265  0.4007271059676989
  0.3961504039872622  0.1994827396449740  0.8058597517282704
  0.4004126793868565  0.3987698903273748  0.0020880669009447
  0.4013690051588630  0.3978042896791076  0.2018286037022814
  0.4001284253157825  0.3958644710741941  0.4016055964528324
  0.3996676868326930  0.4017887389636270  0.6013427937438426
  0.4007356085388433  0.3993042539894199  0.8006881245690706
  0.4003364546379461  0.5992182077552113  0.0010947830763330
  0.4032309371528121  0.5972079304974794  0.2000900548763473
  0.4077251387386482  0.5915409113245426  0.4006454395424710
  0.4007551275398762  0.5990149757938721  0.6000856613217534
  0.4012068047766426  0.5999393158767040  0.8016801574323361
  0.3995077503854076  0.7999466546861118  0.9982222047030520
  0.4050084479095583  0.8000338754458937  0.1921875679969738
  0.4008735234011804  0.8009011085794124  0.6030982090858201
  0.4009079189379871  0.8001489198647479  0.8002689940082300
  0.6017929973135400  0.0004694514006380  0.0005190494314422
  0.6031840714073479  0.9999034984056310  0.2031386859924630
  0.5952513825610402  0.9948544060722067  0.3984681025114564
  0.6011546706692599  0.0005623206055388  0.8012660626136621
  0.6000148783967753  0.1998397344177560  0.0074933313819198
  0.5978309985161936  0.1983687507737285  0.2019145019266059
  0.5920637719477954  0.2062744654786494  0.6089962182923826
  0.6013837802982981  0.3995408734390629  0.0014125506193063
  0.6004614492547773  0.3976043667176338  0.2028974697143998
  0.6012386950973363  0.3991725909212284  0.4022074402428342
  0.5998587913132538  0.4023631069432000  0.6022849258298402
  0.6006433465323930  0.4022555290682241  0.8021347208220392
  0.6010986676100897  0.5997979220604422  0.0013761918764418
  0.6020859628810165  0.5994600496891317  0.2003589909055981
  0.6016611199583451  0.5991282399436845  0.4002165516149980
  0.6005303907645002  0.6024691999730808  0.6008008012417516
  0.6008396666695115  0.6006226083452323  0.8010235131590474
  0.6012435142972318  0.8004997059872306  0.0006460798809944
  0.5987944494199549  0.7988880480839987  0.1998520954223166
  0.5992533156916869  0.8005040341400914  0.3997857914865252
  0.5990807588228190  0.8015601622762120  0.5994462259297940
  0.6002536362701544  0.8021440832966947  0.8004934699140297
  0.8003360946748331  0.0001079550831449  0.0004553209232083
  0.8028894938708527  0.9998209976850060  0.2002516384812066
  0.8293098654392936  0.9973026285994463  0.3975360559820217
  0.8065733722077347  0.9969432218492515  0.5982882335851842
  0.8010020942821349  0.9980656219483048  0.7982674375099310
  0.8009079242948437  0.1995637429748197  0.9980792961127443
  0.8015044641573207  0.1973299432445819  0.3963199209393291
  0.8011166668481786  0.3984715380906754  0.0003344913019026
  0.8008759614686106  0.3988477688919030  0.2003526668666945
  0.7997312240414030  0.3982900273661568  0.4000420358158673
  0.7998462869483619  0.4007588823496896  0.5998828654707419
  0.8005354524747867  0.3997571981055197  0.7987891946038710
  0.8013239755199542  0.5988007087659137  0.9995309605191540
  0.8001359277111644  0.5968251099754309  0.1990870195995385
  0.7987353343999419  0.6000153010619540  0.3991128498479209
  0.8002523058572649  0.5992832133076941  0.6000035148981806
  0.8005387273302728  0.6000572179116145  0.8003304229686010
  0.8013778214456335  0.8000802493204878  0.9967462990449482
  0.7977307600655411  0.8009007863112509  0.4019531732780412
  0.7991952297182896  0.7993806882860482  0.6008649947050154
  0.8006791946196130  0.8001123905037584  0.7996063739928669
  0.3992711778586119  0.9984704077524967  0.5993436505781695
