Ti V  Cr W 
 1.0000000000000000
    15.4171836946855763   -0.0006458025225840    0.0021743795697675
    -0.0006464432342440   15.4108214600062574    0.0048957167363750
     0.0021730867805691    0.0048939939426410   15.4267125679285311
 Ti  V   Cr  W  
  12 102   9   1
Direct
  0.0009627549523629  0.4015453759591780  0.4000347226521778
  0.2078243715561353  0.1991363696424164  0.7937631720360094
  0.2001088589806600  0.6063364628293646  0.0049387145394222
  0.1995794677004611  0.5971090176898415  0.7918275157592928
  0.3999875233346731  0.9953720248240252  0.5993006058216821
  0.3947594016996600  0.2052687397716571  0.6063738551774603
  0.4010994745711335  0.6005018506119384  0.4019110540916702
  0.6008000713325838  0.9982384680774468  0.9972664811355768
  0.5953787890598004  0.4006647078214902  0.4035112878581003
  0.6006999237016964  0.7961059123996959  0.3982693994866653
  0.8030241663215492  0.4077493812656973  0.9918791691717435
  0.7978371849116408  0.5921332976417795  0.8040769118784223
  0.9995563808923628  0.0003916595492285  0.9998172319627733
  0.9984599489873226  0.9988250295898995  0.1999002873347965
  0.9991972473383179  0.9993709966914347  0.3994087984476175
  0.0009091853491174  0.0008755860261618  0.7995341129945730
  0.0016948862356054  0.1996968783908226  0.9987031943000950
  0.9994427801655571  0.2008199953087647  0.1990762490105409
  0.0002455969001767  0.1978805175003513  0.3996324669833839
  0.9993319053484909  0.2008762210023307  0.6002252214899048
  0.9997629789910026  0.1997177782690437  0.7995812686514269
  0.0040454887962498  0.4006903387464515  0.9986353444503125
  0.0005913447124148  0.3996072693593300  0.1960936315898327
  0.0014587008452780  0.3987384079024951  0.8005189817199631
  0.9963194533356735  0.5996342939476706  0.0009391703024167
  0.9977866462010422  0.5987781084169398  0.2012037517654183
  0.9990496347206591  0.6013914752074951  0.3999250853237919
  0.9984293504985504  0.5986637198587172  0.6002668316548563
  0.0002056883550408  0.5987705023547230  0.8006405403602821
  0.0017222187473889  0.7993630956170225  0.0004577519263627
  0.0008793947542496  0.7987588199230254  0.1997493981829650
  0.9986577707780934  0.7993791500632982  0.3989388705651941
  0.0010901988849317  0.7985708376447567  0.6020703951923619
  0.0001780096537285  0.7987442079336246  0.7994935570982116
  0.1998812861848702  0.9970754675399485  0.0000831322378922
  0.2007996026279831  0.0004799127333498  0.2012338521049538
  0.1993465393943115  0.9994357835602009  0.4000822221436325
  0.1977168542189116  0.9990107251648984  0.5998606527040309
  0.2015254923129357  0.9982414229822144  0.7986092319525708
  0.2011226434046531  0.1985991153830444  0.0010337887666310
  0.2005675696529910  0.1999379632518651  0.1997632906470347
  0.1997608878920386  0.1991424978485515  0.3995804197838791
  0.1970515618113328  0.1999739116342504  0.5960374926735383
  0.2006527287576276  0.3988575976921334  0.9996179257557892
  0.2007067610020289  0.3994137490172857  0.2007047883996319
  0.2020364212699461  0.3992434018601824  0.4003330488186989
  0.1982140701146451  0.4003190026672074  0.5996080351040868
  0.2015257469377281  0.4000718596299662  0.7995681080597674
  0.2005087836287331  0.5984755401776383  0.2041150582425586
  0.1974695846519749  0.5998060250993387  0.4006251015472554
  0.1995597794531710  0.5994019752517912  0.5963522491332560
  0.2000537447832990  0.7991650411286849  0.1968745608648856
  0.1993257599585417  0.8004676798562477  0.4005444688388619
  0.1994272882140760  0.7985789965916781  0.6015768457426230
  0.2018841155932959  0.8005230364515131  0.8039344106451473
  0.3994208952207992  0.9996705964814313  0.0009094537257222
  0.4005030316110126  0.0003328706559763  0.2002454612609760
  0.3997873035832227  0.0001120795136107  0.3997436674242617
  0.4022216463344537  0.9986697262525837  0.8023090098886629
  0.4003833883889573  0.1995876454070031  0.0018514961927866
  0.4011747847529974  0.2006711748857199  0.2001758191702457
  0.4002012282793894  0.1995065135199564  0.3984878019159947
  0.4048512082112760  0.1993911408709561  0.8038581991257809
  0.3985439564177738  0.4000497090611197  0.9984480332348129
  0.4009186844837529  0.4003097493656750  0.1991902761770861
  0.3979155947818560  0.3980116883433046  0.4010269151489662
  0.3989056817990867  0.4032262579042258  0.6015638496922028
  0.3998537810717679  0.3997153072790809  0.8011954187562027
  0.4016005670453083  0.5992889305448886  0.9999534107347152
  0.4004100624313622  0.5986012257124944  0.1989643220876312
  0.3998881134248089  0.5998001033297661  0.6023670733661032
  0.4023543702941104  0.6000351314159256  0.8005202336542172
  0.4003953302458986  0.7995189506858621  0.2013926283696361
  0.3965518574801882  0.8011764739988319  0.4006862793139651
  0.3994462567508207  0.7969898423600390  0.6015035408065263
  0.6001022170229231  0.0014994498760357  0.4001139862485370
  0.6013818250572505  0.9995288067990805  0.5990193026379945
  0.6005825602070044  0.0003478850673921  0.7967165914553184
  0.6009738088450453  0.2022754288430941  0.9998434379080327
  0.6009973072854464  0.2009693581709889  0.1993785813888350
  0.5990645906323412  0.1990253015304849  0.4003833015917957
  0.6015811359698713  0.2007114631182123  0.6003104627449768
  0.6012088672347202  0.1998208286183274  0.8000134772100296
  0.5978483381060311  0.4010495207035935  0.9992721134794100
  0.5989248407346860  0.3998112273134098  0.6024520263416114
  0.5993151137512357  0.3991709175434872  0.7990837682453871
  0.6007035555818602  0.6004943191491522  0.0006362376100940
  0.6002697183801254  0.5998411689080581  0.2009494063377552
  0.6008156900214862  0.5994128094920966  0.5997313310566209
  0.5983041511210688  0.5988009525772198  0.8006007308187841
  0.6009707158509812  0.7983185858828634  0.0009265862532604
  0.5955609812932049  0.8008551675889792  0.1975048039643773
  0.5991615981563881  0.7987889238685310  0.6026252983830890
  0.5990134110133215  0.7992833904761543  0.8002566005324584
  0.8022911935098402  0.9992110701581817  0.0003299149078522
  0.7996631434498187  0.9981106870713787  0.3996254614044381
  0.8006816413800882  0.0002164871809817  0.5995372956301619
  0.8001715967738536  0.9995413255588588  0.7981815840848677
  0.8002002591897920  0.1994813867046627  0.9997528293302628
  0.7995963448284363  0.2003476666623041  0.1987858731436496
  0.8002537218759175  0.2000106469186189  0.3993970930025312
  0.8002538201529378  0.1994326930789070  0.5989131799789768
  0.8007038640229599  0.1988177917505759  0.7991836082950813
  0.7985349708036584  0.4016983331538250  0.2003690770837891
  0.7992928288175474  0.3988832642656015  0.3990751285867801
  0.8011003635382166  0.3998828980441221  0.5989001698786423
  0.7994888291861183  0.3953077901781665  0.7964334177236214
  0.7990436978169602  0.6059360461042099  0.0067869257618397
  0.7994926177871620  0.6000981004549412  0.3993816090857269
  0.8000360698749251  0.5984010674508001  0.5988452129108308
  0.8011963914681302  0.8012954447271571  0.9967471937857797
  0.8006779486843870  0.8003068886361814  0.4038315052776325
  0.8003120648420212  0.7982084814422590  0.6016907196938258
  0.8002731250431886  0.8012293506611116  0.8008643401652619
  0.9994248087171088  0.9987150514852569  0.5995951111719994
  0.0002636372704301  0.3998027318004047  0.6028671637720213
  0.3993681199642941  0.7996489546572146  0.9998586120985627
  0.4001148627575951  0.7987024500481287  0.8013833989780398
  0.6004303969548499  0.0004730838549697  0.2019562852996361
  0.5996199695937141  0.3998561374186592  0.1971874408892973
  0.6023316959510840  0.5984524688667525  0.4001023111428172
  0.7983459535880588  0.9988698641537288  0.1999646344775428
  0.7988941969232224  0.6011654826443784  0.2018514683083526
  0.1972140304675576  0.8017646856578435  0.0003301471152624
