ADDGRID = T
ALGO = NORMAL
EDIFF = 1e-06
EDIFFG = -0.01
ENCUT = 360
IBRION = 3
IMAGES = 5
ISIF = 2
ISMEAR = 1
ISPIN = 1
ISTART = 0
LASPH = T
LCHARGE = .FALSE.
LORBIT = 11
LREAL = F
LWAVE = F
NELM = 100
NELMIN = 5
NSW = 200
POTIM = 0.25
PREC = Accurate
SIGMA = 0.2
SMASS = 1.85
SPRING = -8
SYSTEM = NEB-Cr4Ti3V106W7Zr4_0_1_109
