Zr Ti V  Cr W 
 1.0000000000000000
    14.8968074205055832   -0.0306966591709309    0.0213340461221847
    -0.0306330890936885   14.7623265562694694   -0.0006438448085418
     0.0208847029898603   -0.0005685860588741   14.7311565230960575
 Zr  Ti  V   Cr  W  
   4   3 107   3   7
Selective dynamics
Cartesian
 -0.3225455363561464  5.9977617974142685  5.8709539115194849   T   T   T
  3.1093995382759525  5.9167221404173986 -0.1124358368354382   T   T   T
  5.9664663115263163 11.5413634300870367  2.5375022915316734   T   T   T
 12.2363254371720007  5.7208776761889748  3.1301376313733504   T   T   T
  3.0665597086081053  2.0407627572362781  0.4585445828961289   T   T   T
  2.1833216810788771  5.8440059046176600  8.1260241844490348   T   T   T
  5.5537375827988349 -0.6579582119037400  0.3538430314513464   T   T   T
 -0.9020193648459297  1.2948018711167384  0.2576276570881390   T   T   T
  0.8198364082428518 -0.0046730049104690  1.9458250990360770   T   T   T
  0.7611284371655884  0.0612144117793565  7.5670438370690887   T   T   T
  0.2642139973533849 -1.1827382372872117 12.4246315242421055   T   T   T
  0.0150260155818431  3.2403803925599028  3.6294384084970179   T   T   T
 -0.1658714568787601  2.0352704250928824  6.4351297239337271   T   T   T
 -0.4162139471188567  3.6004934879092767  8.6916207983735845   T   T   T
 -0.8165010769868261  2.4018123165546692 12.3262672709155368   T   T   T
 -0.2868047436711675  5.9425692481353085  0.3146034926107728   T   T   T
  0.6232587876779347  7.1787147761737318  2.3459407931726388   T   T   T
 -0.1696576289072499  6.5160169774229040  9.4586522169154552   T   T   T
  0.1719789992979933  5.3405249591374480 12.3118091669200602   T   T   T
  0.7362525747529869  8.8379772007465132  0.2206747523243776   T   T   T
 -0.3715946496707933  8.7743880680134527  3.8139030770566178   T   T   T
 -0.1487788009919619 10.0014862181371704  6.4554348562765700   T   T   T
  1.1873854309185292  8.6405044072820285  8.2585595496965105   T   T   T
  0.5406088993347068  9.1067020449683120 12.4604653771762059   T   T   T
 -0.4425834190408359 10.9000822418037622  0.2213996569458688   T   T   T
 -0.0380336656618887 12.5140185600648906  3.5825852534484168   T   T   T
  0.2349737637531669 12.6666222176318293  6.3319669644822341   T   T   T
 -0.6419450928117443 13.2254949416641523  9.4788115660646142   T   T   T
 -0.5204905297839473 11.1035017344457998 11.0184778418115670   T   T   T
  2.1769017576970384 -0.9445560499142300 -0.2127500588779964   T   T   T
  3.1069327017696184 -1.2387555899144134  2.3072089699939040   T   T   T
  3.5750047740000355  0.0110879006275944  4.9193035751836041   T   T   T
  3.2126302525494905 -0.8986423262616825 10.1578708985388388   T   T   T
  3.4388159648195948  3.8993637982951288  2.4975269622889074   T   T   T
  2.2039079028629054  3.3102047920589293  5.3603942864920144   T   T   T
  3.1996830900632816  2.7761956018676561  9.7688926302155821   T   T   T
  1.5820874956265794  2.9991844849489073 11.9784652434484400   T   T   T
  2.5795090721989355  6.1890173945476512  3.5900122991241048   T   T   T
  3.6118547203634566  5.9738376038038696  5.7204952248317822   T   T   T
  3.0012082636626447  4.9867339868337845 11.0809236351767844   T   T   T
  3.3700075170380557  9.5252886194306150 -0.9957618847485807   T   T   T
  3.3404364372509234  8.7849948454154383  2.5681026173319910   T   T   T
  3.8184556655785880  9.3106618560090446  7.9306799763065214   T   T   T
  2.9720658858338007  7.9756459838566816 11.6250005629140034   T   T   T
  2.3036162800330575 11.1840627333467673  3.6523871304405930   T   T   T
  4.0568692368036627 10.1022300756771699  5.5257765975438753   T   T   T
  2.5054052183297153 11.3156625123443462  9.8854981077414266   T   T   T
  2.9959200227055618 11.6985143885245471 12.5373692035378497   T   T   T
  5.7628322885121381  0.1033937450076798  3.3935622720232930   T   T   T
  5.1293599758440553  1.0075982261239529  6.6970054472606986   T   T   T
  5.7561676612628627 -0.4576995777310578  8.9118790415605620   T   T   T
  5.5207493721130980  0.0289759715718318 11.4503403291904444   T   T   T
  6.1270797567686550  3.7806400277369749 -0.3251960662642632   T   T   T
  5.7873090202868243  2.3689395444456069  2.0733161771026789   T   T   T
  4.9426386178664856  2.6682480526235737  4.6614760122857497   T   T   T
  5.7177826178949589  2.1586722292375788  9.6217103557763117   T   T   T
  6.4149534752733484  2.3342921733408044 12.1532126438929424   T   T   T
  5.5789018404033088  6.3901774392804978  2.3606972017223322   T   T   T
  7.1819035649304599  4.1423294256876968  5.4787502930661125   T   T   T
  6.5165414156627071  5.6296972185033081  8.1925292969365380   T   T   T
  5.5861721660607149  6.2838423046022758 12.1628671521411977   T   T   T
  5.4476030564885756  8.8627292502877424  0.4085334156250858   T   T   T
  7.1274866855384635  8.4503848224643594  2.7219435263479648   T   T   T
  6.1927385080105246  8.7366738170034459  5.7220610767479814   T   T   T
  6.1660176157324615  9.6908536199445194  8.8621296250169692   T   T   T
  5.2013999436928913  9.9503400884096180 11.5418349318174833   T   T   T
  5.5141059692030225 12.1397697843293173  6.0826940760949118   T   T   T
  6.5913469824187754 12.2945030619425317 11.5655104008798677   T   T   T
 10.6562926965015770  0.7079351547188484 -0.9470733627117073   T   T   T
  8.2440280601124751 -0.5149813919470735  2.3706712687571310   T   T   T
 10.0967070276640491 -0.5828021691289925  5.5171729422574485   T   T   T
  9.5287468644199880 -0.1760464984895853  7.9795183797251203   T   T   T
  8.1574306418069149 -0.5776120045453317 12.5028641281220825   T   T   T
  9.8306223476704560  2.6855502929461474 -0.7104205701834827   T   T   T
  9.5041112160778880  3.1228554669796988  2.0616392821165017   T   T   T
  8.8512520131515871  1.9377048328767310  5.6350095192167693   T   T   T
  9.3522582350685290  2.9278031641167654  8.6460298626472429   T   T   T
  8.6045580558688037  3.7033311631662031 12.1571872702749868   T   T   T
  8.3271944570216956  6.2183446499537602  0.2394034056616134   T   T   T
  8.5416539019680293  5.2928161948957539  3.1858932199484986   T   T   T
  9.1671232981122195  5.8873911987706480  5.4691558943797931   T   T   T
  8.2958837809353128  6.6166950738082928  9.3524878215983254   T   T   T
  9.8545108796622856  5.8665263220768171 11.2460619334219860   T   T   T
  8.5186252261818183  9.9198622736922939  0.7814642175078013   T   T   T
  9.4846031925645367  7.7089538189585980  2.9135687747555967   T   T   T
  8.3525399988921833  9.8620848532731546  5.9364435900279240   T   T   T
  9.9601442159307183  9.2530012672932038  9.1299125618995589   T   T   T
  7.8123131938828347  9.4807291153600239 12.2102591609614990   T   T   T
  8.4777080473589344 12.3177749485945309 -0.3131026951217766   T   T   T
  9.5990902997718894 12.1458666563109521  3.1367834478453105   T   T   T
  8.0888354266414701 12.3181999754531901  5.6891453895259927   T   T   T
  7.9848605038145726 12.3650681747706521  8.4452579868905140   T   T   T
 11.7837338951868169 -0.8499751636057282 -0.5973683355508244   T   T   T
 12.9883058142135361 -0.6481003669853163  2.3628370793282500   T   T   T
 12.5966970864881898 -0.7285237105029756  4.9019856532646493   T   T   T
 11.8674349309164988 -0.0725843068482909 10.5479117910055873   T   T   T
 12.8710724642135812  3.5950537744840716  0.3695666484684363   T   T   T
 11.3969781810271833  1.9218015767720087  2.7899895282179985   T   T   T
 12.6462569283026696  2.9675288823827723  5.6735271048834850   T   T   T
 12.0089256127086799  1.6353510186521409  8.6435123328304044   T   T   T
 12.2722655861836891  3.4721391787014211 11.0992489665249572   T   T   T
 12.0073465231220364  5.7415432216776043 -0.4278431970372168   T   T   T
 11.5701158836273272  6.0848728315394132  6.3451221776031765   T   T   T
 12.1418126969426190  6.5423307060158233  8.6638308709156444   T   T   T
 12.7931116186292115  6.0842722606497714 11.2959580553926102   T   T   T
 11.9171464298569720  8.6014571805446636  0.6705723069324669   T   T   T
 10.9686234757446055  9.7754997590125257  2.9663981598909137   T   T   T
 12.1351961580591272  8.4851440758765353  5.7775723909370607   T   T   T
 12.5057388492076562  9.6103418932240530  9.6836355851250886   T   T   T
 10.2687939726980879  8.8923011548234037 12.8058038871791240   T   T   T
 12.3386156360328147 11.7861997237183544  2.8106963768811992   T   T   T
 11.7465693854076090 11.5769065732997340  6.7212439628293801   T   T   T
 11.1986391523382451 12.7740293226556396  9.0900456009270059   T   T   T
 12.1515710075913681 11.3017310130561697 12.7071501557291455   T   T   T
  2.9901095066108092 -0.1223345604775522 12.4215851320346999   T   T   T
  6.0276029356450955  6.2890912507233967 -0.1768267194514632   T   T   T
  8.9269047913623609 12.6757945108300767 10.9114023071704569   T   T   T
  0.2080596534045251  0.2323789887817995  4.6759268283162907   T   T   T
  0.7949610221532334  3.5714483023538488 -0.2381279328183583   T   T   T
  2.0428444001677226  8.3195392162734123  5.5765524395755577   T   T   T
  3.5680939410624006 11.4038540656893552  0.7612209492640705   T   T   T
  5.9793715804957124 11.1433234151291991 -0.7487095979623971   T   T   T
  5.0012080086993294 11.8785860209433416  9.1937599327541122   T   T   T
 10.8372963248009633 11.6573520209357557  0.6594850456614646   T   T   T
