Zr Ti V  W 
 1.0000000000000000
    15.3704372863088707    0.0041087699184726    0.0045828320708022
     0.0041071823098185   15.3593176205705255    0.0049868964281650
     0.0045832368054306    0.0049883200619353   15.3853693029952101
 Zr  Ti  V   W  
   2   2 106  14
Direct
  0.1974943492110069  0.9805122952046758  0.1704012392258492
  0.7919147290311929  0.4005252861807047  0.8094761342820120
  0.4083167037663178  0.7990708585870679  0.8065612010182207
  0.6126440718110331  0.4012243546663989  0.9896362439547585
  0.0039498455960386  0.9976140079236967  0.0046731625369187
  0.9915409465983347  0.0039640469387063  0.2028318208149114
  0.0003307206520815  0.9973942885624233  0.4003645605853150
  0.9940685878060919  0.9997515957731797  0.6036061450175692
  0.0022488719425910  0.9984970764273805  0.8018185227871530
  0.0005853322655464  0.1991693151246023  0.0009732479690434
  0.0005130290988255  0.2028402724309465  0.2033139631304199
  0.0012236683067353  0.1997371883765130  0.4009617951297455
  0.0021892286883416  0.2010639729334915  0.5994708221696832
  0.9997257163962306  0.1998926638410345  0.8020028997888081
  0.0040086941947726  0.3985802455840682  0.0064110716118321
  0.9983115186428634  0.4008175041206912  0.3977376802609292
  0.9986914846030830  0.4001615264288028  0.5997657935369992
  0.9992513591487681  0.4010137980704593  0.8025047073115262
  0.9985602753563638  0.6066480445660648  0.0010223539588646
  0.0028796444557215  0.5962914941386516  0.2009841615697200
  0.0003034638141663  0.6037884358796733  0.4014069989555170
  0.9987364835986740  0.5993382403092846  0.6018482006116650
  0.0031258357377197  0.6012598536023237  0.8007778984125611
  0.0086462509904210  0.8043844103116524  0.2014077182049880
  0.0000165288503970  0.8004640026382985  0.5944690432470030
  0.9991941813448990  0.7995686894706485  0.8078888861352974
  0.2006340173277838  0.0029291101548345  0.9799779929284335
  0.1982819574400195  0.9996380238200404  0.4106198763111027
  0.1985897680576875  0.0030109022629021  0.6055352143254270
  0.2005592843948205  0.2023211345274105  0.9983142742774394
  0.2009583478761717  0.1963467244999233  0.2000492698622227
  0.2021372402236999  0.1980925976496671  0.4032726130890669
  0.2009614856361685  0.1967924838961640  0.7954667353864588
  0.1962282306886238  0.4026302346199169  0.1954581352060772
  0.1996986711134142  0.4013865590030233  0.3995653085517890
  0.1975821792545315  0.3962248531107822  0.6013201568330488
  0.1981468160553610  0.4041742456438071  0.8047137081606652
  0.2005937729335684  0.5953226873728407  0.9957909350820940
  0.2008433833443389  0.5989833846293069  0.4010509554185443
  0.1995721881669210  0.5991013548638443  0.6050055513358654
  0.1945779731217671  0.7988592159883156  0.0002298132728233
  0.1956606132941596  0.8015939600832358  0.3957675267442876
  0.1991906538337156  0.8000347468029170  0.6001866953022499
  0.1984347515278819  0.7981819024796943  0.7996519222623641
  0.3958229264679413  0.0011266928481912  0.0030568354165271
  0.4041429346932511  0.9969908032396190  0.2010029093157528
  0.3993217807665974  0.0029471509793204  0.3998172672228452
  0.4018985043197222  0.9988962782651848  0.6012201707785374
  0.3981513853713782  0.0001949794139528  0.8012882659023937
  0.4009156902319469  0.2005245557502774  0.0026758163024188
  0.3995838169103940  0.1981213138418196  0.2046907294977165
  0.3958577082684686  0.1996554423858593  0.5954316122781479
  0.4002309512851394  0.1998085944975057  0.7996372686593222
  0.3954998326409718  0.3982884910085450  0.0011061200474249
  0.4023691919672453  0.4011086647185474  0.1985660763872590
  0.3993300350445747  0.3967616281548096  0.3971530245762750
  0.4000151272215435  0.4010005150546790  0.5983937521466425
  0.3967071742083278  0.3992991936589858  0.8006562921493195
  0.4012555733841995  0.6002983280988204  0.9996509351177582
  0.3997637947791610  0.6033643170244128  0.2003015567211415
  0.4011049888616431  0.6002466778745625  0.4015434061943238
  0.3973606104195261  0.6007859683080523  0.5992469799114227
  0.3964054438086232  0.5999042372159127  0.7993580565072358
  0.4010419370905424  0.8008486260490594  0.0068334289755025
  0.3994477959856476  0.8028310663263616  0.3950262434966950
  0.4001820402918702  0.8008161644484416  0.5936047181527434
  0.6001994934137257  0.0005170618925849  0.9978761406172355
  0.6020376286929395  0.0000944727534391  0.1979819776581004
  0.5992312362986512  0.0010004327813311  0.4011502687271600
  0.6019593994647253  0.0004886231858208  0.6027440243636719
  0.5975540521779839  0.9993992984360739  0.8018288410047371
  0.5990047477295234  0.1987260617616647  0.9989672113048658
  0.5988333263013023  0.2024715154525021  0.1989513652159981
  0.5948987079465040  0.2012637071058869  0.4010525917483714
  0.5993766224251810  0.2016300078037509  0.6011425284739038
  0.5968458225878374  0.2012589209580897  0.8001646612487875
  0.6026612350766605  0.4012514670936054  0.1989389229476901
  0.6016949462491497  0.4018519947978350  0.3999926150224418
  0.5982459868580174  0.3997123392321026  0.5994373911937579
  0.5899587116795773  0.4020216361006069  0.7936715188753780
  0.6005169445559636  0.6019826254373629  0.9980931211044243
  0.5987290037910936  0.5994029354819623  0.1980663002321283
  0.5994789887050992  0.5993060473325168  0.4002282435689971
  0.6992040101987096  0.4996366981717202  0.6010600938867970
  0.5956436953783267  0.6009311116304695  0.8005337411467647
  0.6000707933183071  0.8005737039923151  0.9992119950783187
  0.5941269621573257  0.7996859777302523  0.1989070793468261
  0.6017235178959329  0.7981046895501993  0.3993616898792153
  0.5988860838236200  0.8008740498318956  0.5998912276940251
  0.6025688877591761  0.7987927485604392  0.7997077107966735
  0.7999683499365019  0.0002953928928173  0.0048921679611847
  0.7979971954922509  0.9967116234185517  0.4013230766004972
  0.7999940681733444  0.9987808160100901  0.7989335976292891
  0.8007597116400472  0.1988514412257393  0.0014117030546443
  0.7981817781920305  0.1968406827704449  0.2026040530168147
  0.7986452355426540  0.2000763877404684  0.4029190939698258
  0.7998804824438811  0.1941125282635716  0.6004556408845488
  0.7998537644223263  0.1950526712897945  0.8005529436183824
  0.8077574571158712  0.4003272330897570  0.0088182525895231
  0.8042518031045714  0.4005695097519644  0.2041457877916832
  0.8000321454547183  0.4008714620117617  0.4012070080894468
  0.7999130901992394  0.6018992126457121  0.0011156056200738
  0.7995965810170940  0.6025579247562679  0.2005924798192077
  0.7978865545193335  0.6046263315718222  0.4032569451283775
  0.8001279720930615  0.6027380871696119  0.6031279170165410
  0.7985333530785641  0.6061424746374837  0.7987818651031358
  0.8046337658537887  0.8018802759915830  0.0036398778826413
  0.7956395458007748  0.8044023025216606  0.2047358894809593
  0.7992840923071561  0.8041749055940289  0.5961733840740272
  0.8005837616374424  0.8015259488014389  0.8008316427405029
  0.0007883711076866  0.4011021442754139  0.2018870673503171
  0.9983997461619154  0.8006531441926729  0.0048629659593349
  0.9975022130286568  0.7988390343697737  0.3988881777850286
  0.2004993218489040  0.9970796004250708  0.7959898892921624
  0.1995108967576904  0.2008065551510949  0.6014438255030102
  0.1995182488696606  0.3996160321673528  0.9993696343329171
  0.2034560609373272  0.5983003488932847  0.1968445114186644
  0.2004460044045657  0.6007114789384175  0.8000325491638103
  0.2027863875727702  0.7826542534428070  0.1993687745868918
  0.3989701175639831  0.1999410733602016  0.3992679610146644
  0.3947065444657836  0.8028224683165333  0.2009378007418381
  0.7968265317613838  0.0018075652821916  0.2017687796185595
  0.7987849851866626  0.0002636708841817  0.6014095084581637
  0.8034068367692020  0.8012745902920310  0.3987731062144646
