Ti V  Cr W 
 1.0000000000000000
    15.3947628529237015   -0.0004726939770559    0.0021267196503963
    -0.0004726263884090   15.4017912768726095   -0.0008921615345846
     0.0021270963932924   -0.0008941263393480   15.4191178141427301
 Ti  V   Cr  W  
  13 101   9   1
Direct
  0.9936808931764030  0.1904065844760201  0.4000206019553222
  0.9993410306919238  0.4028737424512978  0.4006442771635394
  0.2133912631421150  0.0043708934264568  0.3935892386910981
  0.1993808535741828  0.1967100532117014  0.0059030557028814
  0.1976121906795941  0.1967185948999297  0.7953771385637102
  0.3981061442552233  0.0021166354632690  0.1700796418691101
  0.3900900264433357  0.1935692434411513  0.3987496555228415
  0.3960866329523614  0.8091147241915293  0.3962664260008991
  0.6010403476527255  0.1957523878058437  0.4002674357817222
  0.8006933265604281  0.0094523843994065  0.9971326125924830
  0.8051791839736142  0.0068312150021546  0.4005946064842597
  0.8008889233070264  0.1916792283865968  0.8040039464729886
  0.8001169803853122  0.4020021093339499  0.8012536850401494
  0.0006695714402105  0.0008069493179910  0.9987500686521832
  0.0000305238819639  0.9999448000202924  0.1995253894901452
  0.0037515733818150  0.9969736624795492  0.4007858233847138
  0.0019909760923524  0.9998896648443809  0.6003555299743898
  0.9996034956531955  0.9991826081588447  0.8002765779823903
  0.9984446676436939  0.2007819417318570  0.0009441671595123
  0.0009769827892165  0.1996615989168665  0.1987946345330461
  0.0014934513232543  0.1990529770196082  0.6022768490223210
  0.0002651712293970  0.1989082286836929  0.8003027120807392
  0.0013857088989305  0.3997016713764533  0.9999823795832837
  0.0006055963396223  0.3986783936256652  0.1985263027843189
  0.0006297277471608  0.3979279211451000  0.6029914580554324
  0.0027845023117206  0.3985885376271153  0.8015177021244020
  0.0003629654923625  0.5988251406965726  0.0001599592416666
  0.0003654680369706  0.6006870889595675  0.2004721964949641
  0.0003691588390904  0.6014216178567844  0.4008413182423785
  0.0008136345582774  0.5993334788872606  0.6006336238896717
  0.0002786008075593  0.5999034571549680  0.8009062605617996
  0.9993425763309001  0.7997512609161489  0.0009274312932841
  0.9998277021455243  0.8015863806858060  0.1997309402022594
  0.0008197218394379  0.8006226670610651  0.4005312392725164
  0.0000004744195645  0.8007642523249178  0.6008368395125978
  0.0000485493908540  0.8002582784180274  0.8003997548671630
  0.1978675453849617  0.9989300000449991  0.9998296096830157
  0.1981571836915212  0.0014781553915189  0.1962850153652533
  0.2000892116176259  0.9978005290699141  0.8001355608003464
  0.1948254709140278  0.2033021492699927  0.4005068068960385
  0.2038088031414869  0.4003103034377944  0.0017138409519375
  0.1998640496711198  0.3987105848392670  0.2026981137692971
  0.2021323834386273  0.3997412879064985  0.4004714204454460
  0.2011818961229501  0.3985157849930653  0.5991607224924554
  0.2004406029403578  0.4005159334023953  0.8000623739316556
  0.1999428870216165  0.6005825751491065  0.0020285211763070
  0.1995206978905108  0.5998915543639073  0.2021611685591525
  0.2009056141676861  0.5996547112682783  0.4009552595952423
  0.2005018720030043  0.5989857126526008  0.5993946062103204
  0.1997468827105003  0.6006673077121372  0.7985368563009179
  0.2007446960290959  0.8005989493530500  0.0004313592406935
  0.1994775347353359  0.8006859419757351  0.2012382338468600
  0.1994775626899420  0.7990932160038341  0.4005010937388571
  0.2005866756643719  0.8008113557503882  0.5991310664149315
  0.2006274055883495  0.8001439539764935  0.8013557548295167
  0.4001703910846727  0.8653621164322320  0.9993988070744619
  0.4064800485319038  0.0027862821364004  0.4034955322661602
  0.4007648847571750  0.2069783583363127  0.9985199509161735
  0.3991747625170815  0.2024585566383777  0.1963811302158890
  0.3982456242181848  0.2005526543864890  0.6042704325384439
  0.4001672287615480  0.1988810884337492  0.8013226255450370
  0.4004863372487579  0.3997066382708211  0.1984371040734478
  0.4009904907681210  0.3996705882196944  0.4007380015710844
  0.4003698224269315  0.3981995560052854  0.6018025878109142
  0.4000946649811600  0.4001710155487675  0.8040701086370752
  0.4004251353674482  0.5953757787079754  0.0002098989313799
  0.4000146530361917  0.5999877722318882  0.2019081265037433
  0.4003114357734492  0.5994470927909880  0.6004931511945796
  0.4001514389908815  0.5998097105852306  0.8004379188121952
  0.3998458335345387  0.7993036187233487  0.1961457248771659
  0.4004391934285635  0.7996613489379991  0.8018623545426063
  0.5988537663755875  0.0007994142297509  0.0004755224928791
  0.6024416998424167  0.0000564168239416  0.2001532268560203
  0.5998935295886262  0.9977950050504697  0.4012125897685112
  0.6009822581334660  0.0003719954929917  0.6014842588436237
  0.5994335515139471  0.9985590139750603  0.8014311799531555
  0.6001494748828243  0.2001043234854283  0.0008944024155362
  0.6002020454217958  0.1988350545343720  0.2012989444662206
  0.6001026085710939  0.1993346129320015  0.6025206189286627
  0.5991534502483149  0.1981360926936717  0.8004292756692394
  0.5975289403728833  0.3996565242301775  0.0019006689005125
  0.6004719614362446  0.3994878690876981  0.2026887913159111
  0.5993748532493978  0.3987086819384366  0.6001504418181258
  0.5998192304797331  0.3986114535735099  0.8007546639035755
  0.6005990765057470  0.5998712038713561  0.0015964255207901
  0.6013296568079061  0.6014243848087067  0.2019306514632340
  0.5989630218849838  0.6011977926683044  0.4015019850992532
  0.6001914970901071  0.5997856664266865  0.6001633279991323
  0.6010090360447219  0.6007186896684680  0.7997242442464850
  0.6000330110033540  0.8011376904430033  0.0008008693838975
  0.6000196963602501  0.8012795791589440  0.2013203169889798
  0.6018758830570908  0.8006079477065448  0.4005753049994584
  0.6003874932553178  0.8006019996706607  0.6003113542400302
  0.6000007313484854  0.8008242305474870  0.8016501100853157
  0.8007817505622224  0.0022838450898722  0.1990649727401926
  0.8006086100761751  0.0012568035954754  0.6014395756640921
  0.8004682398872001  0.9962162938864678  0.7972078396267965
  0.7995252186292164  0.2060969752772607  0.0041298573035453
  0.8011708164402283  0.2017928373067267  0.2025806684409361
  0.7992270566272882  0.2058717502512584  0.4006049513186064
  0.8012724270720178  0.2001417741946172  0.5983703923142821
  0.7992159222780926  0.4011782718428759  0.0034457665919620
  0.8005743596306454  0.3997775037333617  0.2021436379392092
  0.7966715309339217  0.4027235213881883  0.4008129309400141
  0.8005334540613259  0.3981194676637386  0.5989663999138498
  0.8002561986549990  0.5996192543474848  0.0015916828585675
  0.8004970451930380  0.5994585307303106  0.2018238253785511
  0.8009160718968334  0.6015520482415280  0.4006721019047741
  0.8004662687895540  0.5990907153512500  0.5997589454195890
  0.8008777924551340  0.6010965945305363  0.8000540345893631
  0.8011651431747072  0.8017580761257109  0.2001777297215782
  0.8005858252136199  0.7998499119226780  0.4002399547628832
  0.8011825296803774  0.8009602421078481  0.5992270019860919
  0.8001289233058589  0.7990670921098894  0.8009193319524210
  0.2014220158395870  0.0002889752037958  0.6016170539470236
  0.1989173116317253  0.1997710942519218  0.2041225770725359
  0.1994351951277998  0.1989638062924956  0.5964490853824409
  0.4007202315699504  0.0001368226616151  0.6025567611009303
  0.3992057037426000  0.9996922128358409  0.8026806474081334
  0.4001823593963624  0.5990899608557245  0.4008838620901722
  0.4003522103147494  0.8006385291409553  0.6027185709693745
  0.5991093835346952  0.4022784394917177  0.4009932179936926
  0.7997883383471708  0.7984540502313571  0.0007617741479906
  0.4009521493168014  0.4010363605101637  0.0014256522421101
