Zr Ti V  W 
 1.0000000000000000
    15.3687751858679373   -0.0034047973547748   -0.0004629384474201
    -0.0034058626285429   15.3762737440467472   -0.0028872120149207
    -0.0004620936853672   -0.0028876454386987   15.3933118945991367
 Zr  Ti  V   W  
   2   2 106  14
Direct
  0.8032086658360819  0.9912337414509532  0.7965587090028482
  0.7739736215225660  0.3979388156046988  0.0104108689977263
  0.1952575851441878  0.4017542154636287  0.3871971004458940
  0.2001020580577405  0.7948450057323814  0.4077875330830968
  0.0005021198067832  0.0021935125336638  0.0018395526493462
  0.0005727673115999  0.9993339684478542  0.2011979784489576
  0.9990571085376242  0.9999877992083144  0.3991136812167073
  0.0016803727530923  0.0014517199409019  0.5972601289960626
  0.0059236341172615  0.0007827147536719  0.7991201587895869
  0.9973499764190281  0.2007642316834540  0.9995269128423305
  0.0013830887443096  0.1991427169524320  0.2005133149106103
  0.9991436037873830  0.1986543652015523  0.4004546844930502
  0.0002534011236774  0.2001143546142465  0.5992601842896783
  0.9998492542438756  0.1987146449535402  0.7988662695290660
  0.9961737123326813  0.3990634976717262  0.9988178336135159
  0.9951672998371968  0.4001153469283871  0.1993881609605100
  0.9962288957672307  0.3986079613254175  0.4001468666698557
  0.0033068575515897  0.3994441746124203  0.5997345992709309
  0.9971141224370897  0.4012186631456250  0.8014018277321349
  0.9992914891515045  0.5996972559171417  0.0001779245366291
  0.0051731427076927  0.6021888440150828  0.2010595352057759
  0.0029858551305587  0.6012725848151166  0.4002703762886018
  0.9994475897926153  0.5994061785208812  0.5976616919544075
  0.0006970946360392  0.6009698297813479  0.7973890475540353
  0.9998279913027996  0.8019081201414642  0.0000782336458873
  0.9993992628499946  0.8004771676902831  0.1984242151733761
  0.9964675418424530  0.8017805326201242  0.4003091478235462
  0.0002959052351170  0.8003327268314104  0.5993794271106226
  0.0005585209467100  0.8005694235241635  0.8004392679652873
  0.1993095523756263  0.0023749324452527  0.0003877733970453
  0.2000178263362350  0.9967038679983843  0.2008689835418013
  0.1991911442850480  0.9999610369948082  0.4006997010665392
  0.2001011310129511  0.0002933160225640  0.5990313355945708
  0.2011756398203887  0.9953483813213683  0.8000780246099322
  0.2001657009022562  0.2033450809340887  0.9996549681307256
  0.2003527571137877  0.2010238530248107  0.2001902207459235
  0.1992073786327292  0.1985890538414407  0.3992446336556352
  0.2025734784736885  0.2048242351728406  0.6007106727201748
  0.1994229686132032  0.1986041707018064  0.8015339741290602
  0.1989726827127649  0.4047909285087960  0.1912686324170323
  0.1993168155826299  0.4031450755954881  0.8028470868693610
  0.2000046662253486  0.5956094567767165  0.0029060549788972
  0.2016085663399367  0.5953036887524951  0.5945707216238034
  0.2002303521932993  0.6041936498755508  0.7995417192483631
  0.1996144686380728  0.7984713306853434  0.9960533874792697
  0.2042430910372645  0.7947034642796127  0.1949111587081900
  0.2000649516687541  0.7983777421743646  0.6065704854799855
  0.3989868349159396  0.0018279981717559  0.0005221768847907
  0.3976957961756126  0.9955341793556772  0.2011621813280198
  0.4033584021695665  0.0000759494490030  0.3994510639633141
  0.3988597055021428  0.0032902180648660  0.5984898516619140
  0.4000907534926263  0.9979991329785061  0.7990990037984044
  0.4028958792443871  0.1987986886872349  0.0001320922140378
  0.3983123293903888  0.1999160199513441  0.2015590508406941
  0.3994793664952229  0.1992817335686857  0.4030694579224858
  0.3990684738530265  0.1974837741711771  0.7960541335665814
  0.4048366697140166  0.4006159981567478  0.1993008407778512
  0.4016949909714324  0.3986490416714589  0.3982671761661379
  0.3943768793063837  0.3957046955163969  0.5989566517393303
  0.4050073856586357  0.4006825929844082  0.8013040145868373
  0.4032638289214572  0.5978992814631041  0.9989673104296574
  0.3969531267517755  0.6033902582825632  0.2003887501041066
  0.3958132107521471  0.6006210423287869  0.4000884148687170
  0.4021748439487342  0.5998488398926227  0.5971199560662724
  0.4005540509315100  0.6017781445941186  0.7992958570734473
  0.4015192702199334  0.8012975637254188  0.0017059652638489
  0.4013956008629496  0.8016531242563624  0.3956874246657855
  0.3993497051180792  0.8011399034306620  0.5993884552024035
  0.3968851991737559  0.8005375974245670  0.8013855331242624
  0.5998819122532955  0.0059725770031107  0.0003539158986039
  0.6007227217778465  0.9965294465749155  0.2044965398618244
  0.5986169745918051  0.9986513223538422  0.5953411756918717
  0.5973588596362849  0.9985844044631469  0.7983078746115826
  0.5975642681037481  0.1999491412686726  0.1987185257769278
  0.6000541451358504  0.1960950412295459  0.4000425961976781
  0.5950398375537301  0.2005702328166582  0.6001501867418441
  0.5993467388875332  0.2032264359261609  0.8016185081393390
  0.4287782987336398  0.3979100113880292  0.9989148056375923
  0.6029113689644637  0.4034474841548654  0.2029391349632842
  0.5996921360672205  0.4000975617840672  0.4006784587912970
  0.5990658568541951  0.4034533007585307  0.6028050845966534
  0.6017119755421948  0.5974343414633458  0.9999225287521400
  0.5981232406351058  0.6038139504981449  0.2025518116505863
  0.5996016139732563  0.6010402497594615  0.4043282260972971
  0.5996119795010957  0.5990159596846353  0.7954107510874608
  0.5999114406971612  0.8001291810576611  0.0028915728525656
  0.6012340043157788  0.8034348624373668  0.3963609450101720
  0.5983634383790973  0.7964355186498654  0.5996121527400093
  0.6028317868192066  0.7999415310758875  0.8019187351288853
  0.8007087538619790  0.9992616396918299  0.0042549883300629
  0.8010064579996423  0.9987766555382782  0.2010981941641487
  0.7973279104048744  0.0003473853794536  0.3986102038821864
  0.7999304431486680  0.0002196371915497  0.5940508446569027
  0.7971652658109596  0.1938155802160708  0.9992486182507567
  0.8012208606233403  0.2045663634712819  0.1993100394981485
  0.7988067665567732  0.1996165348266474  0.4000836100688749
  0.7990013169750467  0.2006063717418703  0.5997920473587345
  0.8009056040264583  0.2008195095554651  0.7998121884466638
  0.7993416607129191  0.3995853062363149  0.4012132982371256
  0.8009587261579429  0.3996268701192136  0.5993846578614620
  0.7994798307730703  0.4008513404308282  0.7993252916103775
  0.8020570091475183  0.6024156186941040  0.0000761747698761
  0.8025701920677133  0.5985191208140764  0.2011550541322319
  0.8017750288430932  0.6011977354657991  0.4001798603807958
  0.7969529861191204  0.5993305855906693  0.5972446427529812
  0.8023664364858825  0.6006624056369128  0.7995739227492080
  0.7994627135464119  0.8007508370699777  0.9973958177298032
  0.7958879963705734  0.7975370132914003  0.1980942245608236
  0.8007564579388958  0.7996336931416157  0.3992616922505894
  0.8000406032306088  0.7994168555139024  0.6035731350254839
  0.1992610321327479  0.3998165699639170  0.9980052781676415
  0.1994178327207236  0.4005808354176518  0.6084218387338907
  0.2012807706627844  0.5999939034049115  0.2019943081385480
  0.1992665501488955  0.5995826990348754  0.3966458029385706
  0.1995212763987889  0.7983486277819811  0.8013153082183752
  0.3985239986430695  0.1991442506568997  0.5998526605709086
  0.4023947098107832  0.7993931145252121  0.1981958111434322
  0.6011249963470822  0.9996496406967265  0.4001175569089021
  0.6005875261194485  0.1983644277832314  0.0008231908974775
  0.6028813896627523  0.4019249319763475  0.7944124321815313
  0.5980706031876111  0.6001677226942121  0.5976352150997598
  0.5975863093076574  0.7996756566262258  0.1988050775135101
  0.8008192768512772  0.4020666988113431  0.2087655276098427
  0.8012840801505648  0.7925420882903536  0.8009419827681580
