Zr Ti V  Cr W 
 1.0000000000000000
    12.2882735461728885    0.0000000000000000   -4.3445607757035454
    -6.1441367710433559   10.6419570608175889   -4.3445607757035454
     0.0000000000000000    0.0000000000000000   13.0336823299999995
 Zr  Ti  V   Cr  W  
  10   9  91   5   9
Direct
  0.0023117084170021  0.0087536794079590  0.1978162050611021
  0.0153958890305712  0.2050468262691373  0.8063813088216919
  0.1955363185594610  0.3905956747460694  0.3957995912172276
  0.3668253612065755  0.9841300392292418  0.5829902661287875
  0.4020207604738844  0.0001232275388835  0.8054242269539912
  0.4011644430804645  0.6009507970273985  0.3985598425634194
  0.5970485622278657  0.9952412488694334  0.0052075289926059
  0.5881271582671548  0.9895528052385792  0.5919099350212509
  0.6151806774389976  0.4148134530945713  0.2141003034232599
  0.8000154529625019  0.8055220876972888  0.7969096442755204
  0.9961423338217607  0.5911293256503931  0.1931844167700316
  0.0053505840332495  0.8011717709144187  0.1976450870021180
  0.9992248574856614  0.8010184025230378  0.4011052674102086
  0.4035388982955521  0.2054953304791915  0.2018431516013619
  0.6112823026374109  0.2203188006948240  0.0215907156215524
  0.5961854658781383  0.2034791978090035  0.8039533665362476
  0.5965174669401980  0.6093710346169348  0.2004128105442356
  0.8126150908722203  0.2054242557710645  0.2102634831632049
  0.7959171747918840  0.6017493872329619  0.9959914280902038
  0.0132944026104183  0.0086611188480503  0.9969573898772026
  0.0019395260229361  0.0078790003373396  0.4072776472306632
  0.0027643442257251  0.9988778982421711  0.5977847607557742
  0.0060598701240536  0.9922255543405409  0.7980080651154332
  0.0047947098838456  0.2015867419369283  0.0087710629753433
  0.9996261145258984  0.2010325363448060  0.4031998969407905
  0.0030962485362982  0.2024488370614670  0.5948076714699662
  0.0026546910704727  0.4035308363106957  0.0037067721990422
  0.0012742949498615  0.4042908469758226  0.4111229907920490
  0.0022594372932679  0.3961919472314681  0.6014197093445773
  0.0037029014449066  0.4024946664158779  0.7976508356284242
  0.0028545616514041  0.6006027782801286  0.9958669564599405
  0.9930309635690722  0.5962199109281631  0.4048250503012703
  0.9962200804247264  0.5953197707572422  0.5996097778066823
  0.9996941454799131  0.7983080391853602  0.9921051085709927
  0.0028891558879968  0.8019347220508616  0.6033106025760926
  0.0064116758674469  0.7979732132803395  0.7958604532135111
  0.1995633671084989  0.9976756433708226  0.9967672103380767
  0.2041969911004845  0.9998104060223276  0.1970434650289353
  0.2011538446105534  0.0064051452271117  0.3997322105827112
  0.1884174866696596  0.0062831166524213  0.6016904678497128
  0.1961295709803123  0.9996830942996249  0.8020577359081535
  0.2102515303186098  0.2037428096779421  0.0047000518178690
  0.2034374524204384  0.2033160038767033  0.1987711690075809
  0.2119644167263777  0.2031584844969394  0.4126723206147019
  0.1999002052378624  0.2031834029549207  0.6011672262972232
  0.2134725729502991  0.2032377447596756  0.8005092791644388
  0.2105544276001316  0.4094010132582674  0.0076398385797749
  0.1937695447935082  0.3942636853516437  0.1841144333733461
  0.2009508194332961  0.3983530088081459  0.6071468015558863
  0.2052500360852492  0.4043176667458550  0.8030458853672985
  0.2032088055763783  0.5974053992789110  0.9957314683988002
  0.1993940952552431  0.5981330628722002  0.1907822425106852
  0.1976052576284310  0.5970608951616496  0.6023828826017129
  0.2002210837144942  0.5953641593766725  0.7975629633435058
  0.1991120792353086  0.7962884335897257  0.9962182905132189
  0.1979569826975190  0.7956510200961214  0.1898627140434277
  0.1881126927377422  0.7924673216976266  0.3796222331477636
  0.1837508277231907  0.7877181767596267  0.5927891173145153
  0.1980087233749504  0.7972893345301741  0.8001499063954631
  0.3922590381775121  0.0016483651069355  0.0074028876479585
  0.3955540195847927  0.9998000665425161  0.3908180495155665
  0.3938512963109222  0.2014975143051309  0.9956960174015523
  0.3985722255143617  0.1991886692612025  0.4013328161860059
  0.3992902744219748  0.2098881638197036  0.6031708287739526
  0.3973251882700407  0.2130695784230996  0.8055054159187741
  0.3982523585589035  0.4043071698129346  0.9974307736363804
  0.3979449605344493  0.4049683588799338  0.1995696713759909
  0.4078256443383337  0.3921357263477319  0.4013657078413830
  0.3975224403410830  0.4025273700541979  0.7966674430145380
  0.3941997166622835  0.5991170506581206  0.1872465300138762
  0.4006454045765821  0.5971078965964105  0.6101157855124454
  0.3961474814666134  0.5964107457564004  0.8020735476284186
  0.3954299683619284  0.7906654078599015  0.9978121343480955
  0.3986422378859054  0.7953372769626110  0.1944087599229774
  0.3873040290838986  0.7958488568295355  0.3798787286382584
  0.3958846299350674  0.7887304301903101  0.6029066291048388
  0.3867167574916430  0.7805058325663746  0.7927296871139135
  0.6031831052761724  0.9949725089229520  0.2092194623968223
  0.6014754776456888  0.9997427081718803  0.3939158485644853
  0.6106467773070013  0.9905713906213763  0.8036704981511958
  0.6061934380447328  0.1985146536179632  0.2156671007520364
  0.6048314759994843  0.2031555142503489  0.4063870335025861
  0.5980928018042867  0.2051856667855725  0.5943130042701799
  0.6019258936566083  0.4140171471724259  0.9963458848303627
  0.5893974284995341  0.3927878166630467  0.6012359390696628
  0.5939714315618291  0.4021648969101966  0.7997028243007056
  0.5898277599012711  0.6006789719573120  0.9952543196513988
  0.6057285483453834  0.6078403512064038  0.4068965867000185
  0.5910911029351266  0.5903495638263987  0.5960608135971069
  0.5929062677878620  0.5963000408571393  0.7971213950634645
  0.5950828716200796  0.7897103474885440  0.0002552419477464
  0.5987168372887197  0.7989513523809398  0.3910284185018480
  0.6041144928389386  0.7939047145123117  0.6022448825908473
  0.5906701183283989  0.7930630027021860  0.7976475411672176
  0.8082286532570413  0.0083691289720123  0.0057845508576863
  0.7945455640362136  0.9958672469540647  0.2025623385744497
  0.8008661035566774  0.0002226539962030  0.3997850190725410
  0.8028996557629327  0.0056463123538376  0.8030360349956173
  0.8045451412082166  0.2053663218398566  0.0020265196176937
  0.8033396276259026  0.1992439621023616  0.4080746177228162
  0.8017240292381144  0.1990622647695557  0.5983533022839401
  0.7954541160730603  0.4002381116059346  0.0025914656557971
  0.8231214799859418  0.4123625749122569  0.2115774790557186
  0.8083751035797665  0.3961734221100734  0.4045754683307803
  0.8030390115564684  0.3977530328072280  0.5978249306805408
  0.8000097570610609  0.6011276287321591  0.2003766921452695
  0.8096811785066381  0.6084851440370725  0.4483404665243877
  0.7886279535330756  0.8002175056122681  0.9981267061412147
  0.7995181541560550  0.7970094278982439  0.4026721223401110
  0.8010888165112392  0.7955860485438792  0.5902806446920357
  0.9997718102285343  0.2056245024893330  0.1904264871793822
  0.9986172975167789  0.3934804915437849  0.1970048157376685
  0.3980875341324508  0.3988332409656654  0.6026838756879140
  0.3977475917936657  0.5991315317061682  0.9979389699430415
  0.5955801773133830  0.8015518708381166  0.1977207306539210
  0.0028379473795366  0.5974715712860412  0.7988197829175943
  0.1885736525561504  0.6013206517894820  0.3950770292044181
  0.4008458125992885  0.9974267651955495  0.1990949491974642
  0.6215592334169286  0.4153861110648310  0.4258921985802815
  0.8019643122202794  0.9935638704176558  0.5938146871426250
  0.8022090939912652  0.2025010285388703  0.8044957973491885
  0.7972398455929199  0.3997171094455752  0.7992153870868591
  0.7925164775912152  0.5925901493241913  0.7840862591782075
  0.7968109236944630  0.8003303979249284  0.2024425519209897
