Ti V  Cr W 
 1.0000000000000000
    15.4073529780286407    0.0026422717652441    0.0115039126781883
     0.0026423919818586   15.4169890810637895    0.0057190451176722
     0.0115025714523025    0.0057202193077188   15.4178430470237693
 Ti  V   Cr  W  
  13 101   9   1
Direct
  0.9977325310249083  0.4069987218130779  0.5974112769385220
  0.9996689088311407  0.4053127213083823  0.8083064198711589
  0.9960980472036015  0.5990579561842322  0.0032405101645521
  0.9951858618607249  0.6010000606644866  0.4110286978215399
  0.1974705391446557  0.8083584098166476  0.8025561005068849
  0.4035705753501348  0.9975841142832949  0.3792083261566590
  0.4001290228346538  0.6028693142654484  0.9987243726658598
  0.6019037689180181  0.3982509046204420  0.3920394842892179
  0.6023482336949088  0.6065827432698258  0.3967084862798312
  0.5993819449091178  0.7960214839586425  0.0038936082951595
  0.8029286985524101  0.9994263738979040  0.9962367711515531
  0.8084945327298253  0.5981227864665166  0.1899366470529662
  0.8075386825027988  0.5945040399838966  0.5967258092623694
  0.0031660669668130  0.9988468542021798  0.0009019025970693
  0.0010290685230342  0.0001643433267358  0.1995076891583532
  0.0002879708485737  0.9989381985218471  0.4003045591203911
  0.0013660448236281  0.9999124848742120  0.6012757184590016
  0.0010985006489581  0.9988780147239400  0.8009750643090117
  0.0004543559040209  0.1990832479311598  0.9995771864147946
  0.9993616557893237  0.1990013892990360  0.1999356697237350
  0.0001892804814114  0.1996417575711232  0.3991474157515161
  0.9970420823191242  0.1995305623500115  0.6022025454671119
  0.9992407185365831  0.3983075555790773  0.0022095304538342
  0.0001128623930850  0.3995880675771949  0.2011723293415415
  0.0030320533370687  0.5995367602972521  0.2020114851506099
  0.0055214618637716  0.6027754110848852  0.6060852094083312
  0.9990837799510039  0.8006881576174816  0.0010348889513676
  0.0004572347449528  0.7994231499488308  0.2020936958773142
  0.9989407570634402  0.8009524365448506  0.4008326752429319
  0.0005653464733872  0.8012349982032773  0.6007867736497789
  0.9975025251207397  0.7994244288038630  0.8013898508862258
  0.2008733714375379  0.0009190355192655  0.0008808883837228
  0.1984749835125112  0.0002624412039414  0.3999951843048495
  0.2012971512660767  0.0009595836927059  0.5994550537215364
  0.2002456147120519  0.0028177519846888  0.8006751516193353
  0.1998000344847976  0.2001366068759054  0.9999934162763831
  0.1994580721658793  0.2016549416864245  0.2001373061755686
  0.1997417162935287  0.1999135030828201  0.4016539711421881
  0.1992168841279857  0.2016631271218273  0.5998733989657927
  0.1996149834913964  0.2019349902233087  0.7991818011580704
  0.2001734302053296  0.4004926402094452  0.0006965942142045
  0.1996215101627461  0.4011070832784120  0.2001377807700351
  0.1980849165511286  0.4008268685087631  0.3990981721915222
  0.2009043982487067  0.4008436262747287  0.6005517757084847
  0.2012201024974671  0.4018875054687470  0.8005848130373274
  0.1999925243347423  0.6007527428717572  0.9998571396229943
  0.2005445205615664  0.6003215070995863  0.2018816837998167
  0.2009633109573392  0.5992679339549768  0.4018094020020304
  0.2000869050139822  0.6001649442313790  0.7999701156938036
  0.1998624412075492  0.7996187564358490  0.0044813346216899
  0.1993568714509765  0.7995333551224409  0.2009955245925936
  0.2004765650553262  0.7998360523672261  0.3991821410567965
  0.2007835115405286  0.7990580343468897  0.5992247175229510
  0.3998191394093621  0.9993243735233007  0.9992377048150441
  0.4006209159747015  0.8995795451676378  0.1992479383041893
  0.4010886249846497  0.9998407354195893  0.6036275581897083
  0.4002183875989321  0.9998455211292901  0.8004055661729603
  0.3995050097183509  0.1996248973859380  0.9999367391456533
  0.4009288436174839  0.2013045868633454  0.1999148964951802
  0.4000896700765986  0.2024657921424055  0.4000155896927575
  0.4012881184146084  0.2003117804808464  0.5997005272889814
  0.4013008539539145  0.2005744951285810  0.7994980956296400
  0.4009250672919503  0.3985731109658998  0.9996814643584875
  0.3996356075583876  0.4008619986544179  0.1996956393447892
  0.3990705380291436  0.4008741897729882  0.4007668762991193
  0.4006362802455176  0.4013138805294026  0.7992243027543298
  0.4007990132651271  0.5989452542970211  0.2011778095125988
  0.3993168553944236  0.5991445030917292  0.4004493442077055
  0.4006632584162519  0.5997754332293947  0.6006996826360087
  0.3982577158962511  0.8025661992183187  0.0000074921138212
  0.4010623887288492  0.7970812514437847  0.4010263513836413
  0.4001753545907583  0.7997828868731877  0.5988799612854888
  0.4030703873833472  0.7982944701386485  0.8004223371196423
  0.6020092949185065  0.9985903699155083  0.1973381199207133
  0.6026432941879435  0.9990935832811744  0.3977470896831644
  0.5991343764879749  0.9995513994688628  0.5986104760102915
  0.6009570518708512  0.9990593719113819  0.8010447716027520
  0.6015879151536523  0.1991659179607642  0.9987913987361097
  0.6008291891446707  0.1989074267421209  0.1984913881891962
  0.6002916460133435  0.1984855849292166  0.3992941015338084
  0.6034061825165975  0.1999973744254341  0.5994369222912621
  0.6000567885034790  0.2007709845254890  0.7991706956757719
  0.6001481503651189  0.3993142192515508  0.9984053780554025
  0.6007867344973965  0.4004455694809063  0.1960850864867559
  0.5987966200025960  0.4025644720308708  0.5996526531545096
  0.6004149169956032  0.4011839404067467  0.7995828677446856
  0.6012655348460643  0.5967987274172573  0.9970380880885253
  0.5986314320664615  0.6010263901132982  0.1951100873778778
  0.6007499599646978  0.5998853839840171  0.7979187340182058
  0.6016704408827082  0.7998222331289183  0.2010887598920027
  0.6008240379663354  0.8020461670763871  0.4000341000398585
  0.6013934805087421  0.7986190544235520  0.5999452211363232
  0.6015510912073297  0.7996418165742840  0.7988401162836294
  0.8003258034579838  0.9994141783893813  0.2007388710060131
  0.8013602700124289  0.9997193896886990  0.3988376618365438
  0.8002317404790712  0.0027242984110223  0.5992501008041539
  0.8007645473746516  0.9989109235738752  0.7979592759497340
  0.8007357336501679  0.2011126246177798  0.9973196865581953
  0.8007109372833264  0.2001031795073026  0.2005482292922494
  0.8012001365188480  0.1996766053927676  0.4033943969339763
  0.8011846387302476  0.1996391466504276  0.7949898319942419
  0.7998523430296458  0.3983418399041517  0.9994639626258576
  0.8000184603564393  0.3981758283574073  0.1990253020471211
  0.8023306649222844  0.3997311396388251  0.3975380840030263
  0.7970039252726751  0.3934965526251989  0.5986467741322087
  0.7985612426089335  0.4008931750214632  0.7991718513440565
  0.7973653751359021  0.5984666449855373  0.9935371408196362
  0.7987394061746592  0.5989341247513853  0.3982588561484668
  0.8019392721582133  0.5990838592078904  0.7978681041394085
  0.8013388601146285  0.7969148376786451  0.9999695137406146
  0.8007563627206113  0.8010503000238409  0.1999361796111518
  0.7999898055103684  0.7993288885574465  0.4001079914329910
  0.8004910248066398  0.8009673387727353  0.5990841965622072
  0.7993490514256529  0.7991869688552891  0.7987093658967057
  0.0002924816882774  0.1988892719320619  0.8005360596301231
  0.9998536810817421  0.3972128792309464  0.3980101350461612
  0.0005629031005184  0.6047397948944628  0.7998537512399527
  0.2004333523890584  0.9999853072560881  0.1997121204663433
  0.2020690747624260  0.6002364762593999  0.6003189707116594
  0.3998237161062679  0.4000644886008791  0.5994670213017492
  0.4005553447304577  0.6001719037307360  0.7973220823804428
  0.5978286289953775  0.0012173493205310  0.9997655718354126
  0.5995887096876983  0.6002249268744193  0.6011832186404433
  0.7998450293507440  0.1991438412193455  0.5975929904867885
