Zr Ti V  Cr W 
 1.0000000000000000
    15.4549315649027950   -0.0222495129286640   -0.0105509386160289
    -0.0223053274730288   15.4776580052303601    0.0156777599783081
    -0.0105831741986949    0.0157005871891177   15.5087905410777189
 Zr  Ti  V   Cr  W  
   8   6 107   1   2
Direct
  0.9954435435488430  0.0015217959879854  0.4217044754990745
  0.9976460629586412  0.6448512149342631  0.9643332909662974
  0.0092054435721058  0.8086760795500617  0.8025057431139422
  0.2150886505958088  0.1857814015440881  0.9844571388520049
  0.2195010711351608  0.5739643910088211  0.9954974224813691
  0.1883943401718591  0.7911908084671393  0.9908876793621407
  0.6102073181831150  0.1992949423699068  0.9954195339154425
  0.6003851142268799  0.1964849712517904  0.4026396145306345
  0.9984960459737908  0.9909798446423105  0.6255031964469695
  0.9856737325400888  0.4044110233687802  0.4211503409962217
  0.3913590482134742  0.2004139523683581  0.8085607530567956
  0.8073607827059123  0.4022978580651668  0.5898205503942318
  0.7996471798774996  0.5969410205294666  0.4068632365138463
  0.8128790512064169  0.6019081446549501  0.8028012033698532
  0.9989229229426868  0.0129557652030482  0.0064585203949763
  0.9991162577499560  0.0033191879465511  0.2056131376047820
  0.9995577653285447  0.0110792509893709  0.8128889896303723
  0.0022808670932628  0.2059827938249560  0.9972357456936712
  0.0023859452361175  0.2056395072927976  0.2028023534364183
  0.0008377072051191  0.2053584543272424  0.4024766461186112
  0.9993607166559522  0.2004305305834792  0.6012693013109496
  0.9997820054744074  0.2058458373278202  0.7987904647688016
  0.0029940312877288  0.4021134168512793  0.0020769615927984
  0.0041720353539056  0.3990588767725050  0.6076198127105888
  0.9989730353561745  0.5929724722264691  0.2100754801793153
  0.0024048442017994  0.6024767108698450  0.4010454232056012
  0.0016856284693395  0.5998306802862591  0.5948643295839091
  0.0071983233060568  0.5980655600552313  0.7793175924954389
  0.9859836569866246  0.8290053151161051  0.0122307320040914
  0.9980774759211648  0.7969707356858241  0.2023124747868138
  0.9956944392738374  0.7975327245661445  0.3995168116950054
  0.9990010504181484  0.7967528819564642  0.5955677272734702
  0.1985302978783371  0.9936059998058678  0.9988642955143188
  0.1984393501121224  0.9978562645683656  0.1976956139917098
  0.2016929603812578  0.9971001145766335  0.4001490934498881
  0.2005010102979167  0.9994584978339958  0.5996583311733006
  0.1981549065292401  0.9999759242904154  0.7984202049186165
  0.2005556416869888  0.1986279388234622  0.2006327530240069
  0.1983050917172638  0.1957673879375210  0.3972474351079592
  0.1985360510555788  0.2003756151023939  0.5943992089758465
  0.1937803966821296  0.2011393286643047  0.7866611465386887
  0.2022704243223889  0.3885216891678487  0.9975331283237299
  0.1956669896132696  0.3982756733410148  0.1952568780423148
  0.2012496095417325  0.3985689333622138  0.6021452154479151
  0.1997774527606136  0.4020943204349771  0.8000777008019916
  0.1979474136956348  0.5982072378327689  0.2021080456469861
  0.2009532210239659  0.6008967428718961  0.3988858477758990
  0.2005198417387812  0.5640575896148488  0.5625908916702794
  0.1999133588950231  0.6030358816887954  0.7929784810932137
  0.1972347292256061  0.7981260953064917  0.2014490026060712
  0.2001918850326354  0.7985241628836828  0.3987297867477296
  0.1995494362044644  0.7998510783012559  0.5946678031665404
  0.2098154391906573  0.8014506049295993  0.7867814908033844
  0.3979904285456686  0.9970550457954424  0.0012303164428797
  0.3988947509631460  0.9994095309695853  0.1998838524076359
  0.3986591548205681  0.9983045127528110  0.3994218319482724
  0.3994544916562087  0.0010088193853993  0.6025973746615018
  0.4000169795311190  0.9990539828386639  0.8016117693479942
  0.4088783031376626  0.1991578315153283  0.0067395777610790
  0.3986514710460524  0.2000353254610541  0.2024867266820822
  0.3950509119949795  0.2004384483085122  0.4015023151238415
  0.3985545373846556  0.1996589668964939  0.5983639373163231
  0.4053159844595504  0.3982404403525839  0.0012112713799758
  0.3989202246482020  0.3992182386963991  0.2008764257654243
  0.4002611877299320  0.3996861648214442  0.3989636108352350
  0.4003966640014412  0.3991480831566850  0.6012629034093345
  0.4010343513081260  0.4013544488166937  0.8019986089616656
  0.4121424909268365  0.6018681129607760  0.0001180826847433
  0.3982051067106276  0.5977131280063263  0.1981788564534237
  0.3982833964022862  0.5970809134488888  0.4008059010636646
  0.3992189896240045  0.5987930304836073  0.6013358167500729
  0.3997194618659798  0.5998887332011879  0.8009288941422233
  0.3999127898387377  0.7983723683486206  0.0001523993571541
  0.3963842559201650  0.7983540459879028  0.1977954605904179
  0.4033976832947801  0.7986908114456825  0.3996479887202397
  0.4000870122640976  0.7981116379727257  0.5998232089402566
  0.4015868160982848  0.8008600066068754  0.8006026444501816
  0.5989825635231161  0.9948419785288511  0.9998474707387044
  0.5983140178679831  0.9987731634346561  0.1995947057703124
  0.5968390673606080  0.9913964973997179  0.4021448689751340
  0.5989943517699649  0.9989789554872459  0.6031546347974525
  0.5983083731214173  0.0007601979386544  0.8002840281471609
  0.6012234349044768  0.2006580027445777  0.2003027397732449
  0.5998649207925448  0.2012012357930430  0.6047164018516370
  0.6034885039008100  0.2012729502892397  0.7948400217194064
  0.6027960801252963  0.4045623174297410  0.0000893203491974
  0.6012623149396270  0.4015408678830887  0.1996067570084590
  0.5999248834382187  0.4042549498693359  0.4003154073823245
  0.6006070169279673  0.4012529562465736  0.6002647143234979
  0.6022755311271412  0.4030607852886777  0.7990505948806979
  0.6041822967348156  0.6020140619163572  0.9987357896468702
  0.5998444127284669  0.5991919636133304  0.2010303547432299
  0.5976017458327210  0.6033033696879014  0.4008154518670493
  0.6006336729593300  0.5996786593645613  0.6025198711028124
  0.5999459594640465  0.6012062249753601  0.7995275203628892
  0.5986408614464181  0.8000049922415210  0.0010126016970809
  0.5999375471738164  0.7978693427375753  0.2041699487022317
  0.5997337448150162  0.7998819490831119  0.5963141040019979
  0.6012553021685131  0.7992852161916512  0.7980760279152505
  0.7957909365630240  0.0038797202126584  0.0005343149441028
  0.7998878820919448  0.0007896620099557  0.2003564241689861
  0.7933711234716291  0.9986715737002271  0.4002595913332240
  0.7975121260540388  0.0010449547499591  0.6023564472467102
  0.8013458201509068  0.0021868087245105  0.8016976479802385
  0.8079047223686793  0.1999951057652058  0.0007339881413449
  0.8015213578403499  0.1998052791176069  0.2011523339517472
  0.8040475150584538  0.1956860876487710  0.3986828087569607
  0.8011523907572002  0.1974041463390216  0.5989299270225829
  0.8021728557997303  0.2026472630069632  0.7974481750664467
  0.8018910096949294  0.4031591611397420  0.9986284563892852
  0.8030898053555183  0.3992419423643990  0.1975121098320184
  0.7952322618382216  0.3965352865896878  0.3945431653862235
  0.8028061346093751  0.3997229520242079  0.8025011618103339
  0.7979366945614838  0.6027896237416170  0.0043165921333381
  0.8011455690414889  0.5990489410350613  0.1993297158508452
  0.8015271369453847  0.6041857993847044  0.6029176776165455
  0.7954461360535221  0.8044809124685173  0.0009047158702118
  0.7993393898771565  0.7988244975620840  0.2015252032057855
  0.7948881022393979  0.8012031023055517  0.4002737672342117
  0.8001326877870779  0.8010859174060927  0.6012004156576394
  0.7978376723928908  0.8048416562958336  0.7999684838704670
  0.0012985285922458  0.4036659423184812  0.8019492064090474
  0.9990475665019423  0.4001324134964175  0.1954621058967053
  0.5988896306834534  0.7979582551738270  0.4005862185237643
