Zr Ti V  Cr W 
 1.0000000000000000
    12.6210068901576324   -0.0144978582099523   -4.4442367965459733
    -6.3180480965057821   10.9442516908329210   -4.4299116741113780
    -0.0104124025567264   -0.0006299496168695   13.3030158846175190
 Zr  Ti  V   Cr  W  
  11  18  73  14   8
Direct
  0.0006686926384571  0.0010310104982854  0.0151640432982287
  0.0057881518419442  0.6184234440318765  0.7934646728013791
  0.0105748356113724  0.8035340122831102  0.2000562942189661
  0.2100090586591462  0.9990540548085421  0.4319614138477413
  0.1225920773505374  0.9217617086860664  0.7021062736005149
  0.1934925347314831  0.5868930782318544  0.3889719659199840
  0.4053430292928931  0.0004005177914727  0.9917660033127811
  0.4182595799735148  0.2280766792960653  0.5947416128598672
  0.3937900671027959  0.5905984282652308  0.1976405443858050
  0.4042068128240433  0.7951263070976742  0.8025906465954237
  0.7960422121835513  0.7988936998551718  0.2032902127326962
  0.9954223645859271  0.0060347850950784  0.7962270199501980
  0.9950822486682710  0.2067182470119662  0.0029371508762440
  0.9932164753935371  0.5905924984266542  0.9921421417706526
  0.1970039191623417  0.1891082109450003  0.3833690511623483
  0.1948347915805389  0.1934637275361133  0.7948137684223916
  0.1985097589872181  0.3964539154987518  0.1981677232944263
  0.1887622722231215  0.3888184394435497  0.4122102597228560
  0.4224885707449156  0.3984182920457571  0.2024757142927273
  0.3985531889863823  0.4041787954544867  0.4022502617119652
  0.3943471709249219  0.5874030177122799  0.9774586683733494
  0.4060759988698625  0.7989340179789308  0.5974116841636141
  0.6016453891223894  0.0127584608166282  0.8127737740571355
  0.6088009674260391  0.2036216187083025  0.3978731606199050
  0.6080981734328973  0.4068100114480849  0.3950524453997286
  0.6111070377952846  0.4128684652226458  0.8114228030777757
  0.5849526074955865  0.7961032213853318  0.1960782258910024
  0.7982020464208615  0.0090759724427808  0.4058782342147326
  0.7877423401044932  0.9898130317610002  0.7946289284391597
  0.9797160755719353  0.0091284681569962  0.2134885839578755
  0.9996654066745325  0.0080040102600206  0.4161546571527892
  0.9889711983326868  0.2042412599520379  0.2018456559277451
  0.9954945259875888  0.2024429002203092  0.4009615650245182
  0.0007576264414956  0.2067274459493517  0.6037679670687688
  0.9990582231961262  0.4021158852001211  0.0031291262817200
  0.9880325827835303  0.3956109220565561  0.3954874485317426
  0.9915106139979861  0.5868926020315194  0.2038034040202435
  0.0001145607396755  0.5955022331195795  0.5828072041121520
  0.0059717120779594  0.7953372292017996  0.9934986293173087
  0.0007858142393862  0.7941141683789031  0.4118155893519585
  0.2007008217776989  0.9995160951003493  0.0003380137351296
  0.2096565211884054  0.0044466941551412  0.1973141478286662
  0.2058396246301459  0.2116155339654213  0.0153659946118613
  0.1931292182548277  0.1967155736250142  0.6015384399633856
  0.1939894501342006  0.3962725578218842  0.6070783065753699
  0.1917613774714003  0.3952078808713311  0.7948622759785720
  0.1940402548788020  0.5866543269726886  0.9937283303881963
  0.1829708275729794  0.6019121896453963  0.1834434522451235
  0.1898075558972235  0.5825949818575619  0.5962035580771651
  0.1981137912219748  0.5876317556728242  0.7956109089858241
  0.2077143526034000  0.8041036749246123  0.0039078721430542
  0.2149851102950055  0.8029044056218038  0.1988953706406795
  0.1958668324804835  0.7920457789780738  0.4022663518759021
  0.1911152902295545  0.7788311983555576  0.5843362725781807
  0.1921339810801655  0.7758292960062939  0.7859387856190964
  0.3997597507805471  0.0002125183343105  0.2012957148183454
  0.4205517357091865  0.0094267983275481  0.4075770744836795
  0.4160996416399384  0.0076289123696538  0.6070780432168251
  0.3904228538425968  0.0102415734034213  0.7763093996434149
  0.4027423022529321  0.1941554250165645  0.1937192742643007
  0.4102244197877058  0.1990508011667244  0.3784651709970511
  0.3969724870378674  0.1994292608890502  0.7895567408170953
  0.4047674237892279  0.3943084329408273  0.9951539150724192
  0.4120207311938000  0.4281255129824672  0.6163172888158461
  0.3944776371349966  0.3971823570702948  0.8004055567674289
  0.4280963317421376  0.6204474087444638  0.4273259955098641
  0.4045980209335102  0.5965018210305767  0.6117897939670409
  0.3983323664618565  0.7957005753751664  0.0098104372974433
  0.3940586202892199  0.8053922029144556  0.2027738659309217
  0.6014367207822678  0.0050144838850807  0.4068368230083821
  0.6082434736773000  0.0083034313321840  0.6064566824380423
  0.6032731540737201  0.2065862424886767  0.0005072170815092
  0.6212801558738924  0.2132668976914293  0.6112457448976290
  0.6024304381565552  0.2065221761314547  0.8051767878236680
  0.6053365277629643  0.4023152388737687  0.0076786984680926
  0.6091959156661455  0.4066950887529701  0.5968991417919240
  0.5988815067415014  0.5901060824170836  0.9909372071564833
  0.6137970393643810  0.5900690932784384  0.2050683819506424
  0.6195998101652764  0.6137520211802848  0.4108568371918557
  0.6084157892325733  0.6030646594259298  0.6055603897432310
  0.5966879987520877  0.7985010863275177  0.9991959673719901
  0.6056344914646294  0.7966822309846625  0.6002760470605739
  0.6131814888977503  0.7956593973603574  0.8082245601697907
  0.7838607555247497  0.0047219971121634  0.0098654531808326
  0.7946687225385248  0.0080798841230266  0.2006085829073872
  0.8018198178914616  0.0047457034503660  0.6037299593898791
  0.8020666207171555  0.2160286995789161  0.0125199291938156
  0.7923654551671587  0.2028783890817731  0.2001389921382300
  0.8105997694655855  0.2135340380110089  0.4081288265610572
  0.8020992603012341  0.2079968000119722  0.6011846040045414
  0.7966019047169698  0.4033847578875828  0.9993449252961392
  0.7991721067293379  0.4039537113134679  0.2020036425094107
  0.8009366855605287  0.3959828077105300  0.3968909663270773
  0.8072653419820327  0.4041405858468112  0.6013489319962716
  0.7962443589033852  0.5991890117986317  0.0030484234311037
  0.8044643254199377  0.5963392003209178  0.2051378671859766
  0.8137427422923387  0.6027571171858316  0.4033801253141828
  0.8006584676752209  0.5978827746913205  0.6001256969805442
  0.7868393581274635  0.7924255981773884  0.9896530228584460
  0.8045380139461512  0.8042902641192635  0.4136107971110741
  0.8049133961626244  0.7993270377436522  0.6004181440414516
  0.7963256480461072  0.7882764481745733  0.7915536959147057
  0.9839160285279851  0.0098115492815067  0.5909288932209420
  0.9820312560593553  0.3884525817752055  0.1892918084152106
  0.9967251963651369  0.3936555926047995  0.5961555740986092
  0.9959807493136013  0.3938895429889134  0.7958271840807222
  0.9913213142328120  0.5901754563279564  0.3952665676652779
  0.1869842416693890  0.9910772671201002  0.6080235561905412
  0.2066509929641552  0.2037025417015428  0.1938331497940260
  0.1913970178112214  0.3932178182376981  0.9901165709535170
  0.3983404562566677  0.5865332545445268  0.7929858196276629
  0.6162452213538275  0.0144894653771932  0.0139013323914556
  0.6097265597501528  0.2136549804379781  0.2008677944859551
  0.6092350539968334  0.3998350207549088  0.1960700998152227
  0.6044870329520344  0.6060239252345051  0.8054054991527350
  0.8008896734770065  0.3984319585962831  0.7954069736931829
  0.9991612167061603  0.2100863083144069  0.8025927222492713
  0.0018702225649667  0.7994864214601269  0.7662843212525374
  0.4017503481441954  0.2085491243538828  0.9974613553971693
  0.4031911830351830  0.8051646978913339  0.4013390191541997
  0.6028970170137767  0.0078225109938259  0.2032270968972184
  0.6092083896996346  0.8065774990675553  0.4094301103025387
  0.7991533692122323  0.2077329017167751  0.8050613061810445
  0.7960488472527327  0.5962938436855484  0.7997042855501664
