Zr Ti V  Cr W 
 1.0000000000000000
    15.4243531601052801    0.0069213360103042   -0.0227130969377285
     0.0069117328085832   15.4243730448160701   -0.0099851585265742
    -0.0226677546087976   -0.0099574154515165   15.4321734753061364
 Zr  Ti  V   Cr  W  
   7   3 108   1   5
Direct
  0.2043757522539073  0.0020790901723667  0.2111824879672673
  0.1708713211549339  0.7669133539961210  0.5974746012808025
  0.4024079292846323  0.2008330073031276  0.9981506895435903
  0.3649115652651803  0.6337408376468820  0.5995426867997760
  0.6386660293199208  0.5999516199280548  0.0385476370981846
  0.8055094256776634  0.5986015184298231  0.2080159857046074
  0.7600565439704362  0.7996716173467122  0.5977294802078689
  0.9892638500253222  0.6010478347555849  0.3869782345972217
  0.2028609707277107  0.5992264044301897  0.0050273409743828
  0.5593401153703418  0.7869303767837693  0.5975473178530989
  0.0014647278844047  0.9953820271097954  0.9979334028964583
  0.9983337250614940  0.9984225852195404  0.2018357576173797
  0.0049085758008598  0.9967240312152262  0.4042507826166430
  0.9997476192765797  0.1984488024702862  0.0006075317674690
  0.0011367742305695  0.1991790780107838  0.1981119380362117
  0.0000928878646366  0.2004628797608227  0.3977459813940952
  0.9981231138706051  0.1943525640223603  0.5958932717356308
  0.0036935472979571  0.0288360427253138  0.7950956103172067
  0.0023067391279096  0.3995518340075849  0.9981353536713795
  0.0015188899538019  0.4013007534602229  0.1979399063145528
  0.0010927731012451  0.3991388597203380  0.3986517266636194
  0.9968902802213799  0.3940061427672235  0.6003521125422497
  0.0038417415702958  0.4038025490569260  0.7995069510062061
  0.0107110018079636  0.6049491430335571  0.9974692029616665
  0.0097358756580650  0.5998965850046870  0.1950446462537524
  0.9920769133601438  0.6000564941922724  0.5993598979631821
  0.0040648446168734  0.5982654153843443  0.7981106040019543
  0.9995317213810344  0.7982946983083169  0.1921912638245874
  0.0015661703830576  0.7981855788205937  0.3990379663763569
  0.9755099123492446  0.8043647711961961  0.6002612663906401
  0.0040201194167255  0.7970767280296946  0.8008692748805639
  0.2018041330695384  0.0003372085959965  0.0013153517731701
  0.1956132794698131  0.0049881544663146  0.6003332598361468
  0.2046566303614141  0.0031256939311544  0.7989917137767936
  0.1947761717134262  0.1995471293605904  0.9962670393177605
  0.2011228887628059  0.2059168961670117  0.1986368508546660
  0.2016401615356803  0.1964764051134828  0.3974595041830046
  0.1969734112063284  0.2005917641174658  0.6033666126745054
  0.2004028974057356  0.3993648198088398  0.0000664622966511
  0.2023209305749480  0.4020580944665256  0.2002357829818479
  0.2010703967878043  0.3975475272403894  0.3999533263554955
  0.1975989567533855  0.3958740485059673  0.5975150494053838
  0.2071584249669313  0.3967411222952246  0.7993251586729324
  0.2037522148639305  0.5981228961909025  0.2075496619774190
  0.2008779136056987  0.6015154485651518  0.4048397098951111
  0.1745996876090127  0.5794024353015796  0.5960108896203532
  0.2046919420285719  0.6002185624870333  0.7912617877770382
  0.1968600743791232  0.8026234817172447  0.9996222170597653
  0.2009961384715573  0.7938450321186509  0.1980709344746787
  0.1998364310041368  0.8041204160191638  0.3933008427327602
  0.2033205094319573  0.8009142716077359  0.8042837060893298
  0.4026834372242255  0.9954754718391697  0.0002107957236440
  0.4081993870413729  0.9977563564415922  0.2006878143674189
  0.3984850584881098  0.9998769356728300  0.4004264212293199
  0.4018690969572052  0.0051277266886300  0.5998594796089363
  0.4035875024689755  0.9999994113805258  0.7986935928694625
  0.4035732450738406  0.2031351176120734  0.2019734660089500
  0.4010657102571563  0.2008364868648923  0.3997372382788801
  0.4016639930196358  0.2029652974580835  0.5964310002730929
  0.3982595881020364  0.2053603302934697  0.7935768353865172
  0.4024178833932557  0.4079651520121359  0.9963525005154109
  0.4015691528117026  0.4024256330268575  0.1978053884702157
  0.3996117760557473  0.4022315977147701  0.4011006303392053
  0.4008575019885008  0.4044666601213068  0.6040976528184271
  0.4001644660560273  0.6044816569866757  0.0016563575303093
  0.4010894718612767  0.6013440652750882  0.2007204403886772
  0.3981827616460134  0.5998001517857757  0.3980031069083886
  0.4050536974984687  0.5967350675984994  0.8072768471708910
  0.4019067395786167  0.7994926365523187  0.9993697466092747
  0.4008433419776201  0.7990819511881441  0.1974473242152945
  0.3995917038288379  0.7996269887926927  0.3989389822272575
  0.3744073729668197  0.8219086879134015  0.6008167056670721
  0.4007160853592561  0.7994718307383960  0.7992853276512816
  0.6049490595513098  0.9970322172884877  0.0010259369551386
  0.6000613960604936  0.9976276821580552  0.4003137143870038
  0.6018829885832053  0.9973612937700799  0.5998653692835574
  0.6005002503712527  0.9991419854862095  0.8001460483463805
  0.6080650206519883  0.1983922383717899  0.0018323006458087
  0.6022752197606812  0.1997657573060816  0.2011681722033870
  0.6003884742021731  0.1991587921365634  0.3997779680037616
  0.6020106489226729  0.1973786150584183  0.5991118504418863
  0.6008214893014980  0.1987360660369513  0.7989981942275001
  0.6031195607976455  0.3979180558094301  0.0006820614690488
  0.6002076864490176  0.4021441983464227  0.1999267087336005
  0.5990993311115954  0.3994350322903311  0.4005754560727645
  0.5991166828436209  0.3991024152276915  0.5991648312576315
  0.5957068928283453  0.3994059642374538  0.8016736941806548
  0.5954505608620149  0.5992819300473444  0.2224281617106162
  0.5967123416941886  0.5994379065349271  0.4094224867309509
  0.6039631449947319  0.5972746732411596  0.6038887733828799
  0.6014297596249021  0.5988222347761396  0.8011046107039785
  0.6018101076110326  0.8008731205339613  0.0001313268523127
  0.6000797271277585  0.7968642854445227  0.1994958809678822
  0.5992754834243155  0.7997210396414891  0.3988315800321983
  0.6000397085297253  0.7981168493848376  0.8029656374139917
  0.8034873052009055  0.9989668860942015  0.9993891864882060
  0.8007033124908548  0.0001167011295840  0.2011211515321057
  0.8015748393681189  0.9994263555460444  0.3993545114327701
  0.8043345850631800  0.0021757223194581  0.5989557773030398
  0.8016508115500005  0.0004610218731174  0.8001768939864293
  0.8048810603461112  0.1986565902691406  0.9986672561271668
  0.8008943115409660  0.2004664239100237  0.1993470463151281
  0.8000478551894288  0.1992013941288956  0.3979782636177022
  0.8006343115172736  0.2010431898220633  0.6000816586721275
  0.7987504156195355  0.2008540462290235  0.8002755839270859
  0.8025132039781854  0.4020513608986706  0.9992189867392893
  0.8016150076210941  0.3957039527021275  0.1999652803040811
  0.7987586118639490  0.4006065745425101  0.4002479002408482
  0.7991827198201277  0.3977989549831552  0.6005361854321437
  0.8006323573197894  0.3989145606852697  0.8002202235621662
  0.8235871088909396  0.5990950578186958  0.9956869018357397
  0.7953982334241693  0.6008074371513187  0.4102193212847343
  0.7996213961632170  0.5951598436450097  0.6034888802823233
  0.8011724624027918  0.5977081766745520  0.8011036502277730
  0.8055186873083910  0.7972440327961636  0.0002571596327605
  0.8002060372320806  0.8031493673740291  0.1983153012303622
  0.7999897335051703  0.7980167430466619  0.3934671407486566
  0.7994005341276367  0.7960248996567633  0.8016972160841165
  0.6031761757243523  0.9991202553848549  0.2011521151742274
  0.0006741722796195  0.9964816647228800  0.5994166133857642
  0.0011781101337203  0.8009225520343120  0.9970257676404292
  0.2024387193274079  0.9986350409170509  0.4101258618400720
  0.2089546693570689  0.2004088554009816  0.8016094612332757
  0.4017212856906232  0.4031698569385012  0.7989754963045479
