Ti V  Cr W 
 1.0000000000000000
    15.3947628529237015   -0.0004726939770559    0.0021267196503963
    -0.0004726263884090   15.4017912768726095   -0.0008921615345846
     0.0021270963932924   -0.0008941263393480   15.4191178141427301
 Ti  V   Cr  W  
  13 101   9   1
Direct
  0.9882766489937527  0.1898784397959134  0.3967179390637369
  0.9999484163253132  0.4015432862998493  0.3994220998515040
  0.2090041796962318  0.0067633144210661  0.3948871476023993
  0.1985323619270308  0.1985350601216770  0.0065823645585110
  0.1960944135801297  0.1982948784013001  0.7955346276416131
  0.3953845593852673  0.0036720174579225  0.2031341071952514
  0.3932697377681404  0.1963328983386008  0.3979249500996271
  0.3993780651448260  0.8008318769877641  0.3966968688544385
  0.6047575963986752  0.1958965988241299  0.3988534367472246
  0.8013287821648830  0.0062763845779938  0.0233438008783224
  0.8047589557349633  0.0103725637781968  0.3752751963516365
  0.8003768841267247  0.1913871016495144  0.8037693886580852
  0.7995094794363747  0.4032539859786082  0.7999782077319758
  0.0028225277489198  0.0009008603196634  0.0001139288895196
  0.0029797162536339  0.0006451066174089  0.1993863121086191
  0.0043856250993151  0.9965038604854476  0.3994673793038689
  0.0012548123855425  0.9998980891343567  0.5989362964893780
  0.0002084742364941  0.9991677478986671  0.8017266501473300
  0.9971442696697868  0.2001035384924495  0.0007504834955506
  0.0018483068168174  0.2003560016640714  0.1982438031561622
  0.0011630371654745  0.1989756045726411  0.6013664183964347
  0.9994872506649025  0.1989015959374283  0.8001607869820316
  0.0014991521390538  0.3996055437937955  0.9997218363759808
  0.0008777734892091  0.3983801149950738  0.1980425755817393
  0.0006434886168473  0.3981243821278430  0.6024499659598047
  0.0025829546739738  0.3989467022548320  0.8012271043998094
  0.0007048116832479  0.5989903827344443  0.9999179227008610
  0.0008338959230012  0.6008567764934518  0.1999543234613905
  0.0005884165834642  0.6010711124719834  0.4003802132318798
  0.0007440267042701  0.5996113297903374  0.6005098008177923
  0.0003733524579234  0.5998753980469707  0.8007152871737520
  0.0000119230786897  0.8003227147735881  0.9998095611548878
  0.0002544048201707  0.8015283430441907  0.1995875276999978
  0.0008485205525739  0.8006383553378444  0.4008755326673343
  0.9999872606944460  0.8009332823926845  0.6008957397121873
  0.0002273192995703  0.8002254499282387  0.8000825701563110
  0.2020668186630585  0.9990357155533501  0.0000484756395956
  0.1983560481121049  0.0019978659431816  0.1975073657901268
  0.2003685382106495  0.9981426685347022  0.7989939472413036
  0.1953374682576447  0.2039726381492568  0.4008352167722164
  0.2042747083902173  0.4005560171606906  0.0011595157771389
  0.2003797536636301  0.3990227414106366  0.2023660015575603
  0.2025543473425878  0.3999993584186548  0.4003915338646258
  0.2014248557360326  0.3987976848435010  0.5991493837638699
  0.2004115653728415  0.4007067316134686  0.7997493563834165
  0.2000728099003971  0.6004045232415727  0.0015906306616237
  0.1997788833900603  0.5997130913882752  0.2020171390776229
  0.2009619417466588  0.5999678132053800  0.4008837251816865
  0.2003888316980966  0.5991275816759991  0.5991816308955058
  0.1999561817061744  0.6008814141688549  0.7983926651115175
  0.2012629975152537  0.7997981083649548  0.0009390712287227
  0.1994947954812390  0.8005086266299168  0.2005934539864528
  0.2003492653493859  0.7992781833659256  0.3999841822305372
  0.2007883191668427  0.8008987720308948  0.5987854666710613
  0.2003090046757368  0.8002687355950113  0.8006240708202649
  0.4001439830742194  0.0013075067676446  0.9981347471616917
  0.4029763156796383  0.0002778965954620  0.4042671811199952
  0.4014217606492091  0.2031801087010797  0.9986394282128718
  0.3987442450130024  0.2025800865675399  0.1973328469364970
  0.3982073445219119  0.1998986074872071  0.6029488767108513
  0.4004230663272405  0.1987476176055359  0.8001342002133867
  0.4002991994239889  0.3998205504063553  0.1977385412555806
  0.4011204794729888  0.3997003171183479  0.4005726193262767
  0.4001556279455549  0.3982515604058067  0.6018494931281545
  0.3999137631311697  0.3994016986631165  0.8045574261769645
  0.4002909452218625  0.5959045639066098  0.0001872964811716
  0.3999790178554717  0.6001897223936633  0.2020663888730377
  0.4001032333095028  0.5992162408223918  0.6007667319734871
  0.4000679174681097  0.5997924027885631  0.8004157531501727
  0.4005704728266866  0.7991387022748750  0.0005923976354056
  0.4003051373719586  0.7991671977779474  0.1975425258440619
  0.4006598215002142  0.7992307270192608  0.8009796706158390
  0.5974860284694458  0.0005614316117915  0.0019426447019328
  0.6017637401945463  0.0011876822336401  0.2014580196935224
  0.5977507618406295  0.9973404051373209  0.4005671801291297
  0.6000918947364771  0.0004814627766809  0.5996496176147885
  0.6005248859545967  0.9985327946969914  0.8011768095381769
  0.6014694141156502  0.1996478293018574  0.0011851397834586
  0.5985772935423429  0.1990638078807713  0.2000341647211431
  0.5997991914739536  0.1993443832390260  0.6018568715122774
  0.5997176708878948  0.1981551012108880  0.8001935396503540
  0.5966214097366482  0.3994379791027094  0.0013578398545888
  0.6002541423776421  0.3987312285356018  0.2020948853156768
  0.5986912965618416  0.3987979332834281  0.6002368187144914
  0.5994047596434592  0.3989188534116295  0.8006148738888463
  0.6003196082707437  0.5996143613517718  0.0012807678978404
  0.6007725656528282  0.6013942575964842  0.2016668498969901
  0.5994599630728589  0.6003999262963016  0.4011408164922628
  0.6000176334754728  0.5999431475043216  0.5999293375076338
  0.6004921578927438  0.6008648252091275  0.7994996547178199
  0.6005851897240311  0.8005492318189478  0.0004520795557257
  0.6008476386330821  0.8015639946098921  0.2004396030085500
  0.6024754997168821  0.8005311815046642  0.4008337681621689
  0.6005616614826347  0.8008649715317009  0.6004777149578381
  0.6009712236534946  0.8004622750910279  0.8009873882094340
  0.8001225478354963  0.0013897206787119  0.6006973120252181
  0.8007177704434724  0.9966549242921641  0.7971628441442571
  0.7994464841793092  0.2041191713887270  0.0040251359647940
  0.8005120532476421  0.1039995743652483  0.2003476659287514
  0.7976288422715013  0.2072645049604384  0.3997623063290213
  0.8009423246252476  0.2000381369271561  0.5971855906464812
  0.7990812903655705  0.4004730306604369  0.0041140342431058
  0.8007014408535016  0.4004960354567576  0.2020973974401751
  0.7964301482077470  0.4035525114209713  0.4002967897178697
  0.8003563987548911  0.3988137348967995  0.5985815011958382
  0.8000798938015746  0.5994220786614953  0.0006402636640686
  0.8004712959390645  0.5993969641770349  0.2010793410968806
  0.8009177990920884  0.6013199388049546  0.4006638644701453
  0.8003433745286830  0.5998248293872069  0.5996093953627986
  0.8007500987725422  0.6017483928979548  0.7995483447668983
  0.8014352040877595  0.8000291695351468  0.2005362916654293
  0.8004538850727686  0.7998681866999640  0.3987055056405837
  0.8010362302071636  0.8019340707413778  0.5977584965060868
  0.8004697700163464  0.7997942059292699  0.8020182300049139
  0.2010498652650015  0.0006533849384314  0.6007803184204217
  0.1987745845031473  0.2008415702905807  0.2039508397293912
  0.1990490339870203  0.1993869662052645  0.5963361884123678
  0.4000033684035758  0.9995363666408486  0.6017254603529710
  0.4001442043962491  0.9992466167964611  0.7992023544877099
  0.4004686709917932  0.5984330264617167  0.4009961700475763
  0.4004690983145813  0.8004685408659086  0.6023076521011564
  0.5989452407231362  0.4017074749567829  0.4005657357060135
  0.8002386546859845  0.7984677354962110  0.0013647990431005
  0.4006612505946481  0.4000341088542211  0.0014552407395030
