Zr Ti V  Cr W 
 1.0000000000000000
    15.3990340272275770   -0.0170018773457157   -0.0022529018582575
    -0.0170107766548915   15.3787801482628375    0.0165544931564424
    -0.0022517709109467    0.0165430754876648   15.4057927644380346
 Zr  Ti  V   Cr  W  
   3  13 106   1   1
Direct
  0.1873637871599280  0.2030711482243470  0.3749696383679884
  0.2041758521694254  0.6161594137680099  0.3823794607862041
  0.3835332024492223  0.7950696782819651  0.3890118823252930
  0.0029331269577080  0.0004221122836114  0.0088133822649432
  0.0019963830780760  0.1921147784710223  0.8001500174189060
  0.2043466968864130  0.1995000265922671  0.1767967955986290
  0.2026369331730470  0.5887627301172587  0.1828599065696717
  0.2095671928399991  0.7977328849436799  0.2111701783137714
  0.3965557267759793  0.2061936270824357  0.5988111261576805
  0.6353365136974282  0.0100256051534202  0.5926856911944764
  0.6059804559272285  0.1874527077475246  0.4163590915962064
  0.5890720295763401  0.1997628686925405  0.8110502615286520
  0.7937172601606701  0.2012396121858735  0.1942240830580476
  0.7908645091488914  0.2049941400180141  0.5921738975356728
  0.7979623210426097  0.1996131984237129  0.8031939640846251
  0.7986684189752775  0.7975847790742771  0.1936849723447871
  0.0014325502101096  0.9995116787578512  0.2080382658682450
  0.0011814527009298  0.0028617643071090  0.5971612780043072
  0.0011992911840339  0.2010062773408833  0.0049707198376562
  0.0013183707228060  0.2005631674869657  0.2008453700733182
  0.9877197411380647  0.1970678473057838  0.4014218684234358
  0.9992284007331199  0.2011663142255607  0.5977939047172254
  0.0005738742727666  0.3995701197246138  0.0020935503144442
  0.0003979257359582  0.3991408465791348  0.2032498775794542
  0.0014281552939169  0.3986528856473022  0.4019527437045286
  0.0013515793549574  0.4010998376592680  0.6007635546061133
  0.0009267928503665  0.4017372528121001  0.8004939689646936
  0.0016516543462788  0.6003456599049519  0.0023661276439530
  0.0009614768230064  0.5993671012591860  0.2011669634718201
  0.9964503054842365  0.6018225846448352  0.3995203613899098
  0.0020084045193229  0.6016262595548817  0.5979926927843768
  0.9998584291398649  0.6013081688476344  0.8014933032772891
  0.0020188883002913  0.7994200277334894  0.0032456614440681
  0.0009198030017071  0.7997595797156514  0.2018185880883841
  0.9928094157558529  0.8070578666977720  0.4010663016218565
  0.9968579571141769  0.8032743208418572  0.6023931911770084
  0.9994395071814767  0.8012562167880031  0.8011365567655140
  0.2017086954381984  0.9995815119746913  0.0012643312394236
  0.2020981910716474  0.0032541130130694  0.2020827079726479
  0.1954383536586823  0.0019125006248921  0.4015904434759673
  0.2030529808683832  0.0031952926239723  0.6010035502184354
  0.2003083421619509  0.0010988094856404  0.8001524953892925
  0.1993923478008027  0.1997912186855998  0.9883313753785923
  0.1979817594491612  0.2021791589865824  0.5963251244981094
  0.2013822436924573  0.1995422948839174  0.7962213757800930
  0.1998946297934930  0.3982892492988095  0.9998936811170039
  0.2014567551817540  0.3947326555688926  0.2012018454186617
  0.2004774987146961  0.4048857975519756  0.4017597140446491
  0.2010667388695258  0.4017341168647565  0.5994400678248328
  0.2002044552901411  0.3998887178963481  0.8007248537642923
  0.2005846884189271  0.5993720165604229  0.9934092499347875
  0.2010572370675792  0.6014713089694480  0.5992818374973634
  0.2006688311539767  0.5998612784736568  0.7980793089402837
  0.2006280953429121  0.7996230937061324  0.9988539060509271
  0.1855868627439730  0.8129122510006273  0.4088324624585044
  0.1994284113304991  0.8005374186235465  0.6029530167889778
  0.1988831225122377  0.8027926812108821  0.8011751274874013
  0.3999437791049386  0.9995960007884239  0.0028443065049439
  0.4005193804447681  0.9977036381582581  0.2019984153427496
  0.3986864684646464  0.0039349776451380  0.4008135446260875
  0.4012867843140703  0.0003335258369177  0.7988217971248729
  0.3994600273617762  0.1986720956723122  0.0021107903369226
  0.4015973527939490  0.1989667341055253  0.2016637399149369
  0.3987117572305691  0.1978027682207944  0.3997762421788864
  0.3963181898583267  0.1997759214005217  0.8048253816049127
  0.4007802346582530  0.3988682463350574  0.0022269183162442
  0.4013573300394910  0.3979546678070673  0.2018415674004592
  0.4010148439209529  0.3946749337254608  0.4012786984056331
  0.4013247022308750  0.4014567722712998  0.6013097502416707
  0.4005299476124438  0.3999318657958884  0.8011899307169722
  0.4005492810919035  0.5991641834621552  0.0009880921250203
  0.4040860466346017  0.5968766358156099  0.1999799284249084
  0.4093928568540967  0.5901594031916015  0.4000444617596527
  0.4014571225455019  0.5984535096799297  0.5991842727474452
  0.4009016075044456  0.6002160277197791  0.8012382974566727
  0.3994294059558420  0.7998234369929555  0.9973503975890763
  0.4051443077738369  0.7989222176734380  0.1904573590281731
  0.4003631167455806  0.8010735962061704  0.6009066821448630
  0.3994706527709501  0.8001495558114066  0.7991068339575523
  0.6005019185849998  0.9998921409919900  0.0023138777693336
  0.6000487469642809  0.9990009554126117  0.2014399934445346
  0.5984378844210502  0.9932771438341120  0.3965372604633856
  0.6001379943823901  0.9999287456377070  0.8039789596053173
  0.5999715870092968  0.1995552877026704  0.0076256265940269
  0.5976155388753775  0.1978676186387610  0.2029597795176816
  0.5984929586698030  0.2037413325112501  0.6102631107842635
  0.6014984665212174  0.3994068661568018  0.0017373349002059
  0.6006584858547219  0.3970633437320160  0.2035311943506108
  0.6016522099938283  0.3978365816061766  0.4024667607193492
  0.6013083082963695  0.4010479138417986  0.6029735394085719
  0.6006822576566073  0.4015685047611410  0.8025293934576678
  0.6010790154555341  0.5992069373813085  0.0015846488362850
  0.6025660989677795  0.5987399851595033  0.2004797847476703
  0.6032246483432030  0.5979528188123245  0.4001646715514638
  0.6009365708818151  0.6005070711814461  0.6007836765993146
  0.6009386376789380  0.6005116681733135  0.8012433948365602
  0.6012230149611797  0.7997202638087185  0.0003390370710790
  0.5991198656291932  0.7982357847853645  0.1998228408500971
  0.5968845963604829  0.7989292286349495  0.3999583191634363
  0.5986816812610941  0.7990660478798696  0.5993907751863585
  0.5985139479429271  0.8023804074600744  0.7997045702723911
  0.8006159093196580  0.0002630956003100  0.0021100019365049
  0.8000595179249371  0.9998390811928348  0.1993061351558379
  0.8049648746239484  0.9986671611398331  0.3940900035189392
  0.9666140832338495  0.9994763460514555  0.7642446482519158
  0.7995102001051455  0.0018234374549662  0.8020813356500677
  0.8009143959915936  0.2001977054361550  0.9983830811943498
  0.7996467662108941  0.1993890209223719  0.3959257887539522
  0.8018055352062837  0.3992161321770726  0.0010917312433754
  0.8014685203811229  0.4004667466481442  0.2007281849517183
  0.8007788224959208  0.3985901111120407  0.3999819321938033
  0.8016041671919678  0.4030985339284158  0.6001911324794624
  0.8008231255274665  0.4002940861957655  0.7998370322365072
  0.8021468579654960  0.5992457015383531  0.9998629494710962
  0.8007217871469651  0.5970193141712937  0.1991223302566151
  0.8006616111537285  0.6003843738903911  0.3991336291709368
  0.8004522699692831  0.6001863867906454  0.6003384058220552
  0.8005590675443984  0.6010232184375199  0.8009628426688712
  0.8009054629880294  0.7998978336372741  0.9957118516772144
  0.7973423895993306  0.8008114109807764  0.4027107916766947
  0.7977480482779002  0.7984020666743511  0.6013633432903784
  0.8002635911630044  0.8034008270242732  0.7988701819185678
  0.3989719202292733  0.9976905645884772  0.5987569364290478
  0.0010369190219113  0.0042146646478765  0.4029299149809639
