Ti V  Cr W 
 1.0000000000000000
    15.4073529780286407    0.0026422717652441    0.0115039126781883
     0.0026423919818586   15.4169890810637895    0.0057190451176722
     0.0115025714523025    0.0057202193077188   15.4178430470237693
 Ti  V   Cr  W  
  13 101   9   1
Direct
  0.9981521675965509  0.4090106416939582  0.5946458522483922
  0.9995370320333109  0.4074822885258965  0.8048103960939443
  0.9972056017168227  0.5970484536147694  0.0042742593891246
  0.9958835483371630  0.6017406276836086  0.4098003576677987
  0.1958829388878880  0.8074667455539449  0.8044303639528635
  0.4054892137866962  0.9981412530787448  0.4011645211716962
  0.4037784166597075  0.6057911997664301  0.9988109588676995
  0.6005459651994240  0.3984674926920814  0.3918156314698835
  0.6007667984474103  0.6078044153423066  0.3958227011780253
  0.5974969378874759  0.7909133219321329  0.0018432402800044
  0.8094819180019847  0.9985560958208645  0.9954941513198786
  0.8071666816152483  0.5977833510649926  0.1911875885990272
  0.8069042729531140  0.5940960935516972  0.5961173991106775
  0.0011331716633569  0.9982091479685907  0.8672197535728128
  0.0000793753294222  0.9997650819268052  0.2017252429210816
  0.0009708272379734  0.9991160894516237  0.3999950785354270
  0.0015941923279611  0.9996322379156516  0.5997869615971608
  0.0007201405473096  0.2015810695089134  0.9992732154267089
  0.9995829481009744  0.1975273920512991  0.1986052129585414
  0.0001961029485924  0.2002151802263638  0.3991123237783453
  0.9969247318186190  0.1991304327246625  0.6018853149289402
  0.9997329480421236  0.3987819826810530  0.0021471429203657
  0.9999617527006351  0.3998878733294773  0.2015760446968621
  0.0027476503716816  0.6005759549745578  0.2020100115687835
  0.0055463250720320  0.6037107693369126  0.6056163041089229
  0.9979014111438400  0.8085853249409544  0.0011145728796478
  0.0001512458370418  0.8006937948857497  0.2010242845255845
  0.9989060178368852  0.8008380069509908  0.4003657942997532
  0.0004045989887136  0.8014466696469812  0.6002599970717803
  0.9970248639835189  0.8005035445864170  0.8017245672635629
  0.2022900692456014  0.0010478860489768  0.9994614989025622
  0.1999651093441597  0.0000997166911045  0.3998826285206246
  0.2009127934620503  0.0005281138363092  0.6001433267310299
  0.2009320167274682  0.0026825708904240  0.8012866736403345
  0.1992814602697988  0.1992719246549789  0.9999173712441620
  0.1997183635726622  0.2013782227422664  0.2003907539401773
  0.2000256397955121  0.2001682203603252  0.4008271209437889
  0.1991832860767304  0.2016203379559703  0.5999691543559663
  0.1993713574976651  0.2016209979050773  0.7991487996331678
  0.2012954881539458  0.4013811265761486  0.0006183621709925
  0.2001017886960320  0.4008505213218000  0.1998009134621629
  0.1986100924766560  0.4007839975386211  0.3988016678200790
  0.2007175111321617  0.4008504097176224  0.6000965503377717
  0.2014995356261605  0.4017934843465291  0.8003573756947957
  0.2004939348693396  0.6017708861968809  0.0000711976073099
  0.2001321475813574  0.5999957091278015  0.2015452230213439
  0.2013186437004802  0.5992149958377251  0.4015626518658789
  0.2003594619370935  0.6006131891476375  0.8001919197262201
  0.1975570515514067  0.8012252899470411  0.0036087906241518
  0.1997866670378028  0.7992953526144573  0.2009558206213293
  0.1996465031288355  0.7994996380231697  0.3990562493241848
  0.2008799526105754  0.7992280393628924  0.5990052743277137
  0.4012085485573708  0.0003252292336566  0.0000203595808084
  0.4012436801233985  0.9995119640333849  0.1982143016688957
  0.4013934229159960  0.9997186719451581  0.6027442428738571
  0.4011304126818894  0.9996260320555440  0.8004030947599301
  0.4002269800385623  0.2010085233923164  0.9990784719410696
  0.4008528141090900  0.1996432341951149  0.2000797249347844
  0.4003475827513588  0.2024156318336648  0.4007164226555829
  0.4011976931655528  0.2011490147475229  0.6001779756583708
  0.4014709274634981  0.2002210077787435  0.7992851383029838
  0.4013635171804320  0.3992935083574538  0.9999107424429280
  0.3994475388981311  0.4009324157450900  0.1996332989061108
  0.3990284799343660  0.4008627635203778  0.4004264174971688
  0.4005563044274328  0.4018535720179577  0.7992451275442464
  0.4004495088783814  0.6001071847188905  0.2014245591792765
  0.3992905926016326  0.5987479232064663  0.4008612186589572
  0.4004617328714719  0.5997708523236320  0.6007008575695678
  0.3978154544644689  0.8019207097717275  0.0002352503033104
  0.3993619831044644  0.8006314578854533  0.2014995427817547
  0.4008911428297378  0.7965561300900339  0.4009493975833431
  0.3995923375405829  0.7989403034810036  0.5995293442707976
  0.4027195003795191  0.7992231711657382  0.8000667674286640
  0.6011212426374086  0.9995451993623046  0.1969891999215440
  0.6032569845858392  0.9990037363721265  0.3983717397560519
  0.5995161081222378  0.9990995099273212  0.5987442407969298
  0.6010087683511566  0.9985783885685824  0.8008425463348141
  0.6022190253111508  0.1989535602822412  0.9988150934314040
  0.6007488357708821  0.1992672199828236  0.1987878015122391
  0.5999013938950057  0.1981584851593699  0.3980995334034666
  0.6031870662033536  0.1995725575960965  0.5990419302137964
  0.5998465683740400  0.2007709772682682  0.7990505389184449
  0.6003945725029258  0.3989919634354509  0.9982196818976300
  0.5999838651830240  0.4002781305183062  0.1957909303781083
  0.5987814646397934  0.4023979011433124  0.5990216028362360
  0.6001331583344003  0.4009082748271260  0.7992114958198182
  0.6019350855620509  0.5954986700493020  0.9970202897346568
  0.5986322409954122  0.6000544952827728  0.1949601634799930
  0.6008876662550513  0.5992637180168441  0.7975021227571528
  0.6002903502163647  0.7995406181519857  0.2010982356574249
  0.6004889094013918  0.8024368255992432  0.3992368177274417
  0.6007846304780414  0.7983681759031430  0.5994129387953593
  0.6009108506840185  0.7989215741238626  0.7982358814959856
  0.8001918116693528  0.9986714532270139  0.2003172354879101
  0.8009249110659138  0.9993701105459175  0.3985780757281095
  0.8001635114170066  0.0021825331367471  0.5992277243306299
  0.7999065453923491  0.9980795192198624  0.7984808468561294
  0.8018549967021738  0.2002936200678542  0.9973299547411765
  0.7997070084176453  0.1997814122398979  0.2005648894360750
  0.8010969212816771  0.1993544113949811  0.4031761950570546
  0.8005355734742611  0.1990245956511683  0.7948496564718331
  0.7997479704492875  0.3982886512174004  0.9992782227732245
  0.7998538926762783  0.3977885670632276  0.1988327906560308
  0.8014538795053848  0.3996011373295927  0.3970738369569579
  0.7972344695624299  0.3931176821872550  0.5983097198984164
  0.7986613299838913  0.4004150258867457  0.7988810590718169
  0.7981467530371229  0.5982466407359546  0.9940463816070786
  0.7980036859747068  0.5988166547728472  0.3981403675424282
  0.8019213604174140  0.5988637807826088  0.7978068221906854
  0.8005177044680593  0.7956257563022338  0.9999640595294621
  0.7991690704338978  0.8002735747643462  0.1997453707320699
  0.7996292387871774  0.7991154838532037  0.3999695450283816
  0.8000919321513620  0.8004166828813697  0.5985179480612702
  0.7983557822175250  0.7983944791615123  0.7981688983880340
  0.0000330748731432  0.1961402575060912  0.8011737084267112
  0.9998604649364371  0.3976841941830498  0.3975002845594831
  0.0005834642222413  0.6061297434855500  0.8000413712199290
  0.2005320045348677  0.0000753171432295  0.1995848572728340
  0.2020783593998055  0.6003706435363979  0.6004071639818400
  0.3998078941762038  0.4003118761171094  0.5993602416007286
  0.4008035190906963  0.6005572393420012  0.7973731904437273
  0.6003106045153248  0.0009336588464601  0.9993059969580947
  0.5994133166610435  0.6000116842095418  0.6007311834629721
  0.7999263193105757  0.1988351512362095  0.5976325115349818
