Zr Ti V  Cr W 
 1.0000000000000000
    12.2882735461728885    0.0000000000000000   -4.3445607757035454
    -6.1441367710433559   10.6419570608175889   -4.3445607757035454
     0.0000000000000000    0.0000000000000000   13.0336823299999995
 Zr  Ti  V   Cr  W  
   5  10 103   3   3
Direct
  0.9681398696320441  0.2021182773961524  0.7984877152710445
  0.4259978007279156  0.0337944656492460  0.6223869915642868
  0.3880809807394542  0.0010874161668983  0.8100229851859232
  0.3988353111703239  0.5985778130360460  0.3962560981877064
  0.5977206432624717  0.3554868450799209  0.9570718640845906
  0.0021087575397064  0.2064646109517211  0.2065318088770618
  0.0090370951340136  0.6062153846808347  0.0086699694911869
  0.9991078853366577  0.8036945096780709  0.9975357773901202
  0.0014115833246042  0.7978311312828531  0.2049705513669223
  0.3946543411484822  0.2046173224555143  0.0041070554490294
  0.6032182175615557  0.2084833235583770  0.6001319621491097
  0.5961549265172779  0.5972234644032199  0.9997937592857371
  0.5995574671719095  0.7893039295928330  0.7977502882718254
  0.8045321148066983  0.9941740910750910  0.8025667563652374
  0.8028194796623772  0.4037431620512148  0.6004671841878700
  0.0038570991358309  0.0044029223956750  0.0056318850288925
  0.9990511845119254  0.0000221195414713  0.2019720874564705
  0.9964447339940727  0.9980816905100441  0.3964531243067044
  0.9920007723536018  0.9962006243487774  0.5932516916760563
  0.0029943229788915  0.9949517429872428  0.7998780490014531
  0.0109222822612788  0.2062959146080763  0.0133965110113895
  0.9944145290049745  0.1978467309584712  0.3994866390293941
  0.9927668388356840  0.1993296409140481  0.5922079701076119
  0.9992438360926263  0.4031197962863329  0.0091238314101954
  0.9998734471880688  0.4026508594303356  0.3989260915818805
  0.9988262561253434  0.3999391416608929  0.5971467836536837
  0.0024929384434477  0.4103969270433966  0.7995621248503438
  0.0050948068323816  0.5967812929613510  0.2096880018143039
  0.0009013093525486  0.6019947368145318  0.4040222117365286
  0.9988987225793580  0.5980588124300368  0.5974897826646450
  0.0066403251998127  0.6055133145161503  0.7994658920757772
  0.0012291203880942  0.8014479786170500  0.4052140246577087
  0.9958797216099278  0.7972898193418224  0.5970248714147552
  0.9993943981053695  0.7964924308005902  0.7948415400177048
  0.1979039304113486  0.0013122638108137  0.0030231006413907
  0.1992261534876781  0.0023421560621561  0.2032114931416971
  0.1987775293031092  0.0031271073758141  0.3994628631892349
  0.1859614637081115  0.9988882283901365  0.5945018960990516
  0.1783666649749555  0.0000187215168145  0.7973000666855843
  0.1974235792930112  0.2051785116627742  0.0034554624371415
  0.2042357518089261  0.2022520146183949  0.2015525783439862
  0.1957370733872528  0.2010741994985661  0.3964923016557703
  0.1871906801766682  0.1975064421638698  0.5941676602079795
  0.1944520082013975  0.2053928321076122  0.8013800013760453
  0.2003269249494821  0.4086698243884773  0.0078392543263120
  0.1906624668974318  0.3967963037485704  0.1963891569592154
  0.2020213632718195  0.4044629614321610  0.4037043674761329
  0.1978728751115286  0.4049921542669001  0.8035913619387678
  0.2075200489978684  0.6026408999840240  0.0029042145295242
  0.2022049285198199  0.6059474237504476  0.2034381113195954
  0.1957254600449526  0.6020130617534334  0.4046529650082830
  0.1997774299382361  0.6015626239104157  0.6018361711682968
  0.1991002754344386  0.6009608373996961  0.8000290531776820
  0.2034282476149709  0.7985323964295457  0.0012984767820496
  0.2115104884431397  0.8078737852113772  0.2101642900810434
  0.2005265429999908  0.8006584169144803  0.4023500071538506
  0.1921050029125161  0.7933045264085187  0.5945232801515413
  0.1958970309942470  0.7961065000788520  0.8009291744433873
  0.3971415229198989  0.9939086332856665  0.0145078393720624
  0.3974093708298638  0.9977064785555912  0.1985266413979042
  0.3952688129926990  0.9982845302171598  0.3909245297056653
  0.3982996819229226  0.2030922497313156  0.2027556503031760
  0.3957351583745572  0.2004462223038485  0.3945857580825489
  0.3869804880583307  0.2148303552417565  0.5888473571806219
  0.3620534864936051  0.1991888328453308  0.7768033690308925
  0.3955214658363547  0.4066458321470906  0.9975405317620195
  0.4000717626306231  0.3983668887260533  0.1950490371480041
  0.3975356222239567  0.3930880716030578  0.3987893726168398
  0.3924152880675024  0.3995757249968638  0.7940242749963963
  0.4007744686231133  0.6010617147774212  0.1885102997737202
  0.3964191927543199  0.5911924541684034  0.6024865531382240
  0.3995122224547081  0.6000986866899737  0.8064211453507345
  0.3986893400455750  0.7952511090619373  0.0019023922116814
  0.4023841730845343  0.8015885593904027  0.2031185139990263
  0.4004684651559605  0.8099614103289865  0.4033122553216115
  0.4023459488113689  0.7977733658649405  0.6038947402702831
  0.3945135522558745  0.7888908382675339  0.8008328239834918
  0.6005848884763999  0.9938818542222282  0.0031138665737183
  0.6006887147984067  0.9963965705650736  0.2000413314049961
  0.6005450926904409  0.9978032394936815  0.3970228416235384
  0.6175609241632634  0.9962646354570164  0.6006566938958786
  0.6211694679479578  0.1908369847931618  0.0157905291050920
  0.5987918778580610  0.2012615120418530  0.1995289112111621
  0.6056196353863081  0.4041596475224196  0.2029347259606522
  0.5994245374265456  0.4022720769603536  0.3978217219646475
  0.5946238475140376  0.4050957896818235  0.5976767863505589
  0.5991064208333914  0.4007662241228219  0.7859920051739768
  0.6016092718675339  0.5994765705132131  0.2030082069407873
  0.6069057953407863  0.5977029854225179  0.3956149538940504
  0.6018528445773789  0.5981658316371213  0.5983819007959980
  0.5962832277072931  0.5893441841231120  0.7948680522173771
  0.6001478319280545  0.8047152332311241  0.0067245636099546
  0.5977434330389041  0.7957399153209904  0.1967676071589024
  0.5996391260852034  0.7976892119154165  0.3948488034462360
  0.6056807676736793  0.7981706581029947  0.5987546517193434
  0.8038741394222924  0.9932501326032795  0.0080271048844958
  0.7997823672463181  0.9984440175617977  0.2016933303054584
  0.7971202234920428  0.9977589258642815  0.3934105441657317
  0.7944897155422693  0.9836569026720822  0.5798881685140702
  0.8123904205523578  0.1998247745592871  0.0083867020052205
  0.7970708554359917  0.1986080514252678  0.2032355937545535
  0.8010655688525683  0.2011733597163579  0.3985735971165393
  0.7983908752615548  0.1950027086785585  0.5930265406745098
  0.7367478296271690  0.2077775853873581  0.8104155504345144
  0.8202897527721350  0.4143380697280440  0.0139736051676742
  0.8070934595913528  0.4014632417715898  0.2039343237131877
  0.8010523516838718  0.4020466411389724  0.3958401728525020
  0.8113677017856035  0.4066399951074905  0.8078429122099140
  0.7988202488395786  0.6033635665992029  0.9946831282222376
  0.8023807906096134  0.6006731407262769  0.2000847174280836
  0.7997285223206854  0.5972998711448458  0.3964013350768760
  0.7990528163753494  0.6028144131818142  0.5965059528025509
  0.7975566282004972  0.5967146640218888  0.7954080711523103
  0.7948420922677565  0.7965713761799166  0.0017010681513769
  0.7991514555897953  0.7998531306234441  0.2017617181438872
  0.7983640363128264  0.7946609978046181  0.3934843678374828
  0.7989862773492111  0.7945413529703164  0.5950500365657064
  0.8078637086090501  0.7917852154210122  0.8017126684966798
  0.0049905590526009  0.4084898606123947  0.2083678899486320
  0.3960985615213226  0.3997064912807751  0.5971280882287787
  0.3953417244116231  0.6000234583702965  0.0016095827168559
  0.1970351364895953  0.4002028831932785  0.5992604526622025
  0.6045518126441062  0.9981671888640196  0.8029244281308323
  0.5993922663465304  0.1992064633531174  0.3935559210286760
