Ti V  Cr W 
 1.0000000000000000
    15.3947628529237015   -0.0004726939770559    0.0021267196503963
    -0.0004726263884090   15.4017912768726095   -0.0008921615345846
     0.0021270963932924   -0.0008941263393480   15.4191178141427301
 Ti  V   Cr  W  
  13 101   9   1
Direct
  0.9950986827324003  0.1913716099687749  0.4000258835233987
  0.9997190026410272  0.4043846396315353  0.3990535220988168
  0.2061235406140881  0.0080619961943406  0.3953864362365944
  0.1977326480639347  0.1977352352219142  0.0067180167363592
  0.1959816514529596  0.1978178929233609  0.7957256255881340
  0.3966713097554497  0.0042964194423705  0.2032198521302864
  0.3946265435438466  0.1947578951555300  0.3973652834895327
  0.4003717535350885  0.8032832332424162  0.3962881099983516
  0.6050189644466203  0.1943702142460736  0.3992352080474524
  0.7999884697709005  0.0094313443114493  0.9969426898316492
  0.8007027609321675  0.0087122467334628  0.3999704676478630
  0.8005315086237681  0.1908980601208629  0.8038089103199009
  0.7990955940416513  0.4011809934849958  0.8012613098990241
  0.0019152705913952  0.0011722570520076  0.9984511449753314
  0.0004309889738690  0.0003282697121729  0.1994084064895590
  0.0022667347895398  0.9977461945587738  0.4009146994682958
  0.0013939358233711  0.0001420273684975  0.6001150569521413
  0.0004393665268925  0.9992319626642687  0.8004552184311393
  0.9983217273907762  0.2005006457678876  0.0003799789532413
  0.0013171496946536  0.1996491216447106  0.1983154627031763
  0.0011610256566183  0.1992103140445210  0.6022864914775573
  0.9999231197298066  0.1988879975260336  0.8003158475891706
  0.0012897480471334  0.4007896016336986  0.0007697780981212
  0.0011599058813552  0.3962290684241100  0.1986966770660706
  0.0005835635055900  0.3981793528208182  0.6027525760414372
  0.0025046922281281  0.3983963285099800  0.8012379862898644
  0.0005570755877496  0.5991334831926518  0.9984550456663396
  0.0006357090363893  0.6012454130313880  0.4025409597297415
  0.0005753606388163  0.5998748528596657  0.6006467680250519
  0.0002261446377113  0.5999674261085212  0.8007819222850910
  0.9997788083175387  0.7992165966783000  0.0017138408270545
  0.9999216630438007  0.8038205219559797  0.1994794458039966
  0.0006068718756149  0.8003990601526354  0.3990152113892051
  0.9998156607942967  0.8014397036060680  0.6006246062728678
  0.0001411958554765  0.8008897354579620  0.8000291715334404
  0.2015311066727146  0.9991037021050007  0.9999885169383806
  0.1981536704303940  0.0022634006540545  0.1975359909628683
  0.2004349316866082  0.9980338741631282  0.7990807112602442
  0.1968552218967019  0.2042205413558652  0.4006799239673646
  0.2045037432100613  0.4004498594668420  0.0014739006024058
  0.1992958922927518  0.3997379056922966  0.2023859887138710
  0.2027889998266357  0.4001357320723560  0.4000625230527526
  0.2015550269930505  0.3983842176740212  0.5992535794696635
  0.2004549369875328  0.4003657580902775  0.8000462204305767
  0.1985739087188112  0.6004400493888834  0.0027760566560176
  0.1673509888362033  0.6000135037472082  0.2018682717583762
  0.2001360148095028  0.6002166248682680  0.4002009054965028
  0.2007892367148008  0.5990467705178730  0.5993405694415681
  0.2002307630736395  0.6006055399416573  0.7981166340614686
  0.2011145532777374  0.8000113282426324  0.0009211481983380
  0.1982165965537969  0.8001658265043049  0.2004173550238890
  0.2000856309258768  0.7997739719094442  0.3998828374614177
  0.2007470783009025  0.8009640583525189  0.5986842706135580
  0.2003740873783218  0.8001206275966400  0.8008930766706731
  0.4001385841861048  0.0015304928839448  0.9978957755961205
  0.4027895970629902  0.0007002657050148  0.4041460270296341
  0.4013397047889782  0.2027781187820340  0.9986409064580162
  0.3996426562740694  0.2023133212838506  0.1974148730143703
  0.3985236145008224  0.1995854404090386  0.6026976849052726
  0.4001899023135500  0.1984737984016630  0.7998890555958444
  0.4005626398188309  0.3993474980927681  0.1977953825805328
  0.4016484724982003  0.3990831034904154  0.4005769656380079
  0.4003730684695470  0.3977557938070727  0.6017164303726604
  0.4001221291437750  0.3989868542781403  0.8043885324097074
  0.4004270419303598  0.5958015581860715  0.0002470827242418
  0.4001376466224347  0.6002263332432292  0.2020397516561090
  0.4002030519412423  0.5990629561680997  0.6005379044712903
  0.4001780307194000  0.5995351749818639  0.8004096974544854
  0.4002615645837783  0.7995502756119900  0.0002275256507707
  0.4002391015072383  0.7995221149994730  0.1973564730116927
  0.4007434294136001  0.7989517949071927  0.8008346991105786
  0.5973937923016780  0.0007481268446570  0.9998331712555409
  0.6015441401627584  0.0001586158439000  0.2003357714277723
  0.5978927999908168  0.9973003867681147  0.4012325595323093
  0.5996248807692939  0.0004059247069639  0.6002961683163466
  0.6000983732969575  0.9983473490659450  0.7995465279529529
  0.6008204296049199  0.1996613801175317  0.0009838356822540
  0.6012571492267893  0.1989434600220513  0.1994606002492139
  0.6001753069449358  0.1991468499651346  0.6018834429941159
  0.5994656142436275  0.1978288357463720  0.8001628122182000
  0.5967266779111516  0.3991704388045608  0.0013502775580878
  0.5999909091873308  0.3990247201525526  0.2023484024024125
  0.5987696122191137  0.3984120976518183  0.6000363450211366
  0.5993697795438955  0.3982336644791871  0.8003853624495947
  0.6004659402806357  0.5995677616740249  0.0008063135767460
  0.6011475315753804  0.6013267575314494  0.2017470600808169
  0.5995739447803288  0.6003274817052298  0.4014427857392714
  0.5999903312839662  0.5997463534230658  0.5998345380087414
  0.6007895208949686  0.6006229242223390  0.7996410898804684
  0.6005334332301495  0.8006555546213329  0.0005905589706046
  0.6009352797692203  0.8018243677259798  0.1998314441148231
  0.6021025022578039  0.8001338093411501  0.4000684086229803
  0.6004343589675799  0.8006868578710122  0.6001701676412330
  0.6008460051635385  0.8005921773139126  0.8008990111040420
  0.8002151797000140  0.0025357492782931  0.1988793970538242
  0.8000055944068278  0.0015820911979165  0.6011069866890663
  0.8003204088023778  0.9961257336138722  0.7973372151548336
  0.7995007281351635  0.2055538066424086  0.0038528389938788
  0.8017272656025888  0.2017052703088834  0.2025881187278742
  0.8002554354219497  0.2061880873582795  0.4004362074436171
  0.8013133259612214  0.2002904509539048  0.5984938525312781
  0.7987993554721975  0.4009392803265324  0.0031539891079364
  0.8015549267831604  0.4010750353612531  0.2015842401722913
  0.7967434947285758  0.4028864674614599  0.4007026711966564
  0.8000876261528195  0.3982716051761919  0.5990118988125960
  0.8012240398518450  0.5997787116619470  0.0026129846253880
  0.7986494935872760  0.6000804001033282  0.2012979522201260
  0.8019406706607572  0.6017503239244528  0.3993007488600997
  0.7999582117976545  0.5993783906426073  0.5996872255040936
  0.8005382013765618  0.6011225463968505  0.7996760584660854
  0.8023032547885524  0.8012804902398377  0.1998350856700364
  0.8002427743336458  0.8007251632961025  0.3996254703582990
  0.8007945837934493  0.8014174655489318  0.5986306863234120
  0.8003480516854211  0.7993612987764167  0.8008391409480421
  0.2010351448360794  0.0006228769689278  0.6010721612045279
  0.1991986544122262  0.2007497853344656  0.2038794716612200
  0.1992902183854608  0.1992639113213082  0.5962284301407220
  0.3996712046939502  0.9994664459677413  0.6014300081746766
  0.3999726136126294  0.9990720672489553  0.7989995394869724
  0.4005066188512793  0.5984169177772379  0.4008489789241291
  0.4004755630507535  0.8003661561150380  0.6021239326128752
  0.5995683275983753  0.4013554985838212  0.4006118213942048
  0.8000919217821270  0.7989362695492170  0.0004398886346579
  0.4004970625960868  0.3996948708823532  0.0013319235771367
