Zr V  Cr W 
 1.0000000000000000
    15.4863295998759050    0.0024137293282322    0.0105674120120943
     0.0024156779473548   15.5040449564505511   -0.0174543962439357
     0.0105707746262879   -0.0174578174046017   15.4782021514271442
 Zr  V   Cr  W  
  10 107   6   1
Direct
  0.0005521010252938  0.9664303617828006  0.7562223031948826
  0.9995861699352119  0.1953125447660786  0.6075979648312692
  0.0007517479585970  0.4360300667193728  0.0407316175682279
  0.0063766107648661  0.5782870057239636  0.2256413105117825
  0.9615225370972106  0.7919147843096496  0.1933184350228430
  0.0021587219259533  0.7862842572664103  0.6040017682715768
  0.1770944452107110  0.5955938294076836  0.6027496917988010
  0.3588469630070548  0.8046901328961227  0.1992240880032626
  0.8326131493040072  0.4313195857735697  0.3967451673302532
  0.7508521764549125  0.7921987228808042  0.1981031143659333
  0.0010469770462206  0.0076203630987980  0.9983233467195264
  0.0033479593313448  0.9978042796477992  0.3938268895039448
  0.0011359709718814  0.9946335279668789  0.5697351108664834
  0.0008534732841654  0.1998830681645284  0.2019941580182397
  0.0009422933297290  0.1997341941522162  0.3999075839149958
  0.0008794611261931  0.2041885406575942  0.8089209199479888
  0.9999914857931758  0.3871443079918887  0.2315309376905330
  0.0198551285752753  0.3982766899475825  0.4082719277646645
  0.9985448048358919  0.4034883569679138  0.5998383138244743
  0.0016048078287325  0.3980482067161179  0.7998790517891382
  0.0015558936679454  0.6243030320064988  0.0167695159907073
  0.0029039469554430  0.6043219645225023  0.4308902940869361
  0.1344358087885263  0.4633035267301762  0.6042195893797424
  0.0003820874671099  0.5914175823833369  0.8190362239785685
  0.0016809843156620  0.8136071783357314  0.9924021510721660
  0.0013053997286554  0.7999285722319673  0.3961506881800498
  0.9998975485273019  0.7803893760837579  0.8062521473522690
  0.1997243370486308  0.0031087128571730  0.9968529979921450
  0.1999652827078873  0.0025809436354140  0.1981457336123972
  0.2018732213787802  0.9996654569076864  0.3966537976692142
  0.2010284395234790  0.9990699413050856  0.5973236536687526
  0.2032824354176794  0.0002404724373209  0.7991220969754763
  0.2018282307318644  0.2017602328729067  0.0004423864477424
  0.2012156280430432  0.2009353315647413  0.1989717991884583
  0.2027878793890387  0.1987831169461415  0.3992792944665658
  0.2016856618633200  0.1994131390720458  0.8010374757681814
  0.2037827190298345  0.4006802354541948  0.9997156518007614
  0.1988965281181139  0.3994812842192590  0.1987898171583007
  0.2073370295731364  0.4020997705396503  0.3998711798595381
  0.2010369905683812  0.4001425626533341  0.8017206599012661
  0.2021397033747851  0.6024994579913057  0.0025608555103140
  0.2088069319450822  0.6009737986748711  0.1988427446310321
  0.2005583986539752  0.5999549654671106  0.3935914042068080
  0.2003741772415558  0.5993972495151434  0.8074983456743577
  0.1997210858296214  0.8031936011409418  0.9998299302068101
  0.1718502418584622  0.7974576776430939  0.1970963767171336
  0.1996962211144314  0.8001418738760435  0.3966313140499225
  0.2072705342507259  0.8002801774299202  0.5985008081099561
  0.1993048376208002  0.7998098239529714  0.7989664924572683
  0.4014763193667806  0.0011073246093263  0.9981155445035805
  0.4019174695432718  0.0048817068668783  0.1979775406007975
  0.4002800998308124  0.9991385507573899  0.3986156106758216
  0.4022343856237169  0.0002657763472926  0.5980850270973039
  0.4005245670775621  0.9993307037352608  0.7965926851148982
  0.4014856231932030  0.2006657092793594  0.9984681344606380
  0.4009382873668639  0.2012914050803101  0.1995772784188483
  0.4008648104607981  0.1988778626780401  0.3994390128782273
  0.4029040102155793  0.1994331539500382  0.5988971065869237
  0.4010943330659563  0.4007627830315995  0.9992459735995712
  0.4001867961829524  0.3984730965620542  0.1993580339356282
  0.4015957693618381  0.3988850295997484  0.4004700519692569
  0.4016512146957531  0.4004833409749320  0.6003447289684775
  0.4012062440753116  0.4001311778739678  0.7985442844116289
  0.4030519910470118  0.6015341802307398  0.9995837755134903
  0.4048779337225137  0.5946783134495504  0.2001121251089703
  0.4002020662517653  0.6011426353799174  0.4010362216309216
  0.4017964936158691  0.5995392920504540  0.5992340979771809
  0.4002114765883901  0.6003800075986792  0.7997950081651033
  0.3997830798379028  0.8015890629396631  0.9945498982731492
  0.4004709377027551  0.7998974648107783  0.4026414883322807
  0.4003765301467812  0.7993869304016937  0.6000651288368701
  0.4005110253089926  0.7988335291294578  0.7986805087457017
  0.6007277199345310  0.9999513696908793  0.9983476051222365
  0.6007653036585251  0.9971393437256392  0.1983654836378176
  0.6004357612673770  0.9980689869485652  0.3974634049987574
  0.6006802224451261  0.9991998671956454  0.5967696124070644
  0.6009271217321565  0.9980039880434945  0.7974266278581910
  0.5996522977149088  0.1991651586629023  0.9995269647382189
  0.6014566676029464  0.2010575800208398  0.1984892607487151
  0.6009165172668518  0.1991007085131661  0.5989329532109020
  0.6007931508311058  0.1999030289833876  0.7995625427467292
  0.6011289022635603  0.3995610427898860  0.9984772826035325
  0.6023186455710871  0.4009330836956703  0.1992565165989886
  0.5997252470176400  0.3985460753886769  0.3980056737478371
  0.6022165045854333  0.3996018903733264  0.5975445277971174
  0.6005116705173859  0.4004594634982803  0.7990546469833659
  0.6028111088564594  0.6005047256158821  0.0030304096254403
  0.6044413866234765  0.5994028225992722  0.3952293343646571
  0.6014989315461070  0.5996257398079117  0.5970504234359225
  0.6033999094788165  0.6000636786029291  0.8016083000963655
  0.6014017034769092  0.8012223945782201  0.9977827392420950
  0.5648287357737398  0.7910472790219759  0.1985647460161516
  0.5990186061767447  0.7998991523880974  0.3983423952296807
  0.6009016596710226  0.7992650797243187  0.5985029506691435
  0.6002587914481359  0.7981005723594097  0.7984578208698746
  0.8017343188087400  0.0019256246262036  0.9963953732557629
  0.8011327689896334  0.9985497266972037  0.1976154875527568
  0.7994917564846820  0.0011330777396705  0.3974524854795816
  0.8025166620923153  0.9993854696162733  0.5984314212602511
  0.7982690789670378  0.0001566068540968  0.7981621579808089
  0.7997090142816230  0.2010738663243062  0.9990085070584104
  0.7993549460597651  0.2001721646686498  0.1984622267291859
  0.7995234536655168  0.1968105184576897  0.3984804960857100
  0.7956418966175767  0.2018030163593951  0.5987781868651492
  0.8005457063097976  0.1993325139031823  0.8007495159876099
  0.8039808606203903  0.3983731088039911  0.1936139018930250
  0.8006857397549660  0.4017488906238065  0.6005152751246152
  0.8007562444382593  0.4006198840246153  0.7993641110895031
  0.8038350766081853  0.6016894098866048  0.9996380129581163
  0.7943433867551056  0.5947826772702027  0.2078506688602645
  0.8028301837783117  0.6185680269142040  0.4028491908143859
  0.8000084415589851  0.6007181781317810  0.5987460691238671
  0.8034803826264337  0.5993864583784380  0.8000363683713666
  0.8023425990082836  0.8030357066786769  0.9966600790379265
  0.8054015831151492  0.8068335170440453  0.4010191040118355
  0.7951881222137981  0.7999932061399164  0.6003547326845667
  0.8018109326925751  0.7992435593830995  0.7978686423356052
  0.9999004452904029  0.0036445691261622  0.1968522325617776
  0.0008498357060485  0.2022617024406378  0.0034608714136149
  0.2057917448998106  0.2011149635759971  0.6000379263375549
  0.4017972292239787  0.1999922654682807  0.7989832668601091
  0.6000014339913320  0.1986993519016266  0.3980083336523578
  0.7984251200509810  0.4003814594890158  0.9974140924499696
  0.6018779817980512  0.5983222889683242  0.1984052653848083
