Zr Ti V  Cr W 
 1.0000000000000000
    15.4771126092992706   -0.0171409429028663   -0.0108832458615090
    -0.0171377985850307   15.4835452709138899    0.0089453070842751
    -0.0108770206815257    0.0089383803551370   15.5150560916889226
 Zr  Ti  V   Cr  W  
  10   1 106   6   1
Direct
  0.9983368788805459  0.0432798246800004  0.9950032458557995
  0.9978724918845833  0.2001692394876851  0.8088403084173258
  0.9890564956177054  0.3932368208318631  0.5933778729363725
  0.9990574075178150  0.8019688546925081  0.6001466715842917
  0.2024065324763296  0.9978805326903852  0.4008166157961188
  0.4272860792014226  0.9958858109780027  0.4024343215507100
  0.4012119579626778  0.2021330697421752  0.9997188851072837
  0.8066095246918558  0.3956775324818683  0.4113493610555846
  0.7709108888391331  0.4009595648896470  0.6302800992994317
  0.7968095397631600  0.6202500753361223  0.4023153197805480
  0.5990171092259010  0.7997823797576495  0.5976703673953490
  0.9977278017266845  0.9980851260548661  0.3984997892682348
  0.9991501390729868  0.0019986190506395  0.5989004851918620
  0.9983064959709308  0.9921699269086035  0.7954058073628525
  0.8007557883565378  0.3982543913742442  0.0029800472504150
  0.0007012287169582  0.2028342555770809  0.2036832932361167
  0.0021211147729556  0.1980040535730208  0.3997801439456268
  0.9990065212345829  0.1926011086047929  0.5995924897084177
  0.0005149464465213  0.4078742422794243  0.0036808978907235
  0.0102711475110736  0.3985423781011400  0.3874473997226823
  0.0007864389292327  0.4044059369685981  0.8056180278171158
  0.9993666552932230  0.6051774400711354  0.9997573035649800
  0.0000097540312932  0.5943958211737559  0.2000148522958254
  0.0033517965768555  0.5984182123669701  0.4003387689828744
  0.9983931399536468  0.5987722806311496  0.5990759726129206
  0.0002519991013218  0.5987630001768302  0.7977355939518795
  0.9993228324302703  0.8085752886562428  0.0009435512014897
  0.9999336939422416  0.8003859462160098  0.1987764681402619
  0.9986840886626798  0.7969515485171094  0.3953958793003959
  0.9987589575342060  0.7971556668693699  0.8045307939554016
  0.2038147519765361  0.9992982012292839  0.9975800879385736
  0.2001700385125587  0.9991033504894274  0.1939889451492972
  0.2007109558915312  0.9996512516500313  0.6055853762523065
  0.2012968621003609  0.9964994484802723  0.7994904172398630
  0.1969573477692424  0.1985453355292230  0.9983975685087417
  0.2007889646543715  0.1982503555359164  0.1998724301639785
  0.2019940338567531  0.2026554333876918  0.4013600470712562
  0.1988120351098939  0.1990191588960659  0.5995823944469606
  0.1978153864977475  0.3983102958494746  0.9984606896998460
  0.1979119218012812  0.3985941508778491  0.1977723486983448
  0.2038026008504165  0.4002383848905783  0.3996665620818818
  0.1996056729049428  0.3977946805743447  0.5993953709712803
  0.1986877547430634  0.3990324094169792  0.7986001912818295
  0.2006371358250685  0.6008366913470859  0.9980552301458846
  0.2011876511853116  0.6000173421949289  0.1987164398876891
  0.2010954719625879  0.5979280640592435  0.4004649713801468
  0.2000925854557118  0.5987931142800159  0.7992799097859116
  0.1986934003217379  0.8009226455320003  0.9989192381174253
  0.1991419575629391  0.7993587404718184  0.1992482369004208
  0.1991438650608072  0.7926327727848632  0.3988034750119820
  0.2029997406687408  0.7974139058314362  0.6001490280147352
  0.1994266155361498  0.7971416421359614  0.7996697288640163
  0.4015468011832353  0.9958512542670803  0.9978231056582153
  0.3996064790677800  0.9990007313964778  0.6041627382811048
  0.4010402964351152  0.9985888933133752  0.7991410877231963
  0.4005479229715623  0.1992707610605720  0.2043489214198176
  0.4010731647527047  0.2016738473797459  0.4012308487914510
  0.4010492082978078  0.1995309914516695  0.7950928737369083
  0.3995299704970535  0.4054715099634928  0.0002701897534241
  0.3986315622260601  0.4004346376090251  0.1998865266953148
  0.3996624819222395  0.3995637337973878  0.3988363890770518
  0.3950061921568541  0.3997194365717531  0.6009741733706214
  0.3989130464031331  0.3999352388620378  0.8004172804967296
  0.3999149422293935  0.6010582417610946  0.9994571963024634
  0.3997960811309283  0.5991243348529818  0.2001622951243943
  0.3998045555000272  0.5993141266764076  0.6001841173522213
  0.4001154191899752  0.5992652680178495  0.7980910086568725
  0.4002843644397197  0.7981556757943560  0.0000471304325659
  0.3993728804443619  0.7984008719467925  0.1994903670763042
  0.4001063010427041  0.7938026777423104  0.3988939632038905
  0.3986347720264548  0.7977190813007659  0.5994504680880605
  0.3996188537490196  0.7983144159576087  0.7998177032366911
  0.5985092374790190  0.9996025131050918  0.9996048701755457
  0.6010166657874071  0.9999732593384399  0.1997115660076613
  0.6137482004862636  0.0003718363377707  0.3990310266366926
  0.5980389691069632  0.0026056111978217  0.5981437589166089
  0.5988476998635461  0.0002666212881883  0.7990139343063541
  0.6048840919022824  0.2000236412824116  0.0008205071144951
  0.6012500792882255  0.1992070316361986  0.2020282111861575
  0.6007204404414225  0.1997708166045823  0.4015433007163284
  0.6010752829224009  0.2015172882884077  0.5990892815213267
  0.5984978453835235  0.1997130700975465  0.7984849242132862
  0.6010824984051942  0.4009908289756074  0.0016179123076376
  0.6017146486564122  0.3993813519670371  0.2014063933609377
  0.5971816473028386  0.3982331718109581  0.3985320236755671
  0.5837887859158678  0.3983642093790194  0.5972896709337583
  0.5975387858189979  0.3993167732021248  0.8030523927880694
  0.6003838776442061  0.5998167484718555  0.0000564782973075
  0.5993302582172764  0.5988997974568573  0.2008269970102357
  0.5951233603261353  0.5979746832153117  0.4005503981913361
  0.5997019377990213  0.5957474157359798  0.5993175242516212
  0.5988237395147630  0.5983963599506942  0.7998670096649048
  0.5994684188522106  0.7996490733381098  0.0013732728379261
  0.6007055346152790  0.7994744826235681  0.1997490143571703
  0.6002186422479404  0.7991512147663662  0.3969694948985307
  0.5997021693532492  0.7983486701717503  0.8018531376100989
  0.7939706326756594  0.9996861769661812  0.9991663319896983
  0.8001722459217173  0.9992719155642656  0.1984263797013179
  0.8035899978198618  0.0003691170961209  0.4002273118342971
  0.7977600953270235  0.9986275930080435  0.6010734743956072
  0.7965931336615361  0.9965380034022278  0.7977718255250599
  0.8007168018527816  0.1978583994904778  0.9984816880015428
  0.8008503678050989  0.1993857312327225  0.2013482389704063
  0.8004060710275576  0.1927711405637942  0.4016770080147797
  0.8003912198383926  0.1964804712554386  0.6007926283865558
  0.7939669735604579  0.2007004732200006  0.7970587334431963
  0.8044379518233077  0.3979385811983127  0.1976544829023495
  0.8014685585723396  0.3990442251100352  0.8167498184512566
  0.7986721751481261  0.6025315825842628  0.9985213101360197
  0.7999391704037471  0.5997429567628608  0.1974627790838996
  0.7990461123173689  0.6045362042336165  0.6057787561452906
  0.7994645053498239  0.5991326906537455  0.8002418477762591
  0.8002397264582064  0.8021613074341600  0.0002242826345344
  0.8008807352173951  0.7998087774955933  0.1996303216731997
  0.7999009694087965  0.8107503106076526  0.3988979516378630
  0.7945316048700446  0.8013433797398911  0.6009185961082006
  0.7983919083087265  0.7983228716974092  0.8020904744591499
  0.0001190536493167  0.0010838614960551  0.2005399101222483
  0.2038207568638384  0.1991392377293517  0.7970142042368005
  0.1989670959772532  0.5968656972558229  0.5996676831690516
  0.4017108660910934  0.9988363078772343  0.1960420175337582
  0.3993901367839079  0.1993965056512260  0.5998739782987547
  0.3986626681153987  0.5980193314101730  0.4006002521136587
  0.0010277581043865  0.3972498544756401  0.1953866909245592
