Zr Ti V  W 
 1.0000000000000000
    14.6853827578748088    0.0297835820478323    0.1122213727717476
     0.0298206486797816   14.5407478417437535    0.0151358330274621
     0.1127576065006712    0.0156506682204352   14.6102625195228804
 Zr  Ti  V   W  
   2   2 106  14
Selective dynamics
Cartesian
 -0.4776428868900442  0.2013387474251872  5.5810341892136108   T   T   T
 12.1253298293851266  3.3026109804412429  0.4016836813383451   T   T   T
  6.2851767386948012 11.8898380257860214 11.1813881081666704   T   T   T
  8.8270901810544036  9.9482344619044092 10.8623309486702464   T   T   T
 -0.2675335747318744  0.5280100875016445 -0.4258559493471589   T   T   T
 -0.2265880782549555 12.4281766982349247 11.8870621539318080   T   T   T
  1.8520085142131506 -0.1752914160610765 12.6501855239702508   T   T   T
  0.7666241777247090  2.6045392304991988  1.4668972898440014   T   T   T
 -1.2838536071511859  2.3041850169169664  2.9982121738131555   T   T   T
  0.5479971972875030  3.6811259535951986  6.1997068843592924   T   T   T
  1.2877834158149930  2.3551260806982635  8.9628081153182286   T   T   T
 -0.1725724353220064  2.1007178986443784 11.8854171300805849   T   T   T
 -0.4116075973062611  6.0439927227741306  0.0802963198284366   T   T   T
  0.6684468156663318  6.3041828000950275  2.7074409930260335   T   T   T
 -0.6953712011615191  5.0605070809663051  4.6250877836722779   T   T   T
  0.8799675150881409  5.3409151588039112  8.8431155657057054   T   T   T
  0.5805606754889464  4.3746388839477879 11.1443278139150355   T   T   T
  0.4761757589840713  8.5862462726272728  0.0583649942472848   T   T   T
 -0.7311032685361216  7.8112220624151520  3.8704643732056794   T   T   T
 -0.1989063675385017  8.5000596061264435  6.3751396933082907   T   T   T
 -0.4250146908646664 10.1192532473973156  8.4343459570506933   T   T   T
  0.0796580780365120  8.8839286174704224 10.6356095584316410   T   T   T
  0.6825518662599752 11.7587824934797869  1.0426175735092906   T   T   T
  0.6775860837660770 11.9238884392060367  3.4486606951428631   T   T   T
  0.5447353112053144 11.0516099675362227  5.9703054039299390   T   T   T
  2.3843979642139499  0.8579628509092477  0.8417175223186300   T   T   T
  2.0285479320984834 -0.7259550441511640  2.8494658036142804   T   T   T
  3.6922916622380999  0.4524986579484415  4.5460773631682754   T   T   T
  1.3898733387963007 -0.5269552917977973  8.6684372729556021   T   T   T
  4.4568245338329611  0.0264487122518510 11.9688322841636410   T   T   T
  3.3773562981581660  3.5895197378737365  1.0086756050951782   T   T   T
  2.0983074162200501  3.8800178298976493  3.4465238774312583   T   T   T
  2.5221352523749796  2.4563992700136730  5.9297243434026701   T   T   T
  3.8910523622501576  2.5784672654455760  8.7639790535416360   T   T   T
  3.7639694862537492  3.6924854080843765 12.9449368573127792   T   T   T
  3.4798856542075018  5.8627364212393935 -0.5847081028868586   T   T   T
  3.2022996976289040  5.3192795383431521  4.7655713047939088   T   T   T
  3.0661313896215305  4.4962761423821132 10.2771006739392750   T   T   T
  2.6774742717810991  9.7752003186336989  0.3093243403187121   T   T   T
  1.6365085143703655  8.9646997079184736  2.4800662757708958   T   T   T
  2.4886960148017958  8.5856254075695553  6.6919578489172009   T   T   T
  3.1679276614084735  7.0657301921423965  9.1342057600841038   T   T   T
  3.9092653865428457  8.3149523682926478 12.8230486388658917   T   T   T
  2.8898195938158371 12.4617972676426287  4.8022717722995631   T   T   T
  1.3064963397910039 11.5462323692016291  9.9787664721299905   T   T   T
  4.2273665407210554 11.0470598521900154 12.9262113486366310   T   T   T
  5.3698811503635051  0.0433326184520972  0.3111754563145187   T   T   T
  5.6471659055216126  1.3533050928336130  3.0173427829772796   T   T   T
  5.1711280927645840 -1.3570690981453248  5.9172209764680650   T   T   T
  6.2658706469307734 -0.4058200283790999  7.8348826551359458   T   T   T
  6.8705736526381633  0.1573520257558421 12.0839813873137416   T   T   T
  5.8391766554463853  2.5250201076071521  0.6864894312629216   T   T   T
  6.8942934804951665  2.6958249508707279  5.2170670469574167   T   T   T
  7.5970830857953153  3.4450697686256135  9.4767181065357295   T   T   T
  5.5079039355281694  3.4755357375639702 11.0743238552324446   T   T   T
  5.9158380504340338  6.5826752310341812  2.6489163381556708   T   T   T
  5.3695007266328734  5.5323114716580246  6.2196869283898568   T   T   T
  5.2223477066218944  5.3644008475334513  9.3819147145348545   T   T   T
  5.8052194329524296  6.3093189196394226 12.4822550279382511   T   T   T
  7.2724704655349361  7.6618018387269222  0.4901637176578287   T   T   T
  4.3320378549177025  8.8395200630830928  2.7181407436801330   T   T   T
  5.3517729106483793  8.4046265144376910  6.5438066671355930   T   T   T
  7.2952664575755444  9.4432045811707592  8.5051710222477830   T   T   T
  5.7854950539427055  7.9502362376381299 10.7063547308554217   T   T   T
  5.9436156003821523 12.1252468311410624  0.3251976015638606   T   T   T
  6.3290970348183979 10.8495594508445041  2.9427885564097611   T   T   T
  6.3070278148313985 10.6879740219496124  5.5049677102188967   T   T   T
  4.0504840288160082 11.8044963669298948  9.1027274331663826   T   T   T
  9.4028297573832571  1.1970124389119667  0.2566122283223889   T   T   T
  9.4483501314108427  0.0319532428386531  3.9944302789840251   T   T   T
  7.6413637515810535 -1.1932872037809938  5.3598375288742783   T   T   T
  8.6267975132545196 -0.1430246581321952  8.8187053247831813   T   T   T
  9.2125499754618865  0.8044163614158162 11.1004749643594813   T   T   T
  8.6911276293769877  3.5436533041488665  0.6263519000493940   T   T   T
  7.7312293053057033  4.5116239182928251  3.0052469434097513   T   T   T
  9.4718790802352704  3.5909835462712238  5.0279121843650509   T   T   T
  8.6565035356536466  2.2164601812301439  7.3276550047995626   T   T   T
  9.3211874486247055  2.8154716458089615 12.7737775367244044   T   T   T
  8.7251026210746918  5.7687086099322169 -0.6819222595294747   T   T   T
  9.4710096340346599  6.3837580819816688  3.8449680686902052   T   T   T
  7.9634877409408382  4.9450981012477362  6.3105844705063943   T   T   T
 10.1165320462522086  6.4213528744944366  9.1242654228261415   T   T   T
  8.4575336726049244  6.6093347960382047 11.3318686191132034   T   T   T
  9.2319726023112665  8.7837442989996539  0.3409515683060895   T   T   T
  8.1834589411451315  8.5114905416930320  3.0383963268533565   T   T   T
  9.4888768481213805  8.4486340848130617  5.3950314791080123   T   T   T
  7.9979598630600197 11.4091192840351319 -1.2939161401556334   T   T   T
  8.3565847094620072 11.8691968967904149  1.2102410099484524   T   T   T
 10.0708234284252658 11.4099438965564559  6.0303086114818800   T   T   T
  9.0553531314552753 11.7027652843355821  8.6552912544523721   T   T   T
 11.5855432587549210 -0.0555278204506288  0.8672867538889061   T   T   T
 11.8294156423165475  0.5154400929341547  3.8159845383382378   T   T   T
 10.9133231286696013  0.5735044465078902  6.6114964217930892   T   T   T
 11.0868686759271622  0.1740043303440265 12.4880229621148224   T   T   T
 12.1047922701485682  1.6969114670587628  8.1836106323029476   T   T   T
 12.1731633559496206  1.6999823598617143 10.7277189351573927   T   T   T
 11.7170031504402132  6.3182501411611094 -0.7010827437242074   T   T   T
 11.7517204231094876  6.1466904631210415  1.7208102075040688   T   T   T
 10.8353729919411652  5.7459570910536693  5.7527871859961550   T   T   T
 12.2856203779560307  5.7507862832297869  8.4613903665390868   T   T   T
 12.5187284067072344  5.0777177623386596 11.6758819690466602   T   T   T
 11.9018973278106870  8.9486752298595729  0.1168798560748007   T   T   T
 11.7657839785704397  8.6564566606468194  5.9786666865168927   T   T   T
 12.0843954853899742  8.3978451790140607  9.7210885950173260   T   T   T
 12.4553166503814197  9.2054682026502785 12.0038465735421376   T   T   T
 12.3881614714077362 10.9196356104597907  1.7678979830507540   T   T   T
 11.4419675387059225 11.2987627568751723  4.1191329583624405   T   T   T
 12.4430282442964408 12.4673049311238255  6.3154639039001994   T   T   T
 11.5019594715526878 11.0364352649213373  9.6928573325881757   T   T   T
 11.9110855211477062 12.2441614494287982 11.9928787350614083   T   T   T
 -0.4217709574786269 -0.1283282537037883  2.1517641450008997   T   T   T
 -0.8357274936134862 12.6594347575301622  8.4043883026207062   T   T   T
  3.3563245963025512  6.3076366065735758  2.0777203240021773   T   T   T
  3.0406656833378976  4.6727483360239681  7.5505672415155525   T   T   T
  3.2879707143069630 12.9365291437687677  0.1514850298433524   T   T   T
  3.4752848026101120 11.3323159717337045  2.3490303190195938   T   T   T
  5.1448628497467084  4.0366975849216420  3.2640278745890750   T   T   T
  5.8702391974484129  5.1404378824525461  0.4981343414406137   T   T   T
  9.9532745611274684  9.3643672354742584  8.1471088498906763   T   T   T
  9.2487246400457952 12.6400721393501492 11.1771124111813318   T   T   T
 11.1570357924255639 -0.8155163254973663  9.3284468197515924   T   T   T
 10.5004052546595528  2.6131798013494403  2.6898952317185407   T   T   T
 12.2378482278443261  3.0861585434618681  5.2183344831232352   T   T   T
 11.2160590315920441  8.4961417344606485  2.9252202343633673   T   T   T
