Zr Ti V  W 
 1.0000000000000000
    15.3704372863088707    0.0041087699184726    0.0045828320708022
     0.0041071823098185   15.3593176205705255    0.0049868964281650
     0.0045832368054306    0.0049883200619353   15.3853693029952101
 Zr  Ti  V   W  
   2   2 106  14
Direct
  0.1993270267081849  0.9931422014612061  0.1888329736927694
  0.7919793183891932  0.4015188266379721  0.8105228602493700
  0.4049715509991443  0.7993036109605502  0.8056043028482880
  0.6134484013625059  0.4008515484790930  0.9889993614170585
  0.9997914416937783  0.9975156137997554  0.0011898553445946
  0.9924816169705929  0.0022556691205831  0.2010892409854902
  0.9993068244402714  0.9954424980963443  0.4001746711095461
  0.9937433501112097  0.0003816199990214  0.6012710434865803
  0.0022832653499543  0.9990165984065094  0.8011773423859839
  0.0006760337271146  0.1992907789655040  0.0002566993125963
  0.0006960594951640  0.2032816357590403  0.2018887793492405
  0.0011246421235755  0.1993960423018672  0.4005824666898431
  0.0027901403502342  0.2007053508692183  0.5985777161235860
  0.9991001329683090  0.2011779226965999  0.8009619177819952
  0.0044650051819453  0.3984113463576601  0.0064563732050721
  0.9989699105486216  0.4004866115747064  0.3961803194201438
  0.9976188237471546  0.4001688563730974  0.5994653051950600
  0.9993857846952890  0.4009151357991329  0.8027673995425978
  0.9988619319201253  0.6029733821459416  0.0007748604490431
  0.0040613144254684  0.5965396221011803  0.2012369001583285
  0.0001535377866981  0.6017452107193600  0.4023047832576136
  0.9982344295612900  0.5993128295906252  0.6024102902592859
  0.0020981200546941  0.6005833023963374  0.8006316854944625
  0.0036513133920244  0.7997395759984516  0.2029291049435623
  0.9986119418195625  0.7995775861212395  0.5949692966017540
  0.9993587873409036  0.7996816681135419  0.8043505560214596
  0.1994750915338956  0.9696132646257567  0.9919354097920091
  0.1979169880380351  0.9993112858867846  0.4037120012783670
  0.1979959879319453  0.0037153253623197  0.6049098122926218
  0.2010643550396857  0.2045330837972231  0.9975061369301490
  0.2014321313511187  0.2026683459305077  0.2003696217617463
  0.2031445636802898  0.2001965185685338  0.4037921431813229
  0.2012017348156785  0.1969166647001730  0.7950933381499417
  0.1971393953880673  0.4057900000775531  0.1961608596465018
  0.1995199247064499  0.4023619968047121  0.3990982751483306
  0.1978161309548500  0.3963416513820774  0.6019013321084808
  0.1979087021752128  0.4038114634919339  0.8035329275908859
  0.2010091114286449  0.5938721272183698  0.9930876438735322
  0.2008526326873005  0.5991372555773701  0.4126863444076934
  0.1992213241631174  0.5989453259665302  0.6078263076196141
  0.1949694454430619  0.7994033160400548  0.3985376997934996
  0.1988164577930027  0.8017427166837955  0.5991703552520202
  0.1984473674274903  0.8003345689963616  0.7960183071128129
  0.3995825832773725  0.9997557379148277  0.9999155650421636
  0.4059681954727489  0.9963471468057189  0.1995386080672099
  0.4004614955169711  0.0029725332992474  0.3994771198504509
  0.4010189856534182  0.9990105567047336  0.5991183872256514
  0.3971295847158505  0.0009793293447421  0.7999689419940391
  0.4018055143431201  0.2002030340156030  0.0016738452666052
  0.4000945728711415  0.1985585914409773  0.2040099398329548
  0.3964576181494605  0.2003419348358056  0.5946942437656673
  0.4003617826529658  0.2001957440564517  0.7986373158385390
  0.3966750542578877  0.3976841672569720  0.0007637481771211
  0.4026682493694465  0.4010828555123755  0.1985478877523684
  0.3998468447351512  0.3969538087326057  0.3966021857487997
  0.3990105506242493  0.4000625784124526  0.5977835639461884
  0.3969373293970153  0.3993512986058573  0.7996696230687268
  0.4025665491208555  0.5995771489110279  0.9996657852584704
  0.3978745029498781  0.6026434799604012  0.2007299845810147
  0.3995772922772935  0.5988071991963478  0.4006194960692450
  0.3992785875056841  0.5999990361751616  0.5994490742014986
  0.3965234641012667  0.5992924618537411  0.8000841474362389
  0.4053505874477160  0.8000655311465327  0.0067771214889093
  0.4006937494037026  0.8012238300169652  0.3945546107619399
  0.3990909101038617  0.8010736151039647  0.5924865272630244
  0.6015132204841591  0.0006073520550511  0.9974640831350986
  0.6037223064740358  0.9999489853369816  0.1981838561144453
  0.5994793917613472  0.0002486296963997  0.4012416687129534
  0.6020240756453328  0.0008209381744548  0.6024329582383351
  0.5980766909784421  0.9995213197066014  0.8009263887080300
  0.5998594573034612  0.1988680034304266  0.9989027846136740
  0.5991892351721501  0.2023338462503336  0.1987121732103173
  0.5952550135117457  0.2009768230611909  0.4007515199873922
  0.5980584562665149  0.2008346041564019  0.6008163254122267
  0.5969861678733448  0.2013683321501200  0.7996426415789841
  0.6030448862438328  0.4011870028111458  0.1992629114159398
  0.6012087861909660  0.4008542799730436  0.3987474290179220
  0.5996976271319906  0.4003700149276242  0.5991022350717714
  0.5900600268428010  0.4008522494945706  0.7944912411811689
  0.6013906722975690  0.6008018375135991  0.9987972912890655
  0.5984523557813598  0.5984300046025858  0.1986536109994664
  0.5991754729196438  0.5987815426273853  0.4023521873113661
  0.5984974328019119  0.6000701698825817  0.6025958224414237
  0.5962057744714561  0.6004589689715876  0.8005650355021651
  0.6020497333432877  0.7992946407072662  0.0005232232547773
  0.5954008500268995  0.7988175335631422  0.2001704142872632
  0.6021644512644895  0.7982144119341202  0.3993732656452756
  0.5985507716577485  0.7995732529497782  0.6002027560161377
  0.6018684807179218  0.7995269412436736  0.8009533818212820
  0.7997538873296194  0.0003850518489716  0.0048296959938828
  0.7980304503899628  0.9967305916061789  0.4013883956594475
  0.7996199646703024  0.9994199049004457  0.7972944529607233
  0.8002039512968948  0.1996207281980783  0.0010325788121452
  0.7988357196459501  0.1966177573011207  0.2028186359501521
  0.7985648584039823  0.1983839302288189  0.4015460647289327
  0.7991299441260039  0.1965349691207659  0.6000700509376199
  0.7996358590804252  0.1955232718157645  0.8004288441978042
  0.8084573861267486  0.3993406286149717  0.0110981044629053
  0.8045660531964972  0.4000600701787448  0.2047918180179716
  0.8000652689123893  0.3998278543480884  0.4019696496459886
  0.7992645057658332  0.3985218006567612  0.5994449477406484
  0.8000226960376935  0.6003732736049437  0.0017133792057276
  0.7985532494914299  0.6010001819143277  0.2017426507677444
  0.7982562079142301  0.6042210568606262  0.4018834247156390
  0.7983791653479044  0.5999728209063475  0.6032822550085565
  0.7995383798805613  0.6064569495261299  0.8001292759615595
  0.8033936228103737  0.8009937704426802  0.0035235737723414
  0.7975449097494346  0.8038340564146590  0.2058380286333665
  0.7987976498578773  0.8051109371678522  0.5966121704759570
  0.7999382180512695  0.8018273966303473  0.7998414082169718
  0.0009891298409856  0.4011267540393494  0.2019819607005273
  0.9930416105219513  0.7984753753831840  0.0028320702514543
  0.9961435717319150  0.7971174698102631  0.3999207229590541
  0.1993165960102953  0.9978486919933418  0.7972349213068566
  0.1995397296865405  0.2009298863786787  0.6001595321903727
  0.2003809980693639  0.4000669275600820  0.9986042363511055
  0.2023776832590859  0.6010613313826429  0.1864024323882993
  0.2003724407218916  0.6028513325941643  0.7995108790981652
  0.2019298166269472  0.7900685076585101  0.2055700110121825
  0.3994980795681308  0.2000813359735206  0.3991963915392469
  0.3956514648173308  0.8007910063276255  0.2010348339988008
  0.7974187229056718  0.0013634380190370  0.2020587822227838
  0.7983129747756013  0.0009434561549537  0.6006822909208797
  0.8019470398745141  0.8005021819731896  0.4005342298779802
