Zr V  Cr
 1.0000000000000000
    15.5277836321495606   -0.0011014415353407   -0.0036444284316418
    -0.0011015311309700   15.5268057001839015    0.0012045176117796
    -0.0036459540422085    0.0012051907892001   15.5242636607114743
 Zr  V   Cr 
   5 117   2
Direct
  0.9993895636643731  0.1991943693377146  0.3993490934532478
  0.9953985873041051  0.3989738094490449  0.9983985328953714
  0.5987312128171599  0.9962709965720878  0.0055165270637716
  0.6045469485768624  0.0219418405267608  0.7848164484960921
  0.8042735826838725  0.3719002799500259  0.8080769407741708
  0.0007538688380415  0.9981796169768345  0.9997681418264076
  0.9998433393710375  0.9980595795631181  0.1999141969599817
  0.9997720028338728  0.9943839396198971  0.3997983595715894
  0.0001539003871647  0.9983901495565904  0.5995356183124795
  0.0020440110934539  0.0001671638900738  0.7988946204043473
  0.9987553740680619  0.1943023554842486  0.9983258478308833
  0.9992477529182370  0.1989907430092540  0.1958219420466347
  0.9991199544741708  0.1978441876044613  0.6031789310882479
  0.0023156051187586  0.1997124369300469  0.7994252687169084
  0.9999158664594386  0.3994849462746110  0.2034292982282647
  0.9997673978470958  0.4035871875629334  0.4005975795660911
  0.0007963605654329  0.4005342893864667  0.5986807878955593
  0.9988134178122144  0.6036912782297289  0.9992117831064584
  0.9990742360306690  0.5999805276667192  0.2000280666356843
  0.9993082614066654  0.6003755981024392  0.4001477482524802
  0.9994155527287120  0.6002023695250019  0.5994411551679735
  0.0003811077467213  0.5998535311057003  0.7983805551628262
  0.9994347073422675  0.7996169929638880  0.9994082026177026
  0.9993616403299855  0.7992999903495019  0.1997131192614146
  0.9997818264354150  0.7979616120178489  0.3998231134846517
  0.9995336889895651  0.7991381136687746  0.6001111565807949
  0.0009206164658838  0.7995096409118693  0.7994775674918417
  0.1981631834831060  0.9990141980530378  0.0006011258951184
  0.1986504567250020  0.9995391106574359  0.2005012133717338
  0.2002109175328900  0.9984798086525841  0.3996674785734707
  0.1995741432192054  0.9993030491300211  0.5986659752057504
  0.1993351701255459  0.9996191827345541  0.7991951265934749
  0.1996090633643273  0.1994798887024138  0.9996585893133332
  0.1996477007474094  0.1994292685634527  0.1988816699138345
  0.2038175708947315  0.1993840285228849  0.3993151786904494
  0.2007976731855023  0.1993658996247904  0.6003303644704155
  0.2005744539009408  0.2000742903509306  0.8003565239228937
  0.2024556551345131  0.3995729031409581  0.0010270772240340
  0.1993789012693691  0.3993311472859175  0.2009353132492298
  0.2007907506173800  0.4001338572395743  0.4000390345584439
  0.2004259081487164  0.3990404266803129  0.5988576400616309
  0.2023521152229733  0.4006494617590231  0.7989771653974045
  0.1989475252882000  0.5995131866253902  0.9998997568271477
  0.1987778667557039  0.5993444674116337  0.2000517310619133
  0.1997313526795623  0.5996963615754258  0.3997069541101668
  0.1994017456514092  0.5990204529752834  0.5998546706856209
  0.2004702232874112  0.6001545342607664  0.8000261326860489
  0.1997116756783328  0.7993222385368985  0.0001536556434531
  0.1994767290393821  0.7994132846709486  0.1998127705687718
  0.2001549193430446  0.7986562563057963  0.3998799880882437
  0.2003680633380998  0.7994913894549609  0.5997394363850571
  0.1998860249382156  0.7993452063854823  0.8000893018745958
  0.3939290413515369  0.9990136575408699  0.0008751484347831
  0.3982071643549070  0.9996960989681797  0.2008251412380889
  0.3990162097769953  0.9990362195075810  0.3998256741217457
  0.3992040365318417  0.9991355432724240  0.5992298879258861
  0.3967782372528132  0.0000781094438733  0.7997099557122380
  0.3992694110117522  0.1997259134041751  0.0000652674718942
  0.3991601901876011  0.1992182236423106  0.1994068762504004
  0.4005240054473512  0.1990700378977998  0.3997936000900532
  0.4003356195722437  0.1996991433431048  0.6001655181926721
  0.3992485627780077  0.2000816244928479  0.8008495317279137
  0.3989745610484245  0.3998213957611935  0.0007345032805965
  0.3991447480944864  0.3995631352083193  0.2012833631773652
  0.3997766569110956  0.4002398345374227  0.4003181328112471
  0.3999999526607323  0.3992466060093504  0.5996048815303897
  0.3997882733427797  0.3998124264727207  0.7999822623054500
  0.3990211146342474  0.6000163563095827  0.0002857288720351
  0.3990771397784691  0.5996614935351854  0.2001525908372817
  0.3995131682599508  0.5997939179750147  0.4001680166775770
  0.4001299999488056  0.5999560500946507  0.6001950641121330
  0.3992306432672187  0.6005127723558524  0.8002967232846130
  0.3988669414462209  0.7991618824135570  0.0002936650231639
  0.3997759973505818  0.7996133994387953  0.2000806436172054
  0.4001016825042503  0.7992258010643012  0.3999542214237072
  0.4002553289908961  0.7993902800005940  0.6003970164822330
  0.4007152379121759  0.8010808642533056  0.8008222989786568
  0.5995059405732847  0.9996485553660484  0.2064201604403693
  0.5994084343343682  0.9993026178632564  0.3987335592334820
  0.5998544343729461  0.9994592699619747  0.5891375768202617
  0.5984771264097640  0.2027767473911999  0.0006089010804555
  0.5988173965581206  0.2005599171632084  0.2001807616325841
  0.5982468587333902  0.2005977555513279  0.3996828558471851
  0.6001156199535680  0.2000943814284185  0.5990916530748848
  0.6663242972255006  0.2044467530355499  0.8013083539744320
  0.5960560781670334  0.4018066772052470  0.0018277931606967
  0.5982031694112864  0.4000283331402087  0.2022715272849313
  0.5986085866774984  0.4002165415785221  0.4006550508299867
  0.5992806791963277  0.4002636233840569  0.5999424818023578
  0.5976160879542455  0.4047080050073477  0.7997406733629889
  0.5984961852387360  0.5992211417942415  0.0008806673759963
  0.5992895428597719  0.5993095276672963  0.2010230332524368
  0.5998101368090621  0.5999543400810864  0.5997411848484070
  0.5999090744213555  0.6012471190421353  0.7999974684057074
  0.5994506724585821  0.7938111472823647  0.0008835355852088
  0.5992443409837040  0.7985224559009046  0.2015592028050196
  0.5993225350742277  0.7984732903514825  0.3999600890045738
  0.6000393047857038  0.7996011450556673  0.5999245725640339
  0.6001515627592323  0.8031352422360813  0.8001427832097217
  0.8041517354129474  0.9999500967877348  0.0003224268299578
  0.8006080284111189  0.9995818865974601  0.2006410403610560
  0.7997832568737122  0.9980904557557211  0.3997957665148398
  0.8005584873895630  0.9996381829590010  0.6001979992694124
  0.8069472982006299  0.9966942825201089  0.8006176231748663
  0.7977402434550288  0.1996532100868600  0.0012994092936687
  0.7987523908408521  0.1989394301063334  0.1994570074703884
  0.7947575674650326  0.1982270990009132  0.3993144945468607
  0.7991800553191279  0.1992712657880487  0.5989116125812418
  0.7914689860894940  0.4005693471949476  0.0097459137941554
  0.7984764572639275  0.3991228238173061  0.2044293459595223
  0.7984539232760391  0.4001401095403783  0.4008555646453031
  0.7993154510017894  0.3983323612360675  0.5982469673774760
  0.7984397408082604  0.5997238768320263  0.0005594312340350
  0.7994505767124432  0.5996235300980317  0.2010873250899472
  0.7990791310730341  0.5998729966460516  0.3998650825694541
  0.7995855022479375  0.5986852857252530  0.6007948948660664
  0.7998538112472753  0.5955884245581307  0.8012190054915515
  0.7992970785576133  0.7994331530701260  0.0008583141922460
  0.7991019625203248  0.7994295058570823  0.2000266530935072
  0.7988685293216553  0.7988728822550527  0.4003531183095841
  0.7994319866403917  0.7993234917149737  0.5999796391484687
  0.8004658834311992  0.7985896817937063  0.8012389273339899
  0.0065565381080379  0.4003104319597368  0.7945362634042999
  0.5993624746760005  0.5996728159025009  0.4005865628806504
