Zr Ti V  Cr W 
 1.0000000000000000
    14.6399376396582710   -0.0802043046568478    0.0238444545588115
    -0.0806749386328004   14.8066427645663037    0.0889899998255664
     0.0236254164445562    0.0883891965426687   14.5314310934285587
 Zr  Ti  V   Cr  W  
  30   9  50   8  27
Selective dynamics
Cartesian
 15.1158956930632300 -0.3047227470528053 -0.1538151187565087   F   F   F
 -1.3979313078320637 15.3109033672256132 11.5765352738447422   F   F   F
 -0.6354838672822832  2.4931417897704926  8.5158574564120517   F   F   F
  0.4374709344854586  6.1003017127165524  6.2076757147201151   F   F   F
 16.1847307184257332  7.0163882157871251 12.6205219768017365   F   F   F
 13.8427829169931851 11.2019153728797889  0.5770547386182079   F   F   F
 14.3294116895980164 10.8766815514807504  8.1199174315728690   F   F   F
 14.9034917578927661 12.1566065725946260 11.8682361905648364   F   F   F
  2.8856718354078095  2.9448410644068050  3.3998755697183096   F   F   F
  3.1274925124503308  7.2432346122036968  0.6732623985038992   F   F   F
  3.7702697913492784  5.8582344715012873  7.9422421549560172   F   F   F
  2.0640056522964096  8.6001409690753761  8.4835646056677412   F   F   F
  5.2004735419820527 10.1812627542489818  0.2318612117000658   F   F   F
  5.3097684159576612  8.6286647288091043  3.0947558498219565   F   F   F
  5.5930934407779089  8.2775352423174748  8.0689755565289740   F   F   F
  5.8812570891768745 12.2612059147291070  8.5128824903238378   F   F   F
  8.8672919499686138 -0.1401668437129670  3.0580307626473830   F   F   F
  8.9133973541966114 -0.7201824383324354  8.7077831901427860   F   F   F
  8.8404639617760044  3.0108496254380932  8.1726872663688415   F   F   F
  9.2064340231977990  4.8717737914701491 11.3766571760528148   F   F   F
  8.5356294099874752  8.3799884515547163 15.3606444934178032   F   F   F
  8.2486211844682522 12.1190670501279243  5.8520347777933006   F   F   F
 11.8742892238882014  1.6621891922942651 14.3273271550261949   F   F   F
 11.7232071639118018  2.1831294131869377  3.0470630882008347   F   F   F
 11.6006493295780775  3.2683469059862493  6.2200775229003167   F   F   F
 11.0763415037658870  5.0095599149834928 14.8100514197647044   F   F   F
 12.3891207592698578  5.6466097396548323  3.4384239532597660   F   F   F
 12.3635283183455549  6.5274329750991820 12.0210606869549501   F   F   F
 12.1802383409810275  8.1216223157060696 15.1520703058268360   F   F   F
 11.1614633943223662 11.4574442435581059  7.9857034813083816   F   F   F
 13.7889121191357535 15.1655186460871167  5.4268576746171115   F   F   F
 15.2853427526008954 14.2625705817986894  8.5762290966393468   F   F   F
 -0.4574847260129966  3.8574560377067826 12.8509930912749777   F   F   F
  6.3006998241686514  6.5320663040319538 10.5278977533962124   F   F   F
  8.5889796929489073  2.9797241967553028 13.7044935267267931   F   F   F
  7.8581084964619183  8.4239950163539525  5.7820035896430824   F   F   F
  9.2553673373074385  8.6024399274245162 12.0983830498921066   F   F   F
 12.0742553502975500 13.5165664233021765  2.3739364406385843   F   F   F
 11.7928115090322638  4.9929827881488151  9.0700350710748250   F   F   F
 14.9538898439636405 -1.5338917921945263  3.3038050885362491   F   F   F
 16.1025270475426261  4.4297492880539453 15.2924143722304624   F   F   F
  0.5154110523809704  5.5766678108807008  9.7065268842651591   F   F   F
 15.4703356225250612  8.8535170569092312 15.6810678987234162   F   F   F
  2.5925624026920611 -0.4123606326302484  2.7478150861668054   F   F   F
  1.4634451421898851 15.7823539146646716  5.9859734210237070   F   F   F
  3.2670258919878901 13.9594962463263244  7.3200631867336572   F   F   F
  3.5827293704507697 14.3326321733946216 12.1987339454092911   F   F   F
  2.8536110053085508  2.4849025495457910 -0.1720408830824841   F   F   F
  3.1443588267666431  2.3825362657912965  8.7802716058147343   F   F   F
  4.0624599953123282  4.9572265058090412 11.0206172022351119   F   F   F
  2.8980244424956534  5.2573014596784908  5.1185931973474750   F   F   F
  1.9196641377708850  8.6094830263129296  3.5331482355886146   F   F   F
  3.2392786453004945 12.5071188893382264 -0.6196905341921024   F   F   F
  2.5085759625948603 12.0372187399234569  1.7200099974169998   F   F   F
  2.8596150383274108 11.0599324409864810  6.9387351837886015   F   F   F
  2.3046761366138200 11.9751323221845709  9.1371034008078791   F   F   F
  4.9301625505486992 14.9525912519826143  2.5539460278812487   F   F   F
  5.9827261791187789  1.1904423324719542  8.4195202051724056   F   F   F
  5.6997924018611341  0.2506957551015163 10.6191903934621603   F   F   F
  5.3306904968499431  3.3474565090095019  5.9584989850598244   F   F   F
  6.3179530667258810  4.0559056964458513  9.4135623790457057   F   F   F
  5.7948779863484097  2.9244169813234855 11.8495093558198477   F   F   F
  5.6614245415411570  4.8652949074464669 13.4774986645949895   F   F   F
  4.9373499415596971  5.0223264662879243  2.7412137789587372   F   F   F
  5.3724494903396565  9.8669785590481940  5.7348628422474723   F   F   F
  5.5564332932701781  9.8789648142075297 11.2231864798224414   F   F   F
  6.2953670275870124 13.4438653013600522 14.8705492152097811   F   F   F
  5.9150679834648718 12.2101311453127170  3.1110398956652312   F   F   F
  4.2452412992132675 12.3019564226802824  5.1909800014658423   F   F   F
  8.8843117397031985 15.7393497203832453  5.6012137318684871   F   F   F
  7.2628759723134362 14.5246184251788417 12.1259845122181922   F   F   F
  8.3398392974788980  3.6289817149732220  2.6273510229771451   F   F   F
  7.1101931758535795  5.2294477181252805 15.8146553589511125   F   F   F
  7.5676593871752269  6.1730848999718484  3.9060289536256927   F   F   F
  9.0510889171973545  5.5127149016258672  5.6853370932990224   F   F   F
  9.0510363522700743  6.8941025206024396  8.7841885283100805   F   F   F
 10.5685290460855512  8.0571444292506538  3.7071827392979744   F   F   F
  8.5682652684486555 12.1351854122620288 14.8324082735947140   F   F   F
  8.6864264569090217 10.8958829684410272  3.2108349264631340   F   F   F
  8.6079550336630497 10.0068952290542850  8.8608638032741780   F   F   F
  8.6164841344684628 11.3504676142023939 10.8950598352545835   F   F   F
 10.6799991416029361 -1.4318410630964453 -0.3136103927073559   F   F   F
 11.1509798493661645 14.5783920870958017  5.9422664883444689   F   F   F
 12.0860183741534950 15.0297227692933681  8.3314572919762924   F   F   F
 11.5419395424661460  6.8247688828809947  6.0267972237388339   F   F   F
 12.6521081125026775  7.9247039600139333  8.4658030526325305   F   F   F
 12.2374285180440054 10.2163622408618071 11.3494497171727016   F   F   F
 10.7946304354686156 10.9268824543016763 14.8649132461594284   F   F   F
 10.6092077769909228 12.3676612970075670 11.5106453521484369   F   F   F
  0.2638001042937194  3.0078995094001688  2.3151187775484456   F   F   F
  3.4222956869078023  6.6846850707867640  3.7266240819449434   F   F   F
  2.0714541028322038  9.6629494823768827 11.2316308766072002   F   F   F
  3.5360282997893537 11.5920314829631330 11.5554601555443490   F   F   F
  6.4415461842997237 15.3939207111061904  1.0194626587637097   F   F   F
  6.5750065229000390 15.2980978516657249  5.9993316560334184   F   F   F
 10.4016253287034193  8.2375580267722732  7.4777290160528551   F   F   F
 11.0254268198443164 11.6013090297737662  3.2641961282153722   F   F   F
  0.1372050942059180  3.5566776091036068  4.8409021622824131   F   F   F
 -0.2066602751424523  6.3976189929389964  0.5337902618508873   F   F   F
  1.1326174039696015  5.8439473232476216  2.8409895921260526   F   F   F
 14.0701470898293763  7.9025385245308142  3.3180748975359200   F   F   F
 15.5624065329020649  9.5596037230798423  5.7979344383465481   F   F   F
 14.3680022153611731  8.9120772354591846 10.6171443053527739   F   F   F
 -0.3001999387500116  9.2317381869640922 13.2312982661199889   F   F   F
 14.9714879756418036 10.6839943997576796  3.4942915546191480   F   F   F
 15.8837663891215932 12.6796418044180061  5.8214104149787875   F   F   F
  3.9888786491509447  0.1365178016767457  0.1450386595032573   F   F   F
  1.9703580900017814  3.5852669336122034  6.7686205298306303   F   F   F
  3.7314646660921706  7.5131897111875725 10.5403757710513997   F   F   F
  2.1030799809782348 10.2407690426929108 13.7371331663409517   F   F   F
  3.3346733289810335  8.2215193494090482  5.8312843307193791   F   F   F
  5.4113175127087665  2.8887258195122993 15.4925445090537028   F   F   F
  6.0173416857426210  2.2486809345923069  3.6156792471327930   F   F   F
  5.4625182527042231  6.6618272298881704  5.4765151327537298   F   F   F
  6.9454349646476619  5.2924160795703008  7.2068002255889008   F   F   F
  5.7682889810982036 12.3712848298403379 12.3580001938788939   F   F   F
  8.6840152867925600 15.1158855854201573 -0.1778079044119734   F   F   F
  7.9759075140961651  3.2201725454556103  5.1840917205470003   F   F   F
  8.2150235766980888  1.9463515081642648 11.1627034906073721   F   F   F
 10.2235123918028030  0.3718171157432559 12.0424593421648751   F   F   F
 10.9438452755085560  1.9919213648661056  9.6221674183617658   F   F   F
 11.1951543639128221  3.1238042888129831 11.9408885862513579   F   F   F
 12.9996997382712465  8.9703746459097307  5.6657036050189973   F   F   F
 13.3092385946527507 11.7023266998652087  5.3595144513590078   F   F   F
