Ti V  Cr W 
 1.0000000000000000
    15.3720038313806135    0.0023998420144863    0.0001449001601191
     0.0024007571799185   15.3633006247875361   -0.0006442210894229
     0.0001450310074229   -0.0006449824026597   15.3697544548857330
 Ti  V   Cr  W  
  15 105   1   3
Direct
  0.0052194655081281  0.3946860677711941  0.6010492515034566
  0.9915883516184021  0.8001763095454834  0.2036111447437415
  0.0088951793053143  0.7988970223674283  0.6023843339719029
  0.2011552869323086  0.2040994679823580  0.3928320503065475
  0.1961340261283034  0.2043983177379187  0.6045928560304140
  0.1982534852185063  0.3951153434147903  0.2019035826691966
  0.2031824426113938  0.7973993542714866  0.2012757028234726
  0.3828740298950902  0.9989943380885852  0.8027013237478294
  0.4018387046763383  0.5980653763324492  0.8013373854791579
  0.5987842395911956  0.9952655633542055  0.9970289137625871
  0.7936418272664326  0.1984611009896901  0.7952899569333906
  0.7999112924080294  0.4041721805243110  0.1935302638334748
  0.8020676781785885  0.5930679777114211  0.0033339391407556
  0.8068909155822226  0.7975421527958066  0.3915303824051471
  0.7985733673423713  0.7966813479401755  0.6042325655291630
  0.0009251386273910  0.0013153515792750  0.9998001134824205
  0.9986274431641758  0.0013278580345930  0.2015043268041305
  0.9980795388666192  0.0000671818763309  0.4004881413653901
  0.0011113964128920  0.0008275857233209  0.5993712948247572
  0.0002189274763398  0.9996306458366386  0.7986293241420750
  0.9986992741672255  0.1995725738124952  0.0000797995306832
  0.9990017342413043  0.1995279823407749  0.2006341101613578
  0.9977860663851069  0.1969015401518877  0.5980850867745683
  0.0027657457051930  0.1984971630551593  0.8004361819753796
  0.9973430899335352  0.3988301082632330  0.0005730322937294
  0.0001043540713057  0.3991730113892522  0.2009721890943316
  0.0002457930673914  0.3982250842058102  0.3978413341145782
  0.9997904286705070  0.3989430409161632  0.8018581835362232
  0.0025223559474650  0.6002921375102009  0.0018623171061785
  0.9997582981017116  0.5975414170117831  0.2015510778560633
  0.9998985477425992  0.5989488248949580  0.4005846631465439
  0.0007173957090492  0.5992959705017362  0.5988307661188909
  0.9988850284125919  0.5999157124356214  0.7994030411586328
  0.9997951527459579  0.7992347562290860  0.9995599974755940
  0.0032797890960570  0.7996338150037823  0.4012472944710459
  0.0006047474654990  0.8009293931240687  0.8025704521112534
  0.1982240175472214  0.9977956635118487  0.0017973572783445
  0.1976941336212145  0.0005256224098736  0.2006168493428065
  0.1992296989576872  0.9988208069180784  0.3995335401190028
  0.1996080275608359  0.9995079269798611  0.5967609343135555
  0.1991128120866947  0.1004449092967341  0.9001271448781032
  0.1995086890313877  0.1975230834309493  0.1990282825920179
  0.2007418498830903  0.2018258870752699  0.8007737797599523
  0.1988526129384597  0.4013912785318894  0.9996761961038731
  0.1993225331137950  0.4028465873198999  0.4052364580955202
  0.2036643911247771  0.4043289032080631  0.6024696516414605
  0.1998945023247807  0.4010619495190026  0.8021616743426574
  0.1992969498543783  0.5995874239894821  0.0011118058746309
  0.1990567170724273  0.5999040958560233  0.2019557478487995
  0.1985262014990760  0.6008506304305654  0.4005882948512224
  0.2004675733856753  0.6021451971459713  0.6006734258980780
  0.1971407015965829  0.6002019929392104  0.7999142219341474
  0.1993021636327146  0.7999003406974066  0.9976367891283686
  0.2007074637528206  0.8001684869879405  0.4034819711029765
  0.2048369985928605  0.8009002879060509  0.6023884424081057
  0.2006494369809816  0.7978253799566172  0.8001067547194036
  0.3950241057333533  0.0009514172586254  0.0042787505216556
  0.3983744576848661  0.0002862147420293  0.2012658767154610
  0.4026602577210222  0.0000098209543251  0.3998496477124526
  0.3983362846001752  0.0006218631786246  0.5978846069663452
  0.4017756120757799  0.2001795469178069  0.0000799430991914
  0.3991822563441325  0.2006091198366362  0.1973480866997001
  0.4020857455774536  0.2009754935961520  0.3997102989228632
  0.4013119684788557  0.2007957012086443  0.5994519739067113
  0.4000826480711183  0.2019581616248098  0.8007445772160169
  0.3985487591487009  0.4003766722606280  0.0010930999709805
  0.4021793161377575  0.3999493009849065  0.2006088363453561
  0.4002932810046412  0.4002079140556482  0.4000671725171323
  0.4013392312320275  0.4013187387219399  0.6001067089577427
  0.4004250648071664  0.3996130451117390  0.8009090833396039
  0.3994924638352047  0.5991881208659687  0.0036618280107124
  0.3995819703111336  0.5996686825925711  0.2012314143929535
  0.3997142743018350  0.6000432375576604  0.3993489371867628
  0.4009266064138624  0.6004683448251894  0.5968331532497840
  0.4004601723160335  0.7995282507897212  0.0001809509430721
  0.4013014970520934  0.7996642297960975  0.1993412699005350
  0.3995549544822417  0.7995176310901423  0.3991541980958075
  0.4016091772393153  0.7995866368749025  0.6014088957647233
  0.4007138177738354  0.8005846763461285  0.8009695530301701
  0.5994702217212315  0.9994463765258307  0.2047625873608045
  0.6006349215793115  0.9997203621643931  0.5949861471439141
  0.6049708433741784  0.0041534764591665  0.7947086367567949
  0.5997261704666014  0.2015912126256389  0.9945723687455836
  0.5993646985477995  0.1995644118525808  0.1978641989402857
  0.6006861444692465  0.1970098263789788  0.4005463902479590
  0.6010996324116904  0.2004959743079865  0.6033303647621543
  0.6047354695520508  0.4012618410085966  0.9997611389291624
  0.5977278096390087  0.4007604793708701  0.2001103318164479
  0.6010758541675026  0.3986251952728275  0.4004664182478170
  0.6011062454629247  0.4009643048795063  0.5999632837113582
  0.6006634903556513  0.3964915007748724  0.7995318509993148
  0.5973605061506997  0.6003452590970190  0.9996522594810491
  0.6001692130019602  0.6013912343785562  0.2017982246105298
  0.6017291142582207  0.6017197795269243  0.4002293741332153
  0.6010653110801479  0.6006873507710122  0.5992087536234093
  0.6031777771646226  0.6007338238471503  0.7990408908269117
  0.6001052649219026  0.7977622097999155  0.9984622684175407
  0.5988947571906426  0.8002817283196761  0.1980933301680110
  0.5990954323235688  0.8043758493042465  0.4000419088664169
  0.5993466054351683  0.8005047178159213  0.6001559502803817
  0.5997212885000376  0.8030779230296051  0.7998059309413877
  0.8028285519694465  0.9996747443102444  0.9999045425554497
  0.7992513743491424  0.0001878442300169  0.1987308498443040
  0.7966750797049398  0.0013698216313489  0.3990866411538710
  0.8026337788229615  0.9999150029472467  0.5977131363925511
  0.8018763479508820  0.9972288414648562  0.7987708882136541
  0.7999392835477052  0.2025097804483433  0.0013085007215612
  0.7983984138772658  0.1988709495155090  0.1985604307243372
  0.7996867744383459  0.2017062861609749  0.3974833574477604
  0.8007197934044512  0.2014560986489155  0.5967796455432968
  0.8005473519050296  0.4000350660474217  0.4007188170831588
  0.8002740530201964  0.3998576320175260  0.6003319727213194
  0.8006433926068844  0.4029633586640818  0.8016229364842892
  0.7991970602652194  0.6037261249442853  0.2033672595254973
  0.8015613412611092  0.5969275767147864  0.4003155046975176
  0.8019363748682157  0.5972970118842689  0.5993573705078453
  0.8006584719133369  0.6007683185472755  0.7978215158158898
  0.7995735970131052  0.7998887722262080  0.9987972496101321
  0.7954254610882894  0.7998089089193218  0.1939266810003647
  0.8003972576434245  0.7985524103060943  0.8027184594944959
  0.9964148416557360  0.1997032769943140  0.3992063815440353
  0.6003418924142853  0.0009318490912573  0.3995378574456523
  0.5950085443487222  0.1991719253621879  0.7978769415655047
  0.8008008095984752  0.3984844246196069  0.9960005201519998
