Zr2 Ta1 Ti3 V111 Cr3 W5
1.0
  -7.5249999999999995    7.5249999999999995    7.5249999999999995
   7.5249999999999995   -7.5249999999999995    7.5249999999999995
   7.5249999999999995    7.5249999999999995   -7.5249999999999995
Zr Ta Ti V Cr W
2 1 3 111 3 5
direct
   0.7998650612391706    0.2002212644486083    0.9973417698855763 Zr
   0.1952367390141497    0.7967547149416118    0.1967458961441917 Zr
   0.6052541685142787    0.8043095406013361    0.8063833381295132 Ta
   0.6003154271840067    0.2015391915399392    0.7994596777944697 Ti
   0.3990201732058188    0.8027526883651176    0.4004212241826989 Ti
   0.4002414440593766    0.8004112076119214    0.5976837022166449 Ti
   0.7981433247360606    0.9996748225183162    0.9987066355150158 V
   0.5975669250324531    0.0013523622072006    0.9996134348511410 V
   0.8053554809218726    0.9964358958887307    0.2023501660763141 V
   0.4071399291679042    0.0011794569734948    0.0033402665600363 V
   0.6040594713790580    0.1975432195548091    0.0046844981228638 V
   0.8000085387059741    0.3921725399549421    0.9973188821799177 V
   0.5980995428090438    0.9993785835172229    0.1981052848417941 V
   0.8026563110654158    0.1976942648415844    0.2025164277352258 V
   0.7991110392883700    0.9997406332835855    0.4010601258314815 V
   0.1957096307698121    0.9973991142697749    0.0025832230706165 V
   0.4005067058230455    0.2008203393199515    0.9991269177228378 V
   0.6003309082892391    0.4004688862116295    0.0010450205285816 V
   0.7978445632084756    0.5976907048225100    0.9977790360566389 V
   0.4022868571949997    0.0021885147310662    0.2035037583659010 V
   0.6007729727935358    0.2030667923163006    0.2002187651856133 V
   0.7971376180092047    0.4001036937909978    0.1968802250537699 V
   0.5987217255575026    0.0026346001649822    0.4007440614502775 V
   0.8002738614106122    0.2016991481735078    0.3967689302654021 V
   0.7999505976069661    0.9999722449097248    0.6013544044589154 V
   0.0007920879877224    0.0007922081538939    0.0018286915673037 V
   0.1941605097106753    0.2008024500191654    0.9968573725981177 V
   0.3973827822711842    0.3928961192920342    0.9986082453278491 V
   0.6050012694534892    0.6011483929213822    0.9997064217135967 V
   0.7977125593239226    0.7996404858147010    0.9975324391225620 V
   0.2004946012322378    0.9998665528796732    0.2041591850636600 V
   0.3972731309104746    0.1950591161985357    0.1974769408220912 V
   0.5990973286313263    0.3997933104141967    0.2000228317542962 V
   0.7931283908509034    0.5976132905712013    0.1937665004024091 V
   0.4003911620300998    0.0030653154101310    0.4014248032610528 V
   0.6019119895365306    0.2000270532036993    0.3999160125480007 V
   0.8017257135499635    0.4018293251528124    0.4051842157594024 V
   0.5933229431826642    0.9932946348916133    0.5962595803723365 V
   0.7976788500904896    0.1917024734501051    0.5945601282340477 V
   0.7966709315075976    0.9953174304109195    0.7912508587791358 V
   0.0008400412694100    0.2010410903401351    0.0016989336933909 V
   0.2034072880854526    0.4010211104626146    0.0018538480232387 V
   0.4009105997530092    0.5990018050068860    0.9981384875119379 V
   0.6019664127901632    0.7966802950549470    0.9977637440136571 V
   0.1997797136614786    0.2004309790455923    0.2006932955115264 V
   0.3982476796504590    0.3964803286502736    0.1958634766076544 V
   0.5969031873251814    0.5987754797997789    0.1986356070788383 V
   0.7987141608187801    0.8015104132594438    0.1991299289019606 V
   0.1988346880597961    0.9934645451943841    0.3949048538467088 V
   0.3993445404921112    0.2008968300771622    0.4012133036317526 V
   0.8000087020157569    0.5991093082538772    0.4004905745284814 V
   0.3994510498777068    0.9977112231877233    0.5930525619527488 V
   0.6057753518457555    0.2020300196872493    0.6024750474440311 V
   0.7955703558847245    0.3964331284951675    0.6002623812996342 V
   0.0003085373333437    0.4005276085992425    0.9986376415531162 V
   0.1998829991389357    0.6009989544444184    0.9989236810174417 V
   0.4000400423204508    0.7943514554761012    0.0032755127663950 V
   0.0027981317450487    0.2049541958796936    0.2066040426306585 V
   0.2008462156109193    0.3986197576855907    0.1957086672411354 V
   0.3981258198068774    0.5970921522726146    0.1972130338190723 V
   0.5973888679515316    0.7991964050565464    0.2020218647858311 V
   0.9969077667447257    0.0005184503660328    0.3995013736143807 V
   0.1957931714428461    0.1977395032112762    0.4014486085550103 V
   0.3989761503079383    0.4016571667637134    0.3952387387405919 V
   0.6031591428509643    0.6089579425496939    0.4025179133565391 V
   0.8015523952484875    0.8016188153428886    0.4046609251202561 V
   0.2008048362347543    0.9981055931618152    0.6023943685467300 V
   0.3986184993868106    0.1998056018922820    0.5983617052515920 V
   0.5996591627922124    0.3987627600321630    0.5976978470298155 V
   0.8042172329780923    0.6012027112719883    0.6035365723385120 V
   0.3951829507669622    0.9959918365108140    0.8004418082969693 V
   0.8011665530606760    0.3931905995149291    0.7981292224012619 V
   0.9928834675574714    0.5937552983520804    0.9989027020606864 V
   0.2005065010275912    0.8062955269629288    0.0021169886384873 V
   0.0000912113336343    0.4064795448312908    0.2000313144508988 V
   0.2008572701730594    0.6010146585216972    0.2002860152770559 V
   0.4015798294784257    0.7997079650415629    0.2008495775062500 V
   0.9976047822023124    0.1993157064495219    0.3999694531599520 V
   0.2015574812551065    0.4017376562396713    0.3999244374583227 V
   0.3995928672891583    0.5978803251279647    0.3982214938134930 V
   0.5974357496863495    0.7962569679931407    0.4020783580901020 V
   0.0018836342551117    0.0032414631562994    0.6051827178898167 V
   0.2001931762960046    0.2026052229609286    0.6005376870133662 V
   0.3948182526579441    0.4007469148540820    0.6003639845972049 V
   0.5926503164992405    0.5915149081355131    0.5936068513280914 V
   0.7996110619824990    0.8014777866213485    0.5979729567788767 V
   0.2064744975007226    0.0080901505289763    0.8044004680079055 V
   0.3946073789529127    0.1931845001543109    0.7983057281572294 V
   0.5979142543976610    0.4018614479854483    0.7974996688397569 V
   0.9963716078842390    0.7969912522986751    0.0007081811150261 V
   0.0005292441191389    0.5996913400356254    0.2008974072393214 V
   0.0007184694847197    0.3992145953134686    0.4041456247459400 V
   0.2018882968306034    0.6025652681488253    0.4017600668083902 V
   0.9928921254390384    0.1979805832005256    0.5924362845377712 V
   0.3969479421364829    0.5984132363586657    0.5974013695808686 V
   0.5955478330466372    0.7923201204122130    0.5927780991281658 V
   0.9984932293647308    0.9995747694231515    0.8011552057784881 V
   0.2020647951481581    0.1996386682333086    0.8040539523175179 V
   0.3986887824169816    0.3990865173618751    0.7996186111013388 V
   0.6079922200362483    0.6077474669578296    0.8044414897681023 V
   0.7980439066724070    0.7938443945972311    0.7942875790601286 V
   0.9977652703361292    0.7994051588406104    0.2042780291527588 V
   0.0052994005614701    0.5994043020603073    0.4059516167240054 V
   0.2009902959546694    0.7967332252436923    0.3970534358495399 V
   0.9969527265011461    0.3975550930497537    0.5954527024281228 V
   0.2009318764652350    0.6009238256051572    0.6007801436369414 V
   0.9983397787664812    0.1985286160990734    0.7961783729827812 V
   0.2010436161613213    0.3956177162002385    0.7996676875959194 V
   0.3999600351584994    0.6005647697956884    0.7991231805819879 V
   0.0038682468390056    0.8045017217857973    0.4044826468648016 V
   0.2033145822542987    0.8013426461830206    0.6005671626236878 V
   0.0080164877579588    0.4057390980511170    0.8041335863931208 V
   0.4016942872690458    0.8015620489552222    0.8012296778530601 V
   0.9970524223667709    0.8035239605637876    0.6016055725856975 V
   0.0004794215067469    0.6002142062384165    0.8014167522005105 V
   0.2045673124757224    0.8021226658120593    0.8010119166330379 V
   0.0055093772590255    0.8025657179706475    0.8085409259203270 V
   0.9987814422463126    0.9943424698399350    0.1973851838139505 Cr
   0.6011578465139762    0.4001012063973733    0.3993103105759827 Cr
   0.8019975289998267    0.6009759749813797    0.8021431884037797 Cr
   0.6024422464136485    0.0000199253463452    0.7997508244085286 W
   0.7986856408271686    0.1969602860260246    0.7914781782491864 W
   0.1999453479269961    0.4048177451553763    0.6042509212374685 W
   0.9975467986081329    0.5959321473779562    0.5953365033524768 W
   0.2002141901909587    0.5969113772430653    0.7957939570356729 W
