Zr Ti V  Cr W 
 1.0000000000000000
    15.5037299355992140    0.0053875915022060   -0.0049673339968089
     0.0053888447929185   15.4932120490820822    0.0008447035454455
    -0.0049676779853922    0.0008426987699688   15.5021949562625245
 Zr  Ti  V   Cr  W  
   5   2 106  10   1
Direct
  0.9867398837486562  0.6038433859270701  0.9892137742358554
  0.9994751270105231  0.8002526583764981  0.4002900219151252
  0.6046027417409863  0.3963132044977316  0.1813481609358657
  0.6347006380077853  0.5989152408499698  0.6392753197156245
  0.8027556818659347  0.5995038467538193  0.8052793724246067
  0.6007364843932179  0.9967639179545004  0.8025147708787383
  0.7818272829799712  0.4000642164909841  0.0026397091273509
  0.9984046985985491  0.0012857180627110  0.9985641008070141
  0.0006928128566779  0.0036273245246584  0.3999217397627953
  0.0008221552339593  0.0002535065882823  0.6008675435867374
  0.0003182534147326  0.0009737366134155  0.7997452942940353
  0.9975600626333652  0.1993422698895603  0.9988096122190236
  0.9999015113583722  0.1998564875712255  0.1984827346216468
  0.9990991125121651  0.2006926602896724  0.3994709359258205
  0.0005128662636389  0.1999183924791177  0.6003914304218663
  0.9998034813384978  0.1997841760341565  0.7995195110318835
  0.0032669911079388  0.3991668335632078  0.1982899079518540
  0.0024580326804051  0.3974153945349073  0.4012230946649478
  0.0015746561535374  0.3978937002145462  0.6011506015992704
  0.9989654847587321  0.3978489064034073  0.7991821128506065
  0.9999806908612292  0.5989772571854390  0.1981667503977067
  0.9970148858223982  0.5945494218145312  0.3975158676290353
  0.0077770537172548  0.5993209390496573  0.5980825254035869
  0.0068201572228599  0.5994428406523441  0.7908783365916395
  0.9981074576082504  0.8063033473470596  0.9977805182180393
  0.0000186733851205  0.8001803801499291  0.1942162029698629
  0.0014767374367493  0.8011838862236519  0.6048409110142023
  0.9998124744064424  0.8007088939874294  0.7994852546026698
  0.1989186966628632  0.0002602795399003  0.0002227394030634
  0.2010013887271351  0.0006592920831396  0.2002112392924129
  0.2006807628067985  0.0006940475138659  0.4005013544841892
  0.2004006571162989  0.9995202139524648  0.5994461609258300
  0.1995302488023940  0.9997529050268150  0.7998375034512607
  0.2010092449866752  0.1996531609659426  0.9999340058359705
  0.1972721133136160  0.1994451667853131  0.1988135955513309
  0.2024420696074725  0.2003239468988976  0.3990436689750420
  0.1988228835051753  0.2000781426937297  0.7995752156044085
  0.1969565564797667  0.4001702703616902  0.9993313471299375
  0.2008254922160502  0.3990702257094894  0.1994756919564970
  0.2013658324888156  0.4003672707457944  0.3996472803580402
  0.1987785888738245  0.6002103699187927  0.9997282264599964
  0.1979576578503310  0.6006173066881949  0.1998877111314495
  0.2003104333853054  0.5993937275478086  0.3997935570763803
  0.2028272462760917  0.6002304991137608  0.5985673390440677
  0.2004809453738437  0.5991866476667723  0.7999525489048288
  0.1991324731313686  0.8003960775516488  0.9990990958738978
  0.1992184426453509  0.8003778589733531  0.1985393482739523
  0.2043578632433451  0.7991398888326782  0.3998603320086648
  0.2008967301309613  0.7999353517915222  0.8003162506214253
  0.3995235372996869  0.9967347234274322  0.1998044500667140
  0.4009063951337801  0.0014046899403337  0.3985772843534611
  0.3996804041938792  0.9998641415789581  0.6000175107648048
  0.3979343152088742  0.9991610690974096  0.7997380868321917
  0.3988975470708992  0.2001633468014158  0.9959999138142500
  0.4021302360561004  0.2007316689023464  0.4029841602592993
  0.4005132559851516  0.1990987637909720  0.6006700602219419
  0.4006476958744795  0.2008677236520675  0.7994396716019724
  0.3954948889637216  0.3988496671410051  0.9991316438272793
  0.3964140196113083  0.4017504582220405  0.1996605226552436
  0.4010938895148394  0.3993989966905513  0.3987229987174633
  0.4006169292378504  0.4004652010876909  0.6001803651082493
  0.3983459841249367  0.4009448199576193  0.7980987705391218
  0.3964825177576217  0.6001286118402803  0.0015923980988242
  0.4040309422444852  0.5998685636738842  0.4026567315215223
  0.4004421349935391  0.6001191695207100  0.5999490483040599
  0.3993204204932226  0.5994715566562822  0.8004985803664550
  0.3997319870330319  0.7993699185379141  0.9992247201463674
  0.3991126380983274  0.7997695514407210  0.2001216650244065
  0.4016840710073989  0.7987771193856892  0.4013517637617224
  0.4018880666745778  0.7996926973804689  0.6006624331128780
  0.3997156837153281  0.7992859152404412  0.7995766539840311
  0.5982089671567034  0.9991211529891479  0.0012428670242558
  0.5990511365236812  0.9989484768416230  0.2000411984629471
  0.6008052054447867  0.9996591451644495  0.3998176434109874
  0.6011859490053192  0.9994870019021667  0.5988832843499328
  0.5967758060426283  0.1981747819592219  0.9996434812930217
  0.6020872251781995  0.1932483654707586  0.2003375259892952
  0.6007039929531702  0.2003384593113782  0.3982355413550921
  0.6019574121124558  0.1989229367012594  0.6018578428913847
  0.6014660516591829  0.2005820103503181  0.8002013205350559
  0.5897676266233198  0.3986542905063178  0.9866142887327446
  0.6003318518540194  0.4003295762588365  0.3998111736206084
  0.6001370594700469  0.3955727934851641  0.5984856135335964
  0.5981707662689509  0.4016477975506188  0.7956240654339241
  0.5952245692304541  0.5998916428841554  0.0090963229640899
  0.5975749893304220  0.6046003658615128  0.2033855175307650
  0.6055264366186068  0.5990201546767301  0.3978068168092960
  0.5926318521497891  0.5999225109339462  0.8220660000547858
  0.5978642291779213  0.8011390548704740  0.9990369640755699
  0.5998771530100355  0.8008611970370151  0.1980481993698231
  0.5982599015340816  0.7998195326627260  0.4019749415294701
  0.5999124579270978  0.8030486068402497  0.6014311905257973
  0.5995328925703760  0.7955588955163764  0.8008059163107228
  0.7982450574882988  0.0008818939512183  0.0012682191272853
  0.8010413171442582  0.9981945036378495  0.2008183307800164
  0.7999347476877720  0.9987061184294145  0.3994098992281419
  0.8015700467981269  0.9991382645791844  0.5989446311198903
  0.8015194570773763  0.0000648361996036  0.7995797233146920
  0.7974332783135287  0.1976413427753779  0.9993416775539034
  0.8025477563126759  0.1990691335378965  0.2010972765107355
  0.7997457855918771  0.2006728224858274  0.4016402035380348
  0.8007475369167063  0.1985831519424988  0.5994896825179274
  0.8011144332107754  0.4034585534818139  0.4021427555822996
  0.8018453356730771  0.4002424001867880  0.6011262171261310
  0.7989407145064102  0.3947474247695980  0.7989500793021502
  0.7884010411001485  0.6029185603136109  0.0115579367471013
  0.8027332545906340  0.5991573947155927  0.2080549805179961
  0.8185460493300523  0.6002377354437476  0.5921092408875853
  0.7957859313057700  0.8014126776619407  0.9998349904720880
  0.7999787480303650  0.8006688410697227  0.1998660992888879
  0.7942973268772696  0.7949835515194302  0.4002844249207940
  0.7997042158816273  0.7992231195161899  0.6024259517575535
  0.8000897264046294  0.8046468740819991  0.8008004495234400
  0.0001706290436625  0.0010146580585844  0.1984662792567737
  0.9998222153110233  0.3950173610880195  0.9993527215605965
  0.2005052453099169  0.1997781764111969  0.5999346692202504
  0.2005837360891507  0.3988921720654491  0.6000336803991779
  0.1995276694985067  0.3995451807792015  0.7993264334448406
  0.2017407580469440  0.8003440474333936  0.6012581525948579
  0.3988370471597732  0.0002658869102740  0.0004098181674491
  0.3984747339690144  0.6005495386671582  0.2013848388178529
  0.8003912112103544  0.1993247113560626  0.7992729234321994
  0.8089536182704501  0.3986092235684589  0.2060419386468082
  0.7995008335686876  0.6002760371634094  0.4034710605707139
