Zr Ti V  Cr W 
 1.0000000000000000
    15.3185418189025757   -0.0058579337440910    0.0011531853961578
    -0.0058580518235424   15.3152820885503385    0.0003427542276612
     0.0011540796390519    0.0003423374486165   15.3446139054441577
 Zr  Ti  V   Cr  W  
   1   2 101   1  19
Direct
  0.6210884337939481  0.9987172872658608  0.8022643253528289
  0.2000726612794053  0.7919774713653828  0.2101249229211927
  0.3982838929768358  0.8003269476522350  0.6098939928319892
  0.9999405006016493  0.9996505129323651  0.3953488085236686
  0.9963059016362213  0.0025895215310454  0.6007969667833467
  0.0005902699613527  0.0009384740056597  0.8041006241514412
  0.0044121289029720  0.1983431490440689  0.9979384792472692
  0.9988186199227534  0.1985276560740216  0.2012337886766241
  0.9990685064741027  0.2035035914976106  0.4014040228827455
  0.0059669244868596  0.2022666018666144  0.6001395031294803
  0.9961346034999561  0.2048177973552460  0.7981363246381808
  0.0000396310196597  0.3985514554343223  0.9938977860570555
  0.0024789996803212  0.3988537890354800  0.2060100907327540
  0.0033825506740162  0.6034682898614643  0.0003793487432159
  0.9964144721597171  0.6010512482085965  0.1986909815986325
  0.0002834955521700  0.5972968711444260  0.3993669469759725
  0.9993215735874023  0.5976719490329925  0.5989500205266847
  0.0006147866902578  0.5982220050150818  0.8003833335156959
  0.9999447675191934  0.8052929608392416  0.9980033791105376
  0.9991821115232415  0.8023647751064485  0.2011371418381183
  0.0026140758300026  0.7999133859668820  0.4014235832339851
  0.9999235263634688  0.7999647465096281  0.6004209585079571
  0.9997199476362608  0.8004242849067538  0.7987999205275967
  0.1952297277445693  0.0027271172372201  0.0016669367386102
  0.1949511882580551  0.0014685427725999  0.2017191802211714
  0.1990038944776162  0.9999634296429506  0.3998300811758736
  0.1945161360952839  0.0036734278758788  0.6000694193971607
  0.1970632053400231  0.0005468145582765  0.8009347725759682
  0.2005080334629309  0.2037621174417859  0.1954442660102984
  0.2039269851720071  0.1997892129527003  0.4055265713101912
  0.2066088156219003  0.2039524956114503  0.8015577335793570
  0.2033929612453668  0.3991343700865351  0.0011575077050601
  0.1987777110537177  0.4001679543566775  0.3947069869336879
  0.1972464931294611  0.3962195231646352  0.6055285017752182
  0.1982033167460383  0.5924465065866863  0.1952864003778867
  0.2006806573893809  0.5998592875663906  0.3983434558181255
  0.1977064933322558  0.5993189557593354  0.5975192917103638
  0.2001425915641551  0.5978914405833764  0.8065367897078554
  0.2057071150269565  0.7986856881581345  0.4052733412003134
  0.1963432176816740  0.7996799574866770  0.6015437067794858
  0.2050541287031545  0.7999073049595052  0.7993856352261522
  0.3972782151050305  0.9999933535116845  0.0012428670760629
  0.3967327084535610  0.0004199767426107  0.1985073679578926
  0.3995036924440582  0.9951466998743649  0.3994158466834674
  0.3985421373486972  0.0010652885829190  0.5995175274975869
  0.4034992115565530  0.0008380756417413  0.7997586094115682
  0.3957668661718500  0.2007295728552915  0.9927391093637831
  0.3996057787052744  0.1984454763593933  0.2000996295022264
  0.4000011472502576  0.1978550190779421  0.4016210808778538
  0.3957041407006098  0.1984471807421409  0.6047448637165905
  0.4007618741690561  0.4004678759404813  0.1948956463114446
  0.4026321495700702  0.4015781763380176  0.4023354176476444
  0.3983902293630432  0.4003185321672120  0.6026788349955644
  0.3944958024017541  0.5991645998180853  0.9994705397867418
  0.3986443522174599  0.6011316233442512  0.1979756364206210
  0.3998013504967988  0.6037831457016188  0.4004690609564179
  0.3982393978793008  0.5971115705013701  0.5999270949161152
  0.3994838403479300  0.6024083472028241  0.7976098189287957
  0.4021578268635691  0.8015388171935314  0.9968294750610456
  0.4021125509366457  0.7992805765889468  0.1999763357245661
  0.6008179768662186  0.9970989777994101  0.0082592794743117
  0.6025729686151881  0.0018794906885254  0.2024324105872155
  0.5996437172798074  0.0001950882334094  0.3975463238615060
  0.6016791682442316  0.0016322109224134  0.5946073363722205
  0.5987882594778583  0.1974805000066746  0.0002093531661818
  0.5993413102799837  0.2036231679770995  0.1994158398129468
  0.5988564359769050  0.2035000952815063  0.4010085782381047
  0.5977589665038946  0.1998359020393497  0.5990097002776117
  0.5956627738649065  0.2034626543919943  0.7985407747736186
  0.5952235784851199  0.4011334092655416  0.0040904931901096
  0.6027149095708320  0.3985623543684407  0.5960554062134303
  0.5972345569016092  0.4019621408335715  0.8000118980632727
  0.6010009709378263  0.6056909107171023  0.0013920551793538
  0.6042754778634947  0.5956172288793269  0.1998261047589081
  0.5994400314070758  0.5956756480686165  0.3987666083598315
  0.6020007912998153  0.5981906899306308  0.5976413106137611
  0.5998657064364494  0.5965101204792703  0.7998293442922140
  0.6002414660320101  0.7989126035284331  0.1945192612165316
  0.5944232016675737  0.7985345576463077  0.4000529484632945
  0.6008749091934272  0.7987238507478024  0.5996012352787022
  0.5950569481929907  0.7938898802273374  0.8031684401249639
  0.8027391771736837  0.0002622025975709  0.0017608278010173
  0.8042857478524182  0.0000793637526471  0.2011633373380106
  0.7997918855453412  0.9999240107426280  0.4001864234234805
  0.8004213172435515  0.9998771458474341  0.5997153165984592
  0.7989448702738059  0.2002447999441278  0.9982050580569833
  0.7996759350767304  0.2009732902070982  0.1979699210772643
  0.7985474621724825  0.1989059424148764  0.3990885471007392
  0.8023604953996211  0.1009031422361387  0.6996653070042161
  0.7961308460949651  0.2032998512406996  0.8006187992600021
  0.8010795608776969  0.4006683909460693  0.9994277940880938
  0.7980557988621685  0.4034313915759837  0.1987661223004230
  0.8008749241072493  0.3988557353624640  0.4023415340965989
  0.8034937581883844  0.4024838813582965  0.6002384486561236
  0.8025417247255409  0.4008557822729129  0.7992927132250920
  0.8023322637243869  0.6022185106622889  0.0028481904424114
  0.7999538472947887  0.6026577053532906  0.3945661604071838
  0.8001875660179419  0.6025542570581096  0.5999496755926608
  0.7999007673076221  0.5995971695836029  0.8015521001023406
  0.7955758141757965  0.8012458358590044  0.9978344711218866
  0.7989144434725224  0.7963012994698669  0.2011032764994286
  0.7967303255384353  0.7994396053687954  0.4010315430356117
  0.8001879541864029  0.8006381670134173  0.6005392872926062
  0.7985000413852905  0.7972035319652778  0.7990718761156708
  0.2006691789322158  0.8000822945585322  0.9990791640948909
  0.9978339321757127  0.0024038499518280  0.0025406146539388
  0.9991926191720374  0.0003606718910403  0.1973765104435539
  0.0006433709732971  0.4005997147510512  0.4040147373118538
  0.0013902782128911  0.3998986418213490  0.6004111150318385
  0.0046665956377336  0.4022758321047499  0.7958658978787819
  0.2005247520260602  0.1997069314798015  0.9997522119496838
  0.2004095118734875  0.1986177985136162  0.6018210702235443
  0.2000509583188311  0.3974984707513257  0.1993119658245090
  0.2014800276185037  0.4009002214031159  0.8010720591528433
  0.1983530372393957  0.5988106694970956  0.0021819880499084
  0.4006439083261862  0.2033820153457587  0.7987115602043622
  0.4001302666946858  0.4014660236141040  0.9949228736144314
  0.3971654588468780  0.3995752819716379  0.8023483495913861
  0.4008794013850620  0.7996711581191178  0.3949499308166075
  0.4017196526824199  0.8021751629041222  0.8030073045493115
  0.5995545883996589  0.4001825010401427  0.2029139632252010
  0.5989337116459051  0.3994576946058858  0.3975753636668048
  0.5984686873320634  0.8023064939967359  0.9982791341323050
  0.8013656122890500  0.6003107177448356  0.1981839821500706
