Zr Ti V  Cr W 
 1.0000000000000000
    15.3588010967021305    0.0381806448688091   -0.0011461608815607
     0.0377189553745143   15.4626467649938046    0.0471277022245046
    -0.0012562496435299    0.0474526793402898   15.3469525699308225
 Zr  Ti  V   Cr  W  
  10   9  91   5   9
Direct
  0.9831168846140236  0.9674321276597796  0.6158265261544268
  0.0128367102558637  0.1983102358412133  0.2356870991474234
  0.1970607512362232  0.6350251488413112  0.7668301202149836
  0.1918259776364991  0.8304583778642060  0.2315232115573118
  0.7958842496314523  0.0044415711330382  0.7822438549954991
  0.8021228641965322  0.2332284996476384  0.1828043843077669
  0.8510896362315727  0.1448940877835524  0.4003217957289709
  0.7976720260387620  0.4498396620918587  0.1694959766451042
  0.7999081327290303  0.3570176524423618  0.3814273654030697
  0.8006919512826404  0.8399839852918198  0.2269804007811447
  0.9897634991689254  0.1885054845506106  0.6068608197708514
  0.0081676971410867  0.7972341249524164  0.7889603990620458
  0.2159873955300822  0.2009999525878527  0.3940368450543915
  0.1835386849519934  0.8247073605646330  0.6140520831586177
  0.4216467099530994  0.4031626373795146  0.7938460398899997
  0.6170596043094247  0.1826708369380637  0.7942726615257977
  0.5952017338244259  0.8024680388827122  0.5995459258823880
  0.8153308243427239  0.2110080495717499  0.7772403523259904
  0.7979603961773374  0.4142837284923196  0.7949966368059207
  0.0006656225801229  0.9932448036156051  0.1990501154162065
  0.9990589466655431  0.9937875813712810  0.4004103505539215
  0.0030612920773184  0.0044339794341187  0.8147916350005113
  0.9940617065233199  0.2005212483477283  0.0118324054803219
  0.0299758724191411  0.1949740795593763  0.4223595584011384
  0.0066506818304120  0.1981682773699368  0.8108436252407414
  0.9980314811201970  0.3993288425746288  0.0042587078364027
  0.9849830703215142  0.4041955472873709  0.2085589901467547
  0.0058497985840988  0.3952161640585807  0.4042864122324268
  0.9957041783486096  0.3966342718310073  0.6011827727234883
  0.9957479051448828  0.3996633815591325  0.8010059802803449
  0.9943253859998405  0.6066965116575749  0.2001185780091325
  0.9954010986280615  0.5912630901276503  0.3966398759352089
  0.9960800267075561  0.5915730079122454  0.5964303483568618
  0.9964929856798274  0.5949904005933031  0.8009308296586618
  0.9967874087758696  0.7979956051466268  0.0025561058174104
  0.9972858084443337  0.7897554072508836  0.3969710288641524
  0.9924931929633711  0.7818704772454537  0.5924488393325555
  0.1997526173296965  0.0043756094462473  0.0042937057658834
  0.1956643297654152  0.0255430492543891  0.2007502377095750
  0.1972289097512694  0.9976008266790832  0.4076733116972479
  0.1952374104004991  0.0190349747374724  0.6024464384064563
  0.1987254169407585  0.0082400545665793  0.8036645866376517
  0.2092272857749214  0.2030937218728548  0.2000182255382641
  0.2038423529691720  0.2040680302822050  0.8026800717135989
  0.1786164434062361  0.3965129370269321  0.1963593442773922
  0.2030106371817479  0.3991654508071925  0.3960835227949723
  0.1969175337664103  0.3907549747814038  0.6017176471493834
  0.1869353395793789  0.3990382339728152  0.8093829176707884
  0.1946453305934858  0.5962568953823608  0.1986406930714751
  0.2007932072477311  0.5968683707667286  0.3955390397162911
  0.1978626387288944  0.5837611260048855  0.5850903527650464
  0.1982447759405556  0.7946878806484395  0.4207411825867228
  0.2028928921826199  0.8202410077386323  0.8097532529593547
  0.3999688957093249  0.0058355484538560  0.0016820406994338
  0.3964607298590896  0.9993914231829284  0.2022793276237814
  0.3997987399074585  0.9977962700940942  0.4015341578852779
  0.3961461183250201  0.9997406597193602  0.6004196864941355
  0.3975721246663898  0.9976032991727246  0.8009729871998166
  0.4037769025538041  0.2014080060074568  0.1960539911064903
  0.4094912022128478  0.1958043693216125  0.4013936923649098
  0.4041077300954536  0.2014996583402086  0.6026713098344576
  0.4054724674707983  0.1961184279197709  0.8057745901094746
  0.3935962269369076  0.3993052312783122  0.0044217391540471
  0.4213926223963349  0.3982705755480790  0.2010192272453805
  0.3981141087318553  0.3989816070918763  0.3976275562073641
  0.3985261742526330  0.3992213104174709  0.5974835703059328
  0.3948175728918975  0.5987923985228196  0.1956543350226477
  0.4020642812224159  0.6013000866408013  0.3975944364079068
  0.3962779388187855  0.5987965742346442  0.6004256978295841
  0.4024304686435193  0.6024704584210411  0.8034989099412779
  0.3986783365380816  0.7951512287859066  0.0026340532529243
  0.3974442535035037  0.8036495189063168  0.2011316849564493
  0.3966216736207639  0.7967035157912246  0.4025870419854562
  0.3965071616349932  0.8027418295056706  0.6022683978105063
  0.3962145927742250  0.7992211157609095  0.8024122696687581
  0.6015693906460264  0.9996109090320445  0.9992238344557024
  0.6032708638845028  0.0008453865858862  0.2007085606231054
  0.5997361606629907  0.9978812544433499  0.3985233421233124
  0.5940502792473266  0.0038453011958755  0.5996853400642339
  0.5898881493790571  0.9883785022505105  0.7978779514823445
  0.5988863260019470  0.1985360023491133  0.0004947361781014
  0.6009481220720020  0.1978594741388622  0.2011162708039360
  0.6053674822952655  0.1978816564083936  0.3994244282386157
  0.5990321272825885  0.2001555192890960  0.5958963217236802
  0.6062808325036571  0.3978602234931498  0.0035298221833018
  0.5970387664402687  0.4026928630543392  0.3997173175948335
  0.5993425378836769  0.3966723563903828  0.5985886345377650
  0.6061973787858930  0.4009500216260097  0.7986705856847593
  0.5951274186713414  0.5984926151035413  0.0000918936525644
  0.6029550259672326  0.6014083307063615  0.2062090074266595
  0.6002952038970985  0.5975626456045104  0.5967960362351576
  0.6000164549573037  0.5991754122458255  0.7975914546347697
  0.6000565205044018  0.8004561367223014  0.0040965810239290
  0.5951771568662791  0.8019763787963965  0.2010372755150249
  0.5989630027050407  0.7923974915511904  0.3987707925966369
  0.8021175895662576  0.0261611535498907  0.1884349728080233
  0.7976359544424977  0.9644494589110885  0.3980799103304610
  0.7852642955752150  0.9989994059154740  0.5806279079729708
  0.7990475994139883  0.2025565414947003  0.9775353812287984
  0.7919128930937475  0.2007582264688108  0.5870004401880518
  0.7998111944349756  0.3959447883680350  0.5925655108557516
  0.7961993010038058  0.6062826902810629  0.9939395995390328
  0.7960580357758541  0.6336534591434054  0.1958807523390133
  0.7934395332453859  0.5943207295575379  0.3980811349447299
  0.7975717934356071  0.5954050983372969  0.5987202762191496
  0.7994636204806780  0.6079203146067164  0.7948223702078905
  0.7996344065459725  0.8057064846556711  0.9910715442527170
  0.7970053596378901  0.7883867444146665  0.4161053697345122
  0.7999279302529833  0.8016647239321940  0.6071567762371546
  0.7947308893565619  0.7971218475290364  0.7986596356715183
  0.9975192154545468  0.6000600244984226  0.9991622841225237
  0.2012058649817888  0.2032138513025306  0.0025762372313061
  0.1993991613802539  0.5980232855377855  0.0004461051246931
  0.1984006007305225  0.8034863895164706  0.0012567505186215
  0.5965965033752190  0.7966414129594186  0.8029711802954514
  0.8624715812744055  0.0047213049683210  0.9900929756597537
  0.9964135802853821  0.7985840135274752  0.1991122609520262
  0.2115933654930254  0.2059625680684278  0.6084654989051812
  0.1976812192231584  0.3984089145216304  0.0022569944267583
  0.4049935631929528  0.2013611356596808  0.9988647140950166
  0.4017588025220931  0.5989769807952451  0.9985043521202761
  0.6160899992503875  0.3872372608726232  0.2099719987445049
  0.5958258502886290  0.5947062832685251  0.4017310733718343
  0.8015051182607319  0.3933505161781728  0.9863022846805436
