Zr Ti V  Cr W 
 1.0000000000000000
    15.3797489849020970   -0.0238644870838211    0.0034593264189143
    -0.0239038622817555   15.4348715210995540    0.0636576862150444
     0.0033968313435369    0.0636464627177920   15.4408378619124882
 Zr  Ti  V   Cr  W  
   8   9  99   7   1
Direct
  0.2106994066324087  0.7986073722347389  0.1996651662126769
  0.3974962226010386  0.4492028572383924  0.1545938949711343
  0.4023208573577104  0.6060778039228896  0.9789565593283621
  0.3972305264934972  0.8226658612068238  0.0548566730862503
  0.4001483409933565  0.8128701498663313  0.8363483945993255
  0.7924983422550629  0.3743508080676318  0.9918454249713725
  0.7820024831183168  0.6160766960503273  0.1854274975568991
  0.7890495211781938  0.7859955784108257  0.0119188101560197
  0.0027043476396236  0.0065321301691758  0.6088677174240108
  0.1918278995932615  0.1947632777712698  0.5996758337276648
  0.4038484692560904  0.1730713627057656  0.6014881795705735
  0.4002108042813086  0.5850720676179376  0.7778257398381604
  0.5764878669056691  0.9897119818224445  0.8017393670691498
  0.6148501680859408  0.2019731055573442  0.9952414964943983
  0.6078485890603811  0.7910892628485453  0.1732126161865943
  0.7991838477553936  0.1967622272880313  0.4020304478434653
  0.7921739882429427  0.1992026775698490  0.8134856194392113
  0.0025822581641763  0.9949461081428841  0.0033078593750683
  0.0031103909474920  0.0008837623285083  0.2021774630428221
  0.0000147586635098  0.9978036478004100  0.8064423878992841
  0.0054612333334523  0.1965857045857121  0.0015477217315965
  0.0009195288808783  0.2014120079504263  0.2000413377819490
  0.0017129191212215  0.2007730113019014  0.3991275704426872
  0.9947611350106820  0.2019252840740214  0.6008728227512495
  0.0012448116152179  0.1959250259077223  0.8007555671795882
  0.0024969272473994  0.3958878615803275  0.9976585141220353
  0.9968368061014958  0.4022671400516726  0.1970047160692258
  0.9991365549556348  0.4010081936430966  0.3980166705659460
  0.9983534453548248  0.4001071347702216  0.5971772234307248
  0.9993549865816991  0.3964700034480669  0.7972866846445281
  0.9991459848612582  0.5960567571939129  0.9983791083422701
  0.0017899079767753  0.6023599447387442  0.1987468443164535
  0.9988469104146175  0.6007884441871313  0.3966973005009415
  0.9994087350312766  0.5992086123140343  0.5980190254395710
  0.9998505932758955  0.5968330037912264  0.7974051320362443
  0.0040817087851888  0.7977879797499695  0.0034174398932445
  0.0001811275562535  0.8001146459397845  0.2012818578013503
  0.0005223457458649  0.7989401918780162  0.6030093482069457
  0.9983498469994689  0.7965459344680336  0.8046891768231653
  0.2060761843418559  0.9970869355251573  0.0035251529784050
  0.2017961547465926  0.0061459065898499  0.2016300307377346
  0.1996070202657086  0.9999152847836437  0.4014832833073799
  0.2103206935358681  0.9965272727279392  0.6037031079076982
  0.2038941742676467  0.9948615107335476  0.8036942423255720
  0.2027551106034352  0.1976817940177320  0.9998816301202194
  0.2018896857155769  0.2036695798840101  0.1986864573272067
  0.1996691873660036  0.2012057185732639  0.3981482710388692
  0.1986941956853724  0.1968317783548736  0.8027240467706381
  0.2027039251155389  0.3983536032189633  0.9966176216308710
  0.1979654143998769  0.3989439248307666  0.1977148095444038
  0.1993292161273695  0.4016100950722183  0.3965955637253183
  0.1991654994763163  0.3994569941922397  0.5977732864404142
  0.1991673099406241  0.3972026015949041  0.7964092040863900
  0.1957027200305616  0.5969020764965941  0.9967642745044809
  0.2015227561646428  0.5940030531268214  0.1971247447095276
  0.1998521812916227  0.6025944352790599  0.3974023174995410
  0.2014822969846903  0.5985525330739274  0.5974533756165534
  0.2001709217955071  0.5966193297827033  0.7976056808239866
  0.2013749761320237  0.7947409955612698  0.9921982749973609
  0.1999683804224451  0.8018885613424646  0.4069696625635230
  0.2007634301304695  0.7981212648418008  0.6046030532367439
  0.1951432950631043  0.7976908135443513  0.7996609647129634
  0.4049983794062263  0.0142030347317862  0.0070431507041468
  0.4041086136946452  0.0110653759927934  0.2060717544426003
  0.3993377846819717  0.0078181463387384  0.4049375375671105
  0.3977099485379419  0.0043986652174131  0.7422853274806900
  0.4020277158473155  0.2080638314993133  0.1965962914096925
  0.3996162956254413  0.2062932508182160  0.3935734658387052
  0.3978152625537483  0.1957698875807805  0.7986972685550426
  0.3975325566166183  0.3950555203972695  0.9711990000228942
  0.3977405650476255  0.4028359089006878  0.3980482286912275
  0.3994268026913378  0.3989473790966219  0.5931181242605175
  0.3980398866181131  0.3890043900159755  0.7881558176981674
  0.3943200980858453  0.6480733104140038  0.2008580249093775
  0.3987967650704418  0.6044068488742105  0.3934153071477892
  0.4035091135045540  0.5998550318236263  0.5885058665133263
  0.4151389085364171  0.8170811074374205  0.2374007887419477
  0.4020152719483246  0.8112021464256518  0.4184228428746227
  0.3996975951092181  0.7976499030677202  0.6133791748846338
  0.6015175731285328  0.9930501045216817  0.0066192307261328
  0.6025946764014800  0.0059810297761341  0.2025229056790884
  0.6006346218434747  0.9999612987531797  0.4014117450845668
  0.6007206039868355  0.9971816840119715  0.6012635108550803
  0.6004069264578925  0.2029279912299518  0.1998324660517426
  0.5983357907102440  0.2029098206475140  0.3985966865182324
  0.6024494648030413  0.1994120331418999  0.5981408358908488
  0.5944488285817370  0.1994672437808243  0.7958847052959159
  0.5876171431194304  0.4013988803890570  0.9967261790935685
  0.5993900491989246  0.4016467588999246  0.5966614152321059
  0.5981558684783044  0.3975180447350838  0.7970374801120009
  0.6093106508890500  0.5934151495175086  0.9942401469417081
  0.5816621794232614  0.5915186605363389  0.2012089201013157
  0.5988091518882723  0.6028474948259090  0.4002041655822209
  0.6019542968718459  0.5929270370295822  0.7939274485102423
  0.5895655051548402  0.7925599150722220  0.9913812355600323
  0.6014779660766386  0.8023414714102580  0.4074582266942107
  0.6000779198789661  0.7949937439595958  0.6051422439429429
  0.6051752877266874  0.7904182274253562  0.8044247348642076
  0.8014771088733328  0.9927724459595628  0.0037435707141406
  0.7995050007441150  0.0049038090470774  0.2058223872407711
  0.8019807830240214  0.0004201129502484  0.4049825578422295
  0.7968906668399730  0.0000312432829987  0.6061032702244981
  0.7981298378752650  0.9924969683775337  0.8070606838995176
  0.8105892908749575  0.1788620989647398  0.0076349594965535
  0.8016048565842171  0.2025410836288240  0.1994097259460741
  0.7983106915589118  0.1997642388289713  0.6024775786066487
  0.7965610481658003  0.4005830309447662  0.2004227836364725
  0.8000031334366707  0.4032242578734129  0.3960676012333976
  0.7986023720836429  0.3988722875928291  0.5942475241878474
  0.7992245553574672  0.3984898907503181  0.7889672320440283
  0.8043653371143297  0.5806795107334358  0.9848288353348145
  0.7953144213137366  0.5995667100667971  0.5962055483203964
  0.8016905555321355  0.5970081973339376  0.7940019889185832
  0.8051694238013212  0.8146742307056242  0.2123832522724428
  0.8021505966382282  0.8000460455458319  0.6034239508741881
  0.8015668077113257  0.7969415878811740  0.8012456685549929
  0.0008870362283387  0.0005586939643782  0.4013072347256851
  0.0008675400384548  0.8011640442240971  0.4023066111329754
  0.4010649074917392  0.2036623681979813  0.9995342889686826
  0.5983956769797556  0.3996380315436168  0.1971861564158863
  0.5995798253404454  0.4018485623052951  0.3967515906181412
  0.7987901968889528  0.6030558726598642  0.3986693423255323
  0.8018570038636340  0.8023053848498685  0.4057573876751774
  0.5988176925491914  0.5990756079657943  0.6004253407374525
