Zr Ti V  W 
 1.0000000000000000
    15.3251724423404525    0.0070128769391973   -0.0004714545103314
     0.0070165878469139   15.3328247917111025   -0.0066220456422159
    -0.0004713462084994   -0.0066216079972265   15.3468382774047818
 Zr  Ti  V   W  
   2   2 106  14
Direct
  0.2338127875148517  0.6359470367426301  0.9995607012658266
  0.4010511267964038  0.8013146457237673  0.0011364860467920
  0.9956086572255834  0.0048014388270232  0.5931158816748440
  0.7979603886173525  0.4038382599070501  0.2040915948141042
  0.9990119731351180  0.0086932223875995  0.0045209382345997
  0.9991787963287465  0.9986399498234049  0.8026726945676226
  0.0005494039737303  0.2051911789729834  0.0001366321966587
  0.9993754488349024  0.1961409277205760  0.1996942537053662
  0.0047822207064618  0.1963374073566138  0.4004788795357352
  0.9996303031215875  0.2031772009019750  0.5992109633283443
  0.0005919546964857  0.1979988308082540  0.7981922450116872
  0.9986820546276470  0.3957216014102051  0.1963087323841654
  0.9994422001510382  0.4004848527332462  0.3952308258087315
  0.9951760361673951  0.3995108802879737  0.6020325227028459
  0.9985806272955466  0.4006170197059939  0.8031684847781125
  0.0021057050731694  0.5945227874432640  0.0012029998055910
  0.9957986715830650  0.7694179514962003  0.1992802618283829
  0.0028474462982549  0.6012080037308700  0.3968920271053613
  0.0011543843612348  0.5980125081932677  0.5943194775468444
  0.0010887650125619  0.5999690819392864  0.8001133901235437
  0.9991538488527817  0.7951316534861083  0.0009124259544322
  0.0006183433840690  0.8031078526082642  0.4014184576733847
  0.9988597726786274  0.7983069937320230  0.6019064290199889
  0.9991665102307850  0.7992523500909182  0.8021694642930606
  0.1983821920752318  0.0074446707530094  0.0001198593761704
  0.1970605084618308  0.9978288228771581  0.1988230478084184
  0.1959303855816952  0.0018350721301114  0.3996132031716661
  0.2011544442546209  0.0001930198334561  0.5995251685911431
  0.1985474368580551  0.9939270627215168  0.7980682477660673
  0.2022921652219620  0.2011823267983023  0.9971095342540183
  0.2030270071687242  0.1983305520705126  0.2054198165959807
  0.2042333314855057  0.2003764579909977  0.5970533866460878
  0.2006849636061859  0.1961144894386767  0.7960357895942595
  0.1962889745329811  0.3963451095331665  0.9972472713663553
  0.1971119673840225  0.4016333971387267  0.1984912919706851
  0.1971832898195806  0.3962898015821530  0.4011679993439407
  0.1975442487753141  0.3998116203875846  0.6019479436501151
  0.1990333042517161  0.4030639428454876  0.7993239497807489
  0.2062839354751227  0.5998428673878419  0.2041927851004384
  0.2026471761230131  0.6014180217828617  0.3995635246131996
  0.2012097259730538  0.5994440364894954  0.5988586289113593
  0.1999714745053973  0.6052031957560305  0.7940174536937765
  0.1902492330985305  0.8219646821918980  0.9935777746817032
  0.1956943954979521  0.7983209788652027  0.1959291351083144
  0.1984473435662948  0.8017139404468788  0.4039600007011938
  0.1994185804963789  0.8016904890466224  0.6070049013891043
  0.3994712491334985  0.0072158540915002  0.0017540581308852
  0.3985070179405727  0.9959583379870952  0.1999626844070788
  0.3979372967884644  0.9976194979497073  0.3971606717699925
  0.4002346534507191  0.0037657042498832  0.5965093600256323
  0.3994062430594716  0.9977306455195089  0.8003788439285160
  0.4007822933650380  0.2015146499106564  0.0003694253321793
  0.4007198060421794  0.2015609230910116  0.2013101433774595
  0.3961273855980194  0.2005127600933501  0.4016673309216235
  0.3985854296813844  0.1983811148635623  0.7952576722155678
  0.3974259298329353  0.3973830638724423  0.9996452962064390
  0.4000333471819838  0.4033068909995278  0.1980796003581067
  0.3995921499418157  0.4033640285425706  0.3995125863993037
  0.4001458183060334  0.3968663451274328  0.6009243544981971
  0.4023772870638892  0.4019536406678744  0.8011300279249858
  0.4185328116026024  0.5895353504060080  0.0071424331891606
  0.4000965968214957  0.5961432381411984  0.5924742177090310
  0.3987852492857611  0.5997905493732026  0.8044417996709856
  0.4017742376705652  0.7965727729884090  0.2057655888154534
  0.3982032943219800  0.7974476610733573  0.4017755226262133
  0.4007586674280713  0.7995772549114532  0.5993714621688631
  0.3993639188863726  0.7985822697811021  0.7936076977048875
  0.5994648968823408  0.0020672782977700  0.9996382146580455
  0.5999955362872205  0.9985846829533923  0.1998260309280486
  0.5997237873878706  0.9994028406791375  0.3994674624032207
  0.5998908327543830  0.0039556465794009  0.6000664038083435
  0.5988158757439446  0.9929608935775672  0.8009112795756046
  0.6001058814867137  0.1997813406824230  0.9982332398596993
  0.5988621842351919  0.1985149535609828  0.2009674110502157
  0.5986036185944509  0.1989151176814336  0.4034540132139522
  0.5989733648141294  0.2020658518498293  0.7971739132656726
  0.6052710797383059  0.3971876218311003  0.9943184894195796
  0.5995609806347517  0.3985185828048525  0.1988348120106656
  0.6015083463452494  0.3988127953301083  0.4001500806592145
  0.6043837181674181  0.3954413413118202  0.6064624584862331
  0.6059141205135116  0.5973653454721057  0.0007480465205352
  0.5950718916979171  0.6007442882298609  0.2007726121968179
  0.5951181337157059  0.5993895611281211  0.4015898589364012
  0.5981271264885993  0.5977891306118240  0.5993953220985718
  0.5981875184783261  0.6010805567710805  0.8005358080105474
  0.6054879916195814  0.8000874865746341  0.9942772283882271
  0.6028573723455607  0.8006280969741053  0.1980243694869290
  0.6010357695848754  0.8011631508542443  0.4059614538063259
  0.5997647991306471  0.8005065807533442  0.6059896648221370
  0.8011095032970128  0.0019612233504831  0.0002490966250028
  0.8012430497660332  0.9945767993018889  0.1994998080285759
  0.8046072648088701  0.9986111908450437  0.4010145077334704
  0.7976982041145086  0.0005974481271306  0.5989280212323924
  0.8005543583799136  0.9939277806264103  0.8005953615869376
  0.7998601774144316  0.2002267077814647  0.9989482974070952
  0.7976788485441569  0.1963152533362451  0.2020375343380316
  0.7997808170136185  0.1996254991281796  0.4003736315796401
  0.7958169556061579  0.2019782843186344  0.5994647111218222
  0.7990964783974839  0.1953387486473957  0.7983341128439977
  0.8042983165363569  0.3992531216253914  0.9957713691771700
  0.8010097305563013  0.4003095917689004  0.4058354482139006
  0.7967442867680211  0.4028559718103639  0.7967017228718156
  0.8038285541918085  0.5984048252902771  0.0041612731564307
  0.7931820461938741  0.6049944271389739  0.2017668362473911
  0.8011929843087980  0.6006596124049915  0.3979168506265603
  0.7999320875189080  0.5959207126363926  0.5967493246640980
  0.8004336305250938  0.6049351952843948  0.7979247088035120
  0.8019401628036100  0.8002722876571892  0.9984086421858956
  0.7990867568207217  0.7988007947321371  0.3995523159816269
  0.7996313584431307  0.7982395735490013  0.6054464787654370
  0.9991450934993114  0.9979899445648459  0.1997714415481438
  0.0006008147775591  0.0016129967836887  0.3929110375594611
  0.0009109130551568  0.4010389083042306  0.0002172829204574
  0.2013641515191136  0.2008143507460367  0.4010845477352838
  0.2024728553500459  0.7975910580112399  0.8048211896260097
  0.4026978562034144  0.2003763470267420  0.5976038105841697
  0.3975920250837889  0.6018732395662656  0.1992248482743660
  0.3997232435291058  0.5990829290085649  0.3967968087544010
  0.5967086340220282  0.1999863874175599  0.6005830866603509
  0.5998995418653593  0.4028363620743667  0.8009772971174821
  0.5996284848080268  0.7973512034112126  0.8010240769098499
  0.7996799915559987  0.3990285967998910  0.6013211860990727
  0.7973791875496936  0.7986153562485849  0.1988517133599379
  0.7976658389647763  0.7981426352535712  0.8017564975867372
