Zr Ti V  Cr
 1.0000000000000000
    15.5054759955686290   -0.0026938295988576    0.0222345561511436
    -0.0026911951043345   15.4937529874400166   -0.0133710719798359
     0.0222461462953622   -0.0133733789628594   15.4975574155639322
 Zr  Ti  V   Cr 
   5   5 111   3
Direct
  0.0116633545228335  0.6127367527577875  0.1992146290228153
  0.3993478523167265  0.3999640412933430  0.5998715808963575
  0.6015049951247630  0.2001080100826278  0.1996403164423005
  0.6100982310793956  0.8001633267717789  0.9910535513444484
  0.7923650677292200  0.7985581643868719  0.8091618176972515
  0.9959958039107332  0.7868467630225489  0.3837692717540253
  0.1866060593716651  0.6014674351637542  0.0168670008132725
  0.2034369457773390  0.7977070075412335  0.3976005762922087
  0.5973491774767713  0.2014623477825487  0.7975393099505961
  0.8188893283505996  0.7965474444176674  0.0187940361084146
  0.9988481464121201  0.0008304672982236  0.9971023549957918
  0.0014569478539153  0.0030523418634556  0.1975191747461237
  0.9991847884949449  0.9993046957050414  0.3983228680033215
  0.9988851454974791  0.9973662248696512  0.5975921809136506
  0.9983867133861951  0.9988333237036190  0.7991143918890776
  0.0017422158599636  0.2008844694934807  0.1996639019007542
  0.0004931305579590  0.1990797395770638  0.4002913366391444
  0.9996304865841180  0.1984737348737027  0.5990982489113725
  0.9990407947777262  0.1996148824672814  0.7980072000635379
  0.9984024094797005  0.4013196204942842  0.9989823605979604
  0.0008821338068323  0.4005400319742983  0.1993650432332544
  0.9997716378089947  0.3984506217585198  0.3993692610722789
  0.9982306521484784  0.3996138372346353  0.6010122302596028
  0.9991773158074138  0.3999200859184894  0.8013135696403737
  0.9929582741911848  0.6010109398116003  0.9932344008234893
  0.0003498307641906  0.5936645057840442  0.4055984150022424
  0.9984805845388881  0.6002804187791588  0.6007480766303283
  0.9978594483866720  0.6005543352031634  0.7981940782340180
  0.0084384599529749  0.8014573775762626  0.9957782142965377
  0.0035950262269389  0.8111058001962390  0.1932238002467749
  0.9990151964260103  0.7990464616640144  0.5995368147123387
  0.0014761338123692  0.7999880347308654  0.7979495213771577
  0.1990755975920825  0.0011897820744373  0.9992348625656819
  0.2003541646295955  0.9995005383680768  0.1992072439319370
  0.1994761776370839  0.0002370790821318  0.3992192010557983
  0.1986382943147701  0.9990848286151867  0.5994965159964227
  0.1986675360750366  0.0001279630637072  0.7991581277416999
  0.2001454834891050  0.2005222807915425  0.0001757248740774
  0.1997675554991728  0.1996761514053619  0.2000815851976848
  0.2003698321424310  0.1998537125299267  0.4001479794715349
  0.1986332043799465  0.1986512885127462  0.5998076730503972
  0.1977180478729016  0.2000714054653166  0.7999163360233188
  0.1983414984090525  0.3981304026743399  0.0012167422543945
  0.2006543101641455  0.4012395676011871  0.2002994990043248
  0.1998069284352174  0.3983992495819232  0.3997362291229577
  0.1948346033202845  0.3993631126438224  0.6000044990048714
  0.1979358605651126  0.4012141319762179  0.8017405507833633
  0.2115099804349556  0.5992607077048338  0.2087869352019293
  0.2014572660410673  0.5963481528594771  0.4034452771547649
  0.1985899215419139  0.6005213523955809  0.6010541049572382
  0.1978729389004674  0.5998618900564657  0.7999871526820004
  0.2025236478847882  0.8022439507878394  0.9991667606072322
  0.2032298166700597  0.7997740017536443  0.1972352666168604
  0.1983581620411800  0.8002806099718419  0.5989878104465636
  0.1997589435945711  0.7989510895395705  0.7994601882195570
  0.4006050808778393  0.0002861313128948  0.9990666662997897
  0.4000769751053735  0.9982868110122420  0.1985121333577537
  0.4009470109610740  0.9993626263783238  0.3983834112811045
  0.3993021609572361  0.9983492869161873  0.5984189050133247
  0.3984404230238987  0.9996905668560099  0.7994238351408525
  0.3981153824030898  0.2000724095856004  0.9992877408137264
  0.3961686223154220  0.1993698570204051  0.1991187305422566
  0.3996011904708700  0.1987268624570238  0.3993128700925005
  0.3988350613866194  0.1949089926429489  0.5998336905009060
  0.3958344780122091  0.1997044305043587  0.7995283087985915
  0.3991325868599829  0.4010985880276327  0.0005504125250322
  0.3999109493606711  0.4010970183129401  0.1979935074098561
  0.4005042485352907  0.3992639899931308  0.3952297915761684
  0.3979314706200131  0.4007715947498299  0.8047002940667780
  0.4014252353782924  0.6006650816982374  0.0017657382124359
  0.4043565175373055  0.6013142199139156  0.2003487527610535
  0.4016816041989893  0.5997537099639543  0.3998429799995663
  0.3993840309721311  0.6046152603927384  0.5999665290094333
  0.3961251313152772  0.6007662264030562  0.8030356909471871
  0.3990913459577154  0.7999415462488987  0.9987375972545751
  0.4020049025301026  0.7995747726555761  0.1980720823629827
  0.4020453089826847  0.7996262739814693  0.3983774094264065
  0.3988668059776403  0.8011449289300169  0.5985340096631407
  0.3956002692665146  0.8000832282907618  0.7985028743322291
  0.6006646057004092  0.0051278881065847  0.9970205473639232
  0.6011223804481993  0.9944327480276479  0.1973814901930407
  0.6001358931124522  0.9987249505016249  0.3986724598837993
  0.5978943499675822  0.9987945570200412  0.7965428552463787
  0.5965626036161602  0.2014951619190623  0.9948251905899732
  0.5996026478795973  0.1992719153525720  0.4037884307498889
  0.5999432183316523  0.1982307641397122  0.5982465695704176
  0.6011326318342844  0.4000040060365770  0.9995543773896721
  0.6003569588777844  0.4048076301755842  0.1994375827806349
  0.6007173188992643  0.3999940882469686  0.3989982203984603
  0.6038910835301591  0.4004675450416160  0.5995493568048684
  0.5986017331485497  0.4027827089664461  0.7993738866271666
  0.5994755613924989  0.5961230667192516  0.9983902714112616
  0.6001102418021000  0.5989388134872522  0.4005533114099254
  0.5995656188785897  0.6009584706353813  0.5993291145666966
  0.5970374166041261  0.5997462910033425  0.7977461341979267
  0.6005328103398139  0.7996419108392376  0.1999344839296383
  0.5987763722224405  0.7999281588018246  0.5953188522479970
  0.5894074496577220  0.7996499113186336  0.7886940179998017
  0.8014430429724149  0.0095676231816423  0.0006735712734558
  0.8003415829208346  0.9994431675360377  0.1989922099579122
  0.7993943301028018  0.9993066360020554  0.3995887053987953
  0.7990378846693039  0.9988772471995886  0.5988911636305461
  0.7979517616320073  0.0052065172923269  0.7994613687015615
  0.9006332658040700  0.2011708493769890  0.9992638405092141
  0.8059826891158666  0.1995284497753504  0.2012865717094359
  0.8002760941003602  0.1998856638459584  0.4003877894553400
  0.7997826313715437  0.1987168234606574  0.5992919503915862
  0.8013662489133270  0.2009537738826661  0.7976449564015724
  0.8002350618519224  0.3985309901376545  0.0011019482373680
  0.8021175772682386  0.4010890622150905  0.1995010034221289
  0.7999095611342666  0.3993817593104723  0.3993792975703159
  0.8004108981262466  0.3993464383960406  0.5997612652794552
  0.7990486093084633  0.3981226132091714  0.8014334971240867
  0.7986093727705268  0.5954727163527350  0.0024087704157121
  0.7998635713618680  0.6007510443076384  0.2003778848592429
  0.7991999107370688  0.5980815954780552  0.4007584474190177
  0.7990366820455931  0.6006735552464930  0.6000105321033513
  0.7970792962204476  0.5947949327234727  0.7992414056424302
  0.8022643362815048  0.8005573680435069  0.2076433777836460
  0.7978408139430678  0.7986334505715523  0.4003092624083568
  0.7994518042885347  0.8007384037177073  0.5977405287435869
  0.5994088086414072  0.9985583868498406  0.5972282966773184
  0.6019408547867012  0.6016689713340589  0.1998406606336264
  0.6000005328864658  0.7988719727990830  0.3983416272092201
