Zr Ti V  Cr W 
 1.0000000000000000
    15.4119853477336850    0.0092002105036784    0.0075686985216924
     0.0091978282521091   15.4168317070722267    0.0033033723005877
     0.0075647771218920    0.0033039266611125   15.4231482065347798
 Zr  Ti  V   Cr  W  
   1   3 110   3   7
Direct
  0.3988807617475326  0.2005757446183956  0.5988456202472141
  0.0005630499711426  0.1995673586574967  0.0013829800259509
  0.1971379731188262  0.3962326137173109  0.1925769857665897
  0.3991544262288618  0.9996871354412827  0.0082982578792244
  0.9995780232327135  0.9986434465526771  0.0004650901958554
  0.9992723607195396  0.9988963991236444  0.1994343019252176
  0.0005149272483072  0.9987510708948046  0.3995570298356671
  0.9986134386542440  0.9995423715082173  0.5994981060717626
  0.9997503639289327  0.9998168719388749  0.8001874998875353
  0.0004884322303356  0.1995346833556612  0.2015335103518580
  0.0048599455510375  0.1989576725759245  0.3988805652980454
  0.9973159391298069  0.1998459670320941  0.5999879606012316
  0.0005035696134510  0.1991704457837892  0.7997930237537075
  0.0005212413307849  0.4014522265968883  0.9990455594431514
  0.9983636808157732  0.4000184620416216  0.1988285669079198
  0.9997484658234758  0.4020612880309432  0.3991089709316225
  0.0021418530318639  0.4011277173911055  0.6014174012059437
  0.0001131580652297  0.4002039978981948  0.8005100984320669
  0.0002409874562290  0.5991231887215889  0.0006815362034204
  0.0002733532976675  0.6003171743115177  0.2011043332514664
  0.0036948038187423  0.6005414609146442  0.3987931672677123
  0.9983092607887205  0.5994324262962680  0.5976044921544204
  0.9989447185676663  0.6000155618340588  0.8001526910366926
  0.0005061285504953  0.7989023057211165  0.0004614524477886
  0.0012328971468365  0.7999029505262213  0.1995953418691073
  0.0021419030258650  0.7990825748389969  0.3994647134196975
  0.9995212586458169  0.7986986860933882  0.5986268321862186
  0.0043610272050878  0.7994951389494152  0.7998843309655898
  0.1983191713256373  0.0014240009163293  0.9995345812972546
  0.1992546784381630  0.9999113119706819  0.1982541166730644
  0.2005684773454660  0.0043459188121713  0.4005587261967948
  0.1982358303416884  0.0016298718378381  0.6004119810306097
  0.2001355955494270  0.9977390772901621  0.7992759864215310
  0.2048011861109654  0.2000106688858945  0.0005486283055276
  0.2010058431276465  0.1975897016928228  0.2031807101935219
  0.1942581243331427  0.2031942190934764  0.5963891121798134
  0.1998458838689876  0.1978201545888641  0.8013404925909970
  0.2005438029721235  0.3990395989298334  0.9939666386811370
  0.2003720545340358  0.3945241633365613  0.4060326234295687
  0.1998602587944974  0.3988586776266971  0.7956243139814817
  0.2011774822063649  0.5985787668965822  0.9999542281095184
  0.1998932975562301  0.6007423420007207  0.1986573556384345
  0.2042851777498459  0.5988169691854125  0.3995392073123952
  0.2001621757909170  0.5945863869143417  0.6000791941851620
  0.2008772686785866  0.6034475610776259  0.7993019018530899
  0.2011173637291571  0.8002112114877046  0.9951715735336989
  0.1993829007745058  0.8009264125746310  0.1977319858866930
  0.2032978306043955  0.8026411726065691  0.4007728292034549
  0.1993329757085243  0.7990108515539667  0.6035270336952169
  0.4001643598317257  0.9987665783417337  0.2021105190363121
  0.4006008901653407  0.9952453069604071  0.3991758576841734
  0.4014999282877339  0.9956312918163526  0.5992381725803839
  0.3999493016390409  0.9990189087947352  0.7984681141889831
  0.4041183585295202  0.2032145362402580  0.0021697551184291
  0.4006263290203136  0.2004068279598046  0.1988343762204187
  0.3970796784428941  0.1995615277797672  0.3929897271773856
  0.3999278039544411  0.1986556848121037  0.8049992167505668
  0.3994546623161015  0.4021363819117545  0.0005457207049498
  0.4012316237588709  0.4018424911182710  0.1996378772561319
  0.3993337647578054  0.4050395247808413  0.3977970607227374
  0.3954764627380760  0.4053476193415336  0.6010928732650269
  0.3986045179026769  0.4018650858212136  0.8009574293696204
  0.4012863404378428  0.5997135218563848  0.0024095527777876
  0.4004260826754631  0.6001786584155565  0.2035885441701766
  0.4047060795526241  0.6012106701008598  0.5957950717214898
  0.4004640895332453  0.6014278200497595  0.8009136662193059
  0.4001180547221052  0.7976477136245191  0.0022309057812516
  0.3994416422382472  0.8002271966142306  0.2024659809642988
  0.3992503650047465  0.7994779217173148  0.5957605771478518
  0.3955417499334928  0.8002979687427275  0.8000988478922025
  0.6021734621130009  0.0050851163372816  0.9997182622746453
  0.6014676542400000  0.0010633233815490  0.1996761793000459
  0.5994150928594378  0.0013498391425675  0.4006090467585203
  0.6021517151122716  0.9994090680705412  0.6005369280316101
  0.5995323310341251  0.0003574692392625  0.7998998703084370
  0.6005261236111498  0.2002596640765058  0.1966043801496160
  0.5985174256289251  0.1998892890469072  0.3984548587067217
  0.6008174852185220  0.2002356565593301  0.8040620371386624
  0.6002909909930849  0.3972794464367987  0.9989786485268852
  0.6011448941582654  0.3998256639662661  0.2001750934801075
  0.5997813854766801  0.3992198056319647  0.4006797393248839
  0.6014796567700106  0.4026559737564991  0.6013312737850069
  0.5989774509792740  0.3994172348810699  0.7994565719188573
  0.5996600633179571  0.5986042059298115  0.9993958839229665
  0.6019768213418367  0.5997966676866905  0.2006171088455571
  0.5949072314541222  0.5996266557134562  0.4035033247412194
  0.5997013522586161  0.6005228886228464  0.7973408168388705
  0.5988603084816853  0.8012767491904084  0.9991607009878442
  0.6004141936798379  0.8010841858382954  0.1989660343794830
  0.5964987386483160  0.8014892104840418  0.3994480709005680
  0.6006955367100287  0.7969419941546567  0.6014578201351208
  0.5978833604071807  0.8016185231669797  0.8006590957945909
  0.8008353920372299  0.9999384088100532  0.9997691855785940
  0.8012455256850076  0.9996476768878351  0.2004115684356150
  0.7999923093572283  0.0001531947319388  0.6003420266830204
  0.8009760327669146  0.9992846269699552  0.7997054342554981
  0.7953575004334352  0.2005522959030191  0.0006541994192932
  0.8012444534925381  0.1994265816564821  0.2007050428885556
  0.8006674026606871  0.1998259645665663  0.3995765032049184
  0.8009048692783296  0.2003574785772202  0.5997960846712602
  0.8011900942675659  0.1993434528740863  0.8002280886756284
  0.8007320027444861  0.3996297951868776  0.9995651379334922
  0.8011402580681356  0.4008348658191773  0.2012510572970242
  0.8005014571637016  0.3978617535619829  0.4006211514667820
  0.8019606436436877  0.3989117442444181  0.5990522132936256
  0.7989900032961078  0.5994419763899673  0.0002659032302788
  0.7998819894900472  0.5998811170670240  0.1993981178026154
  0.7976864036222712  0.5995307652318581  0.5338224304777666
  0.8004260316873469  0.6007009186170145  0.8017715512868975
  0.7998468720450511  0.8003291823344773  0.9996001999544187
  0.7999164217241543  0.7995269793263909  0.2008374502253816
  0.7993403444276633  0.7996458184593570  0.4000172245500973
  0.8003711874496081  0.8000009822697502  0.5988508824425656
  0.8011937681202371  0.8007274121664776  0.8002996140421956
  0.6037161231313912  0.2008834377934849  0.6010782013309225
  0.7997052798897558  0.9999636572718387  0.4001223904590834
  0.8003358456712878  0.3999409586900095  0.7996057826683848
  0.2021292230385930  0.1993616337594687  0.4005726625750306
  0.1990633138851972  0.3985102114801443  0.6015298428239453
  0.2000611096121342  0.8001906702967567  0.7988359508782499
  0.4007537003416794  0.6043940377169922  0.3989763435211799
  0.3977049379141845  0.7982403736025030  0.3988180897277693
  0.6005045502260078  0.2019086288337218  0.9997730829393507
  0.6002992313406805  0.5989853582318941  0.6008056283923311
