Zr Ti V  Cr W 
 1.0000000000000000
    15.3990340272275770   -0.0170018773457157   -0.0022529018582575
    -0.0170107766548915   15.3787801482628375    0.0165544931564424
    -0.0022517709109467    0.0165430754876648   15.4057927644380346
 Zr  Ti  V   Cr  W  
   3  13 106   1   1
Direct
  0.1877021204375924  0.2028067901414424  0.3748683119667062
  0.2043296997846697  0.6161655667337747  0.3823013945496259
  0.3838922846162242  0.7952620103853563  0.3890852978313930
  0.0027374525250838  0.0001084622997874  0.0075507792038148
  0.0014615525854211  0.1854061973633682  0.7988602473427334
  0.2044109182622277  0.1994856461809003  0.1766747988807574
  0.2027465393734686  0.5889112299554690  0.1828270783210937
  0.2099184427017586  0.7978707870507001  0.2112904382374634
  0.3959876597483014  0.2058030564727188  0.5985391585403872
  0.6302962612731178  0.0113162899497516  0.5927071393840317
  0.6052668602310032  0.1885855721097491  0.4157810318232901
  0.5887521462900908  0.2004845264634128  0.8114595348137180
  0.7935068346765553  0.2009180273198336  0.1945847315765781
  0.7891969291031731  0.2041470372166951  0.5925607631186994
  0.7976147863189208  0.1990988406784895  0.8031950935561080
  0.7986058398250581  0.7976168563791262  0.1939737429339973
  0.0016687271469875  0.9994694128192440  0.2073395199345345
  0.0012871071611478  0.0025933769906836  0.5961810937237474
  0.0011717005592142  0.2008501040597401  0.0047647855604896
  0.0012699362374818  0.2004782846124581  0.2008779294293757
  0.9879459725511401  0.1970306936696556  0.4012530375404588
  0.9990421850296959  0.2008923608702251  0.5975862763335171
  0.0006236579798744  0.3994364337462029  0.0019541898389234
  0.0004355228245694  0.3990399982080598  0.2032923305040187
  0.0014487684450508  0.3986189494251681  0.4019865456017613
  0.0009984409685953  0.4006252976835905  0.6009763912300045
  0.0009300889622561  0.4016770482835954  0.8006774174758179
  0.0017396430944372  0.6004520471170416  0.0025884565006326
  0.0009776536664485  0.5993399596496405  0.2011952211230069
  0.9965535065985859  0.6016587855988489  0.3995887896307458
  0.0019469170663716  0.6016372230439403  0.5979206677320194
  0.9999062821400009  0.6012187473738803  0.8015394035387098
  0.0022140517535272  0.7995265078354782  0.0032885139779135
  0.0011123175805839  0.7997537899451699  0.2019116692776323
  0.9931458869679720  0.8068573070440860  0.4010232856427917
  0.9975026259201084  0.8032339141385416  0.6027422653447008
  0.9995211740202893  0.8011418300149579  0.8013575985944044
  0.2019067803438771  0.9995253149748069  0.0011662447534313
  0.2024423385609284  0.0032533222561111  0.2018353948800053
  0.1959882348740004  0.0017821483190819  0.4013575494944071
  0.2029589818649942  0.0032283438943329  0.6008502913378811
  0.2006720934446867  0.0012425427514197  0.8000417082391375
  0.1994576308397231  0.2001513199323799  0.9883380115551299
  0.1977497382812337  0.2024751309465292  0.5961644870091928
  0.2010105473789781  0.1992667057993011  0.7962031999516513
  0.2000540835655069  0.3984788372304779  0.0000146955226266
  0.2015383722576893  0.3948332134688758  0.2013462301495889
  0.2004129109757024  0.4048014559765686  0.4018258789077996
  0.2009142183398340  0.4018462774212169  0.5994707466741066
  0.1999049092043911  0.3996450787229983  0.8007442868520520
  0.2007449116241769  0.5994149497644606  0.9933896072376379
  0.2010499162117051  0.6015718891153879  0.5993592032182686
  0.2008139473493057  0.5999984975029524  0.7980943817731690
  0.2009391561099750  0.7995227964710763  0.9990807985711616
  0.1859353401691687  0.8128466905361801  0.4088677384555666
  0.1996915153610233  0.8007510198326693  0.6030201409686397
  0.1987202408485840  0.8033508107868028  0.8012881889298082
  0.4002277811567749  0.9996194398205659  0.0027878865737005
  0.4008714360490438  0.9976740340951230  0.2019766005746748
  0.3988720541110923  0.0040966996868848  0.4007757713793265
  0.4012240734026140  0.0003834538844794  0.7987053414952354
  0.3995181429424218  0.1986768289448807  0.0020477824775614
  0.4016077512216432  0.1989455797467359  0.2015804082359047
  0.3986561292897001  0.1980070481471376  0.3995650133870125
  0.3960889524515333  0.1997747464814125  0.8047388400500342
  0.4008598432472034  0.3989493795990647  0.0022585029838817
  0.4015066682761627  0.3979063038572960  0.2020076530537273
  0.4010509374290736  0.3947063644130116  0.4015023908975940
  0.4011071569765743  0.4017393380400835  0.6013856331316774
  0.4004769738173354  0.3999144877252072  0.8011421325869577
  0.4007073570400423  0.5991497056030465  0.0011084441455402
  0.4041638959057450  0.5969055531739444  0.2001161179072664
  0.4094896722841033  0.5902487481942882  0.4001270547322793
  0.4014892623581123  0.5987239426939254  0.5991977220555247
  0.4008813847625509  0.6002864317699319  0.8012999767804713
  0.3996131876637464  0.7998227509178444  0.9974140287970301
  0.4054132295299849  0.7989585686992189  0.1905812670196740
  0.4003891456604112  0.8011491727475509  0.6010571978503962
  0.3996796724991012  0.8002103339894617  0.7992232045964637
  0.6006632837560525  0.0000734870759209  0.0021219063567253
  0.6004021233146762  0.9992188151575662  0.2016310233969099
  0.5986720708443996  0.9937318918136470  0.3969362230388527
  0.6000689089156901  0.0001996649085774  0.8035598383531740
  0.6000089236116223  0.1996505875404584  0.0077298638188935
  0.5975297640224138  0.1980146856587222  0.2029802932755500
  0.5968557692295154  0.2045782970707600  0.6100827241603182
  0.6015756485812011  0.3995146292031200  0.0018033831071900
  0.6007678804009476  0.3972765172688200  0.2035754398986744
  0.6017353429085922  0.3982115934238802  0.4025540552561833
  0.6011558223563693  0.4015648141067902  0.6030613906905673
  0.6007440590242352  0.4017869384882852  0.8026099600788166
  0.6010873998659437  0.5993602195154636  0.0017079954323558
  0.6026626967575865  0.5989718452269184  0.2006308327527663
  0.6032841394465402  0.5982340217523691  0.4002579845082300
  0.6009121144054917  0.6010439045437020  0.6008451245841782
  0.6009541905888494  0.6006083371807512  0.8013079148775167
  0.6013218288402187  0.7999169994768773  0.0004734651843383
  0.5992553592491316  0.7985097769679574  0.2000084394303471
  0.5973516870583656  0.7992293079492653  0.4001176194095346
  0.5987884190486370  0.7997670493692353  0.5995332225269834
  0.5987112161349034  0.8024275659535052  0.7999173039882356
  0.8007045943368989  0.0001769223795451  0.0017909879038220
  0.8002275071192156  0.9998792921619687  0.1992301318733380
  0.8059248877338937  0.9983273884226972  0.3943152507682046
  0.9344307706852668  0.9989192689589322  0.7314246824001491
  0.7989717049602800  0.0015149848333094  0.8013644820676852
  0.8009492823090388  0.2004043823900836  0.9984363917922299
  0.7993772846024586  0.1992430760200665  0.3960634544679276
  0.8018278776171689  0.3993107609404772  0.0012035663824557
  0.8014841757863309  0.4003930347567062  0.2008976925646725
  0.8009149552562433  0.3985023132906506  0.4002184143915649
  0.8013411508695217  0.4028975610013529  0.6002933306706421
  0.8010191909878719  0.4000601773365449  0.7999076576606138
  0.8021368451978388  0.5992415157529650  0.9999608431823317
  0.8007770405588447  0.5969444455864387  0.1993046383701131
  0.8007361456353699  0.6004076337382278  0.3992603466631959
  0.8004276230674631  0.6001785880424718  0.6004206247247167
  0.8005111205252073  0.6010358902179398  0.8009812615994675
  0.8009530615631077  0.7998092884558485  0.9959854418326373
  0.7974960315262198  0.8006197505855819  0.4027329915659585
  0.7980886259482486  0.7986197258124436  0.6015852643043758
  0.8006156362041611  0.8033826139469403  0.7992911846899923
  0.3991125270464443  0.9979081690937639  0.5986458233623555
  0.0018339708848609  0.0041714233494992  0.4022521784580833
