Zr Ti V  Cr W 
 1.0000000000000000
    15.5087483082677728    0.0011241511672532   -0.0011658627052895
     0.0010760835604324   15.5496415199413960    0.0093654870697751
    -0.0010458555872954    0.0094419591705861   15.5080119952370001
 Zr  Ti  V   Cr  W  
  16   2 101   1   4
Direct
  0.9892029856329657  0.2207847674824020  0.6274099957434272
  0.9702926635866657  0.3813500464184761  0.4237747255830827
  0.2134688507420323  0.2087171087454502  0.9715526468441001
  0.2006939799793097  0.3657972514021768  0.7670204275680114
  0.1680840821458777  0.7966872197481978  0.6059900740808390
  0.4038255502941007  0.0399339568135140  0.0014549406108198
  0.4253646031597235  0.9448489746333184  0.2115742006161495
  0.3833378953135011  0.2398627081766325  0.6211476904191464
  0.4339751518644538  0.3889415817507467  0.7901440155201866
  0.4086213150689821  0.8134586902527727  0.0154608337942842
  0.3956492418889844  0.8002446996134464  0.6017326628082079
  0.5982171533014627  0.3803515231922899  0.6095878817648157
  0.5955495665639833  0.7941566013426108  0.1855286162824120
  0.6228171675267762  0.7988316955161170  0.5989043696353720
  0.7688556177273727  0.2102471534899925  0.5862594245520505
  0.7503025919098985  0.3992284615945506  0.4293299699746989
  0.0009841018586504  0.7965446238867742  0.4161201715650552
  0.4011650879591319  0.3911322301399523  0.2029083796749163
  0.0029345398181164  0.0047334071146007  0.9972715517000973
  0.9993562376384441  0.9972389558036852  0.1986058650810798
  0.0027888841678943  0.9992796688653800  0.4010730125570701
  0.9989984898088177  0.0053916558919230  0.5995684834487450
  0.0016950187218745  0.0038076304324028  0.7982976331705505
  0.0037101563902220  0.2050971019832767  0.0056688578372101
  0.0010406375106966  0.2022317916796958  0.1955749529675992
  0.0047574371424144  0.1905236161702222  0.3889680473214378
  0.0078827924515523  0.2006280503623135  0.8204848916662999
  0.0053858932410121  0.4044773151234133  0.0049867893949251
  0.9981753112028968  0.4005117016051352  0.2085640891775885
  0.0051790071004972  0.4173858742790579  0.6200442366246733
  0.0011739186150581  0.4011167090477214  0.8109440689102788
  0.0019158703474781  0.6037406255841046  0.0036949184903667
  0.0024804557057434  0.5981488290780709  0.2058803039283165
  0.9993796789079264  0.5995252132253571  0.4039318558119655
  0.0050671159953961  0.6073487528811271  0.6046558940000352
  0.0056715267273937  0.6022188168431696  0.8054643010981417
  0.0017605159975747  0.8040683755703039  0.0015676289438173
  0.9980266192999375  0.7981903649358362  0.2001629950207952
  0.9812206640322124  0.8033657003247145  0.6110531580784098
  0.0055958908970068  0.8040814541416588  0.8055393080662042
  0.1990306148926013  0.9969807606851541  0.0023752268288464
  0.1937256008445653  0.0022017036093329  0.2005003146823408
  0.1985550608838688  0.0014944337246288  0.5862007857558066
  0.1992297984197554  0.9833434297142840  0.7856727898804592
  0.2015927589190592  0.1968370130763251  0.1852045750000382
  0.2028223045880314  0.1924891381271851  0.3869818259089357
  0.1895210525980796  0.1926975697867988  0.5838545369418264
  0.1920830390674308  0.1731577456489059  0.7744327417148766
  0.2060312774889260  0.4182806422036830  0.0007976356740052
  0.1953329726879058  0.3984576759169356  0.1935072895197826
  0.1991924264388114  0.3924137228112451  0.3839487413802737
  0.1620748289745587  0.3845898139792655  0.5689003194013823
  0.2016672340427458  0.6083097241484110  0.0091949735346444
  0.2015756162412992  0.5926631297947288  0.3968191129888159
  0.2014507438728146  0.5844683172657722  0.6008002354792520
  0.2065406479140508  0.5969412431392860  0.8109842131260969
  0.1997721833689831  0.8039624394240626  0.0032770800273511
  0.1938263609004451  0.7892012079177593  0.2014642364518626
  0.2025915751651333  0.8086669795527760  0.3979920044938157
  0.2055618604292294  0.7940295392148893  0.8088351520684456
  0.3941125449031222  0.0033849239537691  0.4063887122663705
  0.3992880016433902  0.0057358132691765  0.5981149609039363
  0.4027591339625013  0.9963173950022158  0.7949207854583091
  0.4135315879527660  0.2407483675376446  0.9926777868808507
  0.4014104447933383  0.2028019922754332  0.1876615411886360
  0.3991872621992401  0.1970260136635793  0.3842945687320153
  0.3703827143507075  0.1866259050169125  0.8171223959992285
  0.4080255596290522  0.4128678184711048  0.9983989460513546
  0.3943884069510634  0.3977874668359553  0.4074898356972385
  0.3512507944111162  0.4198587478614866  0.5964544775411802
  0.5054956591389538  0.6040007805709243  0.0029217027718381
  0.3941744158679202  0.5860781975722316  0.2119968923454243
  0.4015798189446466  0.5965451682777232  0.5988234684112003
  0.4048077450240611  0.6037115774857412  0.7996461286129791
  0.3893083002980647  0.7617741360403629  0.2083704289565963
  0.4003455240875544  0.7926269839624390  0.3956017493114606
  0.4049675894699302  0.7997936485853754  0.8090019776854255
  0.6114849536610670  0.0095959427687322  0.9909046966563483
  0.6133206400288002  0.0086346388061942  0.1938991148719447
  0.5967039426126091  0.9999796697472032  0.3922979759633995
  0.6001388884053309  0.0044210774835434  0.5949346834217201
  0.6007945183906160  0.0042797069550571  0.7944362839825725
  0.6053752036368679  0.2064140585943223  0.9917873632916737
  0.6038235256419147  0.2012527528185162  0.1929894207607660
  0.5940175217492172  0.1984122033338444  0.3929474351112540
  0.5795755032187138  0.1878516143094433  0.5968228793647186
  0.6153948273705613  0.2045832511922927  0.7913834875650383
  0.6069854399923121  0.4055221469702072  0.9982599683432979
  0.6065104264363057  0.3960896453391541  0.2011933320083095
  0.5677936563364495  0.3972203114050839  0.3990517547618844
  0.5984845614102839  0.5895989339827223  0.2005685277237061
  0.5911188706180786  0.5976398989157734  0.4006355861206101
  0.6015652277804471  0.5931988272238112  0.5989305650945158
  0.6028473168894518  0.5972540602177357  0.7956054667809449
  0.6153244126955212  0.8077873744797306  0.9878306224530879
  0.5970664664192467  0.8004157644396988  0.3966723528220598
  0.6033822843759191  0.8008971608728750  0.8009637123845725
  0.8067526114725361  0.0053386457802447  0.9964714828309348
  0.8049746251533678  0.9985970905562134  0.1991154097279606
  0.7993212617579796  0.9991589887883304  0.3966754722932213
  0.7991864715477197  0.0020131803259298  0.5937747407636698
  0.8037520926671742  0.0026531432862646  0.7956647422855724
  0.8045136707948177  0.2040255737408989  0.9957789964960354
  0.8005290079660834  0.2010509881674933  0.1944571206301644
  0.8099624807921458  0.1954622758316242  0.3890013165940643
  0.8063964707615253  0.4045206758245738  0.0075590631298078
  0.8029339851676703  0.4001008119092979  0.2063367914646695
  0.8282378698402070  0.4100397440110654  0.6164508702467708
  0.8074427307866880  0.4048447441971057  0.8101850584371686
  0.8051824876480869  0.6047960472137137  0.0043040151243277
  0.7990050493570783  0.6001850209904458  0.2050083753939556
  0.8014354259305966  0.6005807217469905  0.4011021996326368
  0.8007089101470337  0.6026426019382388  0.5997893266177705
  0.8044104068887054  0.6054069238133878  0.8029185638613442
  0.8072213005067858  0.8039779994503017  0.0006600134896280
  0.8032860923572088  0.7990173742010140  0.2008001522454130
  0.7925553905909315  0.8001690002131632  0.3985692309559816
  0.8146268098648293  0.8025191671744170  0.6002592417369731
  0.8041348908142069  0.8023457727923333  0.8003234591784485
  0.8104101936586460  0.2026062651307701  0.7993913579971261
  0.2014433978989861  0.9991651874822797  0.3923058964437668
  0.1975449551029742  0.5947560798090139  0.2039935686674250
  0.3970512096142384  0.5997748826865700  0.4060971463430144
  0.6259097578256818  0.4049873494763020  0.8078008173847904
