Zr Ti V  Cr W 
 1.0000000000000000
    15.1657023850620440    0.1643691184296252   -0.1146451022527561
     0.1654391570986079   14.9622938076670540    0.0177388744140879
    -0.1161962537241539    0.0182659206384083   14.9583452594769035
 Zr  Ti  V   Cr  W  
   8   6 107   1   2
Selective dynamics
Cartesian
  3.1442187033729758  6.0683537675806765 12.3124911053479380   F   F   F
  6.0996603045623194 14.6337397301719943  2.7701719776472578   F   F   F
  9.2213265195595611 15.3463492898402833  9.2719526708235147   F   F   F
  9.4536674011693123  6.4937058979876223 -0.1316100509907764   F   F   F
  9.1860778908807141  8.8213737161967654  2.4962746910153926   F   F   F
  8.8529532350109097 12.2242961104210970  3.0162423268135918   F   F   F
 12.7496144363905941  3.6808230758518206  5.7686023886188638   F   F   F
 12.3517181442006923 11.8551296678626112  2.6882258887346793   F   F   F
 -0.6479826441971881  9.8196464178704588  8.9580897972528941   F   F   F
  3.4151160221498302  0.1289680893705346  4.9922548067785346   F   F   F
  3.0298377301919301  5.6222001163068196  3.1562416168228911   F   F   F
  6.3783972269031821  2.2661057343727071  0.2111957497682874   F   F   F
  9.0684336926079592  5.2426620957051231  3.3641118189835697   F   F   F
 11.7063846827353970  3.1159302284150172  9.2550263061796851   F   F   F
 15.4867131825827116  0.7955630095525990 14.5600526503701495   F   F   F
 -0.1445485256501489 14.1047395879829587  2.8068273911486950   F   F   F
 15.4803518807480973 15.9200520073504581  6.1009233422558751   F   F   F
  0.6638281965013687 15.4806793695917442  9.8490625520902864   F   F   F
 14.8145018617596200  2.3904157875714400  0.7025674407456133   F   F   F
  0.5500899420184987  3.0084093114189838  3.6515499352879863   F   F   F
 16.3933494243315536  3.1963071712781583  6.4630652977733485   F   F   F
 -0.6824345962113361  2.8716333621423478  9.0499488696389658   F   F   F
  0.3889401161420445  3.5498155200918324 12.5233600837541239   F   F   F
 15.5379544534290694  6.0332589738953777 -0.5064023423187960   F   F   F
  0.2826184088182592  5.4198136686405727  2.1861443436733636   F   F   F
 15.1295884860535725  6.3483890014405606  5.1321324028951700   F   F   F
  0.7773837510129646  6.3074054887114555  9.5558360488786587   F   F   F
 14.4694959207639275  5.7057279191364474 11.6586651990304198   F   F   F
 15.2955916989082770  8.8189756250597533  0.1407929277257035   F   F   F
 15.4817480390580329  8.7382994270373651  6.5961972866137115   F   F   F
 15.8791401788727189  9.1616671413666211 12.0560123017610419   F   F   F
 -1.1296764293178474 12.2250086448446833 14.6510439380390380   F   F   F
 15.9109409816409180 11.8590086480337593  2.4258737631173961   F   F   F
 -0.9465968193560304 12.2126931187651895  6.0043449837673473   F   F   F
  0.1616813725578481 13.3939201290503345  8.0673500028819021   F   F   F
 -0.2535925343819086 13.6914723854203544 12.0827624509950571   F   F   F
  4.0723694189330475 -0.3029506109926489 -0.5194022343509564   F   F   F
  2.2800393277362452 14.6366004877305400  2.7586504403190610   F   F   F
  3.1762878733781585 15.0935956734599284  8.4776145496083117   F   F   F
  2.5973342306871254 14.4065630369588167 11.9398483242231528   F   F   F
  3.0468914837796435  3.3268499412390979  0.1076318210410416   F   F   F
  3.0724775524240076  2.1202175805955208  2.1847807722818935   F   F   F
  3.6042364601968093  2.9910110731889774  5.6957474966117942   F   F   F
  2.9582236327831319  3.3947429221897001  9.8837765040958470   F   F   F
  3.1310170468650891  2.2423779364735590 11.8618856446316201   F   F   F
  2.6026107324320815  7.0355536202067244 14.8492658868555232   F   F   F
  3.5113632745937102  5.9712781552788439  6.0273685504620369   F   F   F
  3.1164207495893934  6.0765736310897553  8.4574391693096818   F   F   F
  3.6805120328763361  9.0319215439527358 -0.2428725465337524   F   F   F
  2.2400397416004370  8.4289472357614326  3.3364095309790045   F   F   F
  2.6041190446948930  9.6853098720515600  5.6860650237701398   F   F   F
  2.8888368462079734  8.4750918045133563  9.3031990017748747   F   F   F
  3.6097060632628692  9.9553506898815467 11.8462312175345836   F   F   F
  2.7128743636357617 11.4005036364606749 -0.8855869791855635   F   F   F
  3.2604171053689495 12.1123131556464863  2.7910347918018976   F   F   F
  3.4341794319322885 12.0240139639787689  6.6124070914202857   F   F   F
  2.2859568577400831 12.2301991705321260  8.9815114568951291   F   F   F
  4.3037824439330477 12.6677202595959493 12.2073748027640026   F   F   F
  5.8760844222079278 -0.9569996408793684 13.7741784662804747   F   F   F
  6.6077966996985387 15.4182404149885741  6.6432545800164506   F   F   F
  5.2537360496345569  0.5411966968213816  8.7139702231735594   F   F   F
  5.9102179514660440 -0.0340627947810805 10.8845662159900360   F   F   F
  5.7174158681180884  3.4050946706170606  2.7739976929872325   F   F   F
  6.5029905322277068  2.9531884715770826  5.0051650798750904   F   F   F
  6.5851867690695842  3.1835193971285616  9.0753096754210052   F   F   F
  5.5266681462420868  3.2634325261711066 12.5876068649059931   F   F   F
  5.4980610002155492  6.0501294077018679 15.2382098928912253   F   F   F
  6.7406000217396720  6.2429373335630514  2.5405523124095200   F   F   F
  6.0029483642508019  5.7720275439087843  5.4996894328501726   F   F   F
  5.4734637181723125  5.9347659318950061  9.2832514896014651   F   F   F
  6.9841454044058118  6.0168921345365485 11.8964529270925237   F   F   F
  6.6317078062599322  8.8115173171050518 14.6606541899984570   F   F   F
  5.2542503392831739  8.5384899796070801  2.9413981048493003   F   F   F
  6.3131960042895408  9.6303816189455507  6.4570389906374706   F   F   F
  6.6794159957901780  8.6389976565364393  9.3654465832127425   F   F   F
  5.5803404791708529  8.6270178097245545 11.8025684607441335   F   F   F
  6.1686165724977053 11.6548962754976113 15.4822771364561742   F   F   F
  5.8164230839066056 10.7612078603669357  2.5829413507866859   F   F   F
  5.8162881903014805 11.9903914098505062  5.3307540415646164   F   F   F
  6.3590263023026141 12.5127686982128363  9.1299699277433248   F   F   F
  6.5213571879043135 11.4368901268611225 11.9535549506676908   F   F   F
  8.4836224157434561 14.5795529576566647 15.3395059634921438   F   F   F
 10.3588383357291516 14.6645286960674657  3.7365958414756162   F   F   F
  8.6031578304859728 14.8267018467408818  5.5538454105303385   F   F   F
  9.4954051134704880  2.7330427687659058 13.9382519326194689   F   F   F
  9.1375356036260929  1.6751702900391074  2.5266651860728624   F   F   F
  9.1843136150306837  2.8783491326161421  6.4957301104615137   F   F   F
  9.0671681007485265  3.1112287533652525  8.9255661112564777   F   F   F
  9.1809393459071789  3.1296182507886927 11.8658406647188066   F   F   F
  8.3871067266470654  6.5466777345754084  6.9325559185320724   F   F   F
  9.0987077262222673  5.7609653478349632  9.0034303091954015   F   F   F
  9.3977695280435256  5.9181733394067431 11.8193985019059902   F   F   F
  9.1076411312568020  9.0761611987772142  5.9979239036534047   F   F   F
  9.0258382548676277  8.7615036065864587  9.0057166646396229   F   F   F
  9.2132921211826879  8.9296697032017285 12.0540319363899311   F   F   F
  9.6024863994734453 12.7198273657612813 -0.7563913381874429   F   F   F
  9.2507368610612559 12.8075652480113167  6.7177754426453369   F   F   F
  8.7578550610741175 11.6329284850211572  9.4246881668078188   F   F   F
  8.7164489695597283 12.6190273510303275 11.8322515176847212   F   F   F
 12.0339514029344183 15.2194008072837370 15.6297990179575024   F   F   F
 12.8344860606548146 15.9027625161885151  3.4097212472825813   F   F   F
 11.8660416370119997  0.2676342561822793  6.9624211419301467   F   F   F
 13.0156326454856845 14.6920933701039171  8.7365191122776267   F   F   F
 11.4143432963302178  0.1932769978365432 11.9843587049351719   F   F   F
 12.2094304505520554  4.0313990203333843 14.0539779789316572   F   F   F
 12.3080969473211397  3.7353783619178262  2.1656933163306196   F   F   F
 12.8047382891541037  2.3174227990714567 12.5209708023049267   F   F   F
 12.9752580439475800  5.9936648062657767  0.3169122740741379   F   F   F
 11.7831487444992096  6.0569866553407596  2.8144256957097360   F   F   F
 11.0894194791529355  6.8548560541678203  5.8445584267713908   F   F   F
 13.1423244227236999  6.4304509589419165  8.2063718431564041   F   F   F
 11.6720211484085929  6.0323406937708128 11.7131081954651979   F   F   F
 11.6067514064025517  9.6835059058268449 -0.0926724519246462   F   F   F
 12.9895182048433693  8.4726388572465137  3.0905211453108938   F   F   F
 11.8374787770952050  9.2096200226708298  5.4213824944031233   F   F   F
 11.1443876199938163  8.8401183718929595  8.9223146814905974   F   F   F
 12.8970513701354665  9.5910567805419369 12.2307023361558169   F   F   F
 12.0212803652419602 12.8950006604195568 -0.0358310947488805   F   F   F
 11.9372693386947759 11.5861817488712244  6.5728228072875901   F   F   F
 11.6223380584297047 12.4958516907515591  9.4352539987301203   F   F   F
 11.9258943110646616 11.4511182172185126 11.5932136354360047   F   F   F
 14.8657323136280120  9.7210433872402913  2.2795897444919975   F   F   F
  8.3223888563795629 15.4002196751463210 12.8029005677756302   F   F   F
  8.4881447824804646 10.2527098059738506 14.0024872445147359   F   F   F
