Zr2 Ta1 Ti3 V111 Cr3 W5
1.0
  -7.5249999999999995    7.5249999999999995    7.5249999999999995
   7.5249999999999995   -7.5249999999999995    7.5249999999999995
   7.5249999999999995    7.5249999999999995   -7.5249999999999995
Zr Ta Ti V Cr W
2 1 3 111 3 5
direct
   0.2032087854129910    0.9978459258998935    0.1948074757966969 Zr
   0.5940116444019099    0.4008796897134742    0.5983165599971539 Zr
   0.0035333651351266    0.6040145313389166    0.4020108941488857 Ta
   0.7986126001056928    0.0020885635223243    0.0036624497053028 Ti
   0.8034171668762076    0.6021910965314090    0.0021006450760641 Ti
   0.9988527629615505    0.9991065061741766    0.5991160851723083 Ti
   0.6050985926738492    0.9987793720976943    0.9984302796075780 V
   0.8034609962903938    0.2022172153915778    0.0025348377801307 V
   0.7930885342369227    0.9979808424209133    0.2000968299395246 V
   0.6010341885275480    0.1961633284409776    0.9970183875325630 V
   0.7997073340546000    0.4009928055729780    0.0004179497707209 V
   0.6020883599858691    0.9998780985194554    0.1987266771771317 V
   0.8006025787296193    0.9993596346699155    0.4015964004471287 V
   0.2026072438240855    0.9970893503838315    0.0025388978064272 V
   0.3956477374986572    0.2000372599726082    0.9931006222082592 V
   0.5964110963147363    0.3997300164968041    0.9943289782001935 V
   0.3992201097176308    0.0001015149728232    0.2002622626306899 V
   0.6020357351489389    0.2050559629591866    0.2001288999209594 V
   0.8009417733523916    0.3992295707885161    0.2007428589089475 V
   0.5986427602968695    0.9965553243033196    0.3951091293689031 V
   0.8037131796478499    0.2074727861621150    0.4067551208494877 V
   0.7983314591129432    0.0028881446737781    0.5960151959796534 V
   0.9990827728678411    0.0023937036242509    0.9998177419019197 V
   0.2011783100599407    0.1987730148330690    0.0036637030149013 V
   0.3944691043537066    0.4025251914062013    0.0019388665662402 V
   0.5981700069394467    0.6006962260582320    0.0006640156978826 V
   0.8020593516539614    0.7964279769450620    0.0005211557078355 V
   0.3998844160076970    0.2039099378545414    0.2062828268079252 V
   0.6040935551017123    0.4010250532016510    0.2034893762202904 V
   0.8001611167305199    0.5989343853946814    0.1988397687131133 V
   0.4010487391634946    0.9989212526742868    0.4016348610811676 V
   0.7987670844658452    0.3991066153088431    0.3994699325294455 V
   0.5983343022543799    0.0012839114869774    0.6019291929537501 V
   0.8060997694491139    0.2040066118972617    0.6084819087564406 V
   0.7937473730591149    0.0006445568491638    0.7982331414877195 V
   0.9989745790605413    0.1988250638945692    0.9989842191472716 V
   0.2002225231585875    0.3996307207764088    0.0022642681385168 V
   0.4050864220584618    0.6041856222160120    0.0044376742636896 V
   0.6062188579925083    0.8019351483906227    0.9979372279270458 V
   0.9937208539133934    0.9985355781523702    0.1972977743627815 V
   0.1984249252237075    0.2001249295866533    0.1954526884849512 V
   0.4019223345465805    0.3997405868723896    0.1977995127331521 V
   0.5951267790284472    0.5983175487146911    0.1968838304604797 V
   0.7956058067336841    0.7948599101838952    0.1911805498803565 V
   0.1912764683229295    0.9948656060381714    0.3952567268915197 V
   0.4003033192779052    0.2005580848631138    0.3996570947872565 V
   0.6058707656359819    0.4083662827477886    0.4046970250822012 V
   0.7978534203291057    0.6010395767457846    0.3948710892044576 V
   0.5972150811784758    0.2037794049118216    0.6030385860453673 V
   0.8050561617216099    0.4027195359408614    0.6026976338525184 V
   0.8075996174298562    0.2026380004936704    0.8024646968410651 V
   0.9993910853425891    0.3987247000296278    0.0012318627041198 V
   0.1939955340654352    0.5954489622340522    0.0020860621843145 V
   0.4041377226753721    0.8085664885649247    0.0055865533000808 V
   0.9964570756691442    0.2009959947072313    0.1997800951935182 V
   0.1998029112376632    0.3998348642949720    0.2037298243011993 V
   0.4076591243243333    0.6032854777147464    0.2073469449868917 V
   0.6078914997331913    0.8076651247731041    0.2064491797411454 V
   0.9991365747118968    0.9989194222656270    0.3988835430519422 V
   0.1976172430313458    0.1995762019275922    0.3932991513892531 V
   0.6019753963794438    0.6010476915182399    0.4008891510654450 V
   0.8012043208363693    0.7972465872175089    0.3978826604990794 V
   0.1955551693984950    0.0027167159899544    0.5989419265370174 V
   0.4035250078991345    0.1981964801597083    0.5950639820697977 V
   0.7952310009544454    0.6012430694371508    0.5982139876304191 V
   0.4027685236239072    0.9947892143048885    0.8024348052568224 V
   0.6006758680593621    0.2032522834268368    0.8040136560869995 V
   0.7983506322063711    0.3999827513327676    0.7983246892760111 V
   0.9999883255735739    0.6075459496949556    0.9998501000462239 V
   0.1982418021789062    0.7978417845368518    0.0002565698327558 V
   0.9994266949095302    0.3953067761882838    0.1958989571418835 V
   0.1953687548075957    0.5926551601134992    0.1964067225997551 V
   0.4015764733843988    0.8038137446452647    0.2029949375850635 V
   0.9908103165460671    0.1951840396221568    0.3947509389407189 V
   0.2018425759923982    0.4027872334078619    0.4012100591383078 V
   0.3968709120033814    0.5952966838119367    0.3994842396257581 V
   0.6085171030073878    0.8072771568331614    0.4040755857471855 V
   0.1998402341630879    0.2006158530183773    0.6006661607603069 V
   0.3994138181756007    0.4024924404697492    0.5971701077793703 V
   0.5959081299904745    0.5953757712952716    0.5973625927757779 V
   0.8024641911548700    0.7965218256380675    0.5958989877047626 V
   0.1993672474319934    0.9941268861574755    0.8017330255116932 V
   0.3973530026070538    0.2013376358743469    0.7998180019441612 V
   0.6008578038189801    0.3980584831744811    0.7996609210379840 V
   0.7988863692709143    0.5998802389202644    0.7997077583284402 V
   0.0018256982622319    0.7962743595358236    0.0008202277771664 V
   0.0045795183311280    0.6009186899702713    0.2074930465500599 V
   0.2015375048809057    0.7996691110230481    0.2013615071489509 V
   0.9998343463719249    0.4006685615009636    0.4030045680330457 V
   0.2016946267119625    0.6016472266102402    0.4068565865397887 V
   0.3971257735292781    0.8004454618499101    0.4047500957391196 V
   0.0047602007857937    0.2026511795926093    0.6019349865229986 V
   0.1949037058067592    0.4022825117139406    0.5974961877708673 V
   0.3946187845965584    0.6010766703403181    0.5988213539769820 V
   0.5981663926284755    0.8005140873483614    0.5988998395856512 V
   0.0050137334569565    0.0050741899121536    0.8052081046672034 V
   0.1955816540010078    0.1982510723142264    0.7952137093749754 V
   0.4011491666110144    0.3996617452110227    0.8021178679798039 V
   0.6041564217050205    0.5991534221854020    0.8035746737851630 V
   0.7982309021426746    0.7982365354092709    0.8006121359057712 V
   0.0049309858308879    0.8002082675123006    0.1998073112502983 V
   0.1990001538173414    0.7964991270533830    0.3997954912137119 V
   0.0030985268464040    0.4013972239676095    0.6023975160397714 V
   0.2001532923102638    0.5984020840366048    0.6052106836701224 V
   0.4029525136704467    0.8001129922733254    0.6001006439181188 V
   0.2014291264515974    0.4019117417096643    0.8002686825681835 V
   0.3956563546214885    0.5932166790970583    0.8010325627903929 V
   0.0060515359602240    0.8017760209591164    0.3968609141727782 V
   0.0008351770714803    0.5983364963836473    0.6019683728021801 V
   0.1989817378348105    0.7999904544449892    0.5993444796922128 V
   0.0075900749980241    0.4075450846722886    0.8040040359313451 V
   0.1980200860044739    0.5973068578712717    0.7968370188699254 V
   0.3970406597553512    0.8057128825685513    0.8033243115409601 V
   0.9964336674832694    0.7979767970596519    0.5971390039452240 V
   0.9982542327459285    0.6048055267276730    0.8017069577920192 V
   0.2014821766256546    0.8042337104455526    0.8034862901725298 V
   0.9981899398278531    0.7983289803570468    0.7981448440843965 V
   0.3981842311105706    0.9974028406588474    0.9964451386341110 Cr
   0.8021903093315846    0.1971363781178735    0.1992255736488327 Cr
   0.6008467499677571    0.8012037138882153    0.7970681001412900 Cr
   0.6014508813828554    0.1961834268250749    0.4003498455431739 W
   0.4067919389971220    0.0059703671103448    0.6073637355480381 W
   0.6040226284684006    0.0026714329533045    0.8075599972569421 W
   0.4041974729936435    0.4036232616148069    0.4025428390520931 W
   0.0031938340890887    0.1977022583669981    0.8013406451210503 W
