Zr Ti V  Cr
 1.0000000000000000
    15.3990340272275770   -0.0170018773457157   -0.0022529018582575
    -0.0170107766548915   15.3787801482628375    0.0165544931564424
    -0.0022517709109467    0.0165430754876648   15.4057927644380346
 Zr  Ti  V   Cr 
   3  13 107   1
Direct
  0.1922418871713865  0.2008443741470959  0.3728674881878434
  0.2040253258841924  0.6200922393900988  0.3829331387471815
  0.3843757077575681  0.7946101716395871  0.3900065791056619
  0.0016382615807671  0.0053979810026805  0.9979988721464971
  0.0004066397717530  0.1956847053870436  0.8087022317668245
  0.2030953648686529  0.1997867324827511  0.1754266206398755
  0.2023603188545273  0.5916367361009549  0.1833136072755716
  0.2102007384894412  0.8017677900432113  0.2128585498301936
  0.3917412058600186  0.2048348067994065  0.6027163330599991
  0.6096754645419981  0.0139301777005558  0.5922193930930261
  0.6051453183006872  0.1911062097100265  0.4122282487791913
  0.5896453405764277  0.2024481847578580  0.8124081361899740
  0.7952494738571054  0.1966874311764698  0.1963160386604541
  0.7836696202549190  0.1958517016103112  0.5933820152762408
  0.7974792106819861  0.1989914210895886  0.8025637439063857
  0.7994598531473051  0.8026228785545008  0.1978546753119382
  0.0038614277340787  0.9993299518850900  0.2061454697623248
  0.0011535534303193  0.0013226513916703  0.6017357361481124
  0.0018600685541060  0.9975885125017566  0.7982749607375738
  0.0006443924365553  0.2029770303375609  0.0071613306087144
  0.0017489851305323  0.1983539485262242  0.2027055519104568
  0.9924634571011470  0.2039868195161733  0.4015072772681866
  0.9983473397211795  0.1988605997959845  0.5972503698050756
  0.0004421974903330  0.3999192008377341  0.0021722848680127
  0.0000268075526735  0.3988070556735592  0.2019907379899878
  0.0007237960412550  0.4006614111944007  0.4013749180494268
  0.9987713196034071  0.3991386263744555  0.6018366128264279
  0.0008378117565120  0.4003928602150312  0.8011900273483789
  0.0011744480182312  0.5998493189428687  0.0015738508841425
  0.0003124590118149  0.5989646689284545  0.1995812085563183
  0.9957670214984723  0.5992129412172126  0.3995283891310062
  0.0011089041429420  0.5996973102416916  0.5992137766578831
  0.0000062574696424  0.5995895195535439  0.8015780602515287
  0.0023937184453924  0.7989907864269046  0.0029812626021206
  0.0019778639288769  0.8010008666680196  0.2017318564443722
  0.9932609242211525  0.7954351683491631  0.4002366620380048
  0.9997103920434418  0.8014070983922582  0.6000182563726244
  0.0002338484625768  0.7987894596659019  0.8010378589363668
  0.2031520559973776  0.0000866758412843  0.0000385084136263
  0.2016881681398751  0.0038552954117976  0.2014938228905614
  0.2015178854330610  0.0011934317158520  0.4017125116030222
  0.1672102280375899  0.0033975030771366  0.5671313632667071
  0.2022821002073559  0.0005017693299170  0.7994806753595964
  0.1991867845944467  0.1997784765709490  0.9880517290345064
  0.1955495887526505  0.2010673893100880  0.5963575690348163
  0.2012920827846842  0.1992193641667755  0.7957842729640130
  0.2000472012908794  0.3983717023893860  0.9993090144594946
  0.2011896811945819  0.3963668581877796  0.2007243250593392
  0.2000297394171953  0.4066646703867967  0.4014427244219680
  0.1994566493168397  0.4011910294877505  0.5990482690252958
  0.2001287167705607  0.3995226856807022  0.8000701131175374
  0.2006827246908000  0.5996321300300572  0.9934020216059976
  0.2001409835439743  0.6015383602283180  0.5997501592916876
  0.2010810805945356  0.5997196815421528  0.7982765388356776
  0.2010506525418405  0.8001560607181980  0.9997779678506751
  0.1826522240996996  0.8204545039392006  0.4095396266011382
  0.1997539126356436  0.8009630191121034  0.6031320970772301
  0.2003677045990870  0.8023789732834735  0.8013749826939487
  0.4016314223154130  0.9997029615650812  0.0023911534109342
  0.4017623087440960  0.9975009568602743  0.2014066503974551
  0.3994471272419591  0.0042926377474316  0.4010863524650094
  0.4021356245081972  0.0001460453047755  0.7984811144346242
  0.3993227201689081  0.1985809537849707  0.0022221862329569
  0.4010772210565147  0.1983412484505741  0.2016766869008947
  0.3996003216050226  0.1992712581669948  0.4004442101180209
  0.3959166864807323  0.1993584609333290  0.8056518277681671
  0.4005467704556862  0.3986395473730022  0.0021937055329577
  0.4014889227592750  0.3975625184514031  0.2019733459930353
  0.4003158291050022  0.3949101061110487  0.4016466186951188
  0.3995584256763509  0.4015329815760925  0.6014077250699957
  0.4006243781273188  0.3993040526858631  0.8007881448747328
  0.4005792886909694  0.5989507677966138  0.0009112881049680
  0.4037190933444668  0.5969840928894954  0.1999656009815002
  0.4088952730883650  0.5901240793353628  0.4002819770432066
  0.4006783033372633  0.5985716034723236  0.5995753322557867
  0.4011956393928401  0.5998816022905687  0.8014023323750787
  0.3999292987128090  0.7996462938144026  0.9974574673328066
  0.4058259956593231  0.7995807844757474  0.1909080349902021
  0.4001686208773469  0.8005555895246419  0.6019098530340307
  0.4008405830408022  0.8000706802880146  0.7995007849007142
  0.6016844270651970  0.0003404043572766  0.0005797142215195
  0.6028286203715242  0.9996777667601032  0.2030908392482116
  0.5948160056811450  0.9945594898486728  0.3984261811576843
  0.6007900556391035  0.0004262099895003  0.8013238208076188
  0.5999939819069428  0.1996814667675720  0.0074882229116995
  0.5976228513732982  0.1980987601285940  0.2019092075610791
  0.5913189714897436  0.2059377985183210  0.6088612436413596
  0.6015078404450587  0.3993570682541542  0.0014839702028595
  0.6005825119774230  0.3973594306722649  0.2029381798042518
  0.6013461379516341  0.3988453898815024  0.4023172077231069
  0.5998528304205576  0.4021237028022755  0.6024855197849678
  0.6005620900603905  0.4021369488905120  0.8022215993927949
  0.6012796613509845  0.5995686378747174  0.0013679675475698
  0.6024482067365804  0.5993610440577746  0.2002661240332977
  0.6023375542786822  0.5986310359365911  0.4001240085433482
  0.6003717083709472  0.6023197601724725  0.6006927130039588
  0.6007701212957491  0.6005537842079024  0.8009659006016285
  0.6014622453829971  0.8002719451740122  0.0005949552300355
  0.5993230393744835  0.7987299452966021  0.1996582832095790
  0.5995196656713168  0.8001447132840913  0.3996352107414203
  0.5988487134908939  0.8014469305010539  0.5994852034967885
  0.6001794394529169  0.8020432429902044  0.8004077060990762
  0.8002720698580704  0.9999232534447103  0.0008531994389203
  0.8026503932411201  0.9997747530398952  0.2004092691203667
  0.8286871560232185  0.9972735777175910  0.3975356685662764
  0.8061055051365665  0.9969713348338357  0.5984950545505516
  0.8007927459680328  0.9982020167151868  0.7987532996107226
  0.8008989829579414  0.1994745237124967  0.9983875738539623
  0.8012941309784976  0.1973812625130827  0.3963740078375037
  0.8011628634224738  0.3984318168084574  0.0005903561866554
  0.8010839433206112  0.3989164166606931  0.2005531789864032
  0.7998593473532286  0.3982733385420910  0.4001984608957565
  0.7996367886939536  0.4006560488294560  0.6000823692626867
  0.8004324597528003  0.3997962035946305  0.7991236650495431
  0.8015284650092840  0.5987990898730906  0.9998013213790689
  0.8006379550034286  0.5968972678028774  0.1992140855105709
  0.7990335746190919  0.5999289157255693  0.3991507524447093
  0.8000587417245811  0.5991663651766267  0.6001047689616282
  0.8004701775542886  0.6000875018519907  0.8004862933977928
  0.8016495420760209  0.7999229138104896  0.9970418308086514
  0.7974488766508310  0.8008358904895476  0.4022237035324050
  0.7986877214806294  0.7993368428900094  0.6011500991027409
  0.8006202079306238  0.8001347672525275  0.7999269596470592
  0.3978008950416158  0.9979946653066186  0.5990368081987927
