Zr V  Cr
 1.0000000000000000
    15.5277836321495606   -0.0011014415353407   -0.0036444284316418
    -0.0011015311309700   15.5268057001839015    0.0012045176117796
    -0.0036459540422085    0.0012051907892001   15.5242636607114743
 Zr  V   Cr 
   5 117   2
Direct
  0.9991050692591866  0.1994271651250165  0.3999431257283824
  0.9897367923379238  0.3999786934447022  0.9939679408090878
  0.5981395321045373  0.0014646507078084  0.9985571515094777
  0.6022542676276833  0.9983005246328108  0.7735053136963583
  0.8069126456128330  0.3990925822871706  0.8086803192833483
  0.0004332517258505  0.9976237337033513  0.9995258802381176
  0.0001104952403064  0.9984356240500244  0.2001226036551985
  0.9996828371673845  0.9947203848663126  0.4001679498962062
  0.9997899621860025  0.9983400522701841  0.5996093919842210
  0.0018531958746493  0.9984728967190180  0.7986352855982247
  0.9982851480882380  0.1949802189760952  0.9985493947469563
  0.9990209914258252  0.1997329901905736  0.1960430960217087
  0.9990305819062117  0.1981162568931094  0.6032765960151759
  0.0021595635463431  0.1982909463254764  0.7986738683465631
  0.9998449206200097  0.3997854013948474  0.2017477365781405
  0.9997035452246714  0.4039822056579435  0.4001170853584125
  0.0007988792149061  0.4002209818766767  0.5979999464442239
  0.9988157658199210  0.6040005030737363  0.9998076192440059
  0.9992681174008655  0.5997153651520352  0.2002153693345609
  0.9992872317868114  0.6006841656892383  0.4005217906707487
  0.9993890781724200  0.6004201547567306  0.5993087232234733
  0.0020320877556690  0.6008330437532299  0.7979651058391549
  0.9992335753345131  0.7995502010948990  0.9995556543672207
  0.9992736667975346  0.7993485997741079  0.2002363887328348
  0.9996911645242467  0.7982258694806208  0.4001294251780032
  0.9990992966370104  0.7995421861852385  0.6004513363748291
  0.0004832314939351  0.7993103821055426  0.7996173787320973
  0.1981210333260830  0.0000419627399264  0.0005712527667234
  0.1987892818250170  0.9996661731639341  0.2006005237123233
  0.2003971983735751  0.9986361119363077  0.4000233729167614
  0.1994580679142531  0.9994925258988070  0.5992764733023510
  0.1990515976106551  0.9992940148788158  0.7991255690851646
  0.1952974985723873  0.1999283430695702  0.9995521708961908
  0.2015257144333825  0.1992863075784947  0.1979654413012354
  0.2035553435162001  0.1995572742520157  0.4001099604224091
  0.2004182488205776  0.1994414259499886  0.6008667103209885
  0.2026695588675640  0.1989932841456962  0.8018836405763674
  0.1988911275000680  0.3992286479443979  0.2003725262680060
  0.2006743693927883  0.4002128564138386  0.3999403202383213
  0.2006921752329727  0.3991120470554139  0.5990365186139968
  0.2028522548899350  0.3994017462835215  0.7991792431927698
  0.1983460760783602  0.5992665090780881  0.0002410962412039
  0.1989985576433671  0.5990932773303537  0.2004788275748776
  0.1998246140086653  0.5999097752694686  0.4002614833647716
  0.1994482246331742  0.5990718258052302  0.6001753426202419
  0.2009705038515691  0.5997383790192774  0.8002716795793056
  0.1988229121142323  0.7987293927502204  0.0004288967164708
  0.1993725782327381  0.7994930634584814  0.2003045404640053
  0.1997976577653469  0.7986700100145111  0.4004189675574897
  0.2001440971934061  0.7997753938729595  0.6001242884547270
  0.2000220779966205  0.7993761621500259  0.8003201906979525
  0.3931132711777592  0.9955783335893821  0.0009317101001640
  0.3987163236507192  0.0006933749732354  0.1995924409848286
  0.3989212772166562  0.9986293543482199  0.3999617077123612
  0.3998215216664058  0.9992040789166395  0.5994981595998499
  0.3961389542156805  0.0004494621406637  0.8010559194577044
  0.2015985680295871  0.3985167291329062  0.0009592880041476
  0.3998351717966698  0.1993129729559912  0.2015451253249808
  0.4008620087943556  0.1991186699985065  0.4007237024028939
  0.4006432387879064  0.1992181070009921  0.6006851996980380
  0.4009089104538548  0.1990009524061753  0.7991842909166444
  0.3983490539265143  0.4025697769236105  0.0007950686993954
  0.3993350259402140  0.3986263199098946  0.2005388915928772
  0.3998640335719211  0.4005831978496218  0.4008072433038524
  0.4004207381708167  0.3996008919139942  0.5995752516552978
  0.3998564168038976  0.3986088824179190  0.8011551310910378
  0.3992210509661039  0.6002153196226249  0.0005973925285754
  0.3991638998333962  0.6000671360857402  0.2011686779382676
  0.3996618868768275  0.5997886854146922  0.4006269797034083
  0.4006897603455234  0.6000443115568229  0.6004384520909152
  0.3996764561009452  0.6000361928394656  0.8000090970659118
  0.3989594214943164  0.7987543166972322  0.0004372451414878
  0.3998776658887485  0.7992501421841813  0.2008690937478769
  0.4002960205293780  0.7995006433767750  0.4006116391460507
  0.4000410110401135  0.7994855012771671  0.6004346081589114
  0.3998331725329957  0.7994013901945789  0.8005133912105280
  0.5998842098464369  0.9995169008602002  0.2038230416464791
  0.5993941952901812  0.9990542550022599  0.3972322716107804
  0.5998144437201143  0.9997694020307591  0.5844581610029587
  0.6017202571691931  0.2054671390882020  0.0008827382185712
  0.5980711182023695  0.2004417722762336  0.1996865447210754
  0.5990723221495804  0.2007455837483027  0.4006545575941326
  0.6001903712406423  0.1992087169892974  0.6004436686653151
  0.5993532252397096  0.2041599752269297  0.8013384859534221
  0.5942928865267452  0.4012247621949144  0.0018606563139968
  0.5984947778407192  0.4000464828967443  0.2024888199167748
  0.5988525717280330  0.4001024197835304  0.4008330093160835
  0.6001462027644782  0.3999268231923198  0.6002073589477300
  0.5984604723811845  0.4009380550608053  0.7993503404148687
  0.5992897162644328  0.5988790937370316  0.0004705422260104
  0.5994442426971202  0.5990904752158072  0.2014953273887246
  0.6002121585115505  0.5993184656505061  0.6000563110432916
  0.6001897283892887  0.5983157952106989  0.7995793022720750
  0.5996268013274598  0.7943528053564916  0.0009450931940969
  0.5994245567602138  0.7987117714440259  0.2010538559695494
  0.5996042380739757  0.7980865370547996  0.4001284137928598
  0.6001554760089565  0.7991499301641125  0.5997180564874102
  0.5995971822064484  0.7948680956807790  0.8002544692528004
  0.8045967961338966  0.9985136561401111  0.0017296559595803
  0.8006325711593508  0.9998102801121013  0.2012075258264791
  0.8000602034067680  0.9984770094337473  0.4003348173768626
  0.7996697078837097  0.9991805517136694  0.5998620427708092
  0.8058582460658921  0.9985813759379945  0.8007722785967694
  0.7986123356252509  0.1979918874997800  0.0015357449310476
  0.7993745307564635  0.1989758073867957  0.2006318191408334
  0.7947220806030805  0.1987021394283393  0.4005343254144301
  0.7992669143008321  0.1995602751543629  0.6020133825470683
  0.8001921262234313  0.1948117409415561  0.8018004026833213
  0.7880127393216401  0.4004559024999176  0.0120575929482013
  0.7985080875147247  0.3993043326460169  0.2051313892506409
  0.7987369125852564  0.4006691849770576  0.4015396269646709
  0.7993398316419938  0.3990467628394042  0.5987939333958531
  0.7983249962677891  0.6013041704503702  0.0019927046294122
  0.7998023151824800  0.6000345405193835  0.2016856287721495
  0.7992420541318346  0.6002338323562524  0.4005024915212128
  0.7995247472851058  0.5996342413454814  0.6011105555300947
  0.8005201880567345  0.6039018217652885  0.8011938026317823
  0.7991139295149771  0.8000649497188934  0.0011161352531197
  0.7993137036835726  0.7997180777728160  0.2007044740477793
  0.7987309135312805  0.7993668227070391  0.4009023468254734
  0.7994439913470697  0.7997553687029710  0.6003692882094647
  0.8007644117518713  0.7999306665037994  0.8015648562195197
  0.0086408497316925  0.3997044356369995  0.7923614770915492
  0.5995704704739183  0.5995920745061157  0.4011537731667821
