Zr Ti V  Cr W 
 1.0000000000000000
    15.5605004684825037    0.0303255126318240   -0.0385586955404674
     0.0302728279200678   15.5530849979154286    0.0655903308017144
    -0.0386454446837789    0.0657938000358750   15.5388918105482556
 Zr  Ti  V   Cr  W  
  13   4 102   4   1
Direct
  0.9519352877658094  0.9533741416423289  0.4251389609346640
  0.9822867426515319  0.8135728916185383  0.7874695485229692
  0.2476974801325953  0.1970081320950311  0.5977694810864580
  0.1969622242642574  0.6031931250991860  0.3988773441572979
  0.2019430706922374  0.6035598318930457  0.8019907636691334
  0.4050770101877463  0.8057251950268786  0.5967654426544293
  0.6065406332995419  0.1800208370650256  0.7950467164256936
  0.6345377250799987  0.8292591935738439  0.0046262400925776
  0.6192265320079009  0.8044786092934242  0.2367766685016255
  0.6035832236876174  0.8218201880621664  0.4528752938300566
  0.7429056876933098  0.9947820158939488  0.3730225235145640
  0.7946160618611015  0.9908182410560907  0.8033216714493079
  0.7705342443230582  0.6416461201105190  0.9954805205168026
  0.4239571604602093  0.0435214303765390  0.6150947122779794
  0.4016554116186073  0.4004283835397126  0.2010439718030366
  0.6208199440970066  0.1717516429130301  0.5849076061328339
  0.8196259517112378  0.7741150825811303  0.3654156562076815
  0.0050259538364391  0.0050302383737473  0.0031576106660379
  0.0009338250621442  0.0010028674407425  0.1970527042045646
  0.9977214711790560  0.9975327068221067  0.6228298538666788
  0.0045617884914351  0.0128256222623824  0.8095626539101151
  0.0017295780257491  0.2041394315056649  0.0009887360734952
  0.9999123930297910  0.1976094083836928  0.2026818723990607
  0.9994763701454147  0.1948875655004153  0.4026827520872199
  0.9993823436343319  0.1965830901293536  0.6008640965383242
  0.0034280893096384  0.2041582405803107  0.8001621977470877
  0.9982691901599822  0.4026863028123915  0.9991508932706219
  0.9987415173137977  0.3969036675909331  0.1999909544899414
  0.9978705110751761  0.3942246724179310  0.4011615097206043
  0.0005580679172434  0.3983488739230941  0.6003692311779388
  0.9994131454169636  0.4011746465155568  0.7985465003418659
  0.0056687337627117  0.6012408031299595  0.9977412351719841
  0.9975987016337035  0.5899702704086566  0.1961420326464570
  0.9919026750267987  0.5898723803685957  0.3983535534104929
  0.9950362133105216  0.6013145364652881  0.5973477143873497
  0.9944959440525176  0.5999944334085161  0.7985237714900095
  0.0089746086458454  0.7996681741766831  0.0063168391727924
  0.1352659097139401  0.8002789211310959  0.1979586346691820
  0.0176245713152630  0.7630485665562921  0.3831666596700804
  0.9987086398278993  0.7980146238871323  0.5803124522436264
  0.2025124742138635  0.0026033932027733  0.0001949071015648
  0.2010946636300275  0.0020413950452628  0.3995660479091830
  0.1887276097215622  0.9994495013019281  0.5981752931288761
  0.2013905069708045  0.2006428531256074  0.0015283581142157
  0.2005430464887457  0.1996754386805662  0.2005412769382515
  0.1964474001328104  0.1977471186962018  0.3966974866097446
  0.2018099653779650  0.2012838568311325  0.8028727311245466
  0.1996397331331221  0.3988674476062798  0.0008527450339531
  0.1981570531451959  0.3956251994327934  0.4002624969516465
  0.1987626093462726  0.4036014698094775  0.6003539784928148
  0.1978708722371581  0.3968862020315045  0.7996125350946518
  0.1997315265706408  0.6009999456453886  0.0047095282719450
  0.1992916865725395  0.5995429459125717  0.1957217770650974
  0.1987395871654870  0.6023498718989612  0.5995949678690239
  0.2016513358178385  0.8051336119132816  0.9985581933769970
  0.2041130822002779  0.8078071099488142  0.4000637086237151
  0.1972708330593533  0.8046822412275519  0.5993244474156847
  0.1971898721891514  0.8059072063643293  0.7981100616983223
  0.4011442293130879  0.0033211121500239  0.9988131525103996
  0.4010128691579615  0.9994643398065918  0.1922933057518317
  0.3931949852703943  0.0003389523252249  0.3838969927834279
  0.3973689724942057  0.9973126938205601  0.8077995510492517
  0.4001308686956841  0.2040348175979542  0.0019889225494978
  0.4006104834805818  0.1987763627268260  0.2012676244842820
  0.3977369730041309  0.2022625731787260  0.4050279084235918
  0.4454808810767668  0.2200469157570030  0.6130008832898453
  0.3968649550422805  0.2038722387694241  0.8023771523438463
  0.3980558468958046  0.4003095867969639  0.9980724086073635
  0.3981632399849547  0.4000684599982826  0.4022784824960193
  0.4008706152608479  0.4054169339932249  0.6008076213297062
  0.3986040753767999  0.4060450448946214  0.8016768504504224
  0.3969468769691104  0.6016139538337643  0.9975699790905472
  0.3997859104934434  0.6020468034540256  0.1987142378480574
  0.4019232736441208  0.5999138608949823  0.3999965951253475
  0.4012834702326211  0.6007614651145237  0.6031046719208601
  0.4018505394183912  0.8018721752473743  0.0018339853479787
  0.4041538038606263  0.7983392673035071  0.1965090026347358
  0.4003120484639879  0.7995586105736445  0.3901050392830644
  0.3939291619254450  0.7952434843313776  0.8055601994285592
  0.5975501380352766  0.0226621215524185  0.9950173045564553
  0.5985395152336013  0.0022456052547828  0.1920581445600862
  0.5669874239978330  0.0108954601165101  0.4055982228318006
  0.6098713675349957  0.9850678965802209  0.6060169226481482
  0.5895124693567140  0.9832889949023362  0.8041356689872834
  0.6005592004225468  0.2069923232810324  0.0027196718618199
  0.6009644446066740  0.1997972938936212  0.1998285825162590
  0.5971109264985958  0.2006805691372289  0.3949338794318684
  0.6010837343721182  0.3995210387344914  0.9992745918877528
  0.6036495947994259  0.3967147216092733  0.2013436086734230
  0.5980736829116172  0.3968851000083045  0.4011025528947466
  0.6029732047591198  0.4034106145369061  0.5997115208623368
  0.5985053659196472  0.3951597787954200  0.7989298628148616
  0.5857212816269243  0.5920276860076622  0.0021531520105960
  0.5995948956006523  0.5969567185547822  0.1996459886716397
  0.5962060656523425  0.5950991796409522  0.3974218281941091
  0.6007512571348249  0.6022559623753404  0.5948429063712491
  0.5943019425670411  0.5944557983102599  0.8039661847143431
  0.6120197741810500  0.7923507629108577  0.6333250301015233
  0.5888958180979376  0.7919395100029676  0.8042617723685505
  0.7973307528689431  0.0123583435641733  0.9995872427345097
  0.8044546004906199  0.9978609705834617  0.1868702285273879
  0.8020933934245188  0.9938842909065044  0.6003130412905788
  0.8031239431057516  0.2065480367299268  0.9994944131919892
  0.8014509257516544  0.1957224477298664  0.2018221215455527
  0.7971901811947585  0.1978668718597073  0.3998066494591244
  0.8084607205600080  0.1954179828463189  0.5975644287820355
  0.8061386475129398  0.2017768625601167  0.7985288186465300
  0.8010843533281565  0.4026183486977087  0.9992038723055937
  0.7994164561150752  0.3975954056663215  0.1985201679319987
  0.7973381210745817  0.3936761029197073  0.4000414219994111
  0.7988721934667234  0.3971193991450809  0.5997837922473014
  0.8013585605431284  0.5951872802702967  0.1985025125566905
  0.7949871310718222  0.5900838564453242  0.3992649169355302
  0.7975639732452982  0.5964918240090347  0.5977624553540241
  0.7957576632900624  0.5906708364172062  0.7946461890743405
  0.8293937560751184  0.8294336618232472  0.9676955065635063
  0.8110177891356959  0.7967287250874446  0.1651323155519279
  0.8052477467919346  0.7931928428148761  0.6135382310534347
  0.7813255375903820  0.7800606996675303  0.8122620681574263
  0.2003723074545987  0.9992381206947258  0.1979213748961383
  0.2002736603515215  0.0022420184077887  0.8017163903736898
  0.1969740157452642  0.3988784888902424  0.2002158730068664
  0.7984747315170981  0.3966982604370842  0.7986104555341279
  0.4023544994774781  0.6023451973630476  0.7976822257164300
