Zr Ti V  Cr W 
 1.0000000000000000
    14.8896950466849969   -0.1236923935051679   -0.0262910069285379
    -0.1243534436992372   14.9428531120322745   -0.0274977281357412
    -0.0266284241490420   -0.0275850831647036   15.0762678635501342
 Zr  Ti  V   Cr  W  
   2   5 103  12   2
Selective dynamics
Cartesian
 15.1343434500024365 11.9168752873988701 11.7638610435477133   F   F   F
  8.9809845848686827 12.1153060432581814  2.8919088507396715   F   F   F
 14.4393581976194501 -1.1151851126824759 -0.2474041762779133   F   F   F
 14.8519256546918434  3.3490226158387464  5.7010663274146527   F   F   F
  2.4534134057506014  8.9118018395765457  3.0811288146254578   F   F   F
  5.5976524271758041  8.2281493702353128  9.2448064150943363   F   F   F
  6.6811696940673597 11.4206052145198864 -0.4185516152009141   F   F   F
 15.1435005553725315  0.1167802283901621  3.3728230097755376   F   F   F
 -0.2577154689829976 -0.6557581512602277  5.6479563884492041   F   F   F
 -0.0011700501673025 -0.0440574792493525  9.2345053206194354   F   F   F
 -0.5534647875615515  0.7049511167297915 12.8994912717433401   F   F   F
  0.1825747799628958  3.5803258517838707 15.2658676587443161   F   F   F
 15.2989071615176488  3.3486325598040350  8.2790702213190936   F   F   F
  0.4825609403217598  3.5575637611648512 10.9691342731552641   F   F   F
 14.7486772066188845  5.7591064517312081  3.0208869887414309   F   F   F
 -0.0652747115085591  6.3767316035853332  6.6437905575881615   F   F   F
 14.7553455924075116  5.4485844033846238 12.0732164053768276   F   F   F
 -1.0697920741683726  8.9296339906404185 13.8982456014442715   F   F   F
 -0.5681287549905619  8.9373605762192323  5.3029558885418950   F   F   F
  0.0904691485217999  9.1555107229005657  9.1870872537210833   F   F   F
 -0.8423462619267036  8.5072657915607071 11.3502336938836255   F   F   F
 15.6901811319344429 10.2415709918209199 14.9883752504278558   F   F   F
 14.4747450632107917 11.4381661327371429  2.3610217535773694   F   F   F
  1.0477210230222027 12.3650685373091829  5.5056824760854042   F   F   F
 -1.1787932573277962 11.3653330780382067  8.4318531123542737   F   F   F
  2.5492968027225351  0.7706222985203860 15.5483679424715042   F   F   F
  3.8542426350135193 14.8113215314410240  4.1226471110359402   F   F   F
  2.1496346203519425 15.6835625613064433  6.4709996114856816   F   F   F
  2.6158872394517543 14.9508706437359997 11.7652046401286405   F   F   F
  2.5798627510842080  3.1884173508774243  3.2686887563046478   F   F   F
  2.7535593237553107  3.6517135476033507  6.9371653485348252   F   F   F
  3.0961362630181477  2.5730296571302103  9.8623982481616217   F   F   F
  2.9087868883746593  3.1397957218014532 12.7018737748432891   F   F   F
  1.7577753384489245  6.7780817367957118 15.1080942934567997   F   F   F
  3.6313397233989702  6.6189186751555642  3.4760391557119110   F   F   F
  2.4872207733085654  6.1821922653142183  5.6888359003943982   F   F   F
  2.5239315105068045  6.2402336804782514  9.5630049997167923   F   F   F
  3.3395014197702841  5.5628463400355663 11.8556576624307812   F   F   F
  3.3071657038948286 10.1037760178686753  0.4382539280146019   F   F   F
  2.8589882884882956  8.7829059992147691  6.8117873959472925   F   F   F
  3.0727791445387678  9.7297359906810215  9.0456601865393562   F   F   F
  2.8290043755246743  9.3144531474232437 11.5798202857600590   F   F   F
  2.9063672383854473 12.3740707810828674 14.5474965229348356   F   F   F
  1.7058318493166853 12.3382478723415456  1.9219066171949173   F   F   F
  3.8054167550239058 11.1880109112195534  5.7777765966283496   F   F   F
  2.3252523449235452 12.3115953453150269  8.8304138817004141   F   F   F
  4.0374560687257279 12.8492785476796332 12.0487536124860117   F   F   F
  5.8931894736986310 14.7913662901964837 15.9608732972631824   F   F   F
  6.6960590625862979 14.9037453604864059  3.1200921789726546   F   F   F
  5.8201011186596361 14.5836238109716305  6.0192999312537925   F   F   F
  7.7527731758464933 -0.4669743849592447  8.4648814803207095   F   F   F
  5.6651202898443875 -0.0179657368170949 13.7240950934918171   F   F   F
  5.5085982102478894  2.7752828528472304  1.1453930013513403   F   F   F
  6.1502967673054947  2.9955768477062543  4.1419684629254698   F   F   F
  4.6694847431694182  1.8407601703571663  6.2501073506603513   F   F   F
  6.4817164022411831  3.1463642350300822  7.9015973388444607   F   F   F
  4.9492310160008843  1.8789460869017471 11.3113737762138413   F   F   F
  5.1204334179418280  5.9725750435215463 14.8125510701318568   F   F   F
  5.2608127418653678  6.3153853565116691  5.9550057738383142   F   F   F
  5.9901867397328283  5.5506686962795397  8.4923220749046440   F   F   F
  6.0576604729398831  5.9680122640545523 12.2737482796686894   F   F   F
  5.4148086098029991  8.1413351218689627  0.7821611209831695   F   F   F
  6.1032150310211160  9.7263503499005299  3.0914373594516733   F   F   F
  6.4108052514928060  8.4998114257464099  6.3648736922030560   F   F   F
  5.3440947990742744  8.2969194828467661 13.0244623211449575   F   F   F
  5.1749205079822556 11.5226743421565736  2.5435297148744369   F   F   F
  6.5733682904817101 12.2672734954784861  5.7328620246633122   F   F   F
  6.0165549120815207 11.9796154195126423  8.8690925509504446   F   F   F
  6.0634167376249426 10.9899196597298143 11.7777601462827004   F   F   F
  8.8473764390087659 14.3762928236017764 15.1435601119842627   F   F   F
  9.6083983760908858  0.9385539969524492  3.4075779764721177   F   F   F
  9.7947039959222391 -0.3234846621463148  5.3998116623067487   F   F   F
  9.9148941371483410 -0.0034317597619855 11.6667240018269673   F   F   F
  8.9750657123712578  1.8322694547318319 14.6546037739846060   F   F   F
  8.7759954750186573  3.2153813386113685  3.2414827253398384   F   F   F
  9.3047023884451363  2.2376719300915058  6.0201128989042072   F   F   F
  8.3339421401226144  3.0955564651617515  9.8618767445659827   F   F   F
  9.2328310122966037  3.7853020952023488 12.3844894002234298   F   F   F
  8.0863767788706777  5.6519529815629079  0.4237076815734426   F   F   F
  8.9769581353590784  5.9208946886763076  5.7079773722952547   F   F   F
  8.6489766299936566  5.2567730875518395  7.9726140590412102   F   F   F
  8.7129612618038923  6.3967001409191999 13.2244614061134929   F   F   F
  9.2709124753093395  9.0278481959369170  0.9631042617880350   F   F   F
  8.2986196528915546  8.3181655227837634  3.1152874629377845   F   F   F
  9.1696075435203888  9.4978213549260886  5.3471211550766089   F   F   F
  9.3475549106599480  8.1731212445635801  8.5165111217978140   F   F   F
  8.8512526168853860  8.2100941151043649 11.2507291314020801   F   F   F
  9.3249329403229986 11.5356520240918936 -0.8308745240132991   F   F   F
 10.2172520557012856 11.3699059892787702  6.5112350402836539   F   F   F
  8.0588299719594687 10.8387806243935181  8.6629881997067404   F   F   F
  8.3630913635566486 12.8707254465657712 11.8145784419119018   F   F   F
 12.3345965880425634 15.9804945568283756 -0.2787390450331818   F   F   F
 12.0395634764798594 14.4032317709890698  2.5280633666225243   F   F   F
 12.7952890155015382  0.5628952634665096  6.1558960124916746   F   F   F
 11.9836016647022081 -0.5205490657591305  8.4783834598467323   F   F   F
 12.5710433523061003  2.6705767606709325  2.9462557444390920   F   F   F
 11.2107871304437463  2.9491882174612818  4.8662501367193478   F   F   F
 13.0266893956443592  3.0778319518102224  9.2156082083072484   F   F   F
 11.7751899344684183  3.2751480070442818 11.6842273902520137   F   F   F
 12.5719509448596831  6.9097920977278271  2.6566826482698715   F   F   F
 12.3510011907661816  4.8422196830176745  7.0899861664640147   F   F   F
 11.1338443955567854  6.2351709644131059  8.7435796394535004   F   F   F
 12.0498677097781943  6.2320779759395464 11.0856088516074998   F   F   F
 11.8959544974602096  9.7739179008323056  2.2447665326824491   F   F   F
 11.8838493732369948  8.2230563734221089  5.6026786037388350   F   F   F
 11.2665490319784496  8.9925439996278307  9.8268018182359675   F   F   F
 11.2916724069342553  8.7442959212054969 12.4492206798435792   F   F   F
 12.0453168889495572 11.9250578845671491  5.1624474427210671   F   F   F
 11.7163117395960992 11.8251144007934990 10.1373716731947034   F   F   F
 11.3550685208984117 12.6455913809910214 12.7316068987795781   F   F   F
 -0.7025794441456211  6.3095143850809734 14.4840406910496284   F   F   F
  2.1879629314267866 14.8137518699975548  8.9162513565712196   F   F   F
  2.6404482792945010  3.2023396196112404  0.6370365101726277   F   F   F
  5.9059197672149466  5.4848243198216746  3.6663639681918929   F   F   F
  9.8027470361589693 13.6568731805068140  7.5551136468764950   F   F   F
  8.4767604861968611  5.7402370707190125  2.8082666550622362   F   F   F
 11.8657149120062648 15.3287529333159558 12.5187196850312610   F   F   F
 11.1918127545480406  3.2050745385996113  0.4281002302672958   F   F   F
 12.0554854489242409  5.4182029123312985  0.6180673789723996   F   F   F
 11.6502290162032782  8.8756335461944538 15.0926305999108159   F   F   F
 11.5289727507998467 11.6586499598678408  0.1268666352589146   F   F   F
 11.6041947763927880 12.1529426622041772  2.6907712903321670   F   F   F
 15.1934101344681469  2.6638630468040452  2.5009421980663546   F   F   F
 14.0856557004057468  5.8312010358677364  9.4478179838041285   F   F   F
