Zr Ti V  Cr W 
 1.0000000000000000
    12.2882735461728885    0.0000000000000000   -4.3445607757035454
    -6.1441367710433559   10.6419570608175889   -4.3445607757035454
     0.0000000000000000    0.0000000000000000   13.0336823299999995
 Zr  Ti  V   Cr  W  
  11  18  73  14   8
Direct
  0.9970386179624933  0.9953743064718418  0.2112290716072222
  0.9956825608043058  0.1963948082171075  0.3991032248415952
  0.9868584292146100  0.6046456254107786  0.3890973524087794
  0.9928021865695799  0.6198706669051738  0.6001055931891219
  0.2088637572264317  0.2101416711333988  0.2092691553813224
  0.2054505950771910  0.6064891412359419  0.3969657350985991
  0.3853553713992104  0.7936879000335905  0.7945408535828632
  0.5981918517357255  0.0080042619896534  0.8063888778629257
  0.6301837067032149  0.8217264536251564  0.4152810888129863
  0.6086092780026918  0.7983130182565850  0.6039960520208709
  0.7899121280346307  0.3942368731957018  0.5995613137814273
  0.9972356965451592  0.1964446285560517  0.6056329500789445
  0.9990672392067516  0.3964508902011306  0.0022784757964481
  0.9975715234407561  0.3959534813184426  0.7964674361790142
  0.9925072825580645  0.5961142960789425  0.9978577615422238
  0.0113509419313914  0.6202612591975449  0.8172415327710880
  0.2060977851903317  0.9980604591235060  0.1969710154860064
  0.2009392271729148  0.0052658273296656  0.4019346356740531
  0.1840826636249720  0.1801389159724890  0.7803884881136741
  0.2124174082724291  0.4088949710778725  0.6138739653398418
  0.2027758844234127  0.8102815570267241  0.4067425270949105
  0.4092570723282138  0.2002581191344610  0.6073472868206462
  0.4169177629417243  0.4070823868927441  0.4097219450273054
  0.3996395567890924  0.5963255778279298  0.0006802164677725
  0.4064223256748212  0.5967179585176421  0.3827967537110790
  0.5952180670412905  0.9982531382465500  0.1952804023199137
  0.8008282883494436  0.2025870537992892  0.2011672878528694
  0.7958595394206174  0.5997872464793125  0.1948793190350157
  0.8071102807756696  0.7984047445624672  0.8022795849581416
  0.9954268684620801  0.9947966532848170  0.4356847675803184
  0.8867639887699749  0.0002226175730817  0.6069458829923529
  0.0099690365631143  0.0015824851692588  0.8066802624644610
  0.0019733630435744  0.1990428495024524  0.0033245455432786
  0.9981583746172061  0.1989193810171000  0.8109921912513058
  0.9912848629622530  0.3891793678256731  0.1974357316519392
  0.9947538294267984  0.5873264564458439  0.1844157757107482
  0.9983702774537342  0.7965490252759948  0.9945413169497620
  0.9926458974308582  0.7819187676971771  0.1908477142686208
  0.9996674095051894  0.8171851664297192  0.3998984399614366
  0.0105187715632786  0.8443694667546924  0.6049852545734589
  0.2053560309918651  0.0014211878985376  0.0005577700418164
  0.2070039161683008  0.0098413891954132  0.6079424006714018
  0.2147717549024985  0.0080239413274486  0.8125445576008311
  0.2067716916176721  0.1998552155348639  0.9975213170217876
  0.2246229475474478  0.2180600823051540  0.4243046288342712
  0.2073549512301939  0.1980142877196831  0.5985939232624765
  0.2008133297703760  0.3938649040717419  0.9924898394966304
  0.1984965246067998  0.4031111206881658  0.1873446380114057
  0.2022213062571353  0.3982936042101221  0.8068078671289347
  0.2023446706764594  0.5997063374587376  0.9995030503988670
  0.2099082718185495  0.6054542297203888  0.1919780554298146
  0.1891800784021963  0.5938669873239509  0.5908674681734015
  0.1984875266883898  0.5975373158075687  0.8027999077385407
  0.2048702920936421  0.8181818275265258  0.6124847329910650
  0.1942038453302054  0.8113654741873400  0.8137338538612495
  0.4003941255141183  0.0069778714443168  0.0002912946763435
  0.4008578913166805  0.0018294758964805  0.1971528936314811
  0.4024374992244839  0.0053777132751518  0.6046328110780155
  0.4051773378255643  0.1980914648787176  0.1934757671235848
  0.4141530109428042  0.1957519964032236  0.4039428655632885
  0.3932659029490790  0.3898524792029082  0.9954403472898804
  0.4055530377241974  0.3988361852859278  0.1935322679821217
  0.4101739617752143  0.4020303432708605  0.6087342253982533
  0.3984385491519576  0.3905810261859891  0.8010079111187624
  0.3978954603271364  0.5938880783716762  0.1889567234451891
  0.4033044589076888  0.5942142454510480  0.6009649959345620
  0.4066275937526265  0.5933617266674971  0.8072243939547973
  0.3888442721478637  0.7993597180437594  0.0019824816664268
  0.4036904601074393  0.8014755371398903  0.1953173359133235
  0.4058009683833663  0.8148614575548082  0.3985745994966080
  0.3933616364508569  0.8078680920471940  0.5910638554171824
  0.5948854801947765  0.0053784376713508  0.0048852921222744
  0.5921456257427566  0.0064553655362668  0.3940704003665697
  0.5956532250676528  0.1998263966468021  0.9984426851429367
  0.5933496065833085  0.2022857140523386  0.1959578009958061
  0.5987450784449323  0.3888670449695841  0.3903849484381399
  0.5969534936219668  0.3961740934020952  0.6032353891552372
  0.6017240152564407  0.3972519118654513  0.8029997525128550
  0.5992043403508283  0.5952006267264195  0.9975559129092502
  0.5933908400016575  0.5907118685554907  0.1936638737335250
  0.6059223024240972  0.5914438184416226  0.3987173032917671
  0.6007692832162557  0.5939475923800772  0.7997323648782642
  0.5961186412422267  0.7941975040805291  0.9984108608437645
  0.6004761284342816  0.7938785575924309  0.1925325542347475
  0.7810225054518776  0.9814133016851720  0.1873572408771878
  0.7897958923153172  0.9991889519967881  0.3897543859105612
  0.8168306048188906  0.0140567327832413  0.8035221427185687
  0.8055792851947545  0.2121746913069950  0.0034380676093368
  0.7872484524335794  0.2025154525898180  0.4034768386570833
  0.7920642156244876  0.1793435834345026  0.5948745763689958
  0.7961082429756657  0.2000472663635545  0.7988627155545821
  0.7831935290175311  0.3904115209368724  0.1852826268664794
  0.7889589046302378  0.3914759607928910  0.3837481174877298
  0.7872431220842698  0.3879817531936102  0.8044749977729860
  0.7920812913153985  0.5908079740080830  0.9944844400984290
  0.7765264368087906  0.5905710050781997  0.3887355013419235
  0.7823477002695497  0.5990402610936607  0.6015654603069739
  0.7977935790116655  0.5944098636931787  0.8059438976081750
  0.7951374473112450  0.7861589364022002  0.9990764492058137
  0.7913251292287969  0.7951747651788499  0.1946942070206666
  0.8032812629833430  0.7943306143085389  0.3925590896142568
  0.8194208224414683  0.7958923496254022  0.6012453967298319
  0.9983552828225152  0.2070710836391427  0.1954561802201944
  0.9988470954878188  0.4028788225732463  0.4037910055953730
  0.0101324933705544  0.8106880880749734  0.8062550379465455
  0.2055696693368875  0.8080000683864804  0.0052349886999881
  0.4033078067739280  0.0032191681366675  0.3989850718262876
  0.3968323780399963  0.0144908514192549  0.8042535943133819
  0.3996379268729824  0.2026069720886113  0.9996225161496861
  0.4020977943765756  0.1960800923780999  0.8036190293526323
  0.5920690949706927  0.1924537942900033  0.3911372902675354
  0.6007151143823465  0.1984207317647394  0.5993103631232896
  0.5988455659103686  0.2071862200281926  0.8030379000938161
  0.5911038969987881  0.3947522023058658  0.1923236325053119
  0.6061721892541463  0.5905270865556083  0.6034560818115630
  0.7933938102370222  0.3955793469161074  0.9972900146917099
  0.0041878885626867  0.9986526116855727  0.9997696542049169
  0.0002948362701155  0.3998393090680074  0.5953607615967107
  0.2007188664246156  0.4002568559933412  0.4017643808987552
  0.2046597498880054  0.8017702011385411  0.1987891659761862
  0.6013425181815168  0.0104628195910624  0.5978459338084480
  0.5924121189394579  0.3935514118070539  0.9957822669699028
  0.6001538949236846  0.7914061460804542  0.8039247028436693
  0.8003571773259085  0.0012774087983551  0.0027045705727421
