Ti V  Cr W 
 1.0000000000000000
    14.4215617146127411   -0.0340580253175946   -0.0146492675897958
    -0.0341452639138493   14.4780982435186267    0.0121350085407948
    -0.0144011403528378    0.0121814235116969   14.3381583337057812
 Ti  V   Cr  W  
   3 114   3   4
Selective dynamics
Cartesian
  4.6581062562073718  0.5197723075545492  0.2088265573485239   T   T   T
  5.8568155209243624 11.8056876852281913  8.0328916853909131   T   T   T
 11.3650734059887952  2.7691798997470989 -0.3980356179127974   T   T   T
 -0.6662393500059391  0.5770142309673685  0.1447649449359134   T   T   T
 -0.1409799511489719 -0.2114039628590563  3.4609359317185366   T   T   T
 -0.2407427923216994 -0.8028338426360091  6.2642498703685199   T   T   T
 -0.8536317011800705  0.6701543998585876  8.4894050285374885   T   T   T
  0.1164117949127957 -0.7644099830607121 10.5893243352181496   T   T   T
 -0.3526539320161614  2.2160514941834966  2.8211707992756052   T   T   T
 -0.0135902948288085  2.3454997900604440  6.6842332349876239   T   T   T
  0.7277474072237685  1.9408616668283440  9.7241153323038922   T   T   T
 -0.7100875282896797  3.3169564975429449 13.9107173133765318   T   T   T
  0.3408252379801229  5.9611155204212736 -0.8781128584498030   T   T   T
  0.2755134504907598  6.7049942040763133  2.2877746986716243   T   T   T
  0.4053594928771741  4.7683757595741403  5.5316405734003311   T   T   T
 -0.2000663882370203  4.7497145040327631  8.8538614493837038   T   T   T
  0.2056953950140438  6.1412861826181713 11.1753360215827673   T   T   T
  1.1740052183174481  8.7180403028678413  0.3409516665926312   T   T   T
 -0.5397722204946144  8.9805817646772379  2.7662437858787761   T   T   T
  0.2387075135374394  7.5868557555277132  5.5950985359208918   T   T   T
 -0.2761534874326383  9.4215886969460261  8.1886952967291435   T   T   T
  0.2123664410597143  8.2694517347158421 11.6323568433896334   T   T   T
  0.0405306256420706 12.1115215626429613 -0.2589482435550540   T   T   T
 -0.4666118922000118 11.5422348165641591  2.1745264283062773   T   T   T
 -0.9224420937721114 11.0045580564206773  6.3520859083027625   T   T   T
  0.1983485657896281 11.8495598021447659  8.5355108794475925   T   T   T
 -0.1878011299927243 11.3140971042252509 11.8017383183211475   T   T   T
  2.8014560351684636  2.2542619473927186 -1.3482943521367494   T   T   T
  3.7063279500298028 -0.3457708988926418  2.9633824958243884   T   T   T
  2.2837877730881955 -0.2525730834341745  6.0313073271687054   T   T   T
  3.7587255764256113 -0.5173643291324681  8.1818402663029524   T   T   T
  2.7294206972105073  0.4756872662867462 10.7894555330232329   T   T   T
  2.6417243931445862  4.4036158335286393 -1.5926113228139840   T   T   T
  1.7932852836074176  3.4801370733172843  3.5819228469827484   T   T   T
  2.9921975083274708  1.8609605889996019  5.8538187719614641   T   T   T
  2.0098515780913742  3.4360569077561158  7.8419224804031007   T   T   T
  2.9564119471561421  6.3587419429763088  0.4042581082854511   T   T   T
  3.1021355219701214  5.5203920588002831  3.0438702675522951   T   T   T
  3.3054509026457493  6.9568535755388385  5.4104171107063177   T   T   T
  3.1313020521695281  6.0638816284909538  8.2173985849572944   T   T   T
  3.3468013952894227  5.6228593718028579 10.4370973231030408   T   T   T
  3.6331768479970528  9.5827109582307379  2.4554620475976998   T   T   T
  2.1140013285013355  9.4187278282258049  5.2642578753176625   T   T   T
  1.8760576740270520  7.8646242846808532  9.2545699120939098   T   T   T
  3.3509125805210194 12.1181816525856423  0.6746236494719133   T   T   T
  2.0964860344714094 11.3189217325717042  3.2736342045256017   T   T   T
  4.0906354710940214 10.8634042604792409  6.3087028264627678   T   T   T
  3.4160143498343829 11.0060632056115839  8.5735359038223109   T   T   T
  2.4366358775252412 10.0845565475472743 10.7509535441431296   T   T   T
  4.8233437890430197  0.1169297487574037  5.8963021106742080   T   T   T
  6.6243413953206103  0.1695147239919478  7.5847955999569407   T   T   T
  5.6774105079294888  1.3379770774721227 10.7072784310428943   T   T   T
  4.0241238558711840  3.3208857122749720  0.7108174499526393   T   T   T
  5.5218949882700112  2.2639751641320345  2.4055703905757162   T   T   T
  4.8974572079356342  3.2450856238678130  5.9262276158959839   T   T   T
  5.4725448093206630  2.6694663501410645  8.3737234401591696   T   T   T
  5.4339159929118601  3.7710176879930231 12.1930901305563690   T   T   T
  5.8816304138262989  5.4929229351093340  0.3713452655637128   T   T   T
  5.7586007662083603  6.2445440624898598  2.8214126829223534   T   T   T
  5.6646758962706487  5.9322373162510313  5.2528303207773304   T   T   T
  5.4944386563532159  5.4139009629171735  9.4316634482695036   T   T   T
  5.2187838315675741  6.4062633302619432 12.4840808959178222   T   T   T
  5.9837509605895765  9.1784273513984420  0.4255882044755920   T   T   T
  6.8905624450153402  8.1921648318629181  3.9559382008161652   T   T   T
  5.6894197820003143  8.5039400724808356  6.4702190964833868   T   T   T
  6.5060127679744095  8.1828075435572334  8.9521889529137120   T   T   T
  4.8825518741536857  8.9015607358273847 12.2724458440026662   T   T   T
  6.0106181156502574 11.9923430625197458 -1.3278234144803047   T   T   T
  4.8249583299107721 11.9221582371265473  2.4404231225299293   T   T   T
  5.8796889807112818 10.8003813445729300  5.0853479682563956   T   T   T
  5.2220212919338920 11.7772238833465686 10.6930747576181719   T   T   T
  9.5229313618537628 -0.0438130086471048  0.4511075100634041   T   T   T
  8.2488448140654622 -0.5973819880299205  3.1094669780829909   T   T   T
  8.9830280768149589  0.2384606634043385  7.6804918402183606   T   T   T
  7.4921662343691828  0.6479856237192687 12.5738581947643837   T   T   T
  7.7736156312381768  2.3576108769070268  0.3687335859018274   T   T   T
  9.2474982357486581  3.0698825654780864  2.1925432800337248   T   T   T
  9.3255745438217925  2.6791163030809124  5.8969084786547707   T   T   T
  7.3862468589547241  3.2531706577590489  7.4765572637641942   T   T   T
  8.7417967711476390  3.5828738644998515 12.3325819158788743   T   T   T
  9.3750811709700432  4.9496571534474310  0.1190431900307403   T   T   T
  8.5351578090922171  5.2195454094482425  3.8993447774719940   T   T   T
  8.5934129958743757  5.9140777322968141  6.2466037770523446   T   T   T
  8.1960828626926290  5.6658867166657991  9.2700422583306992   T   T   T
  8.2424543870261218  6.0578749360349251 11.9243729328010595   T   T   T
  8.4627978109978717  8.2160473895266080 -0.1587334556406745   T   T   T
 10.0515736680166601  6.9713112040339160  4.6572870063335277   T   T   T
  9.1616737305127209  9.3941994641581381  5.6130808366704565   T   T   T
  8.9452008044686426  7.4589102308964872  8.3981085799364585   T   T   T
  9.8361191250602165  8.4895862455391455 12.4625592033337789   T   T   T
  8.0469814232964154 11.6585952096743455 -0.4675561943322598   T   T   T
  9.0905504156642802 10.8160215430059239  2.1329579558602498   T   T   T
  9.2317482055664151 12.4190238899495213  6.3606109727853077   T   T   T
  8.8142170828468931 11.1644660021285631  8.7349644961292672   T   T   T
  8.8335493147860458 12.0919708214008192 10.8156056008474817   T   T   T
 11.5859521062031607 -0.4931434335381248 -0.7590346212909374   T   T   T
 11.5934997880145314 -0.9323744199226869  2.2358921571130317   T   T   T
 11.8666841282643762  1.1002231563347991  5.7765158431961741   T   T   T
 10.9852723823486720  0.8444957593176410  9.2806578364392429   T   T   T
 11.6097173836733845 -0.6457989856796817 11.0822093626039173   T   T   T
 11.1928235966725467  1.8265076418892585  3.7707215781809276   T   T   T
 11.5929647631241242  4.0144477558871827  5.7352722819400253   T   T   T
 11.5068696428606572  3.6306069288657477  8.9631077320060353   T   T   T
 10.3783508195123542  3.1550910780985384 10.9436192794301874   T   T   T
 11.9243368095522868  5.5133195614030122  2.7322026770624372   T   T   T
 12.5302369202666846  6.1564918529843480  5.1571584999535807   T   T   T
 10.4882294617725300  5.7287776530628909  7.8054541489043210   T   T   T
 10.8761612124583422  4.6661984781471419 12.2867041983762366   T   T   T
 13.3395327920356852  7.9827367322660310 -0.0708722916434297   T   T   T
 10.8238301220297455  8.7292049027938301  2.7537387426969859   T   T   T
 11.5012132822910313  8.3288824414483713  6.1262308818344353   T   T   T
 11.7920039138936570  7.8357373773897949  8.7678258030105916   T   T   T
 12.0746309349549890  9.5809732222452144 11.3201735337036720   T   T   T
 12.2115046824410687 12.0009056134456511 -0.2561269575060188   T   T   T
 11.3784046047324718 12.0931380097181265  5.1613318665968597   T   T   T
 10.9396810818826662 12.2874798548172617  8.5042485350171333   T   T   T
 10.8022885334583876 11.5012364824863553 12.0968492168204467   T   T   T
  3.6736564490261197  8.7840086958874775 -0.0163873599937925   T   T   T
  5.9503628419265597 -0.2459601545241666  3.5561097444464926   T   T   T
 11.5424390672149144 11.2603328697078435  2.9798845968068148   T   T   T
  3.7576024469672671  3.2958950931283475 10.5421923510233597   T   T   T
  2.6026300912800866  7.5493999025891654 11.9962889840885847   T   T   T
  9.7712861266143758 -0.0755417728481683  4.7566668991147187   T   T   T
 12.2490764464131541  5.7538928377824421  0.2676063532262727   T   T   T
