Zr Ti V  Cr W 
 1.0000000000000000
    15.4523164936863964    0.0009883961260200   -0.0085180492864724
     0.0009924876686419   15.4784058301427248    0.0104538054795659
    -0.0085149247504016    0.0104513805892450   15.4695451921033467
 Zr  Ti  V   Cr  W  
   3   6  99  12   4
Direct
  0.1922675640094967  0.3996424006732752  0.6112826542458963
  0.5896934622277408  0.2089387738254862  0.9857801867293677
  0.9671979323017544  0.4002129504028551  0.0239252692103333
  0.0024906794627825  0.3984655444735032  0.7855923839809924
  0.0064136452689119  0.8028617634912594  0.3975817055848234
  0.4032784431694607  0.1976794769565760  0.1907909147958156
  0.6010250283063167  0.3757166710039084  0.8041417443850181
  0.8046782879608300  0.3996496606437094  0.6068649355422425
  0.7971790621452746  0.7993969164551876  0.3967698541748892
  0.9992340964886239  0.9994726791302244  0.0009466910415668
  0.9997661687204343  0.0005063562992769  0.2005864050607311
  0.0004524054150487  0.0033864006116124  0.4008429452356604
  0.9990340361498360  0.9991778556725358  0.5999349848892094
  0.0000122687275158  0.9996846293803709  0.7990040669096626
  0.9992949508023105  0.1957626489811335  0.9978771010217403
  0.9986733079427537  0.2015989379656928  0.1990895259747453
  0.0000275494562590  0.2008603750827737  0.3997184820065171
  0.0001824872940692  0.1985672586536009  0.5992749415864760
  0.0004326404119972  0.1971489708322121  0.7985763618524162
  0.0042998318999967  0.4003014463576057  0.2007182110320879
  0.9939736728355701  0.4004754565603602  0.5894871642577100
  0.9987315270864292  0.6044752940221151  0.9996599964932136
  0.9985563998337240  0.5992600410271446  0.2007066642179396
  0.0000225443141195  0.5995842684904447  0.4010220365506792
  0.9999501461014210  0.6018525640486062  0.5995264516380099
  0.0001839488013989  0.6015555471369198  0.7999725566256778
  0.9993420145012070  0.8014432968109542  0.9996248630271879
  0.0004690716253207  0.8014337967237307  0.1989809427746451
  0.0002678521551640  0.8018159995422907  0.6016596953096432
  0.0001090795357730  0.7996496437843325  0.7994926016746638
  0.1970350324568700  0.9986312609854985  0.0003803310704227
  0.2033326263407264  0.0000447953937764  0.2026494259049704
  0.1999638826468541  0.0007794394868263  0.4029845087090123
  0.2012411632509455  0.9987911438471859  0.6008792520287987
  0.1981750364500058  0.1995522289164414  0.9998452204647335
  0.1974944231687223  0.1994165827902258  0.2003823249064972
  0.2001569522400211  0.2012261956991347  0.4011679835856376
  0.2013385264508893  0.1947102881974342  0.6020685288158438
  0.1993276129882629  0.1995998537757585  0.8007438770271371
  0.2034698558244678  0.4012588684841025  0.0050208080822434
  0.2007244078237224  0.4016746753168152  0.2029513013190579
  0.2018634294695618  0.4000137062359846  0.4006074048656927
  0.2046380323140720  0.3993955957585394  0.8112989481718582
  0.2003283422530525  0.6006593563331437  0.0022718664094826
  0.1995007263590634  0.6015425795506414  0.2021389586283900
  0.2010054704952047  0.6048719560209805  0.6027868679906495
  0.2002964202210108  0.5991206179579064  0.8028816112672359
  0.1991499033682972  0.8001830769445993  0.0009023077361890
  0.1996137508406265  0.7987813500260298  0.2009426636132984
  0.2019905000296005  0.8000795981323002  0.4021996870668119
  0.2005961337433555  0.7991735223401999  0.8016420845556801
  0.3994136107464918  0.0012427204887415  0.3982989868153397
  0.4043846016911188  0.0004138278569725  0.6014141847579687
  0.3990940622868926  0.9977179995792302  0.8008768690111068
  0.4001582057908370  0.2018962714320960  0.4019334561555476
  0.3991373854889926  0.2004940016609114  0.6022847158359202
  0.4013225505119775  0.1995092442364314  0.8041956468530115
  0.4008307310151259  0.3988676602713382  0.0048214375492395
  0.3994326765938384  0.4008976181034098  0.4015259990991739
  0.4028669765007354  0.4003393133727592  0.6035346833654236
  0.3993706995865791  0.4006058613988833  0.8020215109699809
  0.4004942994399845  0.6002036558479711  0.4038089366257331
  0.3996475652598035  0.5999037084269339  0.6022141006440475
  0.4035336389257446  0.5983735305266761  0.8026637542015913
  0.3979943839268341  0.7995378843410419  0.0016584213297661
  0.3998306005178291  0.8015344792032472  0.2009941852491506
  0.3997011035881112  0.7983214401305018  0.4024323692106154
  0.3994226789483510  0.8004849506935979  0.6018277447489032
  0.3986353746972903  0.8002242840985453  0.8037488920791759
  0.6005003003231582  0.9978376314835000  0.9984322986881817
  0.5949104147275129  0.9989019045782771  0.2007829503545973
  0.5995611454411990  0.9960193513913580  0.7968060253476600
  0.6035985385385959  0.1996367398295225  0.2014880406733508
  0.5999929332060279  0.2019631411294926  0.3994388397542834
  0.6005931419758987  0.1960932031469388  0.5964087520423074
  0.6018644406559351  0.1897138154836891  0.7884111526047823
  0.5993902657819751  0.4094683588190206  0.0079815429182919
  0.6004369862410469  0.4006168803059021  0.4008027397541744
  0.6003184436971251  0.3974844595796589  0.5984621161610282
  0.5977490571852170  0.6012653339279905  0.9996791847218721
  0.5998116383471827  0.6015321044741462  0.2024463303138034
  0.5997657793311431  0.5994115972593099  0.4034725375706293
  0.6005680696120663  0.5994802149465832  0.6045017511840801
  0.5987844857104075  0.7997961808456212  0.2012729309438552
  0.5984083324221179  0.7992362851704838  0.4014968091874275
  0.5992016666420217  0.7981289679170390  0.8012642270241205
  0.7973579358326810  0.0006914089386862  0.0001876334254636
  0.7979715214259365  0.0002911741707586  0.2002396050976236
  0.7997541964511297  0.0021612295887931  0.3997227079657951
  0.7958510711540818  0.9997871271932164  0.5997992191289718
  0.8004891020505547  0.9990090106611340  0.8017435210981479
  0.8003210818448284  0.2010458841769815  0.0006946727261202
  0.7989937268780217  0.1971850304181628  0.1978954054912329
  0.8007569456414479  0.2026410983758290  0.3983021881470781
  0.8009792230776562  0.1987661607655147  0.5997502122609880
  0.8006264067183527  0.1990907096839994  0.8002862599400600
  0.7936712854091585  0.4004807757780835  0.9995641459203753
  0.7995579772917766  0.4003104065040564  0.3922950645904282
  0.8017978742131928  0.3993068897654439  0.8035716282768360
  0.7990603887619904  0.5999245164469604  0.0030302453709366
  0.7994926504021386  0.6038505835310497  0.2001189895510709
  0.7993574787687053  0.5968639845060604  0.4002650561177608
  0.8003696217594088  0.6027296748238788  0.6009841858297952
  0.7966376772220497  0.5993201876447767  0.8019717686631722
  0.7991702196378521  0.8003535518769391  0.9997560737420891
  0.7987538612614057  0.8014129425857275  0.1978119031732681
  0.8004148920211113  0.8000233901817458  0.6015843610526472
  0.8009189110456225  0.8010892786491417  0.8015125243899124
  0.0011305348655293  0.4005465406818378  0.3971119782538304
  0.2002626163009053  0.9993935570563904  0.8006582279281138
  0.2006833443115506  0.5991277202686924  0.4024629306372570
  0.2006613190042188  0.8007650267691407  0.6021992074364199
  0.3985896817491006  0.0001327226154382  0.0011767979995799
  0.3999944646251546  0.4031050263128846  0.2032772742811910
  0.3992612521160733  0.5999316773217845  0.0031833750201100
  0.3994515724587815  0.6012116647078692  0.2026879997531086
  0.5998097144420601  0.0004401422872515  0.4023317181294461
  0.5983704862526944  0.4013355807529971  0.2025154418272719
  0.5984274843512833  0.8005364569829957  0.0015522444422289
  0.5997863205613807  0.8016840919562408  0.6006150818616172
  0.3992012227931732  0.9945636524095824  0.2029348491849631
  0.3894412180045156  0.2006403135626276  0.9981605281630533
  0.5995111938257082  0.0015311411512444  0.6019402811897762
  0.6003761240067160  0.6038647962433803  0.8007668563655035
