Zr Ti V  Cr W 
 1.0000000000000000
    15.0211319917577093    0.1375211341296017   -0.0011213801952222
     0.1380500647978871   14.9874307831442053   -0.0569726342748273
    -0.0008511432269366   -0.0570880840498214   15.1009538707731430
 Zr  Ti  V   Cr  W  
   2  10  99  11   2
Selective dynamics
Cartesian
  6.0966515754844615  9.1476525000348659 12.1412660709567124   F   F   F
 12.3938259859151056  8.8071227565403376  5.7015218203357119   F   F   F
 15.3554987256441695  6.4351675023485742  5.7728549049438600   F   F   F
  0.0576235188452842  8.8070761794953718  8.3254149404840554   F   F   F
  2.6034865706466870 14.8065167208794790  8.5823809006082499   F   F   F
  3.1297754358793677  9.2211430721484131  2.1747045164392103   F   F   F
  6.1471232478472428  0.1108350523454876  9.2738604574882544   F   F   F
  9.3769481335151976  1.5901384277228030  9.7812780009978351   F   F   F
  7.5841367920877634  6.4663964643920018  6.1834020213805818   F   F   F
  8.8714545765182038  9.1816684665639894  9.4961651871532773   F   F   F
  9.2236192922273261 12.9852187830015708  8.7106204234631210   F   F   F
 12.8532877855571215  2.8738735813716243 12.0911913383486560   F   F   F
 -0.4899119382892871 14.2087719272996171 15.9736276564072561   F   F   F
 -0.7192899094961365 14.5445683208239700  3.6024359926709488   F   F   F
  0.7208640317852788 14.7119978545870431  5.5045542980527529   F   F   F
 14.9823894780099955  0.0500746442794373 12.1496733549789404   F   F   F
 -0.4774418779802985  2.9236777137782934 -0.7356079081132655   F   F   F
 15.4017652517163928  3.2029254031910832  3.4473351419326028   F   F   F
  0.3271292500881708  3.0258070666928618  5.5467854790382844   F   F   F
 15.0877421247544241  2.5903644703540269  9.3129406996949022   F   F   F
 15.8533522320594322  6.3491425632814043 14.5595114556533787   F   F   F
  0.9647605884556134  6.3552347182394175  2.0397625294415311   F   F   F
  0.5053691915252411  6.2434333881657142  9.6202940224301727   F   F   F
 14.8776166657095636  5.3774763440991622 12.5019991121199414   F   F   F
 -0.5156231424825941  9.6604366686603029  0.5633878110776953   F   F   F
 14.6341403484769774  8.9571379055252827  3.0680640776566546   F   F   F
 15.9863679492500186  9.2613486904004425  4.9113673085203455   F   F   F
  0.4655005606373711  9.1081649380903382 11.9656391039180097   F   F   F
 15.4892426440487423 12.0992473198098516 14.1545951390390634   F   F   F
  1.0550791792315157 12.2414360403596998  2.7449673941057839   F   F   F
 -0.4569386092251525 11.5322972553073146  6.0089330144220598   F   F   F
 15.4381984790236118 12.2593416090829788  9.5444258729319600   F   F   F
 15.3368967707294086 11.5904111162159005 11.8448633599597866   F   F   F
  2.0505751714236058 14.9502425512355437  0.3257440971127585   F   F   F
  2.8827331687647479 15.4269100130809633  2.5312627274395267   F   F   F
  3.5442256226704330  0.2584994549465739  5.4774689010956550   F   F   F
  3.7759751498826768 15.0004015297009392 12.1963670108686539   F   F   F
  1.8277237841412262  3.7027052629628057 16.1071318889393034   F   F   F
  3.4704918659388193  2.4733035551761318  3.2000054860570244   F   F   F
  2.7665238693532230  2.4682875264553013  6.1233476196936794   F   F   F
  3.8331535086583131  3.2669761298941156  9.7760657816656202   F   F   F
  3.7006174373406546  2.3865040356714222 12.8188261795250575   F   F   F
  3.5105472896338306  5.5865202585175053 15.8051008451883330   F   F   F
  2.5735713154505144  5.9961934966749109  3.7857194197689390   F   F   F
  2.6349135465028253  5.3610421335993363  8.6829968624295315   F   F   F
  3.5707649435525530  6.1449588603214211 12.1515465790696879   F   F   F
  3.1223679080906019  9.0771020795188377 14.3955445513379789   F   F   F
  2.8259287691047583  9.0860574415726845  5.9873803638832381   F   F   F
  3.3052058302794567  8.8027228698621602  9.6995233913848420   F   F   F
  3.7391068124877069 12.4254361814712606 15.5670562075427803   F   F   F
  2.9636703185626794 12.6977633164453394  5.7788306327887913   F   F   F
  3.3403687646270779 11.7337716220119503 11.8834842191257728   F   F   F
  5.8188407061928489 15.4539730156359045 15.4625544115185285   F   F   F
  6.5614662629502600 15.0134962646065055  2.7002481127874431   F   F   F
  5.9188654692031113  0.2339790422158384  6.6101569439193222   F   F   F
  5.5557107936631436  3.5853187285168877 13.8201963765480791   F   F   F
  5.1477447729613584  3.2150136329486227  1.7321452422231942   F   F   F
  6.4996046225215363  2.7705409863797419  5.4243919290253979   F   F   F
  5.8515338902915754  3.7460445600616623  8.2247512220098891   F   F   F
  6.1072952585663858  3.1651579157248233 11.1955515378608528   F   F   F
  5.5394968200187753  5.7278994249019100  3.0936658092579221   F   F   F
  6.1799748038295013  6.4516897640904993  9.6764717464523731   F   F   F
  6.5946830886416619  5.4539828313834171 11.9454642366263464   F   F   F
  6.4723932072423409  8.8828296673835823 15.9335969622178339   F   F   F
  5.5312493844820070  8.5039616800233819  3.7344670204956487   F   F   F
  5.9557978102488827  9.8986303140522907  5.8420426267029377   F   F   F
  5.3926293156368255  8.9900093147532232  8.2867623868641189   F   F   F
  5.8750358137783278 11.6286276393629038 14.7741521643064857   F   F   F
  5.7010899699614122 11.4899935549022132  3.5202392349151346   F   F   F
  6.7020867466543574 13.2122294135265719  5.9798019494039512   F   F   F
  5.8560368301332026 11.3996665732610651  9.1736345463187696   F   F   F
  5.4240178940135690 13.0473217034927096 12.3816517750678017   F   F   F
  8.3545032767639071 -0.8101532394140447 14.7394158499883243   F   F   F
  8.4976778435313634  0.5478197285452614  6.0638672791119550   F   F   F
  8.6316322219740016 -0.3267540596580072 12.2325479067989171   F   F   F
  8.9420089703480681  2.6637878778900905  0.9363006558535470   F   F   F
  9.7111712483106185  1.7027281683046003  3.6445497368983535   F   F   F
  9.2870037271253540  2.9896709511438306  6.1472196323450987   F   F   F
  8.7091896688578547  3.9297232651747467  8.6174972759126156   F   F   F
  9.1224863937207168  2.5088890299397506 13.5398954243424896   F   F   F
  8.1878426563358957  5.5532499281821828 15.5729936444268944   F   F   F
  9.0276485509155542  6.9364843576455808  2.7280901623529812   F   F   F
  9.8408671987527310  6.2694116859119067  9.2663229104281442   F   F   F
  8.9586926818782509  6.6796342828944617 12.0916978955749119   F   F   F
  8.7453091831763015  9.4041942398197733 -0.2365337727365868   F   F   F
  9.3680334989449303  9.7976886542722479  3.5719002199199106   F   F   F
  8.8203125773091688 10.0643671295571320  6.1317269873225992   F   F   F
  7.9378813038797658 12.2344461961458375 15.7858479279002282   F   F   F
 10.4175954524068413 12.0052280899363168  5.2571121859547638   F   F   F
  8.8933020910523659 11.6453978040227550 12.1262133847952676   F   F   F
 12.3062860183848475 14.8568420548461422 -0.4752100781934987   F   F   F
 12.4426509579095086  0.9499456911598514  1.9804467086005839   F   F   F
 12.5753333479717746 -0.0845990344685922  5.7097349866395941   F   F   F
 12.4691861207042543 -0.4612597150667956  9.5086487861365754   F   F   F
 11.2595687634690673 -0.6886544532281611 12.2840022210068121   F   F   F
 11.8416089743111677  3.5168123068906723  5.1208881154444006   F   F   F
 12.4404732164054419  3.0994982752570714  8.2149701975816392   F   F   F
 11.8063386239834216  5.9758355393804781 -0.3049392199062639   F   F   F
 12.4725923298577808  5.7481806574309937  3.4587219634173447   F   F   F
 11.4470415335178348  6.0373003383569053  5.8547800329523874   F   F   F
 12.6300803145980574  6.0821371925141836  8.2758243212120384   F   F   F
 12.7894701460715794  6.5595598894387965 12.1380588438619679   F   F   F
 12.5259288867780700  8.4055116872324138 14.4526398354076626   F   F   F
 11.9110328833078931  9.2610333872756900  1.9133615383743983   F   F   F
 12.6143462211153370  8.6033475199854266  9.6208416123649467   F   F   F
 11.5976231248513386  9.2074715147471355 12.0632249338262234   F   F   F
 11.5734150514705423 12.2758593235740232 -0.6656500988914006   F   F   F
 12.2087448599624668 11.9723582165591989  3.1175281077860739   F   F   F
 12.6774853485607366 12.6613356207932899  6.9622413786663300   F   F   F
 12.1443390653969772 10.9602945748459959  8.6624841461587092   F   F   F
 12.5947717789565008 11.8538813560678520 11.9858246815468448   F   F   F
 -0.0228925517685609 14.9031274679287105  9.6557393699208820   F   F   F
 15.8668808450894918  3.5207299625374073 11.9842461487283209   F   F   F
  3.0743006325517919  8.6209748647120819 12.0987871721208631   F   F   F
  3.3425614526818541 11.8886759039814098  3.0878963873629810   F   F   F
  2.3984802260190907 11.9741712078683307  8.0631178008876283   F   F   F
  5.8085688979984793  5.1377070569537064  0.7459586031370372   F   F   F
  5.4853135628334204  4.8773120501454663  5.5647725970234916   F   F   F
  9.1795563921604728 -0.6562056454674555  3.8086128872441183   F   F   F
  8.7561855303169889  9.2290071070302027 12.2348745984135316   F   F   F
  9.5491906230415857 12.1766100476426669  2.6908260658962071   F   F   F
 11.5709992684860570  3.1409201471854500  2.5753053073382088   F   F   F
  6.3441263925454363  0.9229516798678112 12.6443330790365600   F   F   F
 11.6738794958456644  2.7656818518750557 14.9124946277138175   F   F   F
