Zr Ti V  Cr W 
 1.0000000000000000
    15.0217979107464821    0.0251864372815297   -0.0302493400067148
     0.0252903696717362   15.0068342957516379   -0.0074398604423680
    -0.0302490240032295   -0.0075412143060197   15.0019471234772794
 Zr  Ti  V   Cr  W  
   3   5 107   7   2
Selective dynamics
Cartesian
 14.5806376052771824  0.2264921571209420  7.1985609246213436   F   F   F
  9.2170799419623801  2.7858427222331139  2.7108412753149951   F   F   F
  9.6395056252987423 12.7495841419887181 12.1875052407873614   F   F   F
  3.1823438919275784 11.2585092302841208  5.9840564757177956   F   F   F
  5.9145613799905670 15.0993485557154674 -0.0047503866392488   F   F   F
  6.8364098940421743 15.4656987041790579 11.3836059342655140   F   F   F
 10.0166041742135423 12.5543926064667950  3.0124893936774031   F   F   F
 12.2983551731860068 15.5703406002577207  2.9188416247991751   F   F   F
 14.2791843165507188 14.9021849135128797 14.6660846178322277   F   F   F
 14.7259091538777973 14.8295665794523384  2.2731756513571013   F   F   F
 -0.8208811030690379 15.8709735269348684 11.7466658502216568   F   F   F
 15.0879919670382900  2.1600850070888988 -0.5623733902036291   F   F   F
  0.4528509899358576  2.4917423642773637  2.9625618806171135   F   F   F
 15.2048353567916497  3.9453544042374031  5.6811593183620985   F   F   F
  0.3343952578828241  2.3867920341423674  9.2035899342842882   F   F   F
 -0.4116237362502929  3.6489902491559825 11.6225021325648843   F   F   F
 15.9093043547760882  5.7309340213009650 -0.4818723561588342   F   F   F
 -0.6901834619177495  5.8477034176872289  2.7374059312954038   F   F   F
 14.0101399525585357  6.7328435971138161  6.5034072334269633   F   F   F
 15.0558384043820883  6.3710206881475173  8.8830320965337268   F   F   F
 -0.6953385717235590  6.4082064791326729 11.6615577082725626   F   F   F
  0.1796974330037764  8.4850257361016297 -0.1037371689149663   F   F   F
 14.7485092707980883  8.6924479207863961  2.6135219442105346   F   F   F
 15.1880512625026416  8.9930640136668885  5.6712898735549908   F   F   F
 -0.2290244527502712  9.3043891953287616  9.6252811921722721   F   F   F
 15.6154458092699677  8.7283889593396076 12.0826901232600559   F   F   F
 14.7582588836363371 12.1883056981196241 15.8200836327369121   F   F   F
  0.2566787730513639 12.2986409483847687  3.8002125037015593   F   F   F
 -0.6399244106421887 11.5275418782570114  6.3898067085006511   F   F   F
  0.6733134792272369 12.7243993236564492  8.4443451369843459   F   F   F
 14.6483850546847911 12.1984429442727986 12.0737011701654335   F   F   F
  2.9491684630567594  1.0612631347995072 14.5153134414513580   F   F   F
  2.3515476569616447 14.4040560039639480  4.0855463474102116   F   F   F
  3.1729310079107536 -0.0040331125048688  6.6735555108649800   F   F   F
  3.5804383398938353 15.9051321146147426  9.4241457697337996   F   F   F
  2.2982834792469511 14.8472556574171008 12.6327225396445328   F   F   F
  1.9112072426916100  3.2593373622484774  0.5565560200708005   F   F   F
  3.0298105188552400  3.4494360897796663  3.5057641025698838   F   F   F
  2.4122279778856082  2.7268788919836386  6.1208301260277702   F   F   F
  2.7838777411176259  3.5924538275920237  8.6679990697138045   F   F   F
  1.9600184637906601  3.5059344480609567 11.5322534972536825   F   F   F
  3.4239479051164881  5.2176950171031953 14.5336824449572397   F   F   F
  2.5378165109695456  5.5054237375271775  1.9202568483325055   F   F   F
  3.4206200419724704  5.3962720095795023  6.9983076658355072   F   F   F
  3.8867401196792137  5.9755213003033463  9.7002872017087576   F   F   F
  2.5568615328547919  8.8436462833229417 15.2802907834869881   F   F   F
  2.0053950578503899  8.4168041099776083  3.9176567551144683   F   F   F
  3.7067166475823976  8.3272774853068636  6.4019066249168644   F   F   F
  2.1116343963287987  9.3045972165001434  8.9695428290495354   F   F   F
  3.2265297896993186  8.1712660255208185 11.5541570346452822   F   F   F
  2.1533641677520672 11.8897922659571478 14.7805290655109403   F   F   F
  2.3276387142340216 11.9387137641604930  2.3800593053307169   F   F   F
  2.6436363911048817 12.0572317386867152  9.8730890084863230   F   F   F
  3.1846915124669239 11.1532444971805287 12.5979240478845043   F   F   F
  5.9623366453434503  0.9864089768779982  3.6697723069742318   F   F   F
  6.9858178291350121 15.0358171622192049  6.2587062669192282   F   F   F
  6.5314102619894543  3.0060256994792320 -0.1189679152162766   F   F   F
  5.5566397720574630  3.0915462562448153  2.4831831059997977   F   F   F
  6.7624024372735452  3.0032758950601810  5.4685889434197010   F   F   F
  6.6748588956957775  2.6344575422117367  9.3208420863730677   F   F   F
  5.7223676005583890  2.6784198207804559 12.5230785469637595   F   F   F
  5.7211341462763521  6.7655823451138764 14.1501394355605523   F   F   F
  6.4357803098081199  5.3887856823115685  2.7930091602226108   F   F   F
  6.1661197819113349  5.4761242140382631  6.5114154732542024   F   F   F
  6.6199391167678376  6.8508980245627296  8.7212922779953317   F   F   F
  6.3808003162048532  5.8513716225150283 12.4077356281020919   F   F   F
  5.5206005516477266  9.9598322534024515  4.6138169651109155   F   F   F
  7.4715933400169421  9.1136078181408884 10.5410382847544533   F   F   F
  5.5378571768788412  9.4252997466669282 12.7493208152179562   F   F   F
  5.2352207712987289 11.2954098036815793 -0.0496724029144812   F   F   F
  5.0825307117245613 12.3203960229894669  2.8203278532431124   F   F   F
  6.6219140056668584 12.4185584609060271  4.9507099696970993   F   F   F
  7.0331930813735530 11.9172765714724704  9.9094744467536842   F   F   F
  5.6578271518398928 12.1746530258712298 12.4963268241419669   F   F   F
  9.7210339234333940 14.6618749777684698 15.3271103492442702   F   F   F
  8.5163586781054423 -0.0348074466581162  2.7591771336997235   F   F   F
  9.1649559073461155 15.1515076953914445  5.2354004624249928   F   F   F
  9.3371975632441853 -0.3037692925179539  9.0658624590515551   F   F   F
 10.2285585647338522 16.2157301371124376 12.0866415397013025   F   F   F
  9.3334118966355994  2.0129961292441507 -0.0966501516425356   F   F   F
  8.7549110332960538  4.1404571682031284  6.0981763526260098   F   F   F
  8.8798683233507845  1.9976518455276659  8.5316681617469889   F   F   F
  8.8526571844831903  3.2130164283409344 12.1776587218558277   F   F   F
  9.0074855081054643  5.7037970591871092 15.2200082395206167   F   F   F
  8.6854624987077589  6.3909470714100545  2.1272222648099799   F   F   F
  8.1274335067497603  7.0835588590558887  6.0853772065913567   F   F   F
  8.5400780034414652  5.7192866295175229  9.5005762366571709   F   F   F
  8.4637215977831115  8.6823283259891699  2.6062981474454854   F   F   F
  9.4173398939540220  9.3498390281806181  5.2247019180456187   F   F   F
  9.5834169924572503  9.3063388365901911  9.2127151588924132   F   F   F
  9.5230523246105268  7.9079633257422985 12.1760107750699547   F   F   F
  9.7364369217585569 11.5664914983294977 15.3735519803012668   F   F   F
  8.5053809996405221 11.7338550287652996  6.5298211550377365   F   F   F
  9.3936407767444834 12.3358429557535612  8.7718662936409082   F   F   F
 12.0133040423325497 14.4108297112149675 -0.5165101628218051   F   F   F
 11.8202900806714393 14.9283232137980661  6.5630458108003014   F   F   F
 12.6409025298432525  1.0530112258755615  9.0723018547399050   F   F   F
 11.5584153900302926  3.0819356576609240 15.1220809862594372   F   F   F
 13.1016090189094321  3.6057331074351082  2.6987910653460467   F   F   F
 11.3847519281386091  2.6423927139991497  5.9395997729479788   F   F   F
 11.0219231121095280  3.1067055230546847  8.9041684382968000   F   F   F
 12.3636750259102914  2.2992140908249401 12.4360066735250747   F   F   F
 13.2493318457870313  5.0706483469551964  0.1098179614505539   F   F   F
 12.5125013500823350  6.0034588897985151  4.5267854082685188   F   F   F
 12.2435112396863364  6.6969150691807249  9.7316166350157260   F   F   F
 11.5956597288864316  5.9676991992515251 12.6254725800513867   F   F   F
 11.5508603059674808  8.4317440600883966  0.5793398962012525   F   F   F
 12.3153642644693875  8.0311906875207182  2.7989648615599041   F   F   F
 11.7437241133321546  8.2681275156212024  6.3259149064209206   F   F   F
 12.1097507598260812  9.4751290836466442  8.8058707713185171   F   F   F
 11.9566770752413536  9.6241701724433319 11.9772077137360018   F   F   F
 11.9772917085930928 11.2912813750175314 14.4185551725641741   F   F   F
 12.5843278715445539 11.7893455386980488  1.9615365943462413   F   F   F
 12.0296992481960974 12.7104538764819939  5.3983583797620884   F   F   F
 11.9462040781002639 12.0473840963956125  9.3239186981769855   F   F   F
  3.7448919516404375  5.8544108238878234 12.1098684601644493   F   F   F
  5.4834390278506540  0.5273285411649177  8.0761617773177949   F   F   F
  5.4339032374783649  8.7149971545762011 15.1490523341041925   F   F   F
  5.7886047283599629  9.6997058885535470  2.1107233825266798   F   F   F
  9.3515006723817624  5.5163053378311968 12.3263198171709281   F   F   F
  9.0609372285352592  9.2189959949626115 -0.9992392206903812   F   F   F
 12.2786488543882051 11.9182158533471103 11.9754617779227441   F   F   F
 12.0420459396130202 14.4119367087110657 11.0908620340018302   F   F   F
 11.4496369890499139  5.4828966653501645  2.0104237184639975   F   F   F
