Zr Ti V  Cr W 
 1.0000000000000000
    15.5250581035635555    0.0249023373092759   -0.0029593452149727
     0.0249075060967649   15.5258599297975692   -0.0072275987838562
    -0.0029689522119990   -0.0072397786097423   15.5108223676839163
 Zr  Ti  V   Cr  W  
   5   2 106  10   1
Direct
  0.9976562449367816  0.2015089646631110  0.7997962841198846
  0.0015905800284974  0.7990488047231464  0.2029377556148294
  0.4064480179897986  0.3930879492452485  0.2025269742609313
  0.5918499139631570  0.2083138664210482  0.2030149694578601
  0.7944701437251644  0.4020802937542476  0.3996094833363417
  0.6170145899752167  0.4170694381985186  0.1824766571428577
  0.5822839241597283  0.3858434223806986  0.3642947708944889
  0.9994997128572287  0.0012350116719563  0.0007623313761388
  0.9996423679516321  0.0049218742240758  0.2011320141597496
  0.9992414960593361  0.0004696700086205  0.4011174506962938
  0.9992110681074980  0.9998768198274227  0.6000412458010367
  0.0000124759083206  0.9964438542288614  0.8002788918322847
  0.9992450280547364  0.2004557780208359  0.0037642538163922
  0.9990049858426273  0.2039358091193640  0.2012244740813829
  0.9998470417491870  0.1996269599034186  0.4006157858102405
  0.9987050555561955  0.2007405299055841  0.5956880898845872
  0.0014221483783980  0.3998371345062293  0.0039357319370940
  0.0039110195900416  0.4000312841270363  0.3968253615290945
  0.0009412358341127  0.4010345680900481  0.5999884363245229
  0.0004937141806436  0.4050308897848376  0.8019587514699789
  0.0006476135773409  0.6002378373390777  0.9999604463289433
  0.0016629962595252  0.5931108454544689  0.2002234771461472
  0.0007673629895071  0.6001565403924390  0.4004655628098857
  0.0003758597886562  0.5993267669338634  0.6003969987668354
  0.0010314316114885  0.6005747249068969  0.8003253663105976
  0.0007865812390313  0.8000361761803948  0.4053052846529216
  0.0003022805144565  0.7991518838715691  0.6009512349247687
  0.0003568651303826  0.7988930994629007  0.7995320532198797
  0.1988003249559274  0.9989458388270838  0.0009695372422733
  0.1980447199413598  0.9988307464868676  0.2001665035536021
  0.1995844291740063  0.9992943877541154  0.4008495384004904
  0.1993664790931111  0.9999541605248123  0.6011426155047507
  0.1998448895051902  0.9997856608072322  0.8010597309663365
  0.1979047504744243  0.1986846271653055  0.2016280859516926
  0.1995505992769272  0.1981603904169508  0.4013897464678556
  0.2001469331185342  0.2000526347751508  0.5999022816765442
  0.2035133780279263  0.1997714208835847  0.8002296008842361
  0.2016926463583731  0.4005852554889101  0.9999201608398568
  0.1963539893084221  0.3997751343168021  0.1996100938502864
  0.1999553268826631  0.3989683159976034  0.4013553948445815
  0.1998929550755691  0.3993727825593870  0.6021820369599075
  0.2004012145908600  0.4000333498948318  0.8014008768288918
  0.2013217978472171  0.6000622698529062  0.0002932988298900
  0.2038132520062927  0.5986831641042857  0.2006267011845271
  0.2012215280413936  0.6003479882626491  0.4006278216993019
  0.2005626149671494  0.5990852910248130  0.6010071635360302
  0.2010224215495763  0.7986202684678720  0.9995505543193565
  0.2047634683885143  0.7991140215152072  0.2002688130174876
  0.2014835902906304  0.7992185641588205  0.4018509909154338
  0.2003131397911443  0.7995970659239253  0.6014126888471929
  0.2006317961806501  0.7993522379710715  0.8006875976695003
  0.3978852532257312  0.9994787118928899  0.0008710415224691
  0.4006206863404090  0.9967606412904060  0.2000609216523202
  0.3983932471146682  0.9983648717247309  0.4014724217344195
  0.3991949601819868  0.0001040048827578  0.6010228062915564
  0.4000012562296649  0.9999033384255771  0.8015878485800157
  0.3989713637105177  0.1984969521844213  0.0004511770493920
  0.3884947673838946  0.1891690020288505  0.1998901029312902
  0.3972033657106955  0.1976858508197496  0.4024216441745511
  0.3989052092175489  0.1999610669888471  0.8008558173022882
  0.3988873763725638  0.3986672196013835  0.9968555043106636
  0.3925099815491909  0.3984403118766057  0.4077213930209938
  0.4003823266224566  0.4000606686957741  0.6017235273903093
  0.4010552730208731  0.6017339686216295  0.2012543536686757
  0.4011545396464226  0.5979356255490056  0.4016611699244099
  0.4009064437317660  0.5987159499723262  0.6002938032065993
  0.4007806725918733  0.5996523148675489  0.7998219796678386
  0.4011059749294339  0.7996425991483878  0.9999690212162726
  0.4013992200901286  0.7983306175149713  0.2002340899975296
  0.4004628536851536  0.7995057494907291  0.4012261011547441
  0.4000599687354107  0.7985022565031481  0.6013216221672165
  0.3997492579612361  0.7989884254224464  0.8002644552252043
  0.5995790183609148  0.9980605736511620  0.2043292784759285
  0.5983113030744144  0.9973769623677510  0.4012727622334836
  0.5994543959995702  0.9999093629520255  0.6007983814310605
  0.5988281424682037  0.0001935596265157  0.7978748558762915
  0.5969003945753080  0.2036159854918373  0.9963192081199123
  0.5968725168736118  0.1916133429977245  0.4073485778174420
  0.5987021724386612  0.2016426920299585  0.6004293349594197
  0.5968978842274570  0.1995413312646405  0.8002111587441422
  0.6006133108456102  0.4015159553412080  0.9927994971155844
  0.5993573255388950  0.4003754732401723  0.6037652693922810
  0.5996658004645415  0.4022681932304411  0.7983209348201963
  0.5997807919825752  0.6007190208710355  0.0006069464337448
  0.6015527881480189  0.6057126919199092  0.1996951399598879
  0.6009523754280810  0.6019875041631064  0.3989509837496740
  0.5994837597490480  0.6010087590065039  0.8001291726100475
  0.5991084848304935  0.7985112576344876  0.0003083127492685
  0.5990108672970629  0.7996239279849718  0.4013066993931263
  0.6000495266561627  0.7998200892861851  0.6005053107764786
  0.5994387202417790  0.8011439204465636  0.8022529160310942
  0.8004406186236305  0.0003509362530743  0.0007316652261977
  0.7975606929212297  0.0027852232088432  0.1989605002598182
  0.7999049727026863  0.9988633387370114  0.4003798903678720
  0.7997580965680542  0.0005586375895845  0.6006881166772174
  0.7983601587321069  0.9998931093271581  0.8021472275250175
  0.7306330088188840  0.1335586992278394  0.0011317519327338
  0.8010136872561208  0.1996967952907028  0.2011668414732532
  0.7973431557073140  0.1956817793284086  0.4006551112226140
  0.7985334902453014  0.2007341737979755  0.5999356949058801
  0.7935184960186858  0.2010952204129511  0.7993301215503433
  0.8017153731269436  0.4025711713963196  0.9980034184104793
  0.7999941120464580  0.4003494236721023  0.6027804931929859
  0.8002763765830692  0.4014464840833658  0.8014211547172015
  0.8012356686764959  0.6028776106904923  0.9979566668679336
  0.8003186054228466  0.6063217633419367  0.4014589654678265
  0.8002699679623592  0.6007496137615095  0.6011198062444235
  0.7991010357698346  0.6010311014539647  0.7997295416682991
  0.7988118515889014  0.8013481384604847  0.0003339022579767
  0.7975552063663699  0.8020449435871193  0.1994927288114344
  0.7993493264107555  0.8014232111754838  0.4000035147398023
  0.7992566426495031  0.8004348684862606  0.6011157945210348
  0.7997908048233326  0.8002942083439903  0.7998060391374610
  0.0005776922982068  0.7999051030036972  0.9969773729130975
  0.1994455610634329  0.1993302179034765  0.0006433754114651
  0.2009504484192821  0.5999640133815654  0.8009782724488169
  0.3996468067906904  0.2001812966718881  0.6017133714486749
  0.3995624363377601  0.4000016892397469  0.8003920448859595
  0.4003700402678254  0.5986612297638417  0.0005601213912749
  0.5999793881294850  0.6000218026979821  0.5997369552772206
  0.6006370966550305  0.8010361113910731  0.1999713584032612
  0.8076007566581702  0.4019407767209890  0.1942218405601212
  0.8015710800658875  0.6029568928208239  0.1992590523808571
  0.0020284446640462  0.3984327099065312  0.2003933819830853
