Zr Ti V  Cr W 
 1.0000000000000000
    15.4219977637485020   -0.0153525296692176    0.0018800521315798
    -0.0153399539639544   15.4042384266248558    0.0149563524432868
     0.0018828811446291    0.0149768248118706   15.4308175709018371
 Zr  Ti  V   Cr  W  
   2   1 100  10  11
Direct
  0.5945231776697442  0.9862982911728155  0.7932372975761952
  0.8061393365673760  0.4053043197027259  0.2025501564757252
  0.5971481465454930  0.4036239614824432  0.1969612217333869
  0.0010010977293963  0.0012472989120522  0.0005357107178721
  0.0009222648857617  0.0003771950694537  0.6004097813743463
  0.9994805953942870  0.0007191993993734  0.8000642561869280
  0.0054507564627845  0.1997846676889203  0.0008411467351061
  0.0011668630479676  0.2026383879215753  0.2003448460806695
  0.9970669938923953  0.1995075441468749  0.3997246255190294
  0.0015676546433245  0.1998420780394109  0.6006003746479504
  0.9996423419471763  0.3983615025730226  0.0040303162234152
  0.0011271854470570  0.3995666943600845  0.3980499852690316
  0.0013392832098032  0.3998649427764847  0.5993423052623563
  0.9997849410996794  0.3994535360986539  0.7992016691224384
  0.0033192585185421  0.6002301032338123  0.0013220161546083
  0.0014799316918557  0.5987135469474683  0.2001516366984487
  0.9999696955528313  0.5992725918326313  0.3991315741967019
  0.9991691159050038  0.5984810142835685  0.5983349423080325
  0.9988415890769690  0.5987571914647183  0.8011005742363478
  0.9997874936628701  0.8016321847977063  0.0007906059297534
  0.0010995083788253  0.7996632496615955  0.2006711173437525
  0.9995776837229876  0.7998780147278254  0.3988731391830420
  0.0032791951449314  0.8003952672734495  0.5992140278971960
  0.9968198973516315  0.8005778411647011  0.8000251068007497
  0.1999202336285512  0.0061213253363903  0.9999782294520015
  0.2015098159083809  0.9987842663849147  0.2005527180042116
  0.2012779216019516  0.0013766735797736  0.4002569854503641
  0.2011573426730783  0.9974294483524485  0.6010098207888998
  0.1984082018328751  0.9986484543576665  0.7998186830831396
  0.1999272465260712  0.1997705612183891  0.4007241476286922
  0.2006597216977360  0.1987044914470507  0.5996303647472554
  0.2011741200823093  0.3971497143065483  0.0000510832162736
  0.1994936538752147  0.4008703965982083  0.2020860402399486
  0.2002885403401810  0.3993794382933785  0.4019831263752416
  0.1996880322255682  0.4053322354020092  0.7989941430046203
  0.2045000869295969  0.6014866346198995  0.1956035590240498
  0.1995104497497578  0.5987533837508137  0.4015874577446930
  0.2019135834503438  0.6027732863947634  0.6054334580698262
  0.2026112708488568  0.7987617996663828  0.9964750964264223
  0.1987162369102697  0.8007723355398073  0.2015554333536272
  0.1993240994696700  0.7999482052459845  0.4043273036350638
  0.1950874087115661  0.7971587774924405  0.7962582241837831
  0.4003869771185044  0.9982936431407213  0.2012415552854506
  0.4013851346359432  0.0022611772626179  0.3973288528712473
  0.4036414301145642  0.9990000208015587  0.6004212780185771
  0.3927500849084450  0.0034773679959079  0.8001960035999373
  0.4003029325799600  0.2014190116135839  0.0005760406491730
  0.4020675880836028  0.2012646782287106  0.2016872763844251
  0.4023072058989859  0.2010295242140597  0.3988965727381211
  0.3999422488990058  0.2002198336020594  0.5989032728539323
  0.4005915484022147  0.2025167822575202  0.7984277937350344
  0.4000440040616335  0.3990282934061803  0.9998653210232344
  0.3970716712772326  0.4059361287303913  0.2022038425052068
  0.4004474576758801  0.3987339725759972  0.3999086177540859
  0.4003337649110710  0.3987596573059762  0.5982516154633125
  0.3991683607404807  0.4017148884350906  0.7975664415824198
  0.3965530526209406  0.6007083153513455  0.0023817028954163
  0.4009313508875831  0.8024243020290311  0.0023652490413131
  0.4009237393063784  0.7968782588671599  0.2003083406349983
  0.4016932416495121  0.8005300020230612  0.3992307806423440
  0.3968948329864017  0.7992643654575534  0.5929546258181672
  0.3995918171552570  0.9994414572850481  0.9998908480477051
  0.6007600679958288  0.0056413457735598  0.0015432722111937
  0.5999671161805759  0.9983580770720051  0.1994589595182165
  0.6007927359524085  0.9997822388787799  0.4002934086543394
  0.6006004112301623  0.1990461145067084  0.1946138097842597
  0.6053683087388834  0.2009774411389737  0.3974388540049504
  0.6001375510137943  0.1955749820362863  0.6034255471246859
  0.6010594466982049  0.2033294909518450  0.8040077637019635
  0.5994763049475381  0.3963054715413318  0.9967112689632111
  0.6003602013195509  0.4006062606168215  0.4030422183814566
  0.5993293012829197  0.3993043263511818  0.6002834753001099
  0.6000895596223936  0.4062242200488174  0.7981735028774621
  0.5978703492579250  0.5976541227790850  0.9953679694389901
  0.5947039917187921  0.6047613330910706  0.1967468886290992
  0.6014353517716837  0.6002256051161050  0.4000200510772068
  0.5995570613202594  0.5994731186527704  0.6029503127226363
  0.5988589529435022  0.8027371681904081  0.9945911229146438
  0.6016746427911958  0.8013956528955886  0.1987360062998477
  0.6023323299414192  0.7998356201974396  0.4000702174713979
  0.5969958059182673  0.8013758965756700  0.6017047461245367
  0.8018167027864712  0.0008849684169996  0.0003209651761453
  0.8019775291885716  0.9989371465342993  0.2006426456507192
  0.8013578231192193  0.0035940686988030  0.3990982132978144
  0.7977359939883789  0.9992612892022384  0.5992073121454072
  0.8050776162623297  0.0005250580079685  0.7991219197972378
  0.7951268294409770  0.1997068899847363  0.0006793654137670
  0.8014509249835251  0.1963481104056793  0.2037802373453678
  0.8009677519308730  0.1999743337221604  0.5964240863090791
  0.8006539224575799  0.2003428257056155  0.7995532014535420
  0.8017396825471358  0.3991586924384923  0.9968938406451613
  0.8000722421138993  0.3954500500880945  0.4066320542030169
  0.8006956268909680  0.3987949990064079  0.6016759525875379
  0.8003328831961463  0.6003844531835103  0.0005576944521783
  0.7979222449185053  0.6070881437971478  0.1991948830705646
  0.7990190011804469  0.5987400252568822  0.3993742330452139
  0.8005419427321890  0.5996667339830719  0.5982942674996675
  0.8002975321170019  0.5983772148449517  0.8002249310432801
  0.8004176570640313  0.8007072855136030  0.0006746008706046
  0.8009221187050232  0.8023382382147177  0.1999145127820603
  0.8010930639214130  0.8003490781186362  0.4001339905593867
  0.8032719667459985  0.7990766964682881  0.5977559416589704
  0.8002250625702922  0.7985166454631398  0.7989478680780087
  0.0019010334462054  0.0004207464725689  0.2005388421118339
  0.0010548726988521  0.0003961567207663  0.3996055133894048
  0.0003983001625811  0.2010456657270759  0.8005724606548160
  0.2013882961838178  0.2002992615235990  0.2014296777212349
  0.1997442817957695  0.2023183865083098  0.7997610157058463
  0.2009127458861062  0.4006230446936371  0.6004629224932745
  0.4005463528152806  0.5993228863070847  0.3990794885996112
  0.4008415981222112  0.5994821898311592  0.5980534106838467
  0.3989666123687952  0.6020207552669783  0.7986217931680906
  0.8017282160791591  0.3995488609421379  0.7990302513870858
  0.0069784607190718  0.4024640752198683  0.2016470764062419
  0.2032864987164796  0.2012358363564685  0.0013346893135056
  0.2009501460789911  0.5991010916556382  0.9972113963960617
  0.1929131980630145  0.6016403165418768  0.8056376751932482
  0.2026001688862244  0.8003388261802038  0.6022902054294265
  0.3989183347473390  0.6013196858828602  0.1979829641519278
  0.6002371699408138  0.9985258839960978  0.5939723717058822
  0.5989323499668362  0.2002570914970864  0.9980823314803753
  0.6019560230013019  0.6016497139131037  0.8001592134485761
  0.6065679478497666  0.7871411044453355  0.7986279103428799
  0.8003041279895426  0.1998350499454128  0.3995562756594593
