Ti3 V58 Cr3
1.0
  12.0399999999999991    0.0000000000000000    0.0000000000000000
   0.0000000000000000   12.0399999999999991    0.0000000000000000
   0.0000000000000000    0.0000000000000000   12.0399999999999991
Ti V Cr
3 58 3
direct
   0.2500000000000000    0.2500000000000000    0.5000000000000000 Ti
   0.5000000000000000    0.7500000000000000    0.2500000000000000 Ti
   0.7500000000000000    0.5000000000000000    0.7500000000000000 Ti
   0.0000000000000000    0.0000000000000000    0.0000000000000000 V
   0.0000000000000000    0.0000000000000000    0.2500000000000000 V
   0.0000000000000000    0.0000000000000000    0.5000000000000000 V
   0.0000000000000000    0.0000000000000000    0.7500000000000000 V
   0.0000000000000000    0.2500000000000000    0.0000000000000000 V
   0.0000000000000000    0.2500000000000000    0.2500000000000000 V
   0.0000000000000000    0.2500000000000000    0.5000000000000000 V
   0.0000000000000000    0.2500000000000000    0.7500000000000000 V
   0.0000000000000000    0.5000000000000000    0.2500000000000000 V
   0.0000000000000000    0.5000000000000000    0.5000000000000000 V
   0.0000000000000000    0.5000000000000000    0.7500000000000000 V
   0.0000000000000000    0.7500000000000000    0.2500000000000000 V
   0.0000000000000000    0.7500000000000000    0.5000000000000000 V
   0.0000000000000000    0.7500000000000000    0.7500000000000000 V
   0.2500000000000000    0.0000000000000000    0.0000000000000000 V
   0.2500000000000000    0.0000000000000000    0.2500000000000000 V
   0.2500000000000000    0.0000000000000000    0.5000000000000000 V
   0.2500000000000000    0.0000000000000000    0.7500000000000000 V
   0.2500000000000000    0.2500000000000000    0.0000000000000000 V
   0.2500000000000000    0.2500000000000000    0.2500000000000000 V
   0.2500000000000000    0.2500000000000000    0.7500000000000000 V
   0.2500000000000000    0.5000000000000000    0.0000000000000000 V
   0.2500000000000000    0.5000000000000000    0.2500000000000000 V
   0.2500000000000000    0.5000000000000000    0.7500000000000000 V
   0.2500000000000000    0.7500000000000000    0.0000000000000000 V
   0.2500000000000000    0.7500000000000000    0.2500000000000000 V
   0.2500000000000000    0.7500000000000000    0.5000000000000000 V
   0.2500000000000000    0.7500000000000000    0.7500000000000000 V
   0.5000000000000000    0.0000000000000000    0.0000000000000000 V
   0.5000000000000000    0.0000000000000000    0.2500000000000000 V
   0.5000000000000000    0.0000000000000000    0.5000000000000000 V
   0.5000000000000000    0.0000000000000000    0.7500000000000000 V
   0.5000000000000000    0.2500000000000000    0.0000000000000000 V
   0.5000000000000000    0.2500000000000000    0.2500000000000000 V
   0.5000000000000000    0.2500000000000000    0.5000000000000000 V
   0.5000000000000000    0.2500000000000000    0.7500000000000000 V
   0.5000000000000000    0.5000000000000000    0.0000000000000000 V
   0.5000000000000000    0.5000000000000000    0.2500000000000000 V
   0.5000000000000000    0.5000000000000000    0.5000000000000000 V
   0.5000000000000000    0.5000000000000000    0.7500000000000000 V
   0.5000000000000000    0.7500000000000000    0.0000000000000000 V
   0.5000000000000000    0.7500000000000000    0.5000000000000000 V
   0.5000000000000000    0.7500000000000000    0.7500000000000000 V
   0.7500000000000000    0.0000000000000000    0.0000000000000000 V
   0.7500000000000000    0.0000000000000000    0.2500000000000000 V
   0.7500000000000000    0.0000000000000000    0.5000000000000000 V
   0.7500000000000000    0.0000000000000000    0.7500000000000000 V
   0.7500000000000000    0.2500000000000000    0.0000000000000000 V
   0.7500000000000000    0.2500000000000000    0.2500000000000000 V
   0.7500000000000000    0.2500000000000000    0.5000000000000000 V
   0.7500000000000000    0.2500000000000000    0.7500000000000000 V
   0.7500000000000000    0.5000000000000000    0.0000000000000000 V
   0.7500000000000000    0.5000000000000000    0.2500000000000000 V
   0.7500000000000000    0.5000000000000000    0.5000000000000000 V
   0.7500000000000000    0.7500000000000000    0.0000000000000000 V
   0.7500000000000000    0.7500000000000000    0.2500000000000000 V
   0.7500000000000000    0.7500000000000000    0.5000000000000000 V
   0.7500000000000000    0.7500000000000000    0.7500000000000000 V
   0.0000000000000000    0.5000000000000000    0.0000000000000000 Cr
   0.0000000000000000    0.7500000000000000    0.0000000000000000 Cr
   0.2500000000000000    0.5000000000000000    0.5000000000000000 Cr
