Zr Ti V  Cr W 
 1.0000000000000000
    15.4149939690695010   -0.0041197707411214    0.0051244012526811
    -0.0041210926464625   15.4234402589122102   -0.0060663359120509
     0.0051270839828618   -0.0060686626181498   15.4040961855710652
 Zr  Ti  V   Cr  W  
   3  12 107   1   1
Direct
  0.9903341247963245  0.7849222795511456  0.7966274122568211
  0.2080950222717788  0.4381598026109586  0.7962130748746822
  0.8135925037706863  0.6072968212979487  0.7948051723115795
  0.0008993090790534  0.4342556333925852  0.4017400506082219
  0.9960730347218839  0.7065674633899932  0.4026623975875097
  0.9862248747042237  0.6120450087839356  0.6214426417573566
  0.2009650282819453  0.9874632524561127  0.7995130974868540
  0.1995701857334214  0.2022093380505441  0.7993492203432495
  0.1980026525244579  0.5975578535098528  0.4069577496215576
  0.3914275212196905  0.7993750892345560  0.1988918697152680
  0.4005643540585381  0.8063141165735499  0.8047517355442992
  0.5971662032544793  0.7976010182639521  0.9899021854299576
  0.6030713306228412  0.7977910039142937  0.1998694763353037
  0.5961180503132295  0.7938397672967584  0.6008024851975124
  0.7995593092909793  0.9958027397225089  0.9990185324190100
  0.0026269527974030  0.9978871364908812  0.9989414589765058
  0.9996505943792349  0.9967242914580673  0.2020037027943343
  0.9992888241666756  0.0011497936634277  0.4005225554890117
  0.0001885952649872  0.0004465917055418  0.5999376765648474
  0.9972738282393024  0.9980351485221785  0.7990340283103263
  0.0004129705928702  0.1971699676935782  0.0005876027207762
  0.0003404138778247  0.2002744269747695  0.2010038089685837
  0.9997552798437851  0.1980866056243963  0.3999574237160825
  0.9998828299207153  0.2031148989201158  0.5993992471816513
  0.9996687624358341  0.1968727614040294  0.8001434537256393
  0.0018817090912537  0.3964304088066982  0.0014226920651261
  0.0008491379893629  0.4008392176063555  0.1987765016913531
  0.0015866056586100  0.4027680735313023  0.6037842967102879
  0.0023854148958575  0.3934463365351172  0.8022720807144451
  0.0020431610797857  0.5980718837862523  0.0073541612170943
  0.0001727186145908  0.5996456025082743  0.2023522338774446
  0.0207317868776322  0.5827764082099843  0.8177612086680441
  0.0005534775681072  0.7980593803242985  0.0040436345213932
  0.9987751371719480  0.7976504440972609  0.1997758955334008
  0.9992698472069230  0.8050047473187735  0.5831843198583543
  0.2005585878725714  0.9978849316912799  0.0024880376099672
  0.1995781891108133  0.9986654242697309  0.2009272221771056
  0.1989203063345433  0.9963287463510456  0.3999908877714037
  0.1996179898013559  0.0004101470858455  0.5979280116514749
  0.2007013630366566  0.1982960879286588  0.0015704833617922
  0.1994848355736865  0.1988736608146971  0.2011686366107160
  0.1989321067554132  0.2005783480682554  0.3996668953449353
  0.1993818529019413  0.2001524589557310  0.5981750496282737
  0.2023415835834384  0.3999543729860091  0.0031801555743671
  0.2003819834989922  0.3994395739794484  0.2013215696074100
  0.2022796783426664  0.4005992239993764  0.3998980395862112
  0.1992154264643886  0.4020445289290643  0.5930342689654764
  0.2036679040666756  0.5999635814912375  0.0005317990614158
  0.2011598000565274  0.5997338522538909  0.1999584464834955
  0.2051150642708364  0.6018552268912715  0.6065831053169140
  0.2087572396855923  0.6274141326523991  0.8018681591354491
  0.1981837307808935  0.7988749942380666  0.0000605877427704
  0.1943336441998728  0.7990085165657471  0.2031703110253242
  0.1992292135102965  0.7973321086792754  0.4023128833884823
  0.1997617373267874  0.8011292304002035  0.7984023775881394
  0.3997586194090209  0.0000210891694892  0.9999496601605053
  0.3997261435080045  0.0010041837490627  0.2002867253099705
  0.4002409913251654  0.9994982893517530  0.3998665392434866
  0.3987607823758754  0.0007605754736679  0.6009043870068016
  0.4029997179245956  0.0044795001772977  0.8006330599618202
  0.3999911342186806  0.1993732889998290  0.9999238292992308
  0.4000200638101078  0.1995799597972019  0.1997077419900907
  0.4000121839473781  0.1987678951241798  0.4004399686077584
  0.3985916474458027  0.2017304838539120  0.6002523761062490
  0.4022678961913053  0.2009471154149890  0.8002751848500769
  0.4008388683914131  0.3981617077508854  0.9997449699866953
  0.4005174213092877  0.3995827428889926  0.1999196358567493
  0.4009013154888481  0.3993570159321339  0.3996703457326339
  0.3977760712030628  0.3998885585380012  0.6018240045737897
  0.4080317706817070  0.4000748587478501  0.8008575229104592
  0.4028097962598763  0.5999982002348824  0.0009522437143355
  0.3998763752386387  0.5976201667145380  0.2008385310351169
  0.4019423347278440  0.6002265655366912  0.4007819992615756
  0.4032023227907547  0.6028057111491171  0.6012759223987889
  0.4025045264514781  0.5992460438769222  0.8022096387129257
  0.3965068611269251  0.7996769830361566  0.0029771346162690
  0.3982611742623743  0.8006184089990593  0.4015870682058344
  0.3945661398645188  0.8007684360764975  0.5989675103168115
  0.5974915904353677  0.0007617082081670  0.9990295580203068
  0.5997008747237828  0.0003500251875307  0.1983686082185770
  0.5994585576694926  0.9995613335315429  0.4004497696995741
  0.5982770039768406  0.0018486732736045  0.5993378588445977
  0.6000311849522814  0.0019824526896200  0.7986916521805215
  0.6007856533970846  0.1999546012702210  0.9989865717747979
  0.6006151110369896  0.1994964518391487  0.1992182881725827
  0.6004850868319177  0.1997199278294226  0.3993983725044392
  0.5997673425204664  0.2023447707156784  0.5997266020451812
  0.6015651806190552  0.2013804216799656  0.7992438403202731
  0.6012957140312031  0.4005197246678714  0.9987540839480411
  0.6008343022783219  0.3998674460886267  0.1990404190238980
  0.5996160308800259  0.3990603082656967  0.3991292106654709
  0.5996937781260921  0.4030865468430906  0.5997936306509238
  0.6051029153879546  0.4015081454956583  0.7995720961944981
  0.6011720263385968  0.5980505617570586  0.9970696558000695
  0.5999339514632732  0.5984148396845222  0.1997240474113766
  0.5972435007536941  0.6006447473692630  0.4035506474571184
  0.6002775834521304  0.6019679468050521  0.7948323410291800
  0.5984073655360104  0.8000738430554020  0.3975858102127271
  0.5980428084726656  0.8007940820319819  0.7972083301196216
  0.8001649185859726  0.9991436785126778  0.2013868034212643
  0.8001046670541019  0.9966974286869251  0.3996250752088769
  0.7985279015124329  0.0019473724387766  0.5982913186301483
  0.7990878041803910  0.0029913544095608  0.7964979972407811
  0.8010624110049015  0.2008403994286792  0.9996511407863641
  0.8006559326926179  0.1993582203017373  0.1995955174412152
  0.8012651924665937  0.2022141022199370  0.3998550690653854
  0.8005564445700917  0.2019657268058873  0.5984877242955756
  0.8000491967744190  0.2000827442437087  0.7990804684193638
  0.8015044937464438  0.4007954848574968  0.9987163238184491
  0.8013955142418913  0.3990693448066637  0.2000322800139750
  0.7993320831344791  0.4029732586656590  0.3992885771668364
  0.8029682802941328  0.4019833786291087  0.5982948383863462
  0.8031279560272516  0.3986417395969912  0.7993453657279500
  0.8009900366257234  0.5994447341428135  0.0032098833438758
  0.7989716454603302  0.5996983549999423  0.2000946086896294
  0.7945146270019658  0.6010834448601278  0.3971532308843453
  0.7895233276560623  0.6017988079563661  0.5917140932852970
  0.8027556466265120  0.7965363077903136  0.9967778282917352
  0.8024719640999942  0.8002609553031705  0.1996243105123085
  0.7983368724791349  0.7985275341444580  0.3993872331118415
  0.8000257655758326  0.8036773498069751  0.5977987273589535
  0.7875034508355454  0.8125259221753013  0.7990357181813180
  0.1976511163413152  0.8017218097984629  0.5995538008748170
  0.5987611753854181  0.5956358459233364  0.6005761973275535
