Zr Ti V  Cr W 
 1.0000000000000000
    15.1030413950132232    0.1568319146970798   -0.2738796434286306
     0.1564383181686635   15.1123806140968480    0.0103151432160544
    -0.2753815952493502    0.0100727731589650   14.8720345900413271
 Zr  Ti  V   Cr  W  
   2   5 108   8   1
Selective dynamics
Cartesian
  5.9564802311558056  0.0687667218081953 -0.1730753458254424   F   F   F
  5.5922377021342005 12.6689272638386061 12.0176726634982636   F   F   F
 14.8448245380073676  0.6243221489445727  3.2857680361581814   F   F   F
  6.0019279195905959 13.8007950656904903  5.8231238312387843   F   F   F
  5.8251557045473454  4.0235567217627013  5.6851231652941978   F   F   F
  8.4766599130525719  9.3274817567178907  2.1387785991020012   F   F   F
 11.2823981195209626  2.6546312483769858  5.8652796244936143   F   F   F
  0.2377763141014704 15.2087377382124114 14.6746524000882150   F   F   F
 14.3823621754125917 15.3519130476479209  5.9024445442132523   F   F   F
  1.0682455585904052  0.2303425804713919  9.1940574618293240   F   F   F
 -0.3108856911475330 14.6448515192653463 10.8233188682426462   F   F   F
  0.2124807985727047  2.9287147508949944 15.8026801766126184   F   F   F
  0.0647040922301462  3.2603575277063199  3.2288968882866453   F   F   F
 14.6770611967122608  4.0363701626432240  5.0939848997823125   F   F   F
 -1.1465513014781201  2.6093216341839653  8.8020588798583272   F   F   F
 15.6702322311512763  3.1343770906021815 11.8019298366690268   F   F   F
 15.6839780611597526  6.7484509737966194 -0.3063220859869678   F   F   F
 -0.4771046700877924  6.0334216806942624  2.4061170397231497   F   F   F
 15.4815544196768915  7.3829114454709224  3.9758754801494427   F   F   F
 14.7062262397078349  6.3541828528532145  8.0820182887203682   F   F   F
 14.3285026789912191  9.0116646673404031 -0.0278950356367497   F   F   F
  0.5452241700822416  9.5648562057144719  2.8242169671955879   F   F   F
 -0.4914211394903362  9.0205913882096382  5.8827092643788390   F   F   F
 -0.7663092330829671  9.9672228380219234  9.5528048330971664   F   F   F
 -0.3906988612873356  8.3194246497099638 11.3368338015479022   F   F   F
 15.5634671597447429 12.7289160860584047 15.7676152409982500   F   F   F
 15.8418601788353488 12.7947044695665966  5.3414235641063117   F   F   F
 15.1625772303403625 12.1150298358409643  8.1176358457121314   F   F   F
 -1.2574799116175357 11.8916877400533796 11.7698548059660251   F   F   F
  2.4774511091768243 14.3712511445429065  0.9742647399252079   F   F   F
  3.7171856477326375 15.2572446205229131  2.8667259517024393   F   F   F
  2.8196340105778446  0.6606344154537671  5.8144618608921794   F   F   F
  3.5969142520818589 -0.0901398702299498  8.6630422142638004   F   F   F
  2.9617603115105551  0.0910105573322790 12.3052165047056814   F   F   F
  3.4022126471519671  2.7618212596190044  0.0218809195042892   F   F   F
  2.7418887986651419  2.9006736370148229  3.8313117441028166   F   F   F
  3.7372477387300864  2.8204223169780196  8.6385188124801200   F   F   F
  3.4048123673377781  3.6774610678152921 11.3804645625001228   F   F   F
  3.0618532736928552  5.5634228472466445  1.1142871857725032   F   F   F
  3.8143107395725471  6.6237942828276113  3.6545858736041961   F   F   F
  2.6126206282829827  5.8254010276142383  6.4196737903942473   F   F   F
  3.3654055375140963  6.9256113600864087  8.6979917765503814   F   F   F
  1.8941210035524014  6.2168099528002818 11.2151063671287794   F   F   F
  2.8274052900677220  9.2908991924142370 14.9558225996612286   F   F   F
  2.9677449873789166  9.6443712591357613  5.8011209300048598   F   F   F
  2.0975764138006769  8.9601979024264562  8.6872216017871295   F   F   F
  3.2491287462596987  9.6072190600643683 12.3629145274572423   F   F   F
  3.6976053998037632 12.5836192412273480  0.0959781549138698   F   F   F
  3.1999670918634009 11.2459254208913961  3.3651108117375794   F   F   F
  3.3413240745152608 11.6710372689231008  6.6060845166698989   F   F   F
  2.7382013520381161 12.6763323489512203  9.6631692581497468   F   F   F
  1.8514692478390609 11.7015175007104055 11.5946346498697306   F   F   F
  5.9521853738615187  1.0691170466436606  3.4000856953993899   F   F   F
  6.3022302783071602 13.9891764747864276  8.6927150143381979   F   F   F
  6.4151378813048838 16.2005829122997973 11.0749757762707404   F   F   F
  5.9307165484899684  3.9196685881292752 14.5117216945562078   F   F   F
  6.0574468263873200  2.9809678051034543  1.9704124108747674   F   F   F
  6.0349351511841585  4.2756473283479339  8.7328304790151066   F   F   F
  7.1271312268358828  4.6139177423288702 12.1334945943409895   F   F   F
  5.3249494643188511  6.3983464606788338 15.2615719998926700   F   F   F
  6.3232605161967408  6.3238864394921341  2.7629985314592864   F   F   F
  5.8556416000153382  7.5919456511300298  5.9147045784087782   F   F   F
  6.2619148551185155  6.7051680070645734  8.4087551410018317   F   F   F
  5.7784054875548083  6.7061760102425465 11.4606963566795574   F   F   F
  5.9845268729682415  9.6442552957276195 -0.7535059829345129   F   F   F
  5.2487306171304571  9.0575476990229955  3.1044436889061284   F   F   F
  7.5676743349098432  9.2072695869657917  5.9103587064935477   F   F   F
  5.1013839731267110  9.3057496657435532 10.7285119931549264   F   F   F
  6.1561410561881340 11.4312091259572259 15.5045656345297402   F   F   F
  5.9223088865400433 11.3916731691774302  4.3111174289423131   F   F   F
  6.1190490239917477 11.6292751957674696  8.5617980999108223   F   F   F
  9.6613045627888408 -0.2873084084977300 14.8560465239856168   F   F   F
  8.7673770664427710 15.3774172575465702  1.9880972353650517   F   F   F
  9.4668177516378336 14.4944097601633892  5.6399558236786200   F   F   F
  8.6201035868540092 15.2206248586277280  8.2485784079831657   F   F   F
  8.9232285051666498  2.5368093064069264 -0.2426056360663250   F   F   F
  8.7334165066197933  3.5500236622625914  3.3430700217451892   F   F   F
  8.4953579663455550  2.9259021655561637  5.3557449828057875   F   F   F
  8.3656293072481667  2.8816903076314513  8.2028961695956077   F   F   F
  9.6937433276608687  3.6665732783371459 12.5566358320064868   F   F   F
  9.2270087448182387  6.1273487774676347 15.4552934781916917   F   F   F
  8.9206401167639466  7.0557811656253682  4.1034550937626637   F   F   F
  9.1623053112580024  5.8250161960631130  6.0465277153761114   F   F   F
  9.4906730640858683  5.2326587731910816  9.0700042046761578   F   F   F
  9.1320219928771458  6.3252455365252302 11.8064960469745177   F   F   F
  9.4468691303030496  8.9599235297132047 14.6635366085656411   F   F   F
  9.9072257744944601  9.4727283792449786  5.6085428181444472   F   F   F
  8.3291327791286651  8.8248573925280915  8.7937588159088982   F   F   F
  8.1996608439055905 12.4089331734619446 14.5894454473907320   F   F   F
 10.1899560827046152 12.1637736817941420  2.9624181746369662   F   F   F
  8.6511602912287184 11.8954371254434061  4.9934071226647063   F   F   F
  9.7480376711728347 11.6970096844989762  8.6924886100020551   F   F   F
  8.5865239644893450 10.6992902832217407 11.2565247679579219   F   F   F
 12.1741186344012124 14.3165095586163549 15.7033853643798516   F   F   F
 11.2476825265997924 15.9529281448019287  2.4977867569562573   F   F   F
 12.0934274952400695 -0.9671193991576732  5.4329494029156695   F   F   F
 11.8111985867208844 14.8328641713887297  8.4167377855662249   F   F   F
 12.1170674731324439 -0.5825988443642582 11.9406134995816036   F   F   F
 12.5239052276953693  2.6806906326242816 -1.2748181739690687   F   F   F
 12.3589278931747977  3.3700912350627488  2.2618945587047428   F   F   F
 10.3685648154504868  1.6356214901612998  9.3951014078583235   F   F   F
 11.7397448801833129  1.9056834864397685 11.5126257988641285   F   F   F
 11.9281213694202552  6.1334641563356707 -0.3238321319374723   F   F   F
 11.8218630707426264  5.3972399653477510  3.3560468862177633   F   F   F
 12.1452572334836137  6.3761914349149063  5.5219286131618111   F   F   F
 10.9165828380689103  7.3506940547854294  8.7200587906257194   F   F   F
 12.7885383805283581  5.3572821868392317 11.1173123897686086   F   F   F
 12.0633215707116950  8.9338382238177303  2.9293624503558906   F   F   F
 12.3749639828204909  9.1602119383935747  8.2867888805655614   F   F   F
 11.8274363562933615  8.8956459005866790 11.8814715382512155   F   F   F
 11.7840370279938274 11.7562477511640910 14.5451829722425998   F   F   F
 13.2846430407254132 12.3318804150855499  2.4086049564004801   F   F   F
 12.3045771230450161 12.1257554975836719  5.9191892491927698   F   F   F
 12.5966145450684408 12.7511783248562498  9.5436494043928075   F   F   F
 11.0502425699110880 12.4237569658113376 12.0248532578591139   F   F   F
 -0.1722155138898395  5.8319075838476770 12.5682433095680235   F   F   F
 15.4261949256945350 11.9142496354855822  3.1807472466687101   F   F   F
  3.1885711726618529  3.3594118140804370  6.2239236666819933   F   F   F
  2.7432665241229244  8.6637288072625349  3.1308027455482472   F   F   F
  8.3977675771294429 15.0756862198207156 12.1663533118594742   F   F   F
  9.6362695999175614  8.5784884600809530 10.8247732490398416   F   F   F
 11.6501770111859937  9.7288776232348138 15.5506383932654266   F   F   F
 12.3132237351757219  9.2371145929018965  5.4028006613872765   F   F   F
  5.1586922585870880  9.2701738096292257  7.7566981149063130   F   F   F
