Zr Ti V  Cr W 
 1.0000000000000000
    12.2882735461728885    0.0000000000000000   -4.3445607757035454
    -6.1441367710433559   10.6419570608175889   -4.3445607757035454
     0.0000000000000000    0.0000000000000000   13.0336823299999995
 Zr  Ti  V   Cr  W  
  10  18  74  14   8
Direct
  0.0011592710888066  0.0070675699449841  0.0103563692537815
  0.0086478049741938  0.5970562466268140  0.8069373481658406
  0.9943829768099147  0.7988815468374539  0.1926267623684332
  0.2238319961836286  0.9545828623183281  0.4305765235573403
  0.2030866138799451  0.9979781383069043  0.7615695081601827
  0.1033637100922066  0.5931649963623080  0.2929308453569611
  0.4126835308564398  0.0018166810282972  0.9982409440325147
  0.3968942095235655  0.2031172148050034  0.6020064811425856
  0.3964981083967414  0.5891805362837746  0.1945807782783018
  0.4053555031371318  0.7944240292140508  0.8010996214333517
  0.0015959718780694  0.0013978175659412  0.7909198909539396
  0.9979176470226951  0.2099607792692345  0.0060838934529136
  0.9918694393954864  0.5930713892491385  0.0100112300139722
  0.1976542817692070  0.1930656109063636  0.3943107025920700
  0.2038855906061098  0.2081693738867042  0.7891605007248328
  0.1980211003723902  0.3895627028385464  0.1936498118768955
  0.1985836861052230  0.4229807852983120  0.4082631921844589
  0.4190838473878117  0.3963804062966906  0.2035493797167058
  0.3923461738376548  0.3957373432097226  0.3975875903728889
  0.4058430807652575  0.5920752137843724  0.9853573396057911
  0.3724046214519136  0.7792721098822670  0.5737399480511549
  0.6057261594989757  0.0036484803047777  0.8072463070369250
  0.6040685816690635  0.1991044323383137  0.3967430300151451
  0.6031746098093731  0.4002734968158865  0.3965609110293133
  0.6050143518038121  0.4062900612790400  0.8045879457330061
  0.6056816596255029  0.8000729796444277  0.1976579913512759
  0.8029963072471116  0.0075353555330413  0.4050287980046366
  0.7940564440292666  0.9913872327763745  0.7946127533845453
  0.9893902340955929  0.0122873973422788  0.2099864943108510
  0.9998012277900720  0.0054141838994116  0.4095886909063462
  0.0071424237479323  0.2155848377655665  0.2111125351415173
  0.0013681632151480  0.2065197301623056  0.4021443900983422
  0.0027108360026178  0.2061476981163334  0.5998820920526314
  0.0025085934679179  0.4023208876163610  0.9982266290154644
  0.9959560942870626  0.3999429044924225  0.3983533710348517
  0.8121106264431934  0.5987956590162957  0.2059873678763370
  0.9957799811275203  0.5854781956003635  0.5932036306339149
  0.0088727271022305  0.8038029011284843  0.9996817281151060
  0.9825810482583541  0.7920078620241481  0.4047643413512902
  0.0016730995167935  0.8003358501641621  0.7995720369039823
  0.2009817003324103  0.0009031770669715  0.9986891998537591
  0.2068820563041731  0.0042129605275090  0.2045688125502845
  0.2084707553968214  0.2099328036611147  0.0028360845324337
  0.1929173104978917  0.2109874353820221  0.5956750915929524
  0.1992168405317354  0.3998966804091644  0.5998730953461319
  0.1962924771788844  0.4012854904280650  0.7960875327324620
  0.1981994465944505  0.5909188870881666  0.9952273661810804
  0.2025580847646129  0.5940563841687257  0.1826473683538236
  0.1918933673993553  0.5828908851582286  0.6003231022850385
  0.2073213217060243  0.5903486242051934  0.8013874391036903
  0.2102963530755857  0.8094292127496509  0.0006984496249302
  0.2074830559701641  0.7964041961738367  0.1821660411425478
  0.1712559944451590  0.7773224108495188  0.3772911617195785
  0.1898010344951891  0.7759933460343936  0.5973634516404653
  0.1912029480548827  0.7816143607080410  0.7924025173292840
  0.3986201152357440  0.9992317093368380  0.1988357246983948
  0.4181101163291482  0.0091407519427757  0.4015834190971248
  0.4129619894377745  0.0013652495198215  0.6204550306985427
  0.4133114648809171  0.0041390276997444  0.7932675647748210
  0.3982856153321123  0.1908010635924603  0.1936385657865726
  0.4049764956335228  0.1970113866115027  0.3907223422989222
  0.4235344330191238  0.2166575381030756  0.8150293385308457
  0.4090824268215649  0.4000056154654890  0.9983649828619835
  0.4059034220275330  0.4103038803076186  0.6054918807845923
  0.4018806456610909  0.4091834440742006  0.7994482720868004
  0.3972646295452040  0.6089370239574454  0.4100987585053010
  0.4068624523782165  0.5986209777340163  0.6114070848770888
  0.4059217802631878  0.7943867410120511  0.0113272953474143
  0.4001324544074106  0.8044025308679402  0.1996019242380745
  0.6050245822220089  0.0051760732103359  0.4067336785449448
  0.6044894769463174  0.0036256172513574  0.6029679292631317
  0.6168758360565870  0.2080763189837966  0.0075195623304808
  0.6117030715849193  0.2094283545394818  0.6092408104390957
  0.6092482295463379  0.2083035793637270  0.8097209941741531
  0.6176829198931818  0.4101240758969893  0.0153668529321157
  0.5997084406467761  0.3969719367446869  0.5944656755803025
  0.6106000203712908  0.6033989641056162  0.0023923790298571
  0.6132683354997842  0.5940812064406258  0.2039723145983822
  0.6082667631605327  0.6071348493259682  0.4110708888495714
  0.6011925478290676  0.5985347061532410  0.6021605084472409
  0.6057899359682932  0.8017301044998961  0.0013913648101732
  0.5920094069239671  0.7945050474355618  0.5985261860474883
  0.6105491215157586  0.7907753920591852  0.8053459855441465
  0.7937124853972227  0.0068456027934261  0.0103804399405030
  0.8065596485090260  0.0057935532572767  0.2047247076595853
  0.8029677817869612  0.0015460607708083  0.6023925021181038
  0.8077357238974978  0.2175758435998768  0.0124450329757611
  0.8065746028414065  0.2091848602327956  0.2058754941101999
  0.8131698051028469  0.2124666286758451  0.4092915855438960
  0.8027179417337361  0.2052188261459959  0.6005427157174158
  0.8071601083478339  0.4086852144058666  0.0057858992120974
  0.8112913382753272  0.4070289202356828  0.2082020454270703
  0.7999594184022134  0.3927881903007976  0.3976937661028700
  0.7990012881157982  0.3977766725053636  0.5980492714815546
  0.7861309848973437  0.5997337427676050  0.9968996941199817
  0.8007402634590596  0.8002599714331197  0.2028370923952958
  0.7968565058722360  0.5921887925657475  0.3991270688643878
  0.7991658108765578  0.5973817383399933  0.6028981016452805
  0.7981881731255902  0.8024018109224809  0.0022048274230990
  0.7984577614973601  0.7975220210692029  0.3997197841273331
  0.7955131241040619  0.7942807128617664  0.6005083753056462
  0.7947051626808932  0.7909796186183632  0.7956791880842541
  0.9887727239368964  0.9963421237469171  0.5862064002111527
  0.0026864685708389  0.3985820814565635  0.1959113756936114
  0.9987394919286394  0.3950749391238229  0.6000546203005983
  0.9981603018700163  0.3921230713038875  0.7945515555710548
  0.9846874489507681  0.5890601367877650  0.4125497115467586
  0.1974920797951518  0.9916078701537057  0.6101881061685359
  0.2080529761361519  0.1991292588554727  0.2007964504622532
  0.1989331316098933  0.3890564914080119  0.9891207460785398
  0.4036504389386559  0.5919978526498820  0.7982218679468306
  0.6247078800707953  0.0128227347594556  0.0150452704779573
  0.6151647198337932  0.2137059574024069  0.2057088924695861
  0.6160777560107329  0.4043609010983477  0.2031027739910783
  0.5993139283252973  0.6011142713783352  0.8001872258143532
  0.7998513657104489  0.3984326448671202  0.7973091804562100
  0.0024557336496735  0.2056014725082739  0.7996246645065760
  0.9889075523703793  0.7872128430824699  0.5943717444175645
  0.4125018676916270  0.2122033587324071  0.0026448120360179
  0.3990829626756702  0.8040694553852026  0.3952170807074435
  0.6104442695000631  0.0102018555458238  0.2057081832962346
  0.6087845384443703  0.8048928452285006  0.4079788024709443
  0.7999189551792339  0.2058579639092916  0.8028552655018729
  0.7972536697210995  0.5987475683328003  0.8015039431640700
