Zr Ti V  Cr W 
 1.0000000000000000
    15.5037299355992140    0.0053875915022060   -0.0049673339968089
     0.0053888447929185   15.4932120490820822    0.0008447035454455
    -0.0049676779853922    0.0008426987699688   15.5021949562625245
 Zr  Ti  V   Cr  W  
   5   2 106  10   1
Direct
  0.9871934499627785  0.6049167036453557  0.9888212271145023
  0.9997307972541396  0.8000884460061187  0.4001377629687838
  0.6057336119396004  0.3954312793984697  0.1833189603872234
  0.6352088600035241  0.5995187579646893  0.6384186343197450
  0.8033043844574476  0.5995990136384100  0.8046660955960729
  0.5974583484462727  0.0006795757644297  0.8047790061271417
  0.7799717735187458  0.3926667309859282  0.0048355259299990
  0.9985162576589620  0.0008356756017132  0.9987113067620542
  0.0006286105277664  0.0034428635330499  0.3997671617232398
  0.0009064584464169  0.0004127205558314  0.6005863330350667
  0.0003858925713037  0.0010968055051108  0.7995383298151917
  0.9988395711544630  0.1993018103446968  0.9991620940272574
  0.0007007010814395  0.1999711658308404  0.1989616804341798
  0.9996345962071074  0.2007293768638967  0.3987908365943905
  0.0006026604727030  0.1998855746558702  0.6002101956588720
  0.0006155682756177  0.1998022165539127  0.7994028648105550
  0.0038093406742887  0.3990850972172156  0.1985476935003066
  0.0025232890550362  0.3974939443759300  0.4013244064006744
  0.0015616967344265  0.3977364096670107  0.6009929202988192
  0.9990659954744545  0.3977445026990952  0.7989095301758875
  0.0006961164327559  0.5990973260085303  0.1979776079860300
  0.9971832867817281  0.5944502437826601  0.3972365510695918
  0.0079394434461990  0.5993341538067531  0.5979426633045493
  0.0071223554680724  0.5994166452101772  0.7909168605411232
  0.9981655820912240  0.8063727770977039  0.9981416664143119
  0.0005016054021221  0.8003288606537498  0.1943482427471885
  0.0014445721976289  0.8012054253400391  0.6046492192307675
  0.0002370670690104  0.8009224975292188  0.7994515946092008
  0.1980030594973705  0.9996464401903333  0.9999051612019657
  0.2002299375425722  0.9997057602231166  0.1999982542117146
  0.2007505554340102  0.0006352624978467  0.4001114475431914
  0.2000911997824492  0.9993426994919743  0.5993436317722213
  0.1996733438495646  0.9996835435785139  0.7995125552905906
  0.1998052573532275  0.1992523261098365  0.9991953433882805
  0.1993112646947768  0.1994491768599669  0.1997481889049492
  0.2009008081694973  0.2000843001344270  0.4000768847639957
  0.1994465581392438  0.2002643952321055  0.7992855430519300
  0.1961328147371025  0.4005285041322450  0.9993346118326711
  0.2006458158594393  0.3996250233229698  0.1995402567992309
  0.2013381113806538  0.4003005453606224  0.3995390065811644
  0.1985704042368184  0.6002795885979149  0.9998662932918296
  0.1987316027610619  0.6003491998304243  0.1998952637819360
  0.2004443597786953  0.5993767680852170  0.3997088724281543
  0.2029249961885606  0.6001751058993171  0.5982307732195941
  0.2006990826345547  0.5992461811711264  0.7999268986616782
  0.1995416683767625  0.8005456427382757  0.9991339722556982
  0.1999732582610640  0.8005580479825298  0.1987670834339947
  0.2044375264284818  0.7989607231478604  0.3997558708749577
  0.2005417348991629  0.7996104355244922  0.7999613049738595
  0.3995057748915974  0.9997045400155252  0.2005341772458497
  0.4006529342317919  0.0000428906997147  0.3995776821817805
  0.3994326629588549  0.0004085205575113  0.5995632799097782
  0.3975228478814419  0.9998178332154712  0.7993538277706820
  0.3964935176785095  0.2008878041551018  0.9995455043304919
  0.4009755438577332  0.2005261582366152  0.4009135084624540
  0.3997335967196272  0.1994887222955481  0.6001579579096570
  0.4017280846746524  0.2015287180314287  0.8012883324664373
  0.3951992859436467  0.3992303227812737  0.9991094152990825
  0.3967586148095125  0.4002763294242968  0.1997511526705000
  0.4007373341713837  0.3999257348722787  0.3991161040675055
  0.4002265419443991  0.3999038992903085  0.5996178648064057
  0.3979948399418127  0.4009360701925148  0.7980783535996659
  0.3963148997725586  0.5997103456176659  0.0020317920079329
  0.4041568140571284  0.5993075816787500  0.4018921487072629
  0.4003601643551188  0.5999376828377048  0.5993122196311738
  0.3989348782035483  0.5995656974498936  0.8000167719311430
  0.3995638150861195  0.7989915634947827  0.9997728652296481
  0.3990396445190457  0.7999942593380400  0.2000642896898649
  0.4015250165861419  0.7987534103641307  0.4007844469073052
  0.4017915054813220  0.7995505643765974  0.6004453466503752
  0.3992816006461218  0.7996099380637585  0.7999876781199696
  0.5995925100194203  0.9970048111512021  0.0014740232403344
  0.5997439201126089  0.9989668037700743  0.1996154242775401
  0.6009026436202745  0.9988307900460552  0.4005120317757463
  0.6013775562925009  0.9993243773121343  0.5989730460932557
  0.4330467802113656  0.0342512431958882  0.0004204698378307
  0.5996184100482120  0.1934047019254536  0.2027795946442237
  0.6010562243368655  0.1998611369712593  0.3994671589611271
  0.6013578195829813  0.1990301796474868  0.6009025462911538
  0.6009312663667633  0.2014838143370257  0.7976532474354484
  0.5894459176367612  0.3975949261112086  0.9874241390324040
  0.6000800802293985  0.4002371386188263  0.4002130031535561
  0.5999553596570235  0.3962500274759027  0.5974926016487517
  0.5977492739547852  0.4020712649283237  0.7941405760922002
  0.5949329089610615  0.5993567892679611  0.0077707793133117
  0.5978666363030662  0.6039543993201015  0.2023710357634025
  0.6056395434950435  0.5988261302559222  0.3972055863931250
  0.5925702447536162  0.6011980438704443  0.8207990270709558
  0.5980576956211894  0.8002534465599420  0.9998553573040209
  0.5992212657045396  0.8006843005597916  0.1988143834542218
  0.5981490143331675  0.7993289824112734  0.4017471924521208
  0.5996429900728516  0.8033197719493639  0.6014769518962169
  0.5994236991095925  0.7964868187980974  0.8007963402004790
  0.7978700534975287  0.0018067753544231  0.0012854711575618
  0.8007193305192019  0.9990046877069383  0.2010220712219661
  0.8001511357529567  0.9988852878685990  0.3992393293200964
  0.8015807760002682  0.9994855296142851  0.5989728058133008
  0.8016424135889437  0.0004182007600875  0.7996180614430987
  0.8001361708393763  0.1977809651600121  0.0000635320700416
  0.8017610794192520  0.1994698606061326  0.2003889841959615
  0.8000315115553829  0.2008979173580519  0.4012092658292417
  0.8011083773236066  0.1988056298478911  0.5987875595203931
  0.8015281135434505  0.4039127968029982  0.4024494757838822
  0.8019185155703550  0.4001508220337718  0.6010354360815454
  0.7983170349549559  0.3949436389484748  0.7994118389752555
  0.7887765653707519  0.6007112088062210  0.0107371361816300
  0.8032181555499958  0.5997380885462325  0.2076741490530881
  0.8189214917455896  0.6004886102575575  0.5918016308289586
  0.7961965411164251  0.8004943331260699  0.0002564841318195
  0.7998725029084233  0.8012091250446803  0.1998575373713181
  0.7944795171806973  0.7950491908483354  0.4001832669126977
  0.7997342880271794  0.7995225352424935  0.6022454309375374
  0.8001746351325402  0.8048972405685185  0.8009497253283580
  0.9999701028694732  0.0014068967906984  0.1985065073663758
  0.9990545625325353  0.3955809226190208  0.9993706813252481
  0.2005249155732473  0.1996622612437823  0.5997603073455903
  0.2003227313940535  0.3989809027860585  0.6001180769839637
  0.1995397854585599  0.3996162944524382  0.7992415053095628
  0.2018628318444976  0.8003529495058019  0.6010996374437465
  0.3995822975320800  0.1993311439436129  0.2001001641721497
  0.3988849703020578  0.5998552337150331  0.2014044176704631
  0.8005675968988342  0.1992477637570376  0.7991133057945631
  0.8096203030880753  0.3992692163139426  0.2065391850769832
  0.7995653820736658  0.6003852591791744  0.4031348043062067
