Zr2 Ta1 Ti3 V111 Cr3 W5
1.0
  -7.5249999999999995    7.5249999999999995    7.5249999999999995
   7.5249999999999995   -7.5249999999999995    7.5249999999999995
   7.5249999999999995    7.5249999999999995   -7.5249999999999995
Zr Ta Ti V Cr W
2 1 3 111 3 5
direct
   0.4018549499198465    0.0005608827886713    0.1986758782104697 Zr
   0.9968475492505366    0.3914691965422565    0.9947562915221859 Zr
   0.7996143330327851    0.5999072674325101    0.7973948130129025 Ta
   0.8010102660890450    0.9997078635983394    0.0007004678708695 Ti
   0.8001368786387455    0.9996889552057679    0.6010194880646118 Ti
   0.9958634307904825    0.3972952936691247    0.2004587448287447 Ti
   0.6017719032764282    0.9992532930254006    0.9947718968436572 V
   0.7979878538105624    0.1994985588559119    0.9983599327352622 V
   0.7979150499454899    0.0033950646719282    0.1996599398267307 V
   0.3991213819906260    0.9989746284170543    0.9968010383497088 V
   0.6056663651027920    0.2047977795746141    0.0055944822175007 V
   0.8012797592597907    0.3991054139417194    0.0014368879853500 V
   0.8006739909315310    0.1990359175577864    0.1977547211210674 V
   0.8026082182571304    0.0015967021088059    0.4005706682744190 V
   0.2008809162026259    0.9975336147891949    0.9991596120305897 V
   0.3984254042343359    0.1980369896067923    0.9983047086110646 V
   0.5923676417669272    0.3999151159821352    0.9959512816984493 V
   0.8024535139893219    0.5996537487808408    0.9935365117161805 V
   0.7984079111012065    0.4007220654814060    0.2030436672674444 V
   0.5978144912036583    0.0038286845945279    0.3968509643017685 V
   0.8009216608890037    0.2019273879927725    0.4002912280959142 V
   0.0016127571334101    0.9969931690616098    0.9985958042178437 V
   0.1963513676855524    0.2028476986856340    0.0042703906982158 V
   0.4022948047033619    0.3988615853194302    0.0004053345694032 V
   0.7982510830201696    0.7986673768748787    0.0036196687929611 V
   0.1983334850870751    0.9971558799220301    0.1991674110617412 V
   0.4015630846161339    0.2060813730947477    0.2038524700752674 V
   0.5979373554348348    0.3982005433518637    0.1956358111370180 V
   0.7989211448551141    0.5998601582312146    0.1987978465868285 V
   0.4032166278510435    0.0045688121943283    0.4043792454277528 V
   0.6014248908263999    0.2067010173682418    0.4005611969833825 V
   0.7995404616871855    0.3980743082017661    0.4035893006172758 V
   0.6027594878535246    0.0038061459947072    0.6049420501294830 V
   0.8032916393772324    0.2061526460429061    0.6010886852613072 V
   0.8018265292303491    0.0024514791889479    0.7992821436882158 V
   0.9997874331110850    0.1985434191134529    0.9993603999949592 V
   0.2040739299136853    0.4016666089200195    0.9988195611310838 V
   0.4013487580936086    0.5971190258605933    0.0004115455436701 V
   0.0001148062629077    0.9957657759378556    0.1987888083358394 V
   0.1971544696482990    0.1953014148587003    0.1966495273221071 V
   0.4017172939963500    0.3994771520981009    0.2002111063679306 V
   0.6010008791634018    0.5951213491396719    0.2022108839782108 V
   0.8042407803850731    0.7957084372941734    0.2019927355647078 V
   0.1978583156284209    0.9924814092021087    0.3931943979755363 V
   0.4035811115701143    0.2040693534839486    0.4005176281189196 V
   0.5934968985098175    0.3967291370418635    0.3936854954711853 V
   0.8034612351722158    0.6014102724649745    0.4033573068922149 V
   0.3932367937786152    0.9971317025447174    0.5930838826190699 V
   0.6048610757748827    0.1989497626807205    0.5984160014443755 V
   0.8004179854539852    0.3945480801172298    0.6020919466458600 V
   0.8006915538833417    0.2001901920166335    0.7943676451903279 V
   0.2008343446886451    0.6001452285479432    0.0010285119820683 V
   0.4052421085910221    0.8024440776013914    0.0047481638204021 V
   0.9957832580509092    0.1968955312223810    0.1961633270231913 V
   0.2012615258199678    0.3998750465780569    0.2010597968462400 V
   0.4020230252785674    0.6023493023289033    0.1976480727893769 V
   0.5981341211560673    0.7978204650887345    0.2045617197765336 V
   0.0068241307975211    0.0006359164886401    0.4042027280407779 V
   0.1994792987181827    0.2005323520688989    0.4012350993094199 V
   0.3930577650735174    0.4011335929060069    0.4000775528774921 V
   0.5992451183424788    0.5981624751575172    0.3977110808326303 V
   0.8032433952302822    0.8008266756830003    0.3990596849124370 V
   0.2010445161653870    0.9995560119206452    0.6003020585472464 V
   0.3973530343824112    0.1918440903549729    0.5956712068641160 V
   0.6007790553659013    0.3981109531072490    0.6003761151294130 V
   0.8065672788636288    0.6000731614814117    0.5992227103359383 V
   0.4023757284511371    0.9967424346870628    0.8047755017155496 V
   0.6002723972195978    0.2008679562987402    0.7946452998105800 V
   0.8020636117698141    0.3990059852621074    0.8003750190155219 V
   0.0006203063713976    0.6045780444122273    0.0006491637620537 V
   0.1994657739728894    0.8038547823591444    0.0021077463662543 V
   0.1996463824764930    0.5987236811277037    0.1994117815244412 V
   0.4002977919108134    0.8013689643758494    0.2015009388717038 V
   0.0019312346597166    0.2006234890166740    0.4015995471044695 V
   0.3988987098494821    0.5988538697771243    0.3978015355720296 V
   0.0075175513179756    0.0001217600007023    0.6050108571052918 V
   0.1988121618799742    0.2015876300774458    0.5994612080393603 V
   0.4034447223441807    0.4063905751152320    0.6018783880852119 V
   0.5995454101268440    0.5988501400643917    0.6021346746390290 V
   0.7989102707204514    0.8004693199587187    0.5989394789274030 V
   0.1974097026438419    0.0026612621210905    0.8013529783248499 V
   0.4013957676245157    0.2006152868365469    0.8013954264432752 V
   0.5996560210676858    0.3990537149312943    0.7999716737640314 V
   0.9996369498476543    0.7974384355974249    0.9989986212285422 V
   0.0043091740653812    0.6034878713913349    0.2041930370725773 V
   0.2049790489494050    0.8077509548227939    0.2018488718288449 V
   0.9977931878150152    0.3997870740338691    0.3979922000048434 V
   0.2009128483697928    0.5981783631612807    0.3985280847991870 V
   0.3971230957657716    0.7928566798273462    0.3971642286501135 V
   0.9995996337374692    0.2013035272333752    0.5997845820859896 V
   0.1997614583456135    0.4024177720701678    0.6007345180126511 V
   0.4007899819815962    0.6045990618552729    0.6034194838807811 V
   0.6032132588110951    0.8012939449996080    0.6085769805095905 V
   0.0003055631792629    0.0024121803226429    0.8031795743910913 V
   0.3911341778746629    0.3955014215456115    0.7968201991787287 V
   0.6040606534238546    0.6019011762206778    0.7959422905899440 V
   0.8040260696892889    0.8045569527118097    0.8020003043511379 V
   0.9997118590526133    0.8025321861503651    0.2059609134900583 V
   0.0051002146176214    0.6025334358832699    0.4010034236846075 V
   0.2013650093030375    0.7996385847228823    0.3971936255687212 V
   0.0065628194170215    0.3998075934803111    0.6038795779620010 V
   0.1951440887388647    0.5929320612996934    0.5996602599078990 V
   0.4002685190165367    0.7954143315128421    0.5949560215624421 V
   0.0013761023042397    0.2019087591141440    0.7999235935167469 V
   0.2025828533974124    0.4086568158682060    0.8050840751630453 V
   0.3932360834664392    0.5996963174266338    0.8012510404966446 V
   0.5991127583536722    0.8033070085452190    0.8023023313850507 V
   0.9955536336914732    0.7936816418830727    0.3921426520917516 V
   0.9968141442727089    0.5981290173146808    0.5962798111674043 V
   0.1978439591116641    0.7970550832966584    0.5930761290208457 V
   0.9994934154536685    0.3944462860422343    0.7974750567577001 V
   0.2020513007008308    0.6017178287590184    0.8020564971602991 V
   0.4004345320170191    0.7990109337146043    0.8009188290901126 V
   0.0001316708133777    0.8018864410986908    0.6044285706045763 V
   0.0041455009376170    0.6032390996512158    0.8062992540754801 V
   0.2047506219297621    0.8003274300407532    0.7978008096807054 V
   0.9986317588335251    0.7991560004297780    0.8023250497574607 V
   0.5987093964472824    0.0000882592000584    0.1970298783432217 Cr
   0.6007118783312690    0.2042190975598045    0.2021175793850731 Cr
   0.5993466448291702    0.9972126597242844    0.8027696455276750 Cr
   0.5956991163985842    0.6034552192341501    0.0005054920374454 W
   0.5946169074886078    0.8020351938018109    0.9995621663887682 W
   0.2030541935047596    0.4054739773359777    0.4054499721654475 W
   0.6041815041086652    0.8057621602740361    0.4019024797710616 W
   0.2044247390974063    0.2035400905615661    0.8021374070880414 W
