Zr Ti V  W 
 1.0000000000000000
    15.3704372863088707    0.0041087699184726    0.0045828320708022
     0.0041071823098185   15.3593176205705255    0.0049868964281650
     0.0045832368054306    0.0049883200619353   15.3853693029952101
 Zr  Ti  V   W  
   1   2 107  14
Direct
  0.7912198048955317  0.4020967930485513  0.8094840640281603
  0.4089447251449185  0.7975306393931119  0.8041838694914556
  0.6127076847151615  0.4014721237861684  0.9886022288774979
  0.1626792423930546  0.9976745283286519  0.1622808191877729
  0.9944594678855582  0.0018223608390027  0.2044213626503133
  0.9995619181861503  0.9967905838828988  0.4002888722276639
  0.9945820897037042  0.0001111633719921  0.6014278956242231
  0.0032841176498559  0.9986430991789439  0.7978237900735774
  0.0004490754204563  0.2007623949843961  0.0015084696576484
  0.0011514176411996  0.2018707359320596  0.2021493033656930
  0.0006485968877976  0.2002975802126924  0.4009598088141715
  0.0032039137450965  0.2011645949192846  0.5987279623802700
  0.9999088094316474  0.1999231595674417  0.8024798631096070
  0.0039004989158362  0.3988124874410012  0.0062850064573508
  0.9985511199905716  0.4011076523008243  0.3970988332605467
  0.9976349347928577  0.3999517585510918  0.5999758974326447
  0.9992960970856689  0.4010089116300353  0.8025732312307445
  0.9983049607429314  0.6051597280130844  0.0003079078026279
  0.0039887935759133  0.5960354260292220  0.2012297238125847
  0.9996496663043684  0.6024492370416253  0.4025308098763032
  0.9995793406450950  0.5992938392155406  0.6012730954082873
  0.0028571474755350  0.6005474380465449  0.7998958573074431
  0.0037286290298277  0.8001571150992610  0.2026256721014588
  0.9994828554876696  0.7991870676182047  0.5945427284962765
  0.9999410109807444  0.7996348080694738  0.8051204179500976
  0.2026991054586163  0.0018415070628057  0.9938543473925744
  0.1983697038914909  0.9988727103488667  0.4029775007717546
  0.1986952611026306  0.0027568061016570  0.6054882930280551
  0.2000715379012299  0.2029232231313917  0.9990960932391459
  0.2004045985171593  0.1993272650244057  0.2003570219561788
  0.2026509535419577  0.1986081364983611  0.4031181968942132
  0.2013957688915181  0.1960777793858382  0.7959069982074602
  0.1963021436501136  0.4045110635076264  0.1954326154958122
  0.1995488241377272  0.4014452912063760  0.3993202243795962
  0.1979831556255585  0.3967174721013644  0.6008089411776960
  0.1978448857414649  0.4046722062184813  0.8047157381680160
  0.2011129199076300  0.5963699584456622  0.9966713788767952
  0.2010079758671534  0.5994382949767160  0.3988196853351030
  0.1997573279600628  0.5990241323983527  0.6048277709824261
  0.1970598287390189  0.8008488776514304  0.0028235223933128
  0.1964076617636856  0.8006919549483426  0.3972236986185099
  0.1997729343827455  0.8002265152218623  0.5990611986012149
  0.1989539985324833  0.7988574358938872  0.8002407896498891
  0.4000567963174494  0.0010726059491884  0.9997801204940745
  0.4005656934566615  0.9964019190675522  0.1993272369087243
  0.4002116021201877  0.0023629447298147  0.3991736086713834
  0.4006773326968155  0.9986080854964587  0.5994721219635119
  0.3971726592013527  0.0005361913202321  0.7998350809911062
  0.4017562078257605  0.2009929010935108  0.0020706007111778
  0.3981097906232214  0.1976445281781055  0.2036385865105143
  0.3964281976950403  0.2002814728490864  0.5948449091348139
  0.4002294674927636  0.2003956051190692  0.7987635208059340
  0.3958483239919826  0.3983865900430847  0.0002224045934347
  0.4017398996179166  0.4009083355455651  0.1982250698990272
  0.4001248558953951  0.3967631655088686  0.3975705305429982
  0.3991548438704147  0.3997567335768476  0.5979566574494125
  0.3965621966412778  0.3992325121552103  0.7993938381282448
  0.4015894406376571  0.5992029777195734  0.9991245802761892
  0.3971335134044838  0.6031013787657467  0.2005766236222052
  0.4001710660570955  0.5987433596090548  0.4005160780192670
  0.3984035674397666  0.5996879068241344  0.5984507608313413
  0.3957731890432457  0.5992004579155906  0.7995124445367999
  0.4023801928160604  0.8006253077074104  0.0072693920012872
  0.4015379028382390  0.8012589096909749  0.3960804539629491
  0.4003227578168062  0.8007174514582557  0.5933871601876116
  0.6000350807100170  0.0004150517206993  0.9970500845663912
  0.6026230621324296  0.9996914562455176  0.1981574773996812
  0.5993666310846237  0.0002316805913078  0.4004619472333430
  0.6020343292554121  0.0007768128716575  0.6022249156865301
  0.5973311542311514  0.9989943342911889  0.8001021039344659
  0.5992076694703674  0.1998148461290720  0.9989802649403938
  0.5980973704515357  0.2023333178476692  0.1987477176791929
  0.5947638316918845  0.2013536077455992  0.4008270749208187
  0.5979490808584833  0.2009570354241606  0.6005464771648528
  0.5973393957901340  0.2010408692330463  0.7997088300529579
  0.6019659029511524  0.4012665228236361  0.1991083845774532
  0.6010526057455134  0.4010726411406762  0.3984290393985268
  0.5996482529032329  0.4005528192456111  0.5989585044604441
  0.5896754788422930  0.4012737563113261  0.7942289975149609
  0.5999090250466825  0.6010782122071238  0.9982759572261539
  0.5977127763873714  0.5986241672979145  0.1980479334641723
  0.5993009530484125  0.5990603552084059  0.4016804318362698
  0.5983553902486560  0.6000237152012882  0.6017419899366451
  0.5953405725735019  0.6011248616688986  0.7998209751539818
  0.6009384865200690  0.7990062304963804  0.9997092047093689
  0.5951943839380540  0.7988320267703284  0.1995933918731748
  0.6032366537199702  0.7982792568858111  0.3987629825414670
  0.5995552343658153  0.7995414482915247  0.5994593294250650
  0.6030010367451101  0.7996123056917250  0.8002274961070467
  0.7961624681060931  0.9998902239758773  0.0031222149383490
  0.7981198462262347  0.9969038750942905  0.4024748744886397
  0.8013940646880389  0.9991364540522006  0.7988604609032214
  0.8007239555110710  0.1982676314015954  0.0016120691766845
  0.7983724356241141  0.1962649226622527  0.2027364952770046
  0.7980091626446989  0.1986416102509563  0.4015752243540640
  0.7994095669483627  0.1964738434191862  0.6006564351735250
  0.8000708491309797  0.1956469396787694  0.8010200136089973
  0.8077172727846461  0.3999920896094660  0.0106027027799629
  0.8040323406591107  0.3997756886303943  0.2045641217452829
  0.7996651814475203  0.4001780707389510  0.4016505458981257
  0.7992608806176061  0.3989255665625290  0.5990375020234119
  0.7992392549982946  0.6009256488140975  0.0013086717299331
  0.7980158738971007  0.6009740411720303  0.2011242430433608
  0.7982941953199905  0.6047277311062450  0.4015746207840042
  0.7986116989497063  0.6001184190625918  0.6027490542285844
  0.7992573150426536  0.6065996400653362  0.7994797312396519
  0.8025008972972263  0.8016586369523319  0.0031191691836121
  0.7984130544959269  0.8033312895811814  0.2051045358904932
  0.7999464383740038  0.8050487772377607  0.5965062513451620
  0.8010988094686585  0.8016755937692533  0.8002392289454343
  0.0007750773257782  0.4013026927774287  0.2023029734572450
  0.9980102685550392  0.7960032276926854  0.0045813593347655
  0.9980073728091621  0.7984345292973036  0.3992848631903273
  0.1995297545331460  0.9972140602798891  0.8001372325674435
  0.1995427313238061  0.2004325683185691  0.6007626231929400
  0.1999993705002177  0.4007948415371922  0.9996962562640415
  0.2016903375219782  0.6022882990387994  0.1973413003812270
  0.2006098928966596  0.6013232389270106  0.8002165082400000
  0.2014262421168783  0.7941759180370878  0.1993674599558619
  0.3989442349984541  0.1994424440363785  0.3986439704761560
  0.3960993640042280  0.8006068379262479  0.2019202537147367
  0.7990202918563957  0.0007184625334129  0.1993461743065471
  0.7983666374173460  0.0008382326070154  0.6011156286721190
  0.8031520187043580  0.8008383886308631  0.3996882438195468
