Zr Ti V  W 
 1.0000000000000000
    14.7023452532330552    0.0237783375502967    0.2315192923699690
     0.0241982248515422   14.7074201775426001   -0.0605842555623097
     0.2331321936151810   -0.0600610701327576   14.4279158641059908
 Zr  Ti  V   W  
   2   2 106  14
Selective dynamics
Cartesian
  3.0622916847385424  6.0731895306011250  8.5373420975776799   F   F   F
  9.1395282575858641 15.0136946274774790  9.1981951749067576   F   F   F
 10.0451445737241709 10.2005961180670397 11.8900136162323857   F   F   F
 12.2510477273336047 11.5460818095459832 11.7918793929781600   F   F   F
 14.4870705904822916 15.4922940922343333 13.7921107601899973   F   F   F
  0.0649329280810641 14.8224310901748026  2.7182123909214191   F   F   F
 13.4538578791141248 14.7424434213499662  6.5977573545353323   F   F   F
 -0.3989060386537182 14.1981307109432233 10.7987568984519271   F   F   F
 13.9867877134566463  3.0494534460453329  0.6312045674906230   F   F   F
 15.1397035154923145  3.8986672409528502  2.9189944670261210   F   F   F
 -1.9027959129513417  3.1691900769086048  2.9464856027732544   F   F   F
 15.5102949345099752  3.3416477744385120  8.5127867126724510   F   F   F
  0.3072818962610357  2.4052548341644933 11.2182524536852544   F   F   F
  0.8101233692984379  5.4691422597732222 15.0353779102980969   F   F   F
 13.7382165187833358  6.3584377110671486  2.9497630496950369   F   F   F
  0.4216654519253236  5.1606972788544532  4.9037098001961335   F   F   F
 -0.5490048663732185  5.6112403378519469  9.7699618721865118   F   F   F
  1.0380089547828806  6.0844605777008844 11.5920499994139412   F   F   F
 14.6494141993228322  8.1427497914885461 14.9299669643697417   F   F   F
 14.7874442421607117  9.0880844674054071  2.9556618980906197   F   F   F
 15.1531599755627706 10.0634850553137394  5.7192327399370706   F   F   F
  0.1134403349188910  8.4989196041637065  8.9960786196812172   F   F   F
  0.4098782951009471  9.5575131913730100 12.6844593833039170   F   F   F
 -0.1564635550278530 12.8861720744356205 14.0360283853839451   F   F   F
 13.8454216893645299 11.1946093397625130  1.5085450736018275   F   F   F
 14.5295843885289582 12.0885826690863567  5.2329504790186325   F   F   F
 14.8128301888013816 12.2872335911845436  8.9663665178127996   F   F   F
 15.7224365999630855 11.6489084207793177 11.0636526475881514   F   F   F
  1.6099021301580929 14.9509166241938694  6.0765370892212722   F   F   F
  3.0755365312229563 14.5601607704068812 11.6731338161538787   F   F   F
  2.8214250504108418  2.2353287305330514  0.0025374433351342   F   F   F
  3.4413111624383550  1.4594065850872169  2.4051582567396625   F   F   F
  4.2615613536014259  2.9249311259060264  6.5819955444568077   F   F   F
  2.9680150396150817  2.2131634582667843  8.8565882787252761   F   F   F
  3.3815787903258188  3.4462359903871183 10.8309310784926112   F   F   F
  3.1243683295064408  5.0048968054820184 -0.0868610862620545   F   F   F
  3.9605439164035960  5.0678211655574668  2.1951971852332406   F   F   F
  2.9691534234716124  5.3227964504074183  5.6813521887473977   F   F   F
  4.0848966292933246  5.4168714633750321 12.1465670457487498   F   F   F
  3.3347618964194812  8.2014688603101202  0.0470869252141252   F   F   F
  2.9039191519212380  8.8565537775378864  2.4827110780979336   F   F   F
  2.7549368751390406  8.9561861434715890  6.3263301746284473   F   F   F
  2.3129297558785522  9.0138881358309781  8.8511320792495631   F   F   F
  3.3709886246960141  8.8794385815948615 10.7788669088416142   F   F   F
  2.4912165303044045 11.9640703220999605 -0.1845743129783458   F   F   F
  3.0673101873345860 11.2669593041282496  3.4165994753629150   F   F   F
  3.2493371927556742 12.6119807969803013  6.2014085691350198   F   F   F
  3.9865865602017054 11.7652746838271103  8.4368752679778432   F   F   F
  3.7976272844544243 12.5773936190737050 11.3558240789198646   F   F   F
  5.5288334936469168 -0.5368652428951244 -0.3492642169392082   F   F   F
  5.6859582522443777 14.9452099450097755  3.0875301557984973   F   F   F
  6.3595446643475713 14.3824235834228809  6.7741473327982389   F   F   F
  5.2530828861987944 -0.3286751261957929  8.5700553808920699   F   F   F
  6.7775397873109338  0.1687537887526106 12.0452196884063643   F   F   F
  6.3542475646959709  2.9483654679727236  0.1983375530522385   F   F   F
  5.2679596483451556  2.7209984555599784  3.8718305391611998   F   F   F
  6.6686768725087129  3.4811503839352209  5.6481275060417442   F   F   F
  6.7004790163618004  2.7846375048711858  9.3753215312450173   F   F   F
  5.7046073526344196  2.2740592048325157 11.5763966529918427   F   F   F
  6.5460246351222366  6.5340354133785175  0.2410691571128404   F   F   F
  5.1832049814658347  6.3189083048695744  5.5619655727072956   F   F   F
  6.8382722153153042  6.1904425429918719  8.1253031526996633   F   F   F
  5.9531368506096571  6.0023129578369598 10.7222367748417895   F   F   F
  7.1257973852769307  9.4399728371965814 15.0974748736743010   F   F   F
  5.2267063748752038  8.3503374714099898  3.1764456513903929   F   F   F
  6.5565520053173874  8.8880395056467378  5.7896922036094809   F   F   F
  6.0917590065164395  8.6429752658709713  8.2773984688608078   F   F   F
  6.5929741841287184  9.2964270862226446 12.3724996116909409   F   F   F
  6.5082083365179955 12.1605733079241052 14.5401715177538797   F   F   F
  5.1146448589730449 12.2255798602742782  2.6018472997958213   F   F   F
  5.6129314938708026 11.5383420082494812  5.9541123955563640   F   F   F
  5.1534583201918602 11.5345353370101531 10.9647862809411514   F   F   F
  9.0874711721688257  0.6729806586975895 -0.2225890524853849   F   F   F
  7.7400402509193471 13.8877837686162380  1.8322120074337735   F   F   F
  9.7152907257601679 14.4534864474912421  5.0272082819625306   F   F   F
  8.9081105651703805  2.5602485451159387  2.8892723747786140   F   F   F
  9.1225580593662237  2.2529421715127893  6.4695055472338261   F   F   F
 10.2973255292299157  3.7428423953291770  9.8651966114216982   F   F   F
  9.4733153881120611  2.7206635740310383 11.8849664698517969   F   F   F
  8.5428594307127206  5.9299734597889522 15.5257169045387844   F   F   F
  8.4856363819205090  6.6077420428391163  3.5101141098176956   F   F   F
  8.7127473217106512  5.0706679720790877  5.5417363218143540   F   F   F
  9.1996910067523885  5.4649229353350961  8.5442321013220450   F   F   F
  9.2118056411122637  6.7532795211888983 11.9269516437552561   F   F   F
  9.7417171638174498  8.7202382728126917 15.0712658983514576   F   F   F
  9.2264700462862415  8.8998197018577123  5.2001350030166149   F   F   F
  8.6641431607695125  9.3550410920614731  9.3610557679952784   F   F   F
  8.9596336273051467 12.8558175139504467 -0.4965737041961987   F   F   F
  9.0385629209146572 11.8968550606730616  2.4150223338538908   F   F   F
  8.1373124926013993 11.2082449578656007  6.1216231631046449   F   F   F
 10.0044281572183138 11.7139849577328476  9.3303164712714182   F   F   F
  7.6477265426534142 12.4474731898485089 10.9064977052817564   F   F   F
 11.5684930642657360 -0.3990321813482459 -0.3286388914369655   F   F   F
 11.2844993308129506 -0.0577134275108868  1.6870334099703521   F   F   F
 10.8421388776929088 14.5694020864159679  6.9817664243211262   F   F   F
 11.9183273231100948 15.2636143158820996 11.7647321504500404   F   F   F
 11.7126480468750795  1.8840212773118734  5.1979370228962161   F   F   F
 11.8068222753513226  2.7914343571003566  8.9402689056819575   F   F   F
 13.0925592482195157  2.7601340800010283 12.3961203512720495   F   F   F
 11.9890592803410545  5.8030694946094936 14.2037090257967069   F   F   F
 11.1039170795741757  5.4754721033091709  3.6443488412765919   F   F   F
 11.0139423364361697  5.5057910442992508  6.4708250870979320   F   F   F
 11.8181354385079427  6.4508495006119952  9.2773448236237535   F   F   F
 12.4162997489618743  5.0378510728881487 11.8398714269159182   F   F   F
 11.0969760880866080  8.9441334605128642  1.9006137247431709   F   F   F
 12.8600957603726673  9.3060035678914854  7.0069622202996094   F   F   F
 12.6483217974709579  7.9049880023738437 11.2184174858328269   F   F   F
 11.5066197300406348 11.7689309020714497  2.9302276119503934   F   F   F
 10.9908106270495960 10.8458451733736467  5.5468279538727296   F   F   F
 12.4101689430203947 11.4312839822746710  8.1529964201629426   F   F   F
 14.8320559384314876 15.4565192882045856  8.7457140937153461   F   F   F
  2.4627328849330117 14.2806459974874471 15.0365971682565771   F   F   F
  2.6952264930807526 -0.8613918550329135  3.7064950064884137   F   F   F
  2.2810697947630851 13.7362550686966358  8.9315958193533653   F   F   F
  6.3774205370811723  5.1984413049988198  3.1010061448952282   F   F   F
  6.9243842955698254 11.9263362443382697  8.4536804966381514   F   F   F
  9.8383437759604266 13.8204155842472129 11.6693718185455193   F   F   F
  8.8929373927043027  3.7972651082974220 14.0667173268833476   F   F   F
  7.5164952301354084  9.7186801888054770  3.4506172822642398   F   F   F
 12.1456308414326966 -0.7955992550717219  9.3831738476517010   F   F   F
 11.2027888315961537  2.2857461115827329 -0.1231604739024025   F   F   F
 12.2616869062789764  9.2999736039768823 13.5026193167285342   F   F   F
 11.3287728463381701  9.3900021230123052  9.4950404687262946   F   F   F
 11.5867129530435538 11.6255414952873775 14.6785189065871915   F   F   F
