Zr Ti V  Cr W 
 1.0000000000000000
    14.8607762245947352    0.0368099038226079    0.0135390794232162
     0.0369573045606176   14.9831054243206374   -0.0002793149517020
     0.0136808288630833   -0.0005153884747992   14.9072680883861910
 Zr  Ti  V   Cr  W  
   2   2 107   6   7
Selective dynamics
Cartesian
  8.8809784521522843 11.6937525155918198 11.8982508071151951   F   F   F
 11.9946021026830483 12.2095011625578937  5.7530025177954869   F   F   F
 15.2117877868252229  6.1591284398388648  0.5508981403442891   F   F   F
 14.9755955415340107 12.1319978839633222 12.1630964411061360   F   F   F
 13.9785850648623331 14.0635180017628940  0.4020920946947695   F   F   F
 -0.5166498408391831 -0.0638935350927648  5.8100744082929427   F   F   F
 15.5150246036442834 14.8157459358586863  9.5480179621883643   F   F   F
 15.2746498846429155  0.7952094680537987 11.9918879773576688   F   F   F
 14.6543195513099871  2.7728833802871660 -0.0413430882261806   F   F   F
 -0.3650196092698739  2.6895375809980635  3.5837863424239256   F   F   F
 14.7302149942668379  3.6922161080818214  6.2115884975402755   F   F   F
 14.5501443750596291  2.4492342305238965  8.5952003167726474   F   F   F
 15.5439893187477534  3.1443098813182151 11.2440749977276830   F   F   F
 16.0717047206442558  4.7594996034013901  2.7839353778526097   F   F   F
 -0.3828637672415387  6.2088321385718839  5.3958133169464872   F   F   F
  0.2720389524630730  5.9863796083838841  9.0864282530839322   F   F   F
 -1.4706203506967319  6.1236706679284820 12.4486920053477927   F   F   F
 -0.7679969290185379  9.2371150737897860 14.3184498469179911   F   F   F
 14.4691162386872705 12.5231568642211304  2.9357098382328957   F   F   F
 14.9523166840782977  9.8275625256157717  5.7477749899103010   F   F   F
 -0.2182323261833250  9.5619515639166117  9.4653676754774843   F   F   F
 15.1613734616397426  8.2277492520439051 12.1483514235875028   F   F   F
 15.1818885017719367 11.8933270185948725  0.0845504848120867   F   F   F
  0.8327011505637992 11.6418336430023519  6.4814821676649492   F   F   F
 -0.5111278332300169 12.2110198171767692  8.4382943299089455   F   F   F
  2.7099381289003395 15.4297625735305726  0.3063262658257421   F   F   F
  2.6644597948577866 14.5384318737140159  3.7752073516810620   F   F   F
  3.0461240010148471 -0.4631054516627246  6.8774448585684356   F   F   F
  3.2907703102470989  1.3285044288642402  9.3119217307394209   F   F   F
  3.0506881899990441 14.4100424151757984 12.4058434378760083   F   F   F
  2.3336846300032468  1.8111358215169460  2.9099157142029219   F   F   F
  4.0948552801857723  1.9405809705373451  6.2441627750498334   F   F   F
  3.1551435510088517  3.5663398760913112  8.5952916598182796   F   F   F
  3.0110458407877392  3.2479427080876162 12.7166068048805769   F   F   F
  3.0609249773294565  5.6117244038282292 -0.2289033019929755   F   F   F
  3.5979762762327328  5.7514423797874130  2.3141914956917842   F   F   F
  2.5395334091291009  6.3085014990633885  6.1200443514849239   F   F   F
  3.4114811040282453  5.7627326139696198 11.1261919318411753   F   F   F
  3.6875900391078171  9.9120192017561859  0.2883968743369139   F   F   F
  2.4865622256652995  9.6013160433184108  2.7808361144388463   F   F   F
  3.9060702034626771  9.8498836112834134  5.2514669007263626   F   F   F
  2.5067801540061820  8.8924131237053992  8.7251537420574365   F   F   F
  2.8197792959987131  9.5633476064100140 11.3949057956661086   F   F   F
  3.7517233991212744 11.7948508709335140  2.2293899082717545   F   F   F
  3.5032836752468919 12.1066476451354461  6.2433113550645114   F   F   F
  3.0072563235410872 11.7655620515834318  9.4406429258825018   F   F   F
  3.7669850778263965 12.0760806707275208 11.4930363687384798   F   F   F
  5.3922823692036115 -0.4557939865284278  0.1748690500013022   F   F   F
  5.8251320673172327 15.5564641347779240  5.2703906541682688   F   F   F
  6.7689473448046931  0.2128058210112362  8.7641235426370763   F   F   F
  6.4644182050523193 14.3459794412907939 10.7689022123777622   F   F   F
  5.5284106639237365  2.5833420071149669  0.6726082250936400   F   F   F
  5.1152112282848181  3.0855172432544560  2.6621471492900421   F   F   F
  5.4090865561648620  4.1722280444706676  6.3830198906586757   F   F   F
  5.8791986127243296  2.7249700375461829  8.3135536343186498   F   F   F
  6.1930790631449941  3.3441844071756854 10.8507952810719264   F   F   F
  6.6623643045048775  6.3453668346291066 14.9003201516571995   F   F   F
  5.6474081988794254  6.4781200035596509  5.4199998447891895   F   F   F
  6.3233062137269727  6.4775791673609007  9.1184742987653387   F   F   F
  6.1053887036605561  5.2779863103704443 12.7867204847589271   F   F   F
  6.4639698954629710  8.8125312485450422  2.8205963936197342   F   F   F
  6.3722545976374212  8.9319542298158705  8.1647273120055779   F   F   F
  6.5399821201754813  8.7800634229409980 12.0342056518289304   F   F   F
  5.6504331525582492 11.2511886071392802 14.7976505887989376   F   F   F
  5.7562421760057854 12.5008928647656212  3.3187800543756367   F   F   F
  5.9491636747490242 12.2459328396695390  7.0579017500752288   F   F   F
  6.0094386225284504 11.5865234197556148  9.5475088444821701   F   F   F
  5.7019549895258033 13.0805986635203944 12.9361906157920998   F   F   F
  8.8267706379480320 14.5349753237013388 14.0628852770353472   F   F   F
  8.3076124633260786 15.9295434590114944  2.4846397281790704   F   F   F
  9.3815192150521849 15.0382099530249977  5.9633841556965850   F   F   F
  8.8112129854015588  0.6258588170460877 11.8660845296630022   F   F   F
  9.0571066364438231  3.2221525377663283 -0.3793961991709235   F   F   F
  9.0215706638306941  2.6814485022692565  3.3547817263609314   F   F   F
  8.1283305891919575  3.3684020128311265  5.4167951290379772   F   F   F
  9.4316485376265788  2.6534646601120371  8.8549845454631537   F   F   F
  7.9803755214483463  3.1428800844567526 12.5092882107894159   F   F   F
  9.7800251659055828  6.5921282011222191 15.4343054877229982   F   F   F
  8.0689619641831953  5.3926462644598372  2.3621346799996652   F   F   F
  9.4517663438719328  5.7488570410948086  6.0919504595344209   F   F   F
  9.5668261335508618  4.6943373449971126  8.4506790509982768   F   F   F
  8.7246035954370189  5.8410165574042141 12.0026423260490311   F   F   F
  8.6589671532553005  9.3537964608701127 -0.0954741148121824   F   F   F
  8.7608108769351443  9.4235750181950575  2.3078237187972870   F   F   F
  8.8171526892244607 10.0818477684287195  5.2844584637866907   F   F   F
  8.8109468724726039  9.1429305558917200  9.1072862244853638   F   F   F
  8.9585862344503511  8.7161430934952762 12.0822995847412837   F   F   F
  8.8227178392958248 13.1638038948104423  1.0805407836815613   F   F   F
  9.4349457995585766 11.7946761406756604  2.9929228018488416   F   F   F
  8.6909266506251832 13.1515803167356591  4.7710790234343019   F   F   F
  9.4586066662735107 12.2739870986280266  8.3739851200147495   F   F   F
 11.7701294854742038  0.0230691139405248  3.1385914140062137   F   F   F
 11.8399860707653364  0.0004358486356599  8.5503034797432136   F   F   F
 11.7802743676594464 14.2117742278754928 12.1052114500329964   F   F   F
 11.9113733039338143  2.0307260498348354  2.3124316679352095   F   F   F
 11.7804986207402855  2.6421841260666827  5.9915036817393217   F   F   F
 12.1222079598574517  3.7192264410265459  9.5703478797484749   F   F   F
 11.9081032384267562  2.7858229324767234 12.2525748399543062   F   F   F
 11.6224784580535623  4.6838699323093005 15.4051732570211719   F   F   F
 12.4708186459436483  5.8210499105260824  3.1045161641237495   F   F   F
 12.0035390421965484  6.3488697003023598  5.8158698869421332   F   F   F
 11.3099343420373817  6.2160655236809825  9.5548507164044327   F   F   F
 10.9880772304128751  5.8008485303397954 12.7079153572272094   F   F   F
 12.2198815828529703  8.3136569062689389  0.5142078723129146   F   F   F
 12.2440117585695400  9.4635298764650262  3.4092329724490509   F   F   F
 12.0243556268553071  8.7613764558136111  7.0573755875124577   F   F   F
 11.1033775313989622  8.8557160824397361 12.0074056612501234   F   F   F
 11.2950312721567006 11.7034660266382602 -0.2534186699969959   F   F   F
 12.1615443236104710 12.1031981786604703  1.8778562846344000   F   F   F
 12.1415586521327405 11.3875577003351935  9.5430596429114232   F   F   F
 12.3268211443410998 12.1493762467842235 12.4677066307742521   F   F   F
  2.6771860432019117  6.3653284520730731  8.8820905979071387   F   F   F
  5.8661374222955303  5.9173741063152949  2.8387161817330555   F   F   F
  5.3688676374053381  8.2396863907572477 14.0650483744679153   F   F   F
  6.6045386276466802  8.9004136732879147  5.5517220913898742   F   F   F
 12.4320800287063289  2.4324405167890930 14.5367781882290377   F   F   F
 12.5271754501166868  8.5904491395576343  9.4410656930070012   F   F   F
  0.0719274057368986  0.3806991931607045  2.5230068203885385   F   F   F
  2.5938869127827404  3.2888338311634562 15.6902243113550561   F   F   F
  3.1212147336652869 12.6840314286487903 14.3729760597705543   F   F   F
  4.7657866683926082 15.2596132763404135  2.4710577131467364   F   F   F
  9.2505756725863044 -0.5339452510895606  9.6301844284781026   F   F   F
 11.1734630729373752 15.0158994085270479 15.5061815680428641   F   F   F
 11.8589255272767584  0.1098179197790714  5.9849720855275326   F   F   F
