Zr2 Ta1 Ti3 V111 Cr3 W5
1.0
  -7.5249999999999995    7.5249999999999995    7.5249999999999995
   7.5249999999999995   -7.5249999999999995    7.5249999999999995
   7.5249999999999995    7.5249999999999995   -7.5249999999999995
Zr Ta Ti V Cr W
2 1 3 111 3 5
direct
   0.9999970898208784    0.8013488002981286    0.0004623915942821 Zr
   0.1950969135913781    0.3992393246017083    0.5993919266471107 Zr
   0.5993498626114632    0.4025842397386007    0.3984397113570629 Ta
   0.8031129466022445    0.8000049315407828    0.0023135610988548 Ti
   0.5986843802260781    0.0022366824380886    0.6013218762540858 Ti
   0.2003820324164506    0.6022494871137092    0.3945547074363389 Ti
   0.7989752327227136    0.9987526546934162    0.9996629112836217 V
   0.5976331426511610    0.0013864295256681    0.9967388196949369 V
   0.7983573411717615    0.1990315961253953    0.9990901365074285 V
   0.7951768332661526    0.9973838524601525    0.1954621800181403 V
   0.4013805529607926    0.0004286545604087    0.0039059154950877 V
   0.5923315748768502    0.1948919852599368    0.9966815896804947 V
   0.8019935459667135    0.4010906066121601    0.0022453198820192 V
   0.5987893224689973    0.0002299460627410    0.2012912419756565 V
   0.7947293596451485    0.2024454969403777    0.1978122720762018 V
   0.7930324604918053    0.0002469277284453    0.3964324851437797 V
   0.1992343275367227    0.9989982154701370    0.9958661584323594 V
   0.3975059505384758    0.1978513250049474    0.9969307666295231 V
   0.6022241523653862    0.3989480495832742    0.9994223916441629 V
   0.7947444667919144    0.5955437845332284    0.0010550004513714 V
   0.4051262457913991    0.9976047015086290    0.1985973658795086 V
   0.5954279638213700    0.2000755315622352    0.1969121513207125 V
   0.8016689826981342    0.4015495528235979    0.1941376550204510 V
   0.6011351546493318    0.9996531563940155    0.3960533086237804 V
   0.8001988875561896    0.1993315598210226    0.4002943484823229 V
   0.8012839083275562    0.0009891538818525    0.6021014500391131 V
   0.0017049734737242    0.0026401381960553    0.0016847247508247 V
   0.2013164150768353    0.2003718217554219    0.0023543924026293 V
   0.3979411020343203    0.3979303385935008    0.0013493506016080 V
   0.6001971142035070    0.6013471575007409    0.0004002633930948 V
   0.2043053205049428    0.0007071291489935    0.2009463679402853 V
   0.3993837162149815    0.2016363524420129    0.1995629274771014 V
   0.5993554348141927    0.4003245534336816    0.2001481278055124 V
   0.7995383062539432    0.5976572860088690    0.1992744661041140 V
   0.6034643257012186    0.1978741312820443    0.3995244724003015 V
   0.8002874070587310    0.4024263777787752    0.3996779084017941 V
   0.7988659928449561    0.2011907496572212    0.6004681546771072 V
   0.7923910040260188    0.9975542818487508    0.7985804483599519 V
   0.9957961296170127    0.1958646333930556    0.9958439831105188 V
   0.2006357446442198    0.3999624272368171    0.0009596894219467 V
   0.4013685699280964    0.6011134435562429    0.9992046255189911 V
   0.6001822929881135    0.7994253943590119    0.9993112145925551 V
   0.0007533147567405    0.0031962858922676    0.1980225424208691 V
   0.1950416849657293    0.2000907421282981    0.1973336424416979 V
   0.4061718094078773    0.4030033826940974    0.2027754376273998 V
   0.5992378429264857    0.6009245122434131    0.1989471006584528 V
   0.7962789689116792    0.7992644162783052    0.2000291673641596 V
   0.2019054698505875    0.0052738051414066    0.4000156279484191 V
   0.3935634388018296    0.1941369772031508    0.3968027055374092 V
   0.7959438232273195    0.5968723643697456    0.3988590031862058 V
   0.4018809575074469    0.0044332641205711    0.6015145543235733 V
   0.6024792361354875    0.2073282030339861    0.6024057202984172 V
   0.7986180496706219    0.3997623962520974    0.5987449233917810 V
   0.6004412551047488    0.9992223562479134    0.8037341568149654 V
   0.8011552363325528    0.1958015529097810    0.7984244051078262 V
   0.0054231113896458    0.3998195277364118    0.0058660514411143 V
   0.2015258439179839    0.5985224154897154    0.9984500731658205 V
   0.4048565542742892    0.8034579968320378    0.0029634679943063 V
   0.0006534635897326    0.1994247425338746    0.2004729578813587 V
   0.4018569949865844    0.5995678879555284    0.2004995645711743 V
   0.6058740048204116    0.8075451072395059    0.2076699971479557 V
   0.9976329974339738    0.0001227337900154    0.3962839032797275 V
   0.4014530106172675    0.3964923608395557    0.3957781154011263 V
   0.5990694316229894    0.5992289880326476    0.3986840494716170 V
   0.8033309362936885    0.8057508337567096    0.4020100381427338 V
   0.2005297511492821    0.0016811382538716    0.5992691688551176 V
   0.3946833220783464    0.2005484098014317    0.5942571199129840 V
   0.6021473822436761    0.3993885404736487    0.6013395428094207 V
   0.8009577482185123    0.5924068716476658    0.5979099195788744 V
   0.4007549591159412    0.0038928005949743    0.8029879460073155 V
   0.6014213640197574    0.1996540026935752    0.8004594715161940 V
   0.8000072655889321    0.3964667596911950    0.7998876913757549 V
   0.0009055947469215    0.6048100047832106    0.9977623195504361 V
   0.2008625694159882    0.8011530561387246    0.0058689365555034 V
   0.0041870259478589    0.4031443062901959    0.2014075354405076 V
   0.1996840293319092    0.5972586699059130    0.1976756431460478 V
   0.4018400082620889    0.8015491833038610    0.1995317359962354 V
   0.9945154888308210    0.1995898492137321    0.4009136129748068 V
   0.2016710233313959    0.3999685462658822    0.4047649580059871 V
   0.6003336036075235    0.7947952596407932    0.4021255061352322 V
   0.0062301339658903    0.9982212995802113    0.6031826908900872 V
   0.2007346416842279    0.1949183772700073    0.5973795788681002 V
   0.3973750691188719    0.4019408716358316    0.6063547907803819 V
   0.5990498376014590    0.6045633263849746    0.6055885679762973 V
   0.8008027391178731    0.8009014566926143    0.6020828722483207 V
   0.2015361639109543    0.0007307401245478    0.8003919827449693 V
   0.4032093639802324    0.2025083498039453    0.7992425968363792 V
   0.5988119448507405    0.3986481862090552    0.8016659436189122 V
   0.7984750334683984    0.5985345050054888    0.8011764048296717 V
   0.9954550099949738    0.5914244433764084    0.1945426979579205 V
   0.2010348656085776    0.8002352223999728    0.2001402018890604 V
   0.4000220375731596    0.8030439119380265    0.3952240262268855 V
   0.0002170952529460    0.2015924554623518    0.5982572010813397 V
   0.3981729608467391    0.6029906781182374    0.5992622207961671 V
   0.6037270414080271    0.8014437032577643    0.6002640732780634 V
   0.9983099974698127    0.9959591648809881    0.7943433984959792 V
   0.1933962787823458    0.1983840299126690    0.7938247719422951 V
   0.3968580344531478    0.3981772711483131    0.7978751751779684 V
   0.5998580355106207    0.6006615808389524    0.7966537674381081 V
   0.8001210713832003    0.7981053945146099    0.8000615244043928 V
   0.0016099346098012    0.6013413845906299    0.4040607848449819 V
   0.1943603374707967    0.8003086234714328    0.3992151202012885 V
   0.2060796353820316    0.5968527680820775    0.6012183088659566 V
   0.4013515122794238    0.8008640574680777    0.5991060719802893 V
   0.9985837043223947    0.1981158064999018    0.8014704055411724 V
   0.2017788548968102    0.4016566897171443    0.8002073844358535 V
   0.4024468193765464    0.6082728850101873    0.8028895267889398 V
   0.6032323352391340    0.8014133690859366    0.8027863884540134 V
   0.9939863013670820    0.7951550323373520    0.4018507017770139 V
   0.0006218790278889    0.6006787817109215    0.5995966842144388 V
   0.1990072515630182    0.7990292843594663    0.5989603574588311 V
   0.0035847506525251    0.3980357740379701    0.8048331353304253 V
   0.3988902684644321    0.8003878879402289    0.8013266125303697 V
   0.0079810779140760    0.8067809800154789    0.6059449776355523 V
   0.0013473198625181    0.5992657468621183    0.7993853360989666 V
   0.1962752483228243    0.7944548345975309    0.8029706847086543 V
   0.9998540609245041    0.8005939775987304    0.7995597229771090 V
   0.2004646751877809    0.2004317454049635    0.4012852694008016 Cr
   0.0011087721990345    0.7987160362312680    0.1989155459556500 Cr
   0.2062845224050284    0.6070405826830411    0.8081525937480858 Cr
   0.4027614776257252    0.9971680797861743    0.4027782125858513 W
   0.1923176927870538    0.3999551947831485    0.1974065891585134 W
   0.4007965861906863    0.6003167333706105    0.3990808934186427 W
   0.0050234756599917    0.3988534355050528    0.3970153854796002 W
   0.0021486540298348    0.4025754353795234    0.6048205497137141 W
