Zr Ti V  Cr
 1.0000000000000000
    15.3990340272275770   -0.0170018773457157   -0.0022529018582575
    -0.0170107766548915   15.3787801482628375    0.0165544931564424
    -0.0022517709109467    0.0165430754876648   15.4057927644380346
 Zr  Ti  V   Cr 
   3  13 107   1
Direct
  0.2056322347466708  0.2042667444428293  0.3951327652338751
  0.2040323987483092  0.6195273504847856  0.3890531672115726
  0.3853278379750192  0.7956440042939223  0.3910437667017809
  0.0006095354031561  0.0033954194979356  0.9988046677009861
  0.0015418376364285  0.1977886842613424  0.8013907795666015
  0.1763093345674629  0.1990223048755530  0.1846491344402217
  0.2017436900150041  0.5900913379870537  0.1848700825517621
  0.2097197924698913  0.7976483084889876  0.2151132507385289
  0.3953449210477671  0.2035875135852687  0.5990639195989463
  0.6084782392823909  0.0087164107423112  0.5967353665684086
  0.6119605418135252  0.1960179531520145  0.4051193975786471
  0.5898035472711102  0.2024211159637393  0.8083240989110430
  0.8189644760189274  0.1976156878943600  0.1965201541955167
  0.7867164347916165  0.1942408089464596  0.5916720960985924
  0.7985872390959566  0.1989968546567159  0.8004008745349047
  0.8009611727457687  0.8017715380112064  0.1997799231369719
  0.0018556356046535  0.9958699911467582  0.2039802299745439
  0.0011266340708862  0.0012860483029439  0.6002192387390310
  0.0011941202754655  0.9976864088034653  0.7977253262719428
  0.9991689257049059  0.2018334687714939  0.0003702208648104
  0.0000927577429829  0.1004723546575282  0.3006856476454513
  0.9989166996251557  0.2031655557366555  0.3999378170088278
  0.0005330207393603  0.1995141752596024  0.5953082546614881
  0.9997252133841905  0.3998938545222726  0.0003277072726882
  0.9999683566101917  0.4006279706420961  0.2010458229613467
  0.0009453231860308  0.4012034947654208  0.4001292183833897
  0.9988947433670069  0.3994569911118408  0.6001071026299507
  0.0006477253771431  0.4012147956860144  0.7996471602365943
  0.0003199151605666  0.5999609415578422  0.0005475064345588
  0.9994238108675432  0.5991252766014755  0.1988833034522751
  0.9957712778265583  0.5999225708358954  0.3991852534618019
  0.0009517990293412  0.6000618535806175  0.5987588224441712
  0.9996099430183929  0.5999571508863951  0.8006895255596167
  0.0017921191604686  0.7988509144801039  0.0025534682365191
  0.0021223019667766  0.7991489280708984  0.2019790818435772
  0.9936593449135905  0.7984896725211119  0.4006293837281093
  0.9996582307110813  0.8009869228428873  0.6001179200149234
  0.9999965404448158  0.7991188649497520  0.8003689859036447
  0.2027010832576763  0.9997142052199014  0.0010618444752002
  0.1997828025552928  0.0017669647995511  0.2020093608234461
  0.2010013591535184  0.0039038098467368  0.4017640079020620
  0.2009289743451066  0.0040749710171793  0.6005627269333583
  0.2014956222413631  0.0007111443699072  0.7994455710849487
  0.1973384076339262  0.1995337893733982  0.9934557907642246
  0.1966700941922450  0.2013110210719695  0.6039772504828438
  0.2019435995142199  0.1996673579337145  0.7995365624449833
  0.2003181260645805  0.3985075145843271  0.9993202750122839
  0.1996461799347575  0.3960904893515337  0.2001827162240465
  0.2000206019687083  0.4078040189946405  0.3999846371908967
  0.1994828308442123  0.4011629320671379  0.5990766960882112
  0.1997728729025885  0.3993818518013460  0.7998147095286623
  0.2000227514481411  0.5996487442917918  0.9937078735646582
  0.2000938692231342  0.6015415639200825  0.6013459392679515
  0.2006916061525293  0.5995552249151245  0.7983841584344376
  0.2005452286225642  0.7997408676594207  0.9998024760148629
  0.1841534201151326  0.8191006159645227  0.4110478722859793
  0.1995170055372386  0.8021819457707265  0.6042025205521795
  0.2000974840872730  0.8022187191817503  0.8018058479892419
  0.4009715551948587  0.9998577310908040  0.0021951572161609
  0.3993787265909004  0.9983150160899211  0.2009790985868377
  0.4002731198834509  0.0053832386500997  0.4010756124416306
  0.4015572864217815  0.0003286474259594  0.7991469714623934
  0.3975531079633519  0.1985149501055491  0.0031086611828631
  0.3999557834219095  0.1981104224957029  0.2021429788825193
  0.4072556772820822  0.1993275881675758  0.3990268797351711
  0.3965210256258906  0.1992114334988752  0.8049631686631495
  0.4002860706811749  0.3982838316640841  0.0015647042857301
  0.3996308389670232  0.3971211742554296  0.2012889285557203
  0.4008957370022002  0.3952774104081465  0.4005918966306991
  0.3994788679045006  0.4015580910469986  0.6005772384464360
  0.4001055430360806  0.3990757152623684  0.8000072776453018
  0.4002216685965178  0.5990199641248890  0.0006108189942755
  0.4037604818343469  0.5966265929271213  0.1994437802647401
  0.4088205911720130  0.5905121493078415  0.3996420557556948
  0.4005135156994546  0.5987680612456591  0.5991732527890685
  0.4006710898579287  0.5996901964520109  0.8009968496337196
  0.3995958756482476  0.7997786489844396  0.9979801067565560
  0.4052142770600207  0.7993382581785415  0.1916394168728212
  0.4000103135674777  0.8007252998421414  0.6021583649386463
  0.4004448061351546  0.7998354812640351  0.7999431352534776
  0.6005508916568152  0.0001429486730919  0.0006905438934042
  0.6020290361953144  0.0001097926716311  0.2025355603029717
  0.5962413853603676  0.9957934267025348  0.3988685074536099
  0.6003507151815326  0.9996702338241159  0.8016713843066110
  0.6006717010339715  0.1996400711154205  0.0058263583683586
  0.5974060935413829  0.1982505626942329  0.2002396003121045
  0.5939664322499751  0.2039473061174148  0.6052434681077166
  0.6005939562433101  0.3994726894911714  0.0009345550536805
  0.6010592575638898  0.3971179976916143  0.2020235821097948
  0.6016832136826888  0.3999562665300293  0.4013435028164847
  0.5994184536856577  0.4011160253871034  0.6014631831494377
  0.6000731250799236  0.4019077161899308  0.8011343726806257
  0.6007361817348092  0.5996766787798823  0.0010008743510117
  0.6019094307727911  0.5991741061577988  0.2000662882689242
  0.6022782055904566  0.5991115625077323  0.4001491484656540
  0.6001794059737340  0.6016276618182307  0.6003911113979785
  0.6003254224320533  0.6001838250524457  0.8004907165583420
  0.6010452042367995  0.8000216137200932  0.0008663380485134
  0.5990868502540858  0.7991837640132942  0.2002149180100715
  0.5991567782063389  0.8003674216188087  0.3999615683396722
  0.5989051143669485  0.8004240421323201  0.5997541756657500
  0.5999588701903016  0.8012398626216797  0.8005974842646352
  0.7983391517791243  0.0000102011833099  0.0007378149190563
  0.8021458527569274  0.0003352943480785  0.2004635177102539
  0.8157030020373384  0.0001926457632324  0.3988643290720209
  0.8053419099463670  0.9964980338661570  0.5988585548121392
  0.8005973518527844  0.9982096567815448  0.7987669416905343
  0.8010106142056649  0.1994349618738337  0.9976659241590077
  0.8061988006874564  0.1984530783055935  0.3959633709703630
  0.7997195694808317  0.3984240258162013  0.0002380775732498
  0.8017583224304698  0.3991538319739327  0.1998975175158513
  0.7997059057341082  0.3979625481028981  0.3998165074198391
  0.7998831866166054  0.4003462558644429  0.5994106054770691
  0.8001951661833422  0.3999396318507989  0.7984929163816233
  0.8008501050494146  0.5989869886759432  0.9993788136557498
  0.8000451127940345  0.5970501105920323  0.1993061536926579
  0.7991609608039761  0.6003603283064980  0.3991979003818968
  0.7996493633523077  0.5990547545992073  0.5999248493979434
  0.8000618231112643  0.6000582399444425  0.7999801400921265
  0.8011157583094838  0.7998973357848415  0.9973907444317605
  0.7976755123485223  0.8015844262985229  0.4027204271445960
  0.7994800760994121  0.7992334247483234  0.6010433401536733
  0.8003012763325456  0.8000743487990003  0.8000944732544178
  0.3986612473454307  0.9976869344644264  0.5996056656395157
