Zr Ti V  Cr W 
 1.0000000000000000
    15.4863295998759050    0.0024137293282322    0.0105674120120943
     0.0024156779473548   15.5040449564505511   -0.0174543962439357
     0.0105707746262879   -0.0174578174046017   15.4782021514271442
 Zr  Ti  V   Cr  W  
   9   1 107   6   1
Direct
  0.0028654018683620  0.9756454230349130  0.7693784495798343
  0.0076505202212909  0.2180161881261297  0.6059597468200573
  0.0000641162211226  0.4346047502149945  0.0413199420583624
  0.0017570931685459  0.5773388008930318  0.2276949703659007
  0.9622311785565779  0.7938991198473434  0.1859042751838697
  0.1778320396911174  0.6178989437579788  0.6035753286620575
  0.3595025011774616  0.8024750237187110  0.1961487035608751
  0.8322336298975934  0.4326644452044299  0.3963965126569489
  0.7513576450389748  0.7915373902456242  0.1999703834902100
  0.1915989517259739  0.3883285327151954  0.6040664776335434
  0.0012426816755956  0.0067015188607451  0.9978357668434952
  0.0049068514781927  0.9981924504703757  0.3921556567588442
  0.0013059759741482  0.9978656728387972  0.5812257683429020
  0.0013655528006544  0.1995168682084461  0.2026064545517239
  0.0020982397443910  0.1975699558423805  0.3994239782935822
  0.0005222275347769  0.2057062379161355  0.8107616043042684
  0.9993453960332399  0.3861976718510913  0.2310158402039812
  0.0197070851057397  0.3954691746536287  0.4128785843094405
  0.9936872246103698  0.4236205411077392  0.6036289897358482
  0.0004667809510577  0.3985216722440896  0.8046752510844412
  0.0006920831150343  0.6235919365338819  0.0098090287877854
  0.0046454292882745  0.6047655519572785  0.4311234087213396
  0.9924802984685276  0.6689835272516873  0.6051611080051773
  0.0000704057635577  0.5924214275318133  0.8085322578430700
  0.0018805280816578  0.8111879812974275  0.9848778312206778
  0.0043069280986581  0.7993663800414882  0.4065164573263317
  0.0001357906559095  0.7836987716213569  0.7923250445011337
  0.2007317702818400  0.0019081433717154  0.9969766465328204
  0.2006455909434212  0.0012516859601066  0.1974218250579292
  0.2024074160311374  0.9988119772916864  0.3955523806695878
  0.2019910662549300  0.0008479850938334  0.5970443356128496
  0.2051667955128847  0.9993219960215475  0.7996617459335164
  0.2018366578858505  0.2001829808683118  0.0008734800741074
  0.2020154189495177  0.2000322897565494  0.1995594194594153
  0.2050624758260170  0.1974158325263927  0.3992311426208517
  0.2023755167744819  0.1981930651911568  0.8006716035370531
  0.2029197910373398  0.3995680708991911  0.0006895354835488
  0.1976450191428759  0.3986232920414951  0.1992749658019815
  0.2064458982313783  0.4011493589705116  0.3989195297971035
  0.2011716417486593  0.3975298060492956  0.8051039281544050
  0.2003611395158471  0.6014944296118361  0.0019240944504272
  0.2059979799232155  0.6004906908260286  0.1991897706263209
  0.2006144335340626  0.5998165087683679  0.3940282067728389
  0.2010976949361444  0.5967679934023692  0.8065062807286564
  0.1990759863122188  0.8020073170096086  0.9973778208741030
  0.1723879857761104  0.7973109938403236  0.1969314132596547
  0.2001584284073311  0.8004161764057822  0.3959319403531246
  0.2046023098761184  0.8082713133527947  0.5965145761157782
  0.2002562019755742  0.7974306314070638  0.7955774651297685
  0.4019469769881627  0.9997820722953028  0.9980343944956287
  0.4029865990978028  0.0035779080000868  0.1978614978190442
  0.4009234840190349  0.9990127394277883  0.3986671873044901
  0.4043335773145560  0.9991491798780842  0.5981083578697215
  0.4015200898451696  0.9986471052379008  0.7968407807085678
  0.4014152544157979  0.1996253217344029  0.9984029199941531
  0.4013639624822125  0.2003245378553966  0.1998463714181867
  0.4025645899604650  0.1990545154552405  0.3994704321261566
  0.4048891625463062  0.1979207114262357  0.5994568307664594
  0.4001874555798962  0.3994182377551896  0.0001632956319811
  0.3994841944269506  0.3972395092422322  0.1994870554185161
  0.4009894909769939  0.3985677415894976  0.4011107325863678
  0.4006406991552923  0.3976044805434202  0.6012019904790650
  0.4009787520641060  0.3988083481328583  0.7993841527934380
  0.4017691373708848  0.6001231173520467  0.9994753591196995
  0.4032541450135786  0.5934263508502000  0.1999646773050236
  0.4000321547801254  0.5993202111926534  0.4007478913654303
  0.3994485678348317  0.5967227392121741  0.5988356461093217
  0.3999118222509322  0.5979466391945828  0.7999335105332411
  0.3993767115905297  0.8001937773465146  0.9928328124147591
  0.4002492667551115  0.7986275753127838  0.4017965275481167
  0.3997719610986570  0.7991579267804859  0.5993483010654481
  0.4002533984543378  0.7972290565422455  0.7973452058683612
  0.6010955353755583  0.9988874964947717  0.9986666254469398
  0.6016828416357484  0.9959287676786756  0.1985686904919949
  0.6016459114833427  0.9977264132090629  0.3974529256552405
  0.6022270321333361  0.9989063746223388  0.5968104116472029
  0.6011289579219903  0.9974087811630920  0.7979996621409533
  0.5999665049214983  0.1983390618734814  0.9998676758739783
  0.6020693640278817  0.2000242563371532  0.1988827100759827
  0.6028023213128918  0.1986769768440581  0.5991211884018102
  0.6015598119164766  0.1990853894928205  0.7997873154744861
  0.6002537650019846  0.3984713975177865  0.9991123186283618
  0.6013685101250541  0.4002066482685842  0.1996718229097406
  0.6006367586669427  0.3980590003283314  0.3984069492800212
  0.6012200791108443  0.3985199533853035  0.5982466217072315
  0.5999388133679682  0.3994167975495460  0.7995682259293362
  0.6016209340237419  0.5996317364430346  0.0033853713796073
  0.6035894846056508  0.5987558170942875  0.3951443238150307
  0.5989497179675544  0.5985744303139892  0.5966555520991220
  0.6012936128577666  0.5988756844737307  0.8014341303005785
  0.6011346084343866  0.8000884251197995  0.9978404353227672
  0.5650718394185800  0.7905249199015022  0.1986819204248277
  0.5979367688565532  0.7995280352697741  0.3989334708876064
  0.6011230058091706  0.7985750649361726  0.5982950841244974
  0.5995561701690229  0.7974072709742668  0.7980562545623242
  0.8012311228666237  0.0014715995642773  0.9969424921721612
  0.8026342649993360  0.9975773176368954  0.1972817295820626
  0.8015292964564814  0.0009592449895893  0.3972530606000860
  0.8030600939898277  0.9992414694786119  0.5986536587842615
  0.7988520649368140  0.9999798460843683  0.7984384256910901
  0.8002146462232355  0.2002023776969047  0.9994197410826969
  0.7996002972025070  0.1996009656948360  0.1990311788763016
  0.8016715049127946  0.1969928974905991  0.3995056821179560
  0.8001730570858308  0.2013259960695451  0.5995840201064546
  0.8019669994690602  0.1991855300772675  0.8000725735314697
  0.8032857197912074  0.3977180960230678  0.1940351257216944
  0.7985560927232088  0.3997455998523101  0.6011640439435326
  0.7991315759606195  0.3997148666295924  0.8007666024093850
  0.8027784028199222  0.6004342478422657  0.9999769666366524
  0.7927341456982999  0.5938402171571741  0.2057615295894986
  0.8022557648054405  0.6204748079555528  0.4010637696108130
  0.7958466901694022  0.6001466901537014  0.5988116765242342
  0.8005923688678951  0.5982154311861685  0.8013858960178692
  0.8020402536233469  0.8019589220957033  0.9956253520670415
  0.8091018768401335  0.8070387579166379  0.4028780497511892
  0.7961837352147603  0.7986689876570825  0.6003653399070963
  0.8006936562211898  0.7974755089920229  0.7967513711720386
  0.0007313055819470  0.0030660524265784  0.1962121237631709
  0.0012758810048620  0.2023355114937984  0.0048320368120040
  0.2094317030118979  0.1938057094796382  0.5999618398383370
  0.4027092559541687  0.1991087210370623  0.7996254657323449
  0.6013686505003046  0.1983933100343440  0.3984182342919738
  0.7977102026385218  0.3996324914621523  0.9979179042988400
  0.6004911098860507  0.5977351273894488  0.1986196712691758
