Zr Ti V  Cr W 
 1.0000000000000000
    15.5189800638460067    0.0053948810984519   -0.0005922212079772
     0.0053614356663930   15.4324842596042995   -0.0034080797093035
    -0.0006771033361387   -0.0034056472556456   15.4238540815599539
 Zr  Ti  V   Cr  W  
   8   9  99   7   1
Direct
  0.0335987278278307  0.1709053871177574  0.9958737113176990
  0.1618992909349740  0.9937141931477772  0.1431882104256884
  0.2010793233898689  0.2023660031699404  0.2414118707847697
  0.2007283925440099  0.8085962236719529  0.0017505008890637
  0.4060202077190245  0.0128860919340479  0.7964201709835838
  0.4277826200027596  0.5643271978504908  0.6023493986362567
  0.5674883748231030  0.1919561406438538  0.7971309039943241
  0.5959124617488021  0.3998434963432992  0.6023953047380523
  0.0066272062370987  0.0016054255427456  0.8117495887328418
  0.0018776432698279  0.2114730135866089  0.7830729825295634
  0.2293304178860957  0.1902146761746626  0.0119943315702040
  0.1934501310688336  0.1973877036423052  0.6138969860896680
  0.4068765029154307  0.8034637667169496  0.6071457187787535
  0.6163272002548692  0.1887019557484618  0.2140172443421519
  0.7917549160561926  0.9992816938274913  0.3674669976673611
  0.7921571481904198  0.2071313874959395  0.3932378565330505
  0.7998554466743363  0.8025676687968247  0.7964481180147837
  0.9908278461177655  0.9810835008114187  0.0083245734326109
  0.9699740723181909  0.0008580256959820  0.1958621023963711
  0.9965569457166693  0.0011985035701162  0.5935450876066963
  0.9994548222731884  0.1992482173537556  0.2023031901527919
  0.0010297026077578  0.1983196758951711  0.3995954987296024
  0.9929119138791968  0.1979419075776085  0.5924256609792832
  0.9996921672101960  0.4011473868297851  0.0005846451497868
  0.0012572980913086  0.3984207936782340  0.2000699683313585
  0.0000719327730875  0.4005463254497093  0.4008702777820827
  0.9981447132592492  0.3974424584214110  0.5998498284830768
  0.0000394203293086  0.4067183045546365  0.8009301378850681
  0.0006454425959431  0.6001522994453641  0.0013556176160171
  0.0000603109795787  0.6005296755222800  0.2015836949863478
  0.9981374816472692  0.5994880676425262  0.4008507181413635
  0.9982689766825282  0.6007781825273724  0.6010097939209001
  0.9998554231805881  0.6028714794724594  0.8002711474460457
  0.9939766504340987  0.7939017961675876  0.9973248126547571
  0.9982577713956112  0.7994741402520688  0.2061160524226776
  0.0047521862395843  0.8028651192838868  0.4023146438954261
  0.9967702454799937  0.8041677871684105  0.6004903111527613
  0.2291336960158049  0.0079586103015711  0.9495699028878257
  0.1973799465474145  0.9991130218218732  0.3966638557942941
  0.1972515582533323  0.9962926484779105  0.5964932901245545
  0.2009208673720070  0.9991251547174038  0.7849196656832150
  0.1990563985537838  0.1996249051630944  0.4297363995796442
  0.1919566747912500  0.2058985662308653  0.8088809382499005
  0.1996299807788139  0.4039313255267455  0.2015133820231396
  0.1981849075313750  0.4031599643763465  0.4040698358227525
  0.1974418797637461  0.4036217250123388  0.6041586123967458
  0.1975719330417451  0.4055915013909946  0.8040277261302224
  0.2009126835254995  0.6012939958837995  0.0007755248212129
  0.2012799046987938  0.5998118135819916  0.1997555706673051
  0.1998350200421061  0.6052456086415386  0.4036878615300239
  0.1927054533121473  0.6006232300116335  0.6026994321024971
  0.2005259211167173  0.6038683579492631  0.8014498261613872
  0.2033070561083989  0.7967875896435016  0.2096602225996183
  0.2009481612582417  0.8006427344928101  0.7934063910745653
  0.4126617705840531  0.0025741560646975  0.0050330447845672
  0.4076323180607449  0.0028937919973020  0.2002554215360377
  0.3962945296364611  0.0017652810626190  0.3960801540789550
  0.3986974623037224  0.9987134698975232  0.5927380887784492
  0.4167799012259113  0.2052229306693323  0.0029164752156826
  0.4041487928947090  0.2015150628794689  0.2026073981977258
  0.3942310604154459  0.2007395926050036  0.4025891606195474
  0.3998222908539474  0.1907196766319409  0.6067957512845912
  0.3782845321707427  0.2131866303110326  0.8034093410695643
  0.4007992157686451  0.4010241104726322  0.0029185536598463
  0.4008793855940284  0.3993619321538249  0.2003050555341352
  0.3965043374276459  0.3995117292430658  0.4027624716530603
  0.3881968278737419  0.3775906960166915  0.6004833325108372
  0.3963879047503260  0.4047636493640421  0.8009964827726669
  0.4018368666255454  0.5989853412451647  0.2014421512089994
  0.3979570826969123  0.6001704133482140  0.4000127957543073
  0.3969800786747257  0.6029594186899628  0.8044019323724175
  0.4067804670691869  0.8025546357106830  0.0021221809239771
  0.3947362980502628  0.8013010381858003  0.4005834182545322
  0.3980548928686357  0.8009901654087358  0.8026756492331792
  0.6083159555735621  0.9983529976372967  0.0034259379410138
  0.5997536076599412  0.9960350162708170  0.2012053195092703
  0.5940010550359419  0.9993560416598388  0.4026489204429179
  0.6031300825521718  0.9990500718190966  0.5999567460389954
  0.6105872681908796  0.9918481146746271  0.8029182686605535
  0.6073858934473613  0.2007628896440993  0.0047976230003123
  0.5921916209537957  0.2009415959562484  0.4056364642132211
  0.6001225755151154  0.1941473714264508  0.5954713225621437
  0.6005505740675043  0.4024788813410468  0.2006713576361925
  0.5959589005152092  0.4010783034636041  0.3959577775093283
  0.5979848268990805  0.4019520768079272  0.8062837851230599
  0.6005273092330473  0.6013594295555221  0.0004951308880761
  0.6011330297019117  0.6004733361342487  0.2014905401220663
  0.5980042057506867  0.6026593623505769  0.4020614113485786
  0.6178955374660663  0.6094397078748970  0.5992775240359106
  0.5979797455293944  0.6020594881590930  0.7992446195483596
  0.6010651762651842  0.7988307286361888  0.0018235306119149
  0.6020621374914112  0.7993292068519197  0.2022210231989363
  0.5955415697612332  0.8007841680235379  0.4032746465090835
  0.6061115783882238  0.8036604980333337  0.6009630280102649
  0.5951259441823038  0.8000003336341368  0.8003828717034771
  0.8021425361751010  0.0045276216607711  0.9984084974567849
  0.8013434409970418  0.0030986233306551  0.6073579938642266
  0.8018781079080463  0.0064147578178203  0.8021593316017430
  0.8005856061900295  0.2037131098667891  0.9975866534530589
  0.8086187595846163  0.2064937605716005  0.1955209819914189
  0.7959191391704913  0.2001465141256391  0.5995195235019837
  0.8037093640566784  0.2047404045420649  0.7983248326341662
  0.8012456710058425  0.4013524934358048  0.9991950177215216
  0.8020788515511943  0.4024865500855498  0.1986416891130239
  0.7982594566332204  0.4031407839643967  0.4007706545719095
  0.8014562049450432  0.3994184342434232  0.6007039005058284
  0.7971552814315547  0.4022900739178045  0.8004663120050231
  0.7988148410143199  0.6010357529083390  0.9989473606394067
  0.8004179532422693  0.6010528370034202  0.1997990397076336
  0.7989502796881259  0.6007854639743631  0.4002545437581324
  0.8058484279502114  0.6001739706647768  0.6012009992494258
  0.7988855335776126  0.6011963419526428  0.8006704016304559
  0.7980756515885706  0.8026058481452213  0.0035656238696103
  0.8019137105938202  0.8003887866306670  0.2026456796226176
  0.7986886627946650  0.7992071131907085  0.4002422714828940
  0.8026652882873438  0.8050807945587456  0.5973014624688455
  0.9990384293905624  0.0008544329652151  0.3946302945162201
  0.0034734267435592  0.7996686124706763  0.7994205854802826
  0.2027004571465566  0.4021609266809186  0.0031397187105451
  0.1962242795234768  0.7991502327413176  0.5986815598356073
  0.4012002339189422  0.6015152767289808  0.0023400041663335
  0.4016333510609090  0.8003730233841674  0.2015005470575957
  0.6005108070526916  0.4017370271666536  0.0013778472304804
  0.2005397468015172  0.8027928940010753  0.4005679180679513
