Zr Ti V  Cr W 
 1.0000000000000000
    15.4587842636866384   -0.0032293511975409    0.0082388701308688
    -0.0032271162884385   15.4523236864820461   -0.0077372164595043
     0.0082378582767830   -0.0077376883952526   15.4599035016914126
 Zr  Ti  V   Cr  W  
   1   2 108   6   7
Direct
  0.2004689278074399  0.8014901651198072  0.4019351971325211
  0.3997251135274379  0.8015271854905260  0.7928043442015735
  0.6170569202873093  0.1984796366538180  0.1989288958618452
  0.9994246560755996  0.9985849798859303  0.9996255017880460
  0.9995950699318266  0.0026645621201153  0.2000292794493049
  0.9991991679620305  0.0007216061000366  0.3990461166647279
  0.9999314066689591  0.9964149574274348  0.5990095770037721
  0.9981276139300669  0.0005337431970796  0.8005995824785673
  0.0001691644892496  0.1988591247764159  0.0030741848297760
  0.0001962822559944  0.1990661620405708  0.3975994891974924
  0.9998054798863443  0.1989383898840274  0.5987034059371654
  0.9996761304323692  0.2004170592672639  0.8002139850232056
  0.9999304075567905  0.4014970445666652  0.9991260869695052
  0.9971243725332194  0.3977781142988939  0.2005821219273310
  0.9996938562529079  0.4007217508017712  0.4013640547983955
  0.9991854826384112  0.4016389471749666  0.5993877712542642
  0.9992397450725811  0.3995508652869327  0.8000234406167365
  0.0007093789995541  0.6021590712666833  0.9999226083985451
  0.0006191721715918  0.6012022652776777  0.2000396421279700
  0.9995359143388990  0.5999322798117267  0.3994350709438770
  0.0005417696148353  0.6048749712319101  0.5995690797760284
  0.9989163221730095  0.6005733941814814  0.8006638859145262
  0.9998597039927516  0.8012505135404092  0.2015837957230624
  0.9938159970297362  0.8013057411344191  0.4033829231398425
  0.0007575669793469  0.8009387754609959  0.7967127869737334
  0.1996979544265479  0.9995444514264994  0.9980910720359337
  0.2042101976777622  0.0053346074931200  0.4005290195317247
  0.1995666059870224  0.0014350181426593  0.6019099698962569
  0.2001708857872086  0.0027621302959766  0.8002555729730441
  0.1995532962594913  0.1994179405415671  0.9985112604818186
  0.1958968980741999  0.2018755201239157  0.1989499171663535
  0.1987120998209562  0.2016114288828741  0.4008332573973529
  0.1990743361274827  0.2010335345092187  0.6004870385981954
  0.1996534573074501  0.2013803523312292  0.8007343730889003
  0.2007440718235829  0.4014558340335138  0.9997751245586516
  0.1982992643060770  0.4013005055470967  0.1995793886832683
  0.2011101737945915  0.4002478294299113  0.4004319559938053
  0.1993807748076560  0.4007188488986420  0.6006029989279510
  0.1997911409656002  0.3998002308158161  0.7998864320371394
  0.1998761657391917  0.6002204745004706  0.9996489452533582
  0.2014557716615160  0.5964983563195244  0.3999883288045003
  0.2005741322387592  0.5993489252607447  0.6012411301127889
  0.2004829391687509  0.5981023056148644  0.8006038997488492
  0.2040294366420115  0.8001018246864435  0.9999751043830758
  0.1978115399685217  0.7997159727506862  0.1970804381550042
  0.1948056288513877  0.7996556796123270  0.6070495161727181
  0.1980271342269423  0.8004012496623113  0.8024509303912929
  0.3994699634526653  0.9966431725605175  0.0002814582160238
  0.3986111550930999  0.0044610186178886  0.2044266635167365
  0.3983545666271502  0.0010719540136979  0.5963207526778725
  0.3996454196178884  0.1990981615323520  0.0044700763146303
  0.4006358562288965  0.1965581742390400  0.3960894566066641
  0.3994294420854351  0.2011388622095148  0.5997620148828449
  0.3999485626700246  0.2010323926900453  0.8007030930052409
  0.4007804133014525  0.4009409706909881  0.0009158417274493
  0.4012170667086255  0.3963574457869738  0.2003448786674410
  0.4014821915509120  0.3996492502070463  0.3997381058915021
  0.4001364053443187  0.3994278666129035  0.5992004813826397
  0.4003012258883560  0.3994616104774194  0.8009463542926561
  0.3998460942416160  0.6034797223233884  0.0009780891701534
  0.3997186901214139  0.5992051939901415  0.3999729812025658
  0.3996692015136363  0.5972578245690819  0.7999526905140044
  0.3988108791387340  0.8000940547721024  0.1997861299572194
  0.4061552332107658  0.8040336262769209  0.3992592483114040
  0.3984517273339684  0.7995089663447896  0.6006984338176297
  0.5974266354977069  0.9990432491999867  0.9990964008614709
  0.6004185019706464  0.9988658945485476  0.1988707865731504
  0.5947225126763244  0.9954405342555120  0.4016448093578961
  0.5996414827463491  0.9998851598810802  0.6019311405632349
  0.5998717334559458  0.9998948117419184  0.7992561240275609
  0.5984179063583058  0.1991508787041059  0.9976450769971109
  0.6000964881489487  0.1991355414246623  0.4021882948363605
  0.5997026032394015  0.2002743911586626  0.6007837170332385
  0.5989899906780780  0.2007465337774708  0.8000321986772559
  0.5980433702287107  0.4016939810332448  0.9998036618750757
  0.6045747816865065  0.4020938845074346  0.2008084261071930
  0.5979102748663859  0.4011743872422936  0.4012747277179949
  0.6005529159529281  0.4007182039043318  0.6000769214051633
  0.5985314152321356  0.6011840463818048  0.9995994093411353
  0.5998754647144867  0.5993565757579316  0.1999252415288202
  0.5981567322404308  0.6041760508410343  0.4015674011021200
  0.5995169573151719  0.5997234068666480  0.6011383945599209
  0.6004172437096427  0.6007582423506523  0.7997391953915127
  0.5953433815468701  0.8000259047418008  0.9997045724993081
  0.6008535090653631  0.7989289364739965  0.2048459471703760
  0.6028574111967773  0.7993328731538998  0.5987395406081543
  0.6012461979496387  0.8006970049089941  0.7987791314829945
  0.7978738425384568  0.9984311137725878  0.9992571594535976
  0.7991221816425177  0.0021868641978022  0.1999686567747663
  0.7968730068920785  0.0017989765927190  0.3987105090433287
  0.7989350380589124  0.0007849674242389  0.6006415612924099
  0.7988593593395551  0.0039953654831979  0.8005755747899944
  0.7985944266930249  0.2003655653685005  0.9997757596439562
  0.8091945548809812  0.2045326101994111  0.1998125202603129
  0.7983542770468340  0.1995879759917788  0.4009560824013931
  0.8008394090367755  0.2011911372925290  0.5994698848449458
  0.7997723456563064  0.2013982951022177  0.8008266914777866
  0.7983153469201744  0.4005779572858358  0.0038409776835528
  0.7978685336046988  0.4000849098420343  0.3969229054276962
  0.7999642805339828  0.4001259789478391  0.5987312327975585
  0.7995251658060888  0.3995669574080692  0.8015488982665904
  0.7985483447435742  0.6029083252479718  0.9987747205413681
  0.8016248092975269  0.5955430071139083  0.1998823690522864
  0.7987438214662876  0.5991357566039710  0.3991256766965158
  0.7997092377655747  0.5994152408443257  0.6011225136239700
  0.7994058983390836  0.5964012519324741  0.8005726027649291
  0.7969615611157721  0.8005156035109395  0.0033051370147292
  0.8007798055943628  0.7995551690416511  0.1991797396358691
  0.7943016878930518  0.8005646128447412  0.3986893402566453
  0.8029308242217597  0.7999440178527081  0.5966746729978767
  0.9647962730756259  0.8007982049365444  0.9655382267998145
  0.1982773500547606  0.0011635633286085  0.1981067859005016
  0.2002282042871199  0.5985776680855255  0.1993938277184536
  0.3994261044710895  0.0036861317463040  0.7989032709543648
  0.3995378657069321  0.5983956857812340  0.2011757902965824
  0.3997694032594726  0.5991491734598259  0.5996801570315711
  0.5998843283141739  0.3999934113696152  0.7999086378071774
  0.0014035291863113  0.2008862359743456  0.2004027527100742
  0.9972120570945721  0.8004987554841002  0.6009276390444470
  0.3994357736071070  0.9992761956345317  0.4004128647893335
  0.3910240153213604  0.2000614325981730  0.2003677233709850
  0.3990668882187436  0.8011775434119418  0.0069600501437164
  0.5991135128938906  0.7987381719542583  0.4008260836853635
  0.8008003330358033  0.4006585715737810  0.2005604713594915
