Zr Ti V  Cr W 
 1.0000000000000000
    12.2882735461728885    0.0000000000000000   -4.3445607757035454
    -6.1441367710433559   10.6419570608175889   -4.3445607757035454
     0.0000000000000000    0.0000000000000000   13.0336823299999995
 Zr  Ti  V   Cr  W  
  10   9  91   5   9
Direct
  0.0006381064910938  0.0054949018067100  0.1993071860453328
  0.0150879910027862  0.2057542475786966  0.8052473880305888
  0.1945703187842407  0.3915301758973453  0.3955666173276201
  0.3871481934177963  0.0069140460344514  0.5980765703104333
  0.4018609722282026  0.9964525428815527  0.8034900115637713
  0.4019572112025219  0.6024402106935460  0.3987124683062040
  0.5961305635499459  0.9930883665841558  0.0070359826211284
  0.5903967334087544  0.9931282460561666  0.5957047831260264
  0.6014800044488109  0.4020595953222566  0.1964665155796032
  0.8021209279990563  0.8097366392362405  0.8039368963334790
  0.9724185302551168  0.5643429650197626  0.1570463017872339
  0.0006091493926502  0.7952330623177991  0.2016120311388694
  0.0012974824328688  0.8023438017823169  0.4053237947018953
  0.3972412392326213  0.2001321368336916  0.1972310632326167
  0.6015321443305416  0.2085826626780888  0.0177280747455154
  0.6227815146405788  0.2315618533814672  0.8306810936203513
  0.5954133712680475  0.6083897086408646  0.2012699177538993
  0.8130335852086180  0.2069467187747343  0.2116698875321655
  0.7943733937381359  0.5960312471073062  0.9947852659801513
  0.0148152106362485  0.0109261355764279  0.0009866967969829
  0.0008447212285975  0.0079691360039203  0.4094720903187178
  0.0023944327358729  0.9987554551669525  0.5977792869289450
  0.0065430734824878  0.9941308940083444  0.7989285966399073
  0.0057678263365666  0.2018213764529143  0.0091080939416354
  0.9986001211032938  0.2019547467905526  0.4035430278830044
  0.0018057326365707  0.2033142765428710  0.5933641593763210
  0.9995691363522503  0.4058270415345969  0.4104835506622381
  0.0013413240965413  0.3997079044189432  0.6022590380140128
  0.0041150891515745  0.4033587966582900  0.7972101443945999
  0.0054283923932372  0.5033998064605332  0.0009370590004372
  0.9930858966817729  0.5938548631701648  0.3962222950396139
  0.9992173214582607  0.5972994312056281  0.5994951729171782
  0.0024674601093512  0.7996604512540074  0.9987449403008261
  0.0002538604652200  0.7980148041389551  0.6033844583608602
  0.0077697849426857  0.8009115179061878  0.7998069713567139
  0.1963681320823436  0.9948027793409077  0.9948584397865597
  0.2018095944330408  0.9956009083836911  0.1972925568002519
  0.2003194335529808  0.0030657492001920  0.4005136258276295
  0.1917700131034917  0.0049961843793276  0.6011573928693544
  0.1947777212514514  0.9975679355043043  0.7980420752660194
  0.2081661114916286  0.2024760357267718  0.0030139701920323
  0.2003326469228766  0.2008708649151715  0.1991486029134424
  0.2085616231424221  0.2008105228358662  0.4117398859589443
  0.1984458863542423  0.2033029004428549  0.6001532804571181
  0.2104763045086322  0.2013876279911284  0.7959132436673257
  0.2081435655948624  0.4094061611386500  0.0069551683431700
  0.1930294833232076  0.3939793108836564  0.1844746874473040
  0.1989396033402570  0.3993655769101332  0.6058661587700777
  0.2036923398316810  0.4053314612155539  0.8018433805763293
  0.1994342678367199  0.5966421867682318  0.9966187783782794
  0.1961016914613929  0.5962439204492174  0.1918094222493948
  0.1969131716119330  0.5977584486186380  0.5994353860637252
  0.1986938556222465  0.5957645983109702  0.7980156900046179
  0.2002208123451145  0.7967137707401133  0.9963885352624400
  0.1925996534870593  0.7901963347705440  0.1850292162512279
  0.1892720885021627  0.7938958218578996  0.3791817188292286
  0.1859283456752103  0.7896803526171667  0.5908719152935248
  0.1966956349364290  0.7946656144774571  0.7979550371913833
  0.3901218331636162  0.9981736267778202  0.0054546432004470
  0.3951140064613654  0.9999386358448432  0.3924632199969471
  0.3853414065460188  0.1954816672341289  0.9882241869161357
  0.3965081681014200  0.1973616184387392  0.4013095362496786
  0.3985776672083435  0.2140021672277161  0.6003571698034592
  0.3984543477093689  0.2134433869566620  0.8037904359914850
  0.3936535003139033  0.4035089061422453  0.9939919984696053
  0.3937635234481121  0.4031150686979899  0.1975218553848150
  0.4028854478883224  0.3900195312176139  0.3991339078203984
  0.3944973982329142  0.4029321282681974  0.7947290851162371
  0.3919916708419893  0.5985367356280377  0.1867553480506799
  0.4018960977489076  0.5974272190054982  0.6094168896950011
  0.3943423585483056  0.5959921050189092  0.8004551233838567
  0.3937759142760611  0.7882743737352936  0.9977927831041263
  0.3960028098498778  0.7938377343269346  0.1952123629626762
  0.3863336636079623  0.7991044421351396  0.3834862816667230
  0.3963364286463524  0.7917868167542763  0.6025536868415602
  0.3864537443853811  0.7789937123164817  0.7919425776992205
  0.6012558493663022  0.9934635372246140  0.2100171004003928
  0.6010353156088907  0.0007966311432847  0.3956936952143448
  0.6161790988856271  0.9965099901414282  0.8116912420251745
  0.6061531249892279  0.1971769351770805  0.2178693812907377
  0.6031243962533404  0.2014797243653901  0.4062766572425588
  0.6006795688791159  0.2123597848724062  0.5987403286062745
  0.5980805285358097  0.4147200962380179  0.9938778022577522
  0.5975413201819587  0.4005226369068552  0.6013818277225037
  0.5899513093267452  0.4022015239768930  0.7948889402308489
  0.5882237430949975  0.6008222173271048  0.9955403555246858
  0.6076160518335058  0.6032029291512416  0.4060910486209589
  0.5921222022970182  0.5944176756284463  0.5967033097338963
  0.5926280188681882  0.5988122460311057  0.7991789202728594
  0.5932243654879905  0.7882359256683429  0.0010277715024106
  0.5975061801047560  0.7990850241425945  0.3914211931798293
  0.6030349783259120  0.7957472891009484  0.6054136939794834
  0.5889875392379431  0.7930834449416893  0.7981390890851765
  0.8095481821986177  0.0105156986828564  0.0089689152807102
  0.7937359464888651  0.9970445066651232  0.2047688437487290
  0.7999143224640106  0.0016865723475853  0.4010513585051705
  0.8039041584335547  0.0066324620451645  0.8040971422927548
  0.8096932598790972  0.2096771041519096  0.0069634307075903
  0.8023855055634755  0.2012391603059986  0.4079883524674130
  0.8009827055441078  0.2030548283102445  0.5994274501862115
  0.8936332314860996  0.3945924062864553  0.0012681997137275
  0.8162058817280775  0.4074076884017128  0.2059437184628231
  0.8059480707659966  0.4016227774392765  0.4059709705850836
  0.8031507473017173  0.3986969438898009  0.6003686426923984
  0.8032992338585585  0.6037747603017983  0.2020723999973839
  0.8076805767156475  0.6071795628280898  0.4064192863970991
  0.8025913298346813  0.6008123151441762  0.6001921456990942
  0.7895625937329386  0.8009110038883946  0.0032145728445560
  0.8000405385493752  0.8010713785887785  0.4039487662654998
  0.8002237593809365  0.7967096229764522  0.5932478798282406
  0.9993272757453593  0.2040145161059107  0.1920423036019273
  0.9980231275666011  0.3929360094679028  0.1964870486277733
  0.3983410148530023  0.3983294777695979  0.6007298916219854
  0.3958987772184807  0.5988408338494615  0.9984585829019487
  0.5938988923660641  0.8011199129783384  0.1991214589153932
  0.0025488980949238  0.5995858718339158  0.8029947114978685
  0.1862121007334987  0.6012490923850928  0.3916647836318979
  0.3988370692781087  0.9950803137137606  0.1989089107286363
  0.6048635956382575  0.4017873922871206  0.4072443072612676
  0.8008901222914601  0.9947418824300855  0.5937684685437707
  0.8037306883619865  0.2033343516630947  0.8047032035358691
  0.8047649079747650  0.4062264554088270  0.8092069057627019
  0.7967461208780406  0.5999300067243718  0.7977735251247722
  0.7952209895638344  0.8000327699698331  0.2035447732585764
