Zr V  Cr
 1.0000000000000000
    15.5176564344983579    0.0055358052127085    0.0009235349890332
     0.0055289702635454   15.5339659065587714   -0.0041197367383691
     0.0009253811786535   -0.0041210125583897   15.5341853465245965
 Zr  V   Cr 
   5 117   2
Direct
  0.0009199964594888  0.4022950917713275  0.9983790723026804
  0.3754045860380359  0.2023707310038659  0.1974919517995355
  0.6009763561356657  0.2004872892839939  0.1998590284394785
  0.6031092352354374  0.7973191905543600  0.8000062789762087
  0.8141590359958107  0.6026527296646793  0.7986186202082128
  0.0009212613782810  0.0004506888810062  0.0014664737551077
  0.0007624422773804  0.9996416658916745  0.2010549304916094
  0.0010242276729642  0.0004718893254461  0.4000243210711086
  0.0002299437462367  0.0001960887856829  0.5995708837634609
  0.0015134463603259  0.0010666374206260  0.7995946703429112
  0.0002918998891108  0.1963081222447310  0.9998345741928617
  0.0019191383819392  0.1995013926332779  0.2009469396872650
  0.0006301128795233  0.1993785219975731  0.4009166023821484
  0.0007066675266048  0.1994784041914013  0.5987692609359482
  0.0013396045224899  0.1988060371065524  0.7994978242980540
  0.0000430039757802  0.4007346154399829  0.2042221775999483
  0.0005898978321981  0.3990252561824399  0.4001090300572696
  0.9999020349153376  0.4016185065237486  0.5996307237634996
  0.9996987820924852  0.3953246921545686  0.7951420720256923
  0.0009010465978985  0.6009353187711951  0.2018348944124254
  0.0005632093759971  0.6007774215141395  0.3998725301788769
  0.9990438075530463  0.6002490455198199  0.5959422215938741
  0.9995236903841455  0.6053951988220225  0.0052090149015083
  0.0006878210930061  0.8008647247767323  0.9994061068683033
  0.0009784980856180  0.8016540032773815  0.2011996953887150
  0.0003925014103425  0.8008519126477531  0.4001924249914311
  0.0008528425115155  0.7994495164018002  0.6005708669401136
  0.0019211116775686  0.8050581971334155  0.8002693670318227
  0.2013449236592679  0.9997117971352760  0.0002666315502311
  0.1997999793282376  0.9995730196855993  0.2007690763703767
  0.2008368367487693  0.0000297937119058  0.5997895400641708
  0.2013190489881473  0.0013883474574559  0.8009022709682746
  0.2007276429041809  0.1994035128023276  0.0000906017256670
  0.1996074330555464  0.1995442764256171  0.4008722659922038
  0.1996968790388941  0.1999987841117597  0.6004651413641748
  0.2005239017273632  0.1998468555974686  0.7998920803190170
  0.2051824568451398  0.3997264048673023  0.0006495497276751
  0.2004620019366025  0.4003982188905893  0.2009156820314989
  0.2008424120756670  0.4000200151211850  0.4005621994909970
  0.2005834987619652  0.3997813890300527  0.5992829414316477
  0.1994413481494960  0.4007222663708044  0.7998274099862758
  0.1996753631942165  0.6006154178857352  0.9994726404577328
  0.2004537524244858  0.6003324808464754  0.2006991788161716
  0.2011340102421939  0.5993112157606884  0.3993587916961011
  0.1981332058171926  0.6000629054675822  0.6016816047601554
  0.2016803405172989  0.5994097028102544  0.8007314911882806
  0.2007055291525750  0.8010048778938091  0.0009677045647782
  0.1996115942738704  0.7997895116592701  0.2004849452642701
  0.2004778963310922  0.8005921603306865  0.4001403893103463
  0.1999838580219492  0.8000738228899331  0.5998696477634148
  0.1983587774452577  0.7986679155192026  0.8003049373009611
  0.4015169132807059  0.0001844067750479  0.0003088976210941
  0.4007272862168742  0.9958565274868402  0.2003882357194826
  0.4008188833887592  0.0002929479535806  0.3998650566203851
  0.4006167369933148  0.9996177278462686  0.6001093667194449
  0.4001425666592552  0.0001469384510880  0.7997941664941531
  0.4018808891446676  0.1995811892881877  0.9935790970455392
  0.4004420823686596  0.1996361509718332  0.4041829634281877
  0.3994630309956919  0.1994361421955317  0.6006553903241990
  0.3993387315984541  0.2008513372709274  0.7983791162461100
  0.4017981984458709  0.4004918206844784  0.9996849756664922
  0.4014545057674329  0.4064093435715620  0.2003554901577716
  0.4008924426727025  0.3997287718733770  0.3997723844215091
  0.4003613706911370  0.4005185684639704  0.6000927464839864
  0.4003977443505002  0.4000645304884839  0.7992922109727173
  0.4008272504454748  0.6011515032338183  0.9997030861778600
  0.3994204776776198  0.6017652448299845  0.1995599831953314
  0.4001981891010190  0.6004441913606091  0.4007919298662542
  0.4001710283509010  0.6004950064403404  0.6001796280863871
  0.4001539218642396  0.5994596078747354  0.8001389654862513
  0.4001919961762936  0.8002310852494630  0.0003880184253451
  0.3992056899206608  0.7995371279261173  0.2008453806879493
  0.4000293246292873  0.8001752618071915  0.4000532346814429
  0.3994910366627289  0.8002350915890115  0.5993833457222475
  0.3970495281407539  0.8005857368340518  0.7999629652629268
  0.6005178399471558  0.0003632554932711  0.0004020058219560
  0.6012668939513582  0.9950364506844498  0.2005883381586458
  0.6005902314241487  0.9999914895447117  0.4001923074545471
  0.6002680190285519  0.0003033110258694  0.5995886063023186
  0.5998410692078568  0.0032932073228524  0.7998254930339003
  0.6012574278392223  0.2002054268730487  0.9944776574572129
  0.6011080109640308  0.1998943255346503  0.4052074073042464
  0.6009299592972035  0.2003589410120365  0.6012470644369030
  0.6008728915784585  0.2004235319157663  0.7981509676067923
  0.5991150713536593  0.4001417351582544  0.0000377310120355
  0.6009953648563314  0.4058677946761697  0.2002532055913456
  0.6001586171399033  0.4001021876818985  0.4000969204685164
  0.5996306507223229  0.3998942695727679  0.5993050697985781
  0.5999359698396788  0.3984757096860714  0.7993862622755671
  0.5996354708277578  0.5998643068964904  0.0007535893712995
  0.6004609890575084  0.6016049170576772  0.2006055900436305
  0.5995575513188162  0.5999222086617149  0.3996360744783738
  0.5996978184715132  0.5993723508587961  0.5988587485957736
  0.6024331897522757  0.5941620612373876  0.8000548316914928
  0.6003755600677541  0.8001955802602162  0.0044693142095121
  0.6010032619778379  0.7985093007693381  0.2011432305508600
  0.6002553855459256  0.7999684729245825  0.3993597530742019
  0.6005572364986534  0.7997702340010623  0.5956881815531972
  0.7998985202437955  0.0003180185619006  0.0007393043786217
  0.8011634232758191  0.0004058706931400  0.2003130727142285
  0.7998100870572137  0.0005386013005244  0.3997808500413432
  0.8003433212221023  0.0002244852589395  0.5993802497604620
  0.8008354663557666  0.0028940528470657  0.8003645113853565
  0.8007767341088279  0.1996012089246895  0.9998955481217876
  0.8055757985092775  0.2004094372028317  0.1998517589833636
  0.8011997267868933  0.1998448529994187  0.3998655327346435
  0.8011571028667465  0.2000154910302582  0.6000405336845476
  0.8011319162821073  0.1993608314905836  0.7996873386591388
  0.7955041408079863  0.3997987905879976  0.0004995073592946
  0.8006875936087182  0.4003237500716547  0.2004956437722640
  0.7998698341426519  0.3994920141012848  0.3998015981833319
  0.7991023103693981  0.3998014692740176  0.5987945360919634
  0.7999644461927375  0.3967457330848148  0.7993720401931929
  0.7989694677100891  0.6013409471948511  0.0039534197752340
  0.8004073861318629  0.6006869208508280  0.2011915993122953
  0.7996920658556436  0.6000030920872046  0.3981813203398786
  0.7993842015273472  0.6006809376049550  0.5946503760716840
  0.8002636287312132  0.8016765702074689  0.0013330116850407
  0.8016947274845382  0.8004055514146802  0.2004401621179329
  0.8009509436598098  0.8010412926238000  0.3995337610036211
  0.8003689698383795  0.8010345395647286  0.5986127972748634
  0.8071546234911501  0.8068658801453704  0.8000611355747973
  0.2005330729937368  0.9996551231458397  0.4007110713454671
  0.1922198010710030  0.2000558399237204  0.2003469040265070
