Zr Ti V  W 
 1.0000000000000000
    15.3704372863088707    0.0041087699184726    0.0045828320708022
     0.0041071823098185   15.3593176205705255    0.0049868964281650
     0.0045832368054306    0.0049883200619353   15.3853693029952101
 Zr  Ti  V   W  
   1   2 107  14
Direct
  0.7918209384882998  0.4015016809555226  0.8103430206086620
  0.4073338085008184  0.8013825370779987  0.8075389976967076
  0.6138273209551983  0.4018286405069004  0.9890707407091427
  0.9986718407395134  0.9974627344594632  0.0002043552124458
  0.9959714294849877  0.0015393715076395  0.2003950726005460
  0.0001352953545348  0.9967986797803723  0.3995442592312378
  0.9948758616975528  0.9999741359076911  0.6011833450321331
  0.0022466263079421  0.9984187548886776  0.8005150320296394
  0.9995342663153003  0.1992417373155634  0.0004382595677344
  0.0017346248937874  0.2022560073360205  0.2018861904895305
  0.0007714983029479  0.1997876729672395  0.4004552767591042
  0.0028107762342044  0.2008481549670926  0.5989265716167572
  0.9989052132108052  0.2013245229848182  0.8010242391839935
  0.0039025642332240  0.3990653426642807  0.0060140750666572
  0.9985487474062684  0.4010377336986019  0.3968862541047347
  0.9976043962951817  0.4000697336261932  0.5997665291641177
  0.9994222362186356  0.4010587980872493  0.8024388429736207
  0.9982139714482126  0.6045315887757765  0.9999004041922162
  0.0039606051619878  0.5962604067513654  0.2005751161679839
  0.9997320441218966  0.6026695518332231  0.4021065617344285
  0.9996258015083915  0.5995618128355846  0.6011681786660837
  0.0026414426696673  0.6005077812568668  0.8000062748942475
  0.0050642006588280  0.7992510812730496  0.2008341030853779
  0.9991130530817592  0.7994859433275527  0.5942572789678401
  0.9991124556178667  0.7988359954992743  0.8058231636929862
  0.1966135321539676  0.0012511718881320  0.9940960733144927
  0.1981244716830184  0.9988314035738752  0.4027358495788809
  0.1980701989430455  0.0029021641648239  0.6052155810916869
  0.2008843169505316  0.2017544315228580  0.9991570707205495
  0.2010676167461528  0.1990160569220404  0.2005065033341336
  0.2025750228194231  0.1988891835281161  0.4029913810317637
  0.2001837707549689  0.1963419137877969  0.7953327134342765
  0.1965764641129030  0.4039259165148937  0.1953667527283505
  0.1993216296412726  0.4014769339812513  0.3992459999383421
  0.1977485027686285  0.3967991834091552  0.6005903433310472
  0.1977382052259464  0.4040964395561955  0.8047369527069990
  0.1998496760434817  0.5954462249100088  0.9969701068007798
  0.2008607658074902  0.5994089479749782  0.3987662095984014
  0.1996221436052779  0.5990078668704286  0.6049129897489731
  0.1964400543265830  0.8010573920607210  0.0032447085309903
  0.1958927025126697  0.8007113128188420  0.3971125182668171
  0.1993219537282860  0.8002476017824449  0.5989352845174237
  0.1976411218614351  0.7990529831457440  0.7996948216861653
  0.2346062754512012  0.9981736950511019  0.1624764908798236
  0.4025180114158378  0.9963556597294947  0.2014178978874994
  0.4010701044458577  0.0026903617207629  0.3993549200744293
  0.4006582589591142  0.9990088396205546  0.5992004433577102
  0.3962176565156631  0.0003507382801355  0.7974801187895001
  0.4008709492972611  0.2009439249057586  0.0019892787931574
  0.3992769089957410  0.1964499538464530  0.2030569264332327
  0.3960144454884403  0.2004999895354275  0.5945354348230388
  0.3993090581121848  0.1992591638487587  0.8001643690915021
  0.3958173585677446  0.3973353028304844  0.0004405780065382
  0.4023294417429942  0.4008604006492077  0.1984743540521493
  0.4001052553842858  0.3970231842042040  0.3978067021108629
  0.3991193512687676  0.3998692469682198  0.5982967942316069
  0.3965782569303249  0.3992417215034802  0.7993835598018059
  0.4012993341378593  0.5988153048495033  0.9995905420088567
  0.3975398081482440  0.6026356226991458  0.2006869581855583
  0.4002154283692937  0.5989836659319339  0.4007195049510983
  0.3985410341247210  0.6003655485880650  0.5990575120162553
  0.3956506799693300  0.5994905165309006  0.8000144975446924
  0.4008945704798277  0.7979352466428530  0.0071384591257568
  0.4013452455190097  0.8013315296462714  0.3962425423073830
  0.4000569394313984  0.8010839623836670  0.5935214631054242
  0.6031427696401772  0.9999359579541095  0.9982215950254921
  0.6026025500677864  0.9998628500313180  0.1974590215654594
  0.6000582729732977  0.0002952573431898  0.4019373450649546
  0.6024745872620977  0.0008519971904870  0.6025814767402262
  0.5959148489102335  0.9990323726157506  0.8021527207949117
  0.5982487485610677  0.1975138808838829  0.9990679197688649
  0.5988777453755639  0.2022255695191893  0.1989779046065411
  0.5951739442398044  0.2013579087920806  0.4008742191507487
  0.5978263754610884  0.2009320149857572  0.6010912391249850
  0.5963055450337840  0.2013484533998693  0.7998574856900026
  0.6026225900805425  0.4009354433482257  0.1992874772246493
  0.6012412002678102  0.4012304746365991  0.3986175472461566
  0.5998879982831905  0.4007504099656993  0.5990066233413840
  0.5898795282346361  0.4007231697177305  0.7943209556541448
  0.6003971777370438  0.6012782265643936  0.9985602978853692
  0.5985809641369141  0.5985778768087808  0.1980676610248016
  0.5994094338569320  0.5992872326277515  0.4018198681901796
  0.5984373842954135  0.6001508556215795  0.6019856351407525
  0.5960611497927303  0.6002538053719459  0.8000445062727050
  0.6000272811369943  0.8002384435071285  0.9998615874734432
  0.5962178947935072  0.7988371943949846  0.2000045798088866
  0.6037676064276426  0.7985626140380037  0.3989428926354956
  0.5999065973519523  0.7995873762183933  0.5998037949156935
  0.6027012429415286  0.7991139396260720  0.8005889690213968
  0.7991461274180494  0.0001932056053000  0.0045254514572319
  0.7988268767063922  0.9972525350041944  0.4008082784184430
  0.7992761011003168  0.9994865028806779  0.7963306286844798
  0.7996633235285096  0.2002211438454930  0.0009942875175259
  0.7987407547211136  0.1965567466310833  0.2027393337643544
  0.7983482127593694  0.1989409962371284  0.4015513566247455
  0.7994242307238517  0.1966404701315397  0.5999065767612218
  0.7991654020800485  0.1954196203495656  0.8004135640643648
  0.8083631259396585  0.3999905643399238  0.0111126903132546
  0.8047718023106452  0.4000579000340832  0.2047988094782527
  0.7998701376211126  0.4002321567220637  0.4017261600598128
  0.7993909686986033  0.3989072816933510  0.5993087842399680
  0.7997790547046637  0.6013419524683498  0.0013520043629838
  0.7984965530492507  0.6007649104853340  0.2012159221334376
  0.7985606402660710  0.6048613896264599  0.4015616574884482
  0.7987985861158673  0.6002630002740283  0.6027786670228064
  0.7994296212947136  0.6063897647789467  0.7993992353635183
  0.8037977026009316  0.8009514882914210  0.0032229612816066
  0.7983984292647830  0.8038493529546801  0.2047635929377876
  0.8002470122629411  0.8049341735460849  0.5958595209502252
  0.8003994572177150  0.8017260095793771  0.8001566477340233
  0.0012150477362698  0.4009301056065898  0.2019418310415076
  0.9980728822058538  0.7993633071599250  0.0039719090946891
  0.9980777720754221  0.7986893853383152  0.3978777687463093
  0.1998913306092491  0.9983891426352076  0.7999185895246451
  0.1993077269786678  0.2005207949075413  0.6005183945976231
  0.1994631439814040  0.3998865274847579  0.9997214539017772
  0.2021877989297995  0.6019812475049173  0.1973746823862045
  0.2004488052528194  0.6011882554010438  0.8002575501174357
  0.2023283962170665  0.7941179166307790  0.1995623866373060
  0.3990149935778352  0.1998836464063557  0.3986846278955409
  0.3972520255201102  0.8003518128089923  0.2022521563501549
  0.7993665630387966  0.0015009033300706  0.2021084717504654
  0.7989357323360915  0.0009142115408299  0.6001827900591188
  0.8036843670266650  0.8008755658813170  0.3994755177469801
