Zr Ti V  Cr W 
 1.0000000000000000
    15.3185418189025757   -0.0058579337440910    0.0011531853961578
    -0.0058580518235424   15.3152820885503385    0.0003427542276612
     0.0011540796390519    0.0003423374486165   15.3446139054441577
 Zr  Ti  V   Cr  W  
   1   2 101   1  19
Direct
  0.6013828701180393  0.9996527434809132  0.8013124160109452
  0.2008883612152263  0.7911892194014905  0.2093758210112409
  0.3992386433016593  0.7995463663742559  0.6103170572525761
  0.9996802987070219  0.0007033777876104  0.4631193262324388
  0.0010264581042165  0.0014428459353951  0.8065608894133243
  0.0045455382819787  0.1986233413473596  0.9982061032399974
  0.9987877578615313  0.1991966866572879  0.2008882860930489
  0.0001519706091349  0.2043250812175005  0.4013064995501339
  0.0040534987474372  0.2044021280473684  0.6004692661643168
  0.0007205083907221  0.2056464559837230  0.7988897007023745
  0.9998808931438754  0.3985946276775715  0.9940569644270926
  0.0025997983406174  0.3990838409837366  0.2053133737614197
  0.0034189877045897  0.6030451002288418  0.0002433450946106
  0.9962372201407064  0.6005648485210692  0.1986529557705052
  0.0003147578574109  0.5972608956018858  0.3993557360824533
  0.9994671762592762  0.5973709526353741  0.5989751170247851
  0.0005950225476514  0.5983335053038267  0.8003876749396123
  0.0001057133988205  0.8043900688408372  0.9982302303862891
  0.9995451442525602  0.8014543294892343  0.2009969930358163
  0.0022188761192057  0.7996892038220704  0.4021761802419235
  0.9998410645376699  0.7981810267732772  0.6003970740903952
  0.0011405095571378  0.8004826224035422  0.7984873797737372
  0.1959212407368871  0.0028801639009528  0.0028738645957942
  0.1961423978288636  0.0012571999408104  0.2023661066563721
  0.1991685328700831  0.9993769593359834  0.4001664078807092
  0.1946343490272489  0.0032145278685498  0.5993876235263030
  0.1964387825223734  0.0006696892607654  0.8002572269998929
  0.2009152464653019  0.2036880344815568  0.1955402651034767
  0.2026961364831711  0.1987370791110794  0.4052043214922190
  0.2050098732873316  0.2044476413253477  0.8016806872609513
  0.2035969245194058  0.3989735380721744  0.0011215655984912
  0.1989865926683005  0.4001097569383565  0.3945714039781465
  0.1977121303871558  0.3961595516901771  0.6051644572286695
  0.1982897171343548  0.5920758415665737  0.1952500787964926
  0.2007309826694587  0.5998982191667772  0.3983713226925216
  0.1986083141069035  0.5997621518845553  0.5976937565214264
  0.2002502114726942  0.5979157075703648  0.8067124758275795
  0.2053990750772811  0.7989036186686989  0.4051855137609272
  0.1956669085399450  0.8005955159729784  0.6017792139503227
  0.2050615866067741  0.7998817304365295  0.7995537814374934
  0.3968344089841431  0.0001126740797524  0.0013021987339630
  0.3976581460010880  0.0003947571055333  0.1985194345493619
  0.3997584488437896  0.9948139713334749  0.4000486738480306
  0.3984640641900079  0.0013177384071876  0.6000240852199231
  0.3937612450192696  0.0015199887728963  0.8005928381006400
  0.3962419682041697  0.2005683136004348  0.9928711611755484
  0.3999549505124630  0.1985271123007229  0.2002138093595241
  0.3999359185723081  0.1979503134404945  0.4017054905537060
  0.3956512784124200  0.1982284511960560  0.6051938713102125
  0.4008781997552828  0.4003193015930793  0.1948199709438543
  0.4026308595732393  0.4011893138259254  0.4022643539793234
  0.3987053422817458  0.3996730806039231  0.6027723568959701
  0.3945963142603370  0.5990453553777763  0.9993495289948106
  0.3987460829036454  0.6009439795461241  0.1979105733635038
  0.3998715186895309  0.6034262605426162  0.4006980812602197
  0.3986047632608386  0.5969605156139239  0.6002642524869944
  0.3998954341297458  0.6030651560508196  0.7976907529013497
  0.4026187355888755  0.8014259406290299  0.9969393132570209
  0.4023167275673258  0.7990732869332423  0.2002345807644855
  0.6008904508912553  0.9968403228159239  0.0082717418653617
  0.6024612850188048  0.0019952048028196  0.2022914845297072
  0.6000816443996746  0.0003497836561860  0.3973680092561999
  0.6017133283050349  0.0007028891829142  0.5937254279410771
  0.5993903392406784  0.1981257500102874  0.0002081005097143
  0.5996528117822791  0.2036731759615688  0.1995876541765163
  0.5984048828775363  0.2035829137220645  0.4002993861965535
  0.6006222684054825  0.2003612635739317  0.5988028982900084
  0.5952822285565352  0.2057489254140110  0.7991518135051453
  0.5951680538333803  0.4017473623073270  0.0041117545089984
  0.6013412341183081  0.3996117321164716  0.5957094825835310
  0.5972674025161198  0.4025405327598954  0.7993748907363691
  0.6012694791319011  0.6048812520973877  0.0014487803391090
  0.6043197105222801  0.5954050886604978  0.1998590522135054
  0.5994297448925932  0.5959030647822610  0.3988606092929359
  0.6025284404070577  0.5981917653604311  0.5976997375183019
  0.5999278898258956  0.5966343916310172  0.7999284095496467
  0.6003196610274322  0.7988565934834113  0.1953030085351135
  0.5944137425313240  0.7983201771502914  0.3998574366001696
  0.6021462934467136  0.7985299351682380  0.5995488642904661
  0.5956632462626815  0.7929304827857243  0.8038001313878508
  0.8029500760159884  0.0001797399527761  0.0007932806876972
  0.8036848183997927  0.0004210003544989  0.2009895857403863
  0.8001999187202974  0.9991701906417207  0.3996287558348429
  0.8024947565040106  0.9999859962716279  0.5987968896221292
  0.8063292762853952  0.0015922939057920  0.7987807149084344
  0.7985017009528163  0.2002718507044041  0.9983663808642498
  0.7998141283363610  0.2011816753735215  0.1979185329266720
  0.7999459142392561  0.1987169436704534  0.4002473277414205
  0.8016226867662329  0.1969584234613239  0.6012009352316005
  0.7983125439427069  0.2030334283964151  0.7999040558095492
  0.8010249321045084  0.4004929676010554  0.9990475735772545
  0.7979074745266156  0.4032869588926760  0.1986732915090080
  0.8006643476912962  0.4002607401572739  0.4007280228564586
  0.8029457491666517  0.4005776856693462  0.5997965298141552
  0.8029464119382596  0.4019052696390447  0.7999942488574870
  0.8026809730597994  0.6023865325599442  0.0027224535105166
  0.7997033742031635  0.6027873293246961  0.3946993258440818
  0.8002820026915487  0.6028581102180911  0.6001195864391564
  0.8000534703775793  0.6000170214291791  0.8013892035479006
  0.7947544707003699  0.8012595302542320  0.9980320671202246
  0.7991705198952738  0.7961258124206103  0.2010511565445705
  0.7978327446347665  0.8001121221553573  0.4007999775925487
  0.8007781413227645  0.8013717392367782  0.6004896422814473
  0.7986991873398356  0.7986969744284442  0.7993231575708581
  0.2009976176599622  0.8000930934286434  0.9991257724799849
  0.9987438935217220  0.0022391582904011  0.0036048423352718
  0.9997370390505751  0.9998806746935400  0.1960475122809483
  0.0004701238169193  0.4011126063439244  0.4033624654058431
  0.0012206409051512  0.3999928376440865  0.6001336210183814
  0.0047187888746563  0.4027168455809181  0.7959729556336157
  0.2007714823179682  0.1994040707526424  0.9998852438143506
  0.1997159213712664  0.1974059396226193  0.6015335729197674
  0.2002461329058781  0.3971739123436872  0.1991717667348656
  0.2015488336092538  0.4015356864479405  0.8009013165242637
  0.1985918148509299  0.5985593696200887  0.0023537058309427
  0.3999480835038497  0.2035396116921699  0.7991679704451834
  0.4003142753920182  0.4013799171183199  0.9948299228182985
  0.3969654036401813  0.3995997979868500  0.8024668936050255
  0.4009384650929692  0.7993256804876471  0.3952535333678422
  0.4020786945381974  0.8033373693110634  0.8032491568568280
  0.5994422390582792  0.4002010957790739  0.2026115642362404
  0.5991531897466122  0.3997115083633614  0.3974005305022743
  0.5983709532297437  0.8010069493324729  0.9996023702788087
  0.8011642550028676  0.6002089570641580  0.1980006387219047
