Zr Ti V  Cr W 
 1.0000000000000000
    14.8656932868510410   -0.0315526343351642   -0.0094809834502345
    -0.0316963113674826   14.8884467172531849    0.0198916564743621
    -0.0094408262406145    0.0199243394360486   14.9729662127772496
 Zr  Ti  V   Cr  W  
   5   8 106   4   1
Selective dynamics
Cartesian
  2.9119966312551813  0.2553972616949078 12.1777246257111891   T   T   T
  6.0124984124158063  9.1346417059378187 -0.3599558700897385   T   T   T
  6.6224512874027583 11.8414314381251042 12.0995345156591796   T   T   T
  8.8296615519716024  2.5110245582424104  9.3625612480631730   T   T   T
 11.7649118631879723 12.0263123627789863  6.2146152290288370   T   T   T
 -0.5798932844312431  3.1638147843396736  4.7630742513482582   T   T   T
  3.2118700438391765 -0.0634292227187412  5.7916264901596124   T   T   T
  2.2382281781635376 11.2632539015041928  3.4348228675068704   T   T   T
  8.9006249091813636 10.0292885845844122  9.7875206283110359   T   T   T
  9.7834445352389992 11.6752942705519711 12.1403678568791786   T   T   T
 11.6508456378561362  0.3083595252522203  5.3548706143484956   T   T   T
 12.0314365635578771  2.7672030350534520  2.5803761036648440   T   T   T
 11.6439381777446620  1.9083144594795463 10.8196346357900666   T   T   T
  0.9061388447695726 -0.9347972684359993  0.2547845407204673   T   T   T
 -0.1254682040805233  0.2447461802926098  3.2801649498960699   T   T   T
 -0.4171425346282642 -0.7753810828039127  5.4314167616369495   T   T   T
  0.2494950373607177 -1.1085807202159141  9.4305595863283269   T   T   T
 -0.3407820325939814  0.3643742955529331 11.8897699642710339   T   T   T
 -0.3625508469039552  4.1404496827452499 -0.0362248593933561   T   T   T
 -0.0698893419599328  2.5869179421789705  2.2256667860057839   T   T   T
  0.0160386529266451  3.5181463706979428  9.2816990580897532   T   T   T
 -0.3720614149194663  6.7780375034143416  0.1646838649756776   T   T   T
  0.2159063158535738  5.0875718936414529  2.3820417913061234   T   T   T
  0.1393695349257303  4.7950880120080486  6.8580530703112137   T   T   T
 -0.7258834954977295  6.2818725365413890  8.6223446127333041   T   T   T
 -1.9476270142867453  4.9655783833950364 13.0108558980481774   T   T   T
 -0.1963115192358781  9.3195501941257124 -0.5461426645939856   T   T   T
  0.1351575835690224  9.4904225720112088  2.6366622406969866   T   T   T
 -0.8727183510783908  9.6142385406142417  7.3588724148318505   T   T   T
  0.3158123505053596  8.5054170413284975  9.7709866844975330   T   T   T
  0.5839523396802339  7.9981906798714659 12.5490579321355362   T   T   T
  0.0697678602494848 11.6826012287246748  0.5479390900130715   T   T   T
 -1.3399963553402445 12.1775159393046355  2.6722985553377439   T   T   T
  0.6125273282834848 11.6927929835714330  5.9655724287718490   T   T   T
  0.0053816576807793 11.0531297827016051  9.4722469404768770   T   T   T
  0.0412923966706535 12.9048907353746589 12.0149113850336153   T   T   T
  2.8915813006307278  0.4994971209507433  0.6767465098886655   T   T   T
  2.4246497463266139  1.3143295874007550  3.4009918660225500   T   T   T
  2.4139526980836603  0.2146546264130157  8.4854044765864955   T   T   T
  3.3466604136962657  2.9622249412604380 -0.8052227985347564   T   T   T
  2.3856894652810756  3.7187935801826351  2.9131744230382899   T   T   T
  3.4616360889508369  3.4018533521398240  5.1772122088451482   T   T   T
  3.9081321827534756  3.5849490033766203 11.9304031637396868   T   T   T
  3.6817929958557190  6.9765028241876825  0.9638874373503040   T   T   T
  3.8762612368968008  5.7335774992259889  3.6702129026398458   T   T   T
  2.7850764004688169  6.0525953093489377  6.1353455341025418   T   T   T
  2.2008818464126283  5.0491908262007152  8.4759709933843990   T   T   T
  3.7761182065744650  5.6084988078718911 13.5471251255629408   T   T   T
  2.6271754605875262  8.8642763777138711 -0.2202378102979953   T   T   T
  2.1170403324728908  8.3267199952549813  2.7615603124556913   T   T   T
  1.0628905328050067  9.4416547030980222  5.3037600320749752   T   T   T
  2.5880930443888137  7.9660015146452618  8.4851135614985989   T   T   T
  4.0420558037653649  9.0260116664247771 11.2846054331093910   T   T   T
  3.8804084231736922 12.2054312105009171 -1.0357796245886080   T   T   T
  4.0820341627938568 10.6228761614973326  7.6578684059889399   T   T   T
  4.3756567125197385 12.5292922261549204  9.3784645423701480   T   T   T
  3.4032045965093061 11.4173372720611539 11.6120626018089599   T   T   T
  4.9434570274057776 -0.2959665363621051 -0.6484855373751858   T   T   T
  5.1109438762417305  0.2456355005757755  2.0672013125192263   T   T   T
  6.4259550639574563 -0.6062176638468989  9.6427978176603890   T   T   T
  6.2380374926185729  2.5405722809355780  0.8096497745830784   T   T   T
  6.1995628435478336  4.0229982734388576  2.6318396941724331   T   T   T
  6.0232442955649628  2.4537625671112067  6.5184712655451706   T   T   T
  6.8506790430816960  2.9420795482225648 11.5515140016392479   T   T   T
  5.8809627813907115  5.3285075110951183  0.1160550323500067   T   T   T
  5.3804360247585610  7.1004313418918654  5.2981065891920114   T   T   T
  7.0129979881405493  5.5026803145841479  9.7695512385871908   T   T   T
  6.2034348966129196  5.8086535702942168 12.4303437102245038   T   T   T
  6.0542550308032057  9.0317268980656333  3.8186461561054896   T   T   T
  5.9184086378565759  9.4143085390501575  6.2988712982300221   T   T   T
  4.9541392500003028  7.8047746341517836  8.7700731937771774   T   T   T
  6.2687246786353850  8.1026974135077268 11.0044139963774903   T   T   T
  6.0911900467813860 12.6642777971043170  0.8521129052206193   T   T   T
  5.0453733308951501 11.1771046731948225  2.7536117058679261   T   T   T
  5.8826505026471319 12.0267575804101856  5.5054741375624712   T   T   T
  6.6953566938534284 11.0327019556337582  8.1680935623487869   T   T   T
  8.7712706876001612 -0.5212003003301822  1.0775312154799483   T   T   T
 10.0105166049936276  0.7851158288605992  2.8694570047544672   T   T   T
  7.8999814757482456  0.5053800211497129  6.1508753209539657   T   T   T
 10.0000540443873618 -0.3314153773907256  7.6336596403584744   T   T   T
  8.3878217814933453  0.3622156252614104 12.2854030043770592   T   T   T
  8.4415840235931263  2.7743319050746535 -0.4709356435420869   T   T   T
  9.3590473373141467  3.3335055371916873  3.4689468565132433   T   T   T
  8.4561214948271353  2.8941859732379016  5.6660539397373508   T   T   T
  9.2808798160043455  2.7990817794340077 12.1284278316287715   T   T   T
  8.3558335206130749  6.4224063054725260  0.5885763102594734   T   T   T
  8.0767080857805968  6.9612169972095979  4.2426370376987927   T   T   T
  9.9333563987949614  6.5641204413992451  6.1777668845934288   T   T   T
  9.3254168260237300  6.1075441502976133  8.6513606291736451   T   T   T
  8.4684250728097812  4.9412494705614307 12.7015272685740861   T   T   T
  9.4774664908060338  8.3686503213038517 -0.1431787926397444   T   T   T
  8.2728141058796929  8.6418970839370299  2.4216181011466933   T   T   T
  9.2571225724444144  9.0042100375877219  5.0696688473115605   T   T   T
  8.3400503577735243  9.2231557275186482 12.3695014137968204   T   T   T
  8.7410647375048054 12.3309281945697844 -0.1289447128827302   T   T   T
  9.3400175223010731 11.0592743937806617  3.6449738232708881   T   T   T
  8.1194652486167005 11.0948719498636788  6.0661296668787532   T   T   T
  8.5215462043054853 12.5712569179088263  8.6339563069677343   T   T   T
 10.6301355374960451  0.8006501327351655 -0.4238513275834769   T   T   T
 11.1616425874616443 -1.4795952456534007  2.9801908540201358   T   T   T
 12.8556200571253409 -0.0975673028118229  8.1502930797947180   T   T   T
 12.5829842687321598 -0.7747204740417679 13.0393823375735547   T   T   T
 12.3914608048935655  2.7356463979641732 -0.6583071589807569   T   T   T
 10.7907008214603728  3.8289951471155268  6.1665137751376395   T   T   T
 12.1569760898990324  2.5118826401085377  7.9748447498275334   T   T   T
 10.6698897549304128  6.2632413598742698  1.3550492897609066   T   T   T
 12.1833885968194195  7.3335956343068762  3.0180834022941427   T   T   T
 12.5783524147551784  6.2410552518087155  6.6410268593674191   T   T   T
 10.8522732927308425  4.5152657108786141  9.6864515228560393   T   T   T
 11.9911026673371168  6.9298558197167592 11.7743245443388815   T   T   T
 12.1075328530169468 10.1021959300868200 -0.2881198542389337   T   T   T
 12.5025396957359796  9.7488172905074144  3.1684977444728535   T   T   T
 12.1644724991074451  8.4602668550869566  5.5721113327277783   T   T   T
 11.5346534809025094  9.2850688956126231  8.3903074573823790   T   T   T
 11.6589143510838831  9.4167620260761637 10.9384992930059521   T   T   T
 11.5590680806669379 12.8828653478004327  0.1058685279329529   T   T   T
 10.9366024697434980 11.2305920763859195  1.6626930460347469   T   T   T
 12.7360344598878701 12.0560233218009198  9.8474337336245554   T   T   T
 13.2703013655606874 11.2021297544009180 12.8279463614856297   T   T   T
  2.4193409697311421  2.8278257139881053  9.7645826613155222   T   T   T
  5.9209793103311004 -0.3593941080099390  4.9984694384389190   T   T   T
  6.0621347340372012  0.1923231131606000 12.0056471115558612   T   T   T
  5.8338461649867224  4.0404512431371673  8.2907217859424218   T   T   T
  6.1079433719531204  6.7617108488867670  2.3654022993568136   T   T   T
