Zr Ti V  Cr W 
 1.0000000000000000
    15.4524635291044028    0.0020100171815477   -0.0000388011139955
     0.0020062036343283   15.4601366885832689   -0.0119861939205668
    -0.0000360992720918   -0.0119889160374406   15.4556659787457562
 Zr  Ti  V   Cr  W  
   4   3 106   4   7
Direct
  0.1937096413320864  0.3941744548290592  0.7957948091007511
  0.3931537328855701  0.1996820063261051  0.3990377145195907
  0.5991841673734024  0.4110923355661209  0.0093150806571253
  0.7963670666837217  0.6066952036037947  0.5987572216951917
  0.0017639190518354  0.2027880178799132  0.1919580208003666
  0.3924762551143029  0.8016543126267287  0.7995917596563451
  0.5976329396748072  0.5879024683449449  0.1868525874350784
  0.0001455327247548  0.9998266021627441  0.9995481875185024
  0.9991660265674956  0.9977060528776421  0.1991001011326459
  0.9994627878201845  0.0001230751067588  0.3989873221018796
  0.9989273958831797  0.9991516889631025  0.6032500911257214
  0.9994816242893815  0.0044944008012460  0.8018990415102326
  0.0004613361728505  0.1997287058493499  0.9999887221532955
  0.0005519239359222  0.2000700788468128  0.4027543599858157
  0.9985970300390923  0.1989585244199756  0.6002405949135257
  0.0027934916949346  0.2017141744533466  0.8003603493820116
  0.9998824949786941  0.4001885678156152  0.9988345869598748
  0.9996253899861254  0.4016074490080583  0.2000250577203481
  0.9991102981031915  0.3998288065980982  0.4011070054639622
  0.9980852190640346  0.4000920545687749  0.6036212562506964
  0.0013281971276047  0.6008668075517063  0.9993475842656984
  0.0000794348647579  0.5984990769589291  0.1977868621572357
  0.0014485191712927  0.5973141235302809  0.3985392640201152
  0.0027423090014787  0.5994217383096860  0.6006539427178466
  0.9996967215659318  0.5932847781239161  0.8012898776746971
  0.9997540754358073  0.7984481002715681  0.1987184450294221
  0.0044409434857435  0.7989543125822410  0.3990904318105737
  0.9966467693911374  0.7985622759245660  0.5974856663668862
  0.1996290387030524  0.9990732418659714  0.0021571058236126
  0.1998580274011774  0.9980429372512781  0.2002986385698581
  0.1996775835631570  0.9991803691759537  0.4015524276498186
  0.2002459227963113  0.9988390268754511  0.6003553226295959
  0.1978958132728854  0.9995452441747144  0.7992489725150419
  0.2054105463112909  0.1983227968774998  0.9965118936789576
  0.2016742451150476  0.1989679898488873  0.2050674134080951
  0.2006255315619002  0.1972688648716774  0.5996576305728465
  0.1991614305743935  0.4014885279632679  0.0054170528880335
  0.1990589282419128  0.4001941328657032  0.2024009369017563
  0.1987059693015358  0.3966799210499526  0.3999085004797940
  0.2008885161998462  0.4023237910019613  0.5943963619905069
  0.2002018200608328  0.6024145233093466  0.0008287907294930
  0.2005390072180649  0.5996995818040993  0.1994657866286557
  0.2001162025251718  0.6041683533545192  0.3998680051225912
  0.2008593211302574  0.6016535946324272  0.5990647266978781
  0.2017765083473531  0.8011760845122984  0.9981181159667374
  0.1999639976105921  0.7996400052416635  0.2045510738785003
  0.1987541238532860  0.8010897277290845  0.5983059698901475
  0.4009151726101629  0.0033118597368128  0.0019660660481682
  0.4012751067421365  0.9987923906080691  0.1998058667171276
  0.4005544172754953  0.9949201570461664  0.3998601879232619
  0.4025007674624212  0.9990298623636134  0.6018050437426540
  0.4003075757224063  0.0032230488624503  0.8011409287556295
  0.3997818262879425  0.1995054215102792  0.1928694006868617
  0.4006040851739862  0.2001040807668570  0.6055562074188299
  0.3961880353840319  0.2009232655705270  0.8060582961122688
  0.3940494261940938  0.3958294795753495  0.0010471894526146
  0.4009244977303628  0.3998948485352902  0.2014953544544300
  0.3996339351157394  0.4042442954905723  0.4004898248231294
  0.4006150973464846  0.4009836179032815  0.6012408955780014
  0.4029301291882742  0.3999860658004580  0.8020342133618567
  0.4006136434750142  0.5995201888383401  0.9992923967574729
  0.3983009624403622  0.5976756971031870  0.1981551964654344
  0.3995852511511094  0.5993955721542158  0.3984850311599494
  0.3995133511745601  0.5995077584443806  0.6015964046283772
  0.3991946548475802  0.5966274279800378  0.8010674440060740
  0.4006170389155443  0.8008610792533922  0.0036793601860148
  0.4011672451784097  0.7981378168235052  0.2001573006509021
  0.3964604537454768  0.7980029647800806  0.3994973249798575
  0.4024525570343898  0.7992240002045506  0.5966218481506302
  0.6010676224732987  0.0000335536655559  0.9998777416233725
  0.6007226724304449  0.9982017751391932  0.2015798501158443
  0.5998516357913379  0.9985369936423304  0.4006612577593909
  0.5999184386664588  0.9999533497405463  0.6004006225927487
  0.5997963609778100  0.0001581458578378  0.7999857354484603
  0.5959227933022808  0.1985972080927512  0.0003112863311683
  0.5999964894507686  0.1974006041115321  0.2019286135306003
  0.6010741801557632  0.1982940657474659  0.4020477559022452
  0.5987942612754258  0.1991219771732118  0.6021468555609317
  0.6001873145352526  0.2006690876415371  0.8010090570207525
  0.6008508592435755  0.3932878555361681  0.2108113477091316
  0.6003164480732450  0.3987537620019789  0.4040858511685632
  0.6004697947273473  0.3991589777643484  0.6010621825833983
  0.6019881590035112  0.3999160606808553  0.7986602346998782
  0.5996359626324659  0.6107848611238791  0.9922057404745195
  0.5985824887217703  0.5981982427259120  0.3999183156876008
  0.5935294046058373  0.5999718417045685  0.5996158292577303
  0.5989920623673501  0.5996569416352220  0.7982873848804769
  0.5995335841215157  0.8034633930069447  0.9991485439655229
  0.6005272491496734  0.7998397190866655  0.1999513325946858
  0.5991789632444726  0.7970706902142973  0.3976452670581712
  0.6018380348570543  0.8001298822637672  0.5990628829527421
  0.5998475970951487  0.8000509965009062  0.7992315357014196
  0.8003002252741795  0.9992864099907561  0.0003809494356330
  0.8003312697015063  0.9996142458385514  0.2008224080007632
  0.8008920137966583  0.9999018042587305  0.3996077219551650
  0.7991746418062718  0.9998766024876393  0.6002251235681122
  0.8023466572597246  0.0000325715494050  0.8019486662061237
  0.7978142251982057  0.1995142150589135  0.0010262733073749
  0.7980935846795113  0.1991789570028348  0.2008620267488193
  0.7994591031061009  0.1982072116568252  0.6008275754748891
  0.8030508538077514  0.3986595384483961  0.0014571928055503
  0.8002691604199359  0.3983885803065208  0.2022394786992418
  0.8007504285651963  0.3989660630377888  0.4004792759277067
  0.7988844797039999  0.3975896556064943  0.5991527157729719
  0.8004148166673080  0.3982766596023718  0.8014976024333536
  0.8007661225827868  0.6029912736206878  0.0006108241285620
  0.8015445806009885  0.5995092935463178  0.1980031218166187
  0.7996623543123539  0.5991897850397442  0.3933617311439658
  0.8011599295910972  0.5999924027563392  0.8046326881987690
  0.8009021557474205  0.8011603929472423  0.9988163920280901
  0.7997177586990079  0.7986756188439795  0.2010730760267236
  0.8016449451220102  0.7996617784316816  0.4019977679327610
  0.7989778367491753  0.7996122468275789  0.7966605362167115
  0.0013519391708972  0.7992374464182037  0.9651877117579466
  0.1999839685343636  0.6027197441784162  0.8002498225946373
  0.8001618191105025  0.1988248437831804  0.4007667107961798
  0.7999965359058594  0.1988838588117681  0.8009117278492337
  0.9955389682294490  0.3985976914716717  0.8013669007812656
  0.1942054442862987  0.1977360781673051  0.4022354392038631
  0.2005754440657518  0.1951674941417180  0.7994173941727610
  0.1999848947531862  0.8007035431715248  0.4006328002033663
  0.2029433772089849  0.8045794127905919  0.7974562752457963
  0.4018431909681493  0.2005203814099756  0.0009505564939642
  0.8004172199934606  0.8066584614203341  0.5989667881467982
