Zr Ti V  Cr W 
 1.0000000000000000
    15.3362684426656841    0.0286063939447292    0.0100888851728505
     0.0285570835036612   15.2525043034926107    0.0067029472812579
     0.0100493414934988    0.0065575850713642   15.4101896179899747
 Zr  Ti  V   Cr  W  
  11  18  73  14   8
Direct
  0.2116394697662446  0.0114383428171720  0.9870452432607898
  0.1762222150127363  0.0055923510585156  0.5741023348993728
  0.2381129547575487  0.5925610970093632  0.0150286728708571
  0.4310162674089317  0.9831627063094884  0.0184698427836006
  0.3913973640637290  0.0140278570501155  0.6251673172601977
  0.3878729060651850  0.1551535481210689  0.8530389602480539
  0.6338959131656609  0.0076260575785310  0.9405715179520978
  0.6251420689996446  0.0032918179361959  0.1616447149548779
  0.5334058852746257  0.2013995926215728  0.0399909304176471
  0.7490927474200626  0.1924886410685157  0.0232284859908563
  0.8012216542726932  0.6227677231682078  0.3691113404784905
  0.9876058329128198  0.3961944039725491  0.9943915569490215
  0.0108307974622839  0.7995231794875262  0.7977982445844135
  0.1759987109303073  0.2279772070030060  0.9940443399810788
  0.2099471045678466  0.1956192021145902  0.4052595525799074
  0.2036153579284242  0.3906933837495843  0.8001747335470106
  0.2138253745456834  0.5991578687189045  0.5993873507957803
  0.3765730264138228  0.3819903419486557  0.9736702177691775
  0.4022078447227868  0.3834579908054952  0.1926790590200360
  0.3916842503190858  0.3855838993305212  0.4005828661008257
  0.4162044423684906  0.5944426875237427  0.1763815476101275
  0.3975027418479806  0.5909469974253099  0.3996518865503610
  0.4031975752057927  0.8023537016207438  0.3930746522028978
  0.5723773736944439  0.0333977864971558  0.7589175865168799
  0.5997074038443593  0.5934966320681508  0.0057644782631121
  0.6166595869205078  0.6028505996770230  0.2140560440844786
  0.5707483123758729  0.7920458666483980  0.1995101701511826
  0.7804495079879025  0.8070021580552392  0.1994084844734414
  0.8078022157140005  0.8202017566412956  0.4062568028548464
  0.0045572780397132  0.9984021157737130  0.9995963310349255
  0.0067969615048685  0.0051440579904374  0.1970978504345509
  0.0010884427242834  0.9982418035542010  0.3963241864633301
  0.9892106666241828  0.0031305039338843  0.6005021996636238
  0.0074505372971185  0.0002657703157618  0.8000946417761144
  0.0040101823916500  0.2028885772800980  0.3973220487106607
  0.0065057094891289  0.2037555987738186  0.5979205532321900
  0.8352797348245400  0.2404454214321404  0.2072139073381574
  0.0017239540914830  0.4030529906530299  0.4053245338644856
  0.9965282699917596  0.3994393838253575  0.7932458727267496
  0.0002425103756105  0.5988706425132742  0.2009282207267261
  0.0091732672821125  0.6037778704404748  0.3982524624413041
  0.0033973039786106  0.5971545369409149  0.5992731774550583
  0.0059049091859661  0.5949328957850575  0.7997268345987784
  0.0000099037261232  0.8007267612269415  0.0031658499123468
  0.9962108164853452  0.7986485133374582  0.5943676535848522
  0.1975952723460187  0.9992514317809761  0.1962409459231168
  0.2013177408330962  0.9956214514992513  0.3881721699291780
  0.2034680768353909  0.9891697441378250  0.7831627095869506
  0.2131801102841432  0.2016792340000644  0.1977273296685470
  0.1940680033671782  0.1876821539809266  0.8030616174246021
  0.1789593392355124  0.4071118100429396  0.0026608590138033
  0.1852175600270211  0.3989921984980236  0.2001335536232750
  0.1950330180185885  0.4000204862181827  0.3970717319221139
  0.2016623798515446  0.3958737850382903  0.5940475354829484
  0.2003300361276095  0.5978772620973497  0.2089187472000517
  0.2058345688429724  0.6025182752228398  0.3967069194794959
  0.2014346570692395  0.6000252163332852  0.8023072070089118
  0.2009390662619978  0.7964677738884367  0.9966146030596570
  0.1936749319754997  0.7974113473926198  0.1932651738296073
  0.1936105282276655  0.8020102891662910  0.4072949447983557
  0.2021816102233501  0.8004962671824547  0.6064407414575987
  0.3906388874579407  0.0012507082782234  0.2174746558956776
  0.4008315806421697  0.9935523978290247  0.4103444272975644
  0.3537170440106671  0.1829945694569856  0.0462807286633908
  0.4071213720627170  0.1893871237141337  0.4271017643805423
  0.4047632827895005  0.3829104095805076  0.7786238478697325
  0.4197445866812525  0.5841196603371590  0.9927492283566970
  0.4086098866131173  0.6022872648769817  0.6053908521247742
  0.4001910333399627  0.5829604866446416  0.8023814412654587
  0.4033031664657218  0.7783392022596496  0.0037517254226980
  0.3858466791631349  0.8049249438579247  0.1962892466784628
  0.4022603458822069  0.7936000848038312  0.6016592249121764
  0.3991263271371371  0.7853333044341235  0.8042216104438863
  0.6011431907650606  0.0057645378682915  0.3929144951222365
  0.6000858093557923  0.0029228047770107  0.5839270469896275
  0.5981113128638057  0.2071236181536367  0.2214523781612066
  0.6095730971078077  0.2108615144397339  0.5993920666653998
  0.6188472272233362  0.2123541867294602  0.8011995000763628
  0.5889264050048106  0.3904994282640451  0.9946756567190974
  0.5976510507296666  0.4070383184498307  0.2000064477409155
  0.6020882371812430  0.4085866069997412  0.5974213037145439
  0.5952321385534849  0.5999225707590086  0.4064248462490191
  0.6047089270104271  0.6057385829869414  0.5996811822648836
  0.6015662294347167  0.5984286976887501  0.8011886795106072
  0.5996006973434714  0.8025561490085855  0.9984721463565461
  0.6019947098942968  0.8001528715318701  0.4011937971633613
  0.5984833052771750  0.7965869891329074  0.8016790219071801
  0.8164558394959536  0.9992430742010854  0.9948875170107312
  0.8161164203711825  0.0127440928403497  0.1967166980709443
  0.7953896227285316  0.9992477416721716  0.5999464965879143
  0.8077722690118300  0.0058080034790460  0.7983001817110742
  0.8071270056708830  0.2049814720550110  0.5991080497227932
  0.8104476574865941  0.2029320734095205  0.7902142016123920
  0.7852146101475561  0.4025054566427435  0.9963785377894150
  0.7952517716291997  0.4036568223240766  0.1930626334120825
  0.8053328631981013  0.4077839480892602  0.5967184872506278
  0.8003891394411164  0.4035617454295247  0.8018079178462463
  0.8052722617753045  0.6047663627127068  0.9953573083957276
  0.8064557337973272  0.5994491556871916  0.1793032196012492
  0.8022611594850356  0.6067025046676509  0.6034557103718100
  0.8031890810442056  0.6052417060177551  0.8017468795810883
  0.7977968174869693  0.8023774590543890  0.9966012821759901
  0.9857469067777203  0.1968413940836412  0.9994196257643414
  0.0020393272781265  0.2070233385238616  0.2016607663395303
  0.0024834549803228  0.1989968747577154  0.7980540031048181
  0.0005849107124047  0.6023616410051734  0.9994576487563614
  0.9964558359828318  0.8004861230745083  0.1996876110226598
  0.2057958877199221  0.2032535368789900  0.6098822137306118
  0.4098370067209015  0.2205959405161707  0.6245213895709297
  0.6018344875606768  0.4024339352202208  0.4007208517935194
  0.6021804570521070  0.4035823223005738  0.7954957985314934
  0.6000356281400906  0.8041386046105978  0.6013723107926949
  0.8027412100668081  0.0104435047402739  0.3962612122790936
  0.8030334322985710  0.2061100011032953  0.4016339722865612
  0.8020161038774609  0.4054002381893483  0.3961664214549960
  0.8000943315397976  0.8036826383378434  0.7991934579771097
  0.0026876750793081  0.4021707938842273  0.5984865778866962
  0.9995040626941946  0.7988129300731152  0.3987050648798418
  0.2062032094781416  0.7919716282171314  0.8075594963397184
  0.3904527139623891  0.9597812405103835  0.8242093244395254
  0.4097908776331613  0.1950381535801551  0.2324558755624457
  0.3976737576553787  0.4201084079092761  0.5922992142203950
  0.6008811994136366  0.2035208685077462  0.4071803236512465
  0.7994412569460685  0.8013665373308062  0.6002202412636648
