Zr Ti V  Cr W 
 1.0000000000000000
    15.4682424881431260    0.0029291718150819    0.0060850552786068
     0.0029300464754470   15.4688893106445811   -0.0024425631117746
     0.0060852916824266   -0.0024420529359271   15.4638171965830491
 Zr  Ti  V   Cr  W  
   2   4 112   2   4
Direct
  0.0004941487992107  0.8031159211533030  0.2018637608896296
  0.2002573015922100  0.4001230168857411  0.2031576845524948
  0.2017361916973160  0.3999243040879671  0.4110723860859185
  0.4051323351208821  0.0013471941419902  0.1921974739047753
  0.5880293883471096  0.9977846684584739  0.0053961244731153
  0.7982429499433591  0.1970571325222442  0.0056702377602917
  0.0015835105211706  0.0005567965102069  0.9988543922064934
  0.9991572305493498  0.0060290519647974  0.1976783698942755
  0.0009832220179184  0.9998539562607800  0.6007389086431379
  0.9963326342508081  0.0004125249395988  0.8008292580394074
  0.0028200454222903  0.2012290697435146  0.0001055513264906
  0.9993019795526440  0.2013722196726843  0.2003367981924499
  0.0006576300997974  0.2009433691679659  0.3989195921196939
  0.9973148280248174  0.2004296350151282  0.5982802552659834
  0.0001406028374575  0.2016118096929632  0.8006760799935544
  0.0001021813376630  0.4004285131252206  0.9990443170478086
  0.9951980001245195  0.3997431450675787  0.1992453781967998
  0.9986211208598673  0.4004524738398255  0.3999712572081867
  0.0004874138343953  0.4003995825980058  0.6008406235370458
  0.9992210716023173  0.3998809235556475  0.8006950749190874
  0.0000718068518846  0.5999134911713390  0.0002799402746374
  0.9998677244118096  0.5966665511125876  0.1995145341341251
  0.0000540420529141  0.5991831602424303  0.3993908107096222
  0.9997794587806783  0.5991528161019128  0.6002116932904161
  0.9992363171821546  0.5995308683640139  0.7998991334234855
  0.0014630852536382  0.7990405305938802  0.9967651540164337
  0.9992490664366832  0.7985027311481009  0.4041804835207696
  0.9999112492806573  0.7992325397226093  0.7994523061803074
  0.2015278760623597  0.9997064895420421  0.9991656823420945
  0.1976419123715489  0.9996353015874676  0.1996809949938735
  0.2013801542727228  0.9990146255880733  0.3994658845709886
  0.1988033247782608  0.0001046922931441  0.6002510056721106
  0.1981598370599020  0.0005585729917947  0.7989530156417540
  0.2004360052659952  0.1996170971604743  0.9993599575907189
  0.2008116820592769  0.1956893492325002  0.2005609293500836
  0.2003837039488427  0.1960819148843917  0.4005676862796211
  0.1995829059719624  0.1995094177499791  0.6001889590201614
  0.2010842087509535  0.1994311828067604  0.7991878647661382
  0.2009314275881723  0.3998571219097779  0.9964336617244781
  0.1997910261946799  0.3996609614817864  0.6049378777801453
  0.2004322304381166  0.3994225087169796  0.8001787919812057
  0.2003017284744684  0.6012752313930240  0.9995085740323582
  0.2008281675909889  0.6042467528415477  0.1998010170064884
  0.2004164969055668  0.6029694927962740  0.4003486172386144
  0.1995965576187632  0.6005444565370678  0.6000682627234336
  0.1996462281477331  0.6009660730300377  0.7996922565281808
  0.2003568288147278  0.8001850347116617  0.9993127413119943
  0.2054921455146937  0.8016112477660333  0.2002842125157571
  0.2007121191733452  0.8014498865035635  0.4009657983463875
  0.2000663498799997  0.8004585832198214  0.6002258963049225
  0.2001625404022297  0.8006060358314719  0.7991319931360772
  0.4002397778900568  0.9999252473335926  0.3995950049420569
  0.3991577909277509  0.9999718830795672  0.6000037369400923
  0.4006155843560136  0.9998484644448962  0.8009359811919409
  0.3987329222625600  0.1964882932817733  0.9997425223404585
  0.4012043243562553  0.2020618182660916  0.1992601974776657
  0.4006447915967858  0.1996105976085361  0.3991717869500786
  0.4000551651500482  0.2000265762325743  0.5992811004649224
  0.4047323070479681  0.2002052045507093  0.7984539345511427
  0.3992550905148864  0.3998995185267743  0.9996221890420491
  0.4050956087493379  0.3997021230220685  0.1985581517799128
  0.4025235734372918  0.3996873256709445  0.4000556194596772
  0.3996537872943030  0.4002394963603130  0.5996828835180174
  0.3999954577555382  0.4000142283235952  0.8003671249499404
  0.3993346747363133  0.6005795473753318  0.9998641393101573
  0.4011537732504534  0.6001371496079060  0.1989663068191618
  0.3999338026844841  0.5998944154124394  0.3987258574475366
  0.3995403642193946  0.5998030486900040  0.5996307134674767
  0.4004968002111092  0.5999496478206371  0.8001979086024694
  0.3992326056414208  0.8030767381058300  0.9987939799823273
  0.4020516239773648  0.7978009258106640  0.1996356112799642
  0.4004226296621254  0.8004372500639974  0.3994145638214707
  0.3998997902799074  0.7997416975380313  0.6000579771775634
  0.4011788714412183  0.8001727855761991  0.7986847955421069
  0.6043319753360118  0.0006926284070925  0.2020430770816488
  0.5985352971381093  0.9998651221297410  0.3991913494978978
  0.5988869348472248  0.9986206547232169  0.5977687433174297
  0.6029591193245061  0.0040663786634941  0.7987213005898215
  0.5971733173552208  0.2034088488865066  0.9955542420069188
  0.6017286006054408  0.2014254347764299  0.1995651120524613
  0.5995307490325353  0.1992674462995103  0.3997374139899114
  0.6028473422440368  0.2007372231677573  0.6018709890246915
  0.5991733692549785  0.4009237077442243  0.9999278371277696
  0.6017672556417357  0.3998881272874831  0.1991501923184213
  0.5998033073618172  0.4001046619853489  0.3995218719982124
  0.5995520261034041  0.4011456109169103  0.5996667054736394
  0.5999837960456375  0.3962017474995845  0.8002811435191218
  0.5993760119335293  0.5997029397749547  0.9995521799662875
  0.6001493539469972  0.5987430361368223  0.1995943454355424
  0.5998313785942105  0.5999737651533879  0.3992458571910470
  0.6000436562390936  0.5992420985502724  0.6000600712211789
  0.6005777753513917  0.5985074130949264  0.7997118333150317
  0.5988646549521150  0.7963204560776884  0.9997842163876764
  0.6010943638352059  0.7985575440679344  0.2000004719085532
  0.6000929408171997  0.8002808647865656  0.3995520336538105
  0.5994476163341821  0.7996174273800761  0.5989785876568576
  0.5998526589427299  0.7998280834879401  0.7993846070148238
  0.8006613551839574  0.9975967831591285  0.9956785222581551
  0.8007339848997141  0.0009964030903182  0.1975281366504808
  0.9001499075582690  0.9993182914919717  0.3991783533024493
  0.8016494530076068  0.0025547388466309  0.6032615951146467
  0.7996464154356149  0.1987879881901331  0.2040884412248216
  0.8002039900691562  0.1995306607821095  0.4030784777767539
  0.7954896931594604  0.1954053491489285  0.7941211939566956
  0.8003444231793170  0.4018753962334344  0.0001342996171093
  0.7987300095287007  0.3995615339613937  0.1998641003327284
  0.7991858660618576  0.4006680731259304  0.3995366288034749
  0.8004233207030316  0.3965085488339649  0.5997424087663661
  0.8002769824449801  0.3999651213144720  0.8009168299132532
  0.8000757948044399  0.6004743672041416  0.9993969191727432
  0.7997871788650318  0.6002484195900412  0.4002348212139399
  0.8003669952576502  0.5993994034726774  0.6002539105088995
  0.7995926615514621  0.6014367296991360  0.7991849097434804
  0.7994419227326199  0.7990239366148839  0.9995848347569068
  0.7959006369676326  0.8014959612232204  0.1993340340830058
  0.8001312018036772  0.8002251901301209  0.3995795939801887
  0.7995419523997237  0.8008085445999206  0.5985550517998808
  0.7988966632876714  0.8042155436080215  0.7992718605440253
  0.9998835962025803  0.7995658184775072  0.6007426917137633
  0.7992400087280344  0.6001822999501453  0.1997528217101294
  0.3943747990951275  0.9993944918702156  0.9946369450639745
  0.6004814380294240  0.2003719545708892  0.7984572639393618
  0.7994783504980448  0.9993559619640999  0.7996719093567084
  0.8005685649337176  0.1993500255305957  0.5977719749358428
