Zr Ti V  Cr W 
 1.0000000000000000
    12.5523207027605341    0.0337586565727680   -4.4065017180497099
    -6.2498530090099740   10.8645436002944216   -4.4149501821117747
     0.0019080076333986   -0.0071473001737705   13.2247850707364396
 Zr  Ti  V   Cr  W  
   8  15  93   5   3
Direct
  0.9951863646161465  0.7945020395306812  0.3579561882131219
  0.1939566345633036  0.9973717040825734  0.7898448467140741
  0.1985867265871478  0.1909204893454082  0.9922009465625158
  0.1962727184625501  0.3943876701537520  0.4060216499218596
  0.1972297346701107  0.5987236531594603  0.1932561575416198
  0.4056055318941888  0.5929938890990717  0.3997250716075168
  0.3969658324616044  0.8045323105228940  0.0010722102972461
  0.5993853407260334  0.1878677703383888  0.1999219244111795
  0.9880363608315829  0.1714419589094260  0.1805473320314622
  0.0014047649938289  0.1989702800133686  0.4042492978069542
  0.0041557559613432  0.4023611025620077  0.5948677405264279
  0.9966739864852227  0.4014058064038495  0.8020592094492121
  0.1589808213711137  0.8029493354219254  0.1959048572084414
  0.4041432341646501  0.9994108980364278  0.7969190871034946
  0.3919324326987932  0.1909856826034635  0.1940265807240240
  0.4039041915275606  0.2030068197329928  0.6095152152714416
  0.4080550218463538  0.4139862975084249  0.6060846324524650
  0.6139187402426519  0.4028917142859034  0.4028173739205164
  0.6103784017541194  0.4007810437307267  0.6104348204604343
  0.6012336681617501  0.6049871407465940  0.2034759776955154
  0.6126002401704154  0.8079133637773014  0.6067437386230187
  0.7928127421268913  0.1973695392667305  0.4030667078406498
  0.8328269542296975  0.6346168274889163  0.0360773254157134
  0.9897430813258875  0.9865090133975258  0.9943616380422104
  0.9933132557829021  0.8211923264422937  0.0296665723939049
  0.9954055470185326  0.0057998258867902  0.4078819719568908
  0.9975356774562385  0.9985566681277148  0.5965411613061514
  0.9788915516751547  0.9811793012590333  0.7867353194434190
  0.9867135015445643  0.1887035084114883  0.9844974745787581
  0.9968434304478045  0.1934207778933219  0.6039547875111581
  0.9943078982235285  0.1938673384961699  0.7942759451157541
  0.9861513370497852  0.3864180698668731  0.9928045877761406
  0.9944144762440266  0.5874079557986469  0.9874364852102001
  0.9918459077689000  0.5895286268553011  0.1911877010830354
  0.9982668452754497  0.5940104144981417  0.3980362542781109
  0.0018125721583990  0.6059187719837720  0.6004397579527159
  0.9997338781573155  0.6076740628209854  0.8013307389783636
  0.9914679752160824  0.9312112404619189  0.1650087102810203
  0.9918583133466091  0.7913582116662478  0.5919344110035484
  0.1801983025006871  0.9659477839678283  0.9916206790085642
  0.1975192811716105  0.0031219931728880  0.1983437207685396
  0.1993436957744511  0.0026497860377719  0.4017093649718954
  0.2058392764188469  0.0056701677088206  0.5925215767982971
  0.1960633526232304  0.1917160601230630  0.2041809022096417
  0.2064833669608263  0.1886960506013138  0.4051506072097891
  0.1982502967888130  0.2003931409038807  0.6028690905317619
  0.2005597376565744  0.2095136557419304  0.7895632782664052
  0.1955498602126029  0.3994703415858880  0.9909718218101021
  0.1865201445986544  0.3728462238820821  0.1784992815293129
  0.2150179960487678  0.4080643073474879  0.6291325437400055
  0.2033389682075184  0.3996697152206256  0.8027158173939417
  0.1998371983886011  0.6101394132078183  0.9935136441646850
  0.2007491487108768  0.6064943303376567  0.6076710383394572
  0.1943835982218301  0.5972268350843031  0.7975219506759689
  0.2135696034561251  0.8030949777927737  0.4122267681318303
  0.1931778808463886  0.8006305915482602  0.5974601678553885
  0.1893266866233607  0.7915146873721711  0.7938739929634605
  0.3834102940702274  0.0035507201278950  0.9932969670420881
  0.3833298670145665  0.9836657582104422  0.1987514392547038
  0.3982356387766923  0.0000933316626976  0.4051543154355621
  0.4063550991421801  0.0027992015555057  0.6008544276586362
  0.3947622552273818  0.1927985113282984  0.3985209570014909
  0.4107924490380938  0.2099271108375778  0.8096827051365242
  0.3996438179836940  0.3985960999756661  0.9981860650873612
  0.4055774621144114  0.4077787961054960  0.2014525652494128
  0.4019409722519523  0.3783736718027706  0.3847313521091288
  0.4074880240043023  0.4037607151348367  0.8077113579740018
  0.4014538212053378  0.5950838909240069  0.0006776496253667
  0.3994966511051037  0.6027385225343841  0.1851768829242346
  0.4138152310877395  0.6230116237219209  0.6261705935317625
  0.4065612722385046  0.6024356810453043  0.8067841338077834
  0.4015387577432895  0.8028986917597005  0.2112783824403146
  0.4171797759267019  0.8164696657116978  0.4154641085431536
  0.4017326151149474  0.8051648324033244  0.6059765063991711
  0.4006852735862146  0.7966337552069560  0.7938780907964728
  0.6020782139375853  0.9976134481003106  0.9980865941858382
  0.6060363086999325  0.9883376877181252  0.2093595967358903
  0.6024714589496165  0.0017219284952227  0.4055738463240210
  0.6047880904473721  0.0058865651243816  0.6021533449336568
  0.6008614956363680  0.2018367802547002  0.9935590641665973
  0.5905759227584180  0.1925591275292785  0.4176833507961349
  0.6084362105657952  0.2001355763736766  0.6158426998104899
  0.6032867002560502  0.4030747237440047  0.0006861952673496
  0.5965869464449816  0.3951327007598569  0.1844309861018973
  0.6101181156749635  0.4060140025415160  0.8162733069727955
  0.6003185659225072  0.6034451529947203  0.9966915036598181
  0.6236631968810472  0.6146988141057197  0.4177040254113029
  0.6112291931671553  0.6037384930716543  0.6103828795303458
  0.6120308210050572  0.6060387744608566  0.8089259798317402
  0.6070992488932699  0.8004318289473220  0.0038956982748416
  0.6027216225380744  0.8045022555730273  0.2030326218483597
  0.6059979558911108  0.8061231903133043  0.4004496176184127
  0.6060289639218808  0.8013340225383548  0.8062431489260262
  0.7897410067173558  0.9873455813625198  0.9915360991334885
  0.7969825523494781  0.9962292860906620  0.1987565227408433
  0.8013997884888455  0.9979508677528964  0.4037782268632955
  0.8023125664556017  0.0017306715062293  0.6009110980698027
  0.8063373920596548  0.0015636953240463  0.8033424080796665
  0.7967858674278769  0.1938388849379017  0.9970378274428712
  0.8036845580199173  0.1949559428404016  0.1958709968143651
  0.7980950338379759  0.1964748898462435  0.6038145164759949
  0.7987825281018072  0.2009351184958237  0.8004207320572039
  0.7980488582068993  0.3951626874383400  0.9967176139102316
  0.7970074886989778  0.3940615035167698  0.1938883412264002
  0.8222458891021313  0.4115677584666723  0.4091769143819357
  0.8026276210171478  0.3991413943011958  0.6040938875928469
  0.7964430121053322  0.4024242687469268  0.8025593642330910
  0.7895739934599078  0.5784029243046004  0.1925767006337580
  0.8030249272063723  0.6009688883284992  0.4001537913647057
  0.8109959606807383  0.6063755624684406  0.6096619682581289
  0.8055091203956973  0.6021652759010548  0.8061731290041960
  0.7930064761387173  0.7987401176950795  0.9947650880480733
  0.7903080274926422  0.8025899184038107  0.1971791737344163
  0.8025621266227029  0.8065007426472756  0.4058104923378089
  0.8081524155121020  0.7997974481347199  0.5995478487940832
  0.8048341432253745  0.7957829117305911  0.8009955054397374
  0.9886596163627408  0.4037054185049245  0.3968932837065002
  0.9930180196589239  0.7912077037458117  0.7955010162820209
  0.1846362368761854  0.7948226361229812  0.0004832285203225
  0.4171275896232147  0.2062820731676818  0.9955642422831272
  0.6028651263538938  0.2023627405469943  0.8037602222335718
  0.9943412478562893  0.3913540021003095  0.1952444741467165
  0.1958399667927772  0.6037026298823717  0.4082289651407386
  0.6054181440792288  0.0019255461165484  0.8002462323720386
