Zr Ti V  Cr W 
 1.0000000000000000
    12.5634754236892725    0.0381978830787378   -4.4472749023781493
    -6.2548040355349883   10.8086996653888576   -4.4644645366758642
     0.0113771979427540   -0.0014472780863937   13.3739241919914473
 Zr  Ti  V   Cr  W  
  13   2  82  12  15
Direct
  0.9939245554454587  0.1934669048177413  0.5988203893447642
  0.9986418522581201  0.3911233836552767  0.7978896829982445
  0.9953373136287790  0.6036114405843789  0.0034890674726082
  0.9952570047217972  0.6196436500450769  0.7945558578255811
  0.1985865092509793  0.0029737024913073  0.3958375448666274
  0.2069041278900021  0.2071499163021509  0.8052093547844880
  0.2090041273914803  0.8032469575826523  0.4074230290818532
  0.4018261882521355  0.1996922120718131  0.6065408172047457
  0.4055649080224892  0.6008514950193674  0.0014550075540287
  0.6015671105553618  0.9905096472804977  0.1756948740158197
  0.7922738010284237  0.1873112848356590  0.1856979779389908
  0.7950639313460734  0.6017011635828503  0.2052490717680440
  0.8028660104475095  0.7913315440652677  0.7947415343763948
  0.5968279757536372  0.5979556757848332  0.4072676676772222
  0.5940827180417335  0.5980564592258092  0.7914099958563925
  0.0057787468646734  0.0065735705855865  0.0031866427581480
  0.9942888931000566  0.9990506641259349  0.3999440794935796
  0.9986468001389388  0.9847471052789440  0.5996505519906625
  0.0044474291665121  0.9990031891194153  0.8046876754432928
  0.0002837328264154  0.1986502336684453  0.0054333665720295
  0.9879729232369147  0.1847788252076481  0.8163549383744910
  0.9993975166534238  0.3908047940794617  0.0074494207088653
  0.0037160397344965  0.4105745852571832  0.5878806783036121
  0.9974666926977497  0.6030650231488550  0.5921841160739546
  0.0129051304377352  0.8201506083485148  0.0063584925394025
  0.9939919987491644  0.7989945590546722  0.1956626076509397
  0.0050877981251644  0.8108755870570230  0.4152293915259160
  0.0046728336097648  0.8034298414262003  0.6067949750760073
  0.2049179002790210  0.0045664421458012  0.0003126911335070
  0.2044457581652316  0.0069785875868445  0.1953859062051845
  0.2050760783517946  0.0021324057938809  0.6143633380862696
  0.2118931220583861  0.0028109039801024  0.8076913417966541
  0.2052815558555453  0.2030241946669326  0.0089343978238936
  0.2035217604739299  0.2128511740081959  0.3990287231876526
  0.1993392610559546  0.2088636961785441  0.5923501328749621
  0.2019565298075175  0.3997458059482578  0.0106378532658210
  0.2035147799024156  0.4028938230990663  0.2028543942177272
  0.2010148009690709  0.4032003533612620  0.4015552765965024
  0.2022461802183470  0.4052108433076694  0.5951510207921797
  0.2127450757029944  0.4118889131859756  0.7895241962879260
  0.2023130960889907  0.5973403258890440  0.2037158300914995
  0.2051995661024127  0.5947253655491185  0.4042284763549380
  0.2003573583016852  0.6024331710538620  0.5960412997418154
  0.2128645600563963  0.8173192507522280  0.2023397122773913
  0.2070374907876502  0.8068343958070676  0.6138002815086715
  0.2041690763931993  0.8097441867818270  0.8025192123907424
  0.4022639126880413  0.0106358327830633  0.9969159029313723
  0.3961630369692388  0.0024404845127454  0.1936435809858448
  0.4161002145708242  0.0041831863622186  0.6213122301731563
  0.4023969118987229  0.2013476366347550  0.1959098319217703
  0.4047524073415625  0.2000437640206830  0.3927617859934359
  0.4092234677757605  0.3943255907291514  0.0116105643866085
  0.4013047001583643  0.3985744285909171  0.2007093914358211
  0.4067156832791516  0.4057826546874509  0.4040222266445132
  0.3911970375575013  0.4028192339779100  0.5912311364814271
  0.4045977718318988  0.4030502516376724  0.7998591303750370
  0.4006122333646788  0.5967181348435990  0.2120546131414603
  0.3968347136251701  0.6000450598514541  0.4024861270087806
  0.4055581758643986  0.6028797760079645  0.5995081617639849
  0.3998779245497839  0.6074187359875428  0.7911124895744580
  0.3865211182969034  0.8037764040890507  0.9914174618237587
  0.4098977102678260  0.8036673342378003  0.4072291236697091
  0.4076670775207355  0.8148758084147829  0.8093271929608051
  0.6003687313652761  0.9990159409640981  0.6067678116666360
  0.6010197446240729  0.0066696282920144  0.8120420013910703
  0.5946320911198838  0.1934544014680624  0.9981796189160717
  0.5946868700497735  0.2145811114899957  0.2015683309929622
  0.5962007220971722  0.2004669825140820  0.3952448076691985
  0.5978290978675878  0.1921624227880107  0.5949028591079031
  0.5936525022756356  0.3872448020373777  0.9995210736892381
  0.5981763455156442  0.3937586157511490  0.3936753503045958
  0.5935195797359379  0.3959855958280110  0.5921539218958144
  0.5887664656111744  0.5905600324473044  0.2021374635251263
  0.6058927047966429  0.8028174865249986  0.9875655313767255
  0.6055107841287817  0.8001496871257060  0.2110603294702659
  0.5986011733087885  0.8026217430307604  0.4091518145769938
  0.6009742010950206  0.8003227239191224  0.6032248094436254
  0.5992997588132960  0.8054836339461766  0.7997274411671386
  0.7977182150984047  0.9978884376235529  0.9970430015825748
  0.7339931217838602  0.9904011580163260  0.1239821820339855
  0.7908759493191211  0.9913971428672421  0.3940901444236090
  0.7938626436148705  0.9953530417944495  0.6067915251387087
  0.7973399785607046  0.0041286083278129  0.8041277964745652
  0.8007961288718993  0.2058036025022576  0.9958596831636155
  0.7801395996563536  0.1929596217568998  0.5955149803996765
  0.7906623739893053  0.1958243453348383  0.8039675223798658
  0.7888546185179559  0.3925029149441033  0.1947551237379420
  0.7987849091429851  0.4007135546379950  0.3973966746041042
  0.7849161851875097  0.3936013903603844  0.5874319601661017
  0.7816301761290684  0.3826763437629505  0.7912394105841056
  0.7888879843022065  0.5935748773751747  0.9942874805506539
  0.7971706228273115  0.5941375840199167  0.4059542114278110
  0.7883504635198924  0.5918549974908722  0.5875250910038003
  0.7765307550243377  0.5672881637862487  0.7824033357106455
  0.8044194638356544  0.8021588544133402  0.0035762083394821
  0.7985537395900524  0.8093445398304674  0.1981936524572430
  0.8009037389517157  0.8046931319545051  0.5982835641755915
  0.0055863086110057  0.2019047292735691  0.1984654731013217
  0.0017707535097794  0.4037250432811847  0.4025965341114991
  0.0174731944334567  0.8253900267219768  0.8015541294832091
  0.2100975430157612  0.8183264097335647  0.0090735844433183
  0.4103950909532751  0.0034556799029142  0.3996781863726038
  0.4021113880168998  0.0047773821473605  0.8063533938627570
  0.4054550018830662  0.2039345424138324  0.0042542463789365
  0.4146252556530412  0.1983425224709469  0.8169954266596360
  0.5987670616550907  0.1954092278766880  0.8078075783205656
  0.5960395183443823  0.3945269463614928  0.1983563474414932
  0.5899223849152568  0.5864390521461829  0.5887293103978559
  0.7948015339690619  0.3916613966254535  0.0015744602660797
  0.9980663224596399  0.0032530792377483  0.1962437200647462
  0.9995543640059129  0.2026472459937195  0.3929783976430396
  0.0013505464211658  0.3955892938291261  0.2041497332697697
  0.9981059877453121  0.5940631773923235  0.2021635904878178
  0.9998812149458287  0.5984557198846867  0.4035377891083587
  0.2048235480597955  0.2062442691738006  0.2021541170740291
  0.2044431124865261  0.6063538516386651  0.0065790146636169
  0.2050290426133122  0.6073514892593214  0.7954533035501424
  0.4023529529403749  0.8023624290996321  0.2031767562018528
  0.4050124804039508  0.8022629575754605  0.6079202069113391
  0.5980598161193466  0.0005066617194105  0.4013928831933990
  0.6033975778869575  0.3970886951415917  0.8069712885865815
  0.6052421831106617  0.5996191467255015  0.0008367666451577
  0.8000520092125101  0.2057357758589026  0.4051208351649314
  0.7978047551446543  0.7996280665002641  0.4054305328380061
