Zr Ti V  Cr W 
 1.0000000000000000
    14.8656932868510410   -0.0315526343351642   -0.0094809834502345
    -0.0316963113674826   14.8884467172531849    0.0198916564743621
    -0.0094408262406145    0.0199243394360486   14.9729662127772496
 Zr  Ti  V   Cr  W  
   5   8 106   4   1
Selective dynamics
Cartesian
  3.3153570260381144 -0.3800239175685641 12.0642262679226508   T   T   T
  6.0868216556805859  9.1203745982895761 -0.2894024300857330   T   T   T
  5.9856634811704161 11.9046014385682497 11.9452042858161036   T   T   T
  8.7860338261195832  2.6661340064879067  9.4832470646170588   T   T   T
 11.4303432509531699 12.1262137705059345  6.0889186332681424   T   T   T
 -0.3457217037238404  2.8868072798892643  5.1321877604139594   T   T   T
  3.3222159339369584 -0.0292944042875442  6.0066273336460894   T   T   T
  2.3515643728958744 11.9109757113189012  3.4707798056771186   T   T   T
  8.3540415880831258  9.2200376176399264  9.6345782126136452   T   T   T
  9.4447498918472288 11.6498050600227039 11.6434839716472442   T   T   T
 11.5554395000170622  0.5437964544623562  5.4600370488193084   T   T   T
 12.3943841269280863  2.7942009596017519  2.8271654379837710   T   T   T
 11.7778392527220159  1.7738051856081338 10.8770339630592687   T   T   T
  0.7845980825799095 -0.6171689467915464 -0.2779556283042707   T   T   T
  0.1300483382252569  0.1209594783418949  3.2403036614439023   T   T   T
 -0.4154679398309472 -1.0268586840329652  5.6968678516095856   T   T   T
  0.6552900579526211 -1.4014686665427198  9.4073179741271797   T   T   T
 -0.4352646102896462  0.0566795618033276 11.9049792897976801   T   T   T
 -0.2233490208485564  4.3984766494194032  0.2070143232225900   T   T   T
  0.3528369392079808  2.6461820611305202  2.2328579139355194   T   T   T
  0.0311035945179521  3.3559025080386369  9.1876638154982455   T   T   T
  0.3568634282212459  2.5678139493742789 11.9648019581347267   T   T   T
 -0.1712236363322986  6.9889528714007358 -0.3914846029264504   T   T   T
 -0.0781219582842353  5.2442904164695259  3.1070889908208299   T   T   T
  0.4471062772254829  5.1461108190340674  6.8824954679760832   T   T   T
 -0.5880282194585748  6.4905813977664444  8.7792457826205208   T   T   T
 -0.9870409708313237  4.9016447549459556 12.6551372271696287   T   T   T
 -0.0945850335725930  9.6765350356879125 -0.3673098866777460   T   T   T
  0.3959980424146408  9.6380626606488153  2.3729841283744033   T   T   T
 -0.5691552287793467  9.5419285361772204  6.4970660740005988   T   T   T
  0.0642553807122332  8.8716436636030096  9.8713999025822563   T   T   T
  0.7240068756194390  8.7602785188594883 12.3556572741499888   T   T   T
  0.2173197298001438 11.9684934441240909  1.0511503476764383   T   T   T
  0.3824278985699567 11.4992544226909548  5.3636016888932687   T   T   T
 -0.0884238672349280 11.1712894490424652  8.5090909617934596   T   T   T
  0.1632272256348365 12.3673574542099480 11.9942761631180375   T   T   T
  3.0005853928913377  0.0866021926345353  0.7134456480514384   T   T   T
  2.1562425561604872  1.7053361718916920  3.9409303575679817   T   T   T
  2.1694718733126144  0.4835879197691298  8.5551989752589765   T   T   T
  3.1400520259198310  2.5227319858726784 -0.6220872610759883   T   T   T
  2.7461488814055905  3.7123998150540971  2.9523158539955880   T   T   T
  3.7384386586492790  3.4111454095898579  5.6194289799035291   T   T   T
  2.8267438038510111  3.5062704485763434 11.8139587608340761   T   T   T
  3.9076057975237068  6.6783643482448456  0.9023686856860804   T   T   T
  3.8291835814814443  5.8975312255231982  3.6100071870207899   T   T   T
  2.8447439143859405  6.0766285630182031  6.0340721875732362   T   T   T
  2.6603424971632608  5.3488396749596836  8.3532933483491210   T   T   T
  3.0967917508570713  5.5782878730184002 13.6479374278543872   T   T   T
  2.6544052582685866  8.6525553108837983 -0.1793267602990999   T   T   T
  2.6081127664528561  8.3185040333227125  2.4552540193246069   T   T   T
  1.6306484371614471  9.0526295722346610  4.5939109025269698   T   T   T
  2.3429976964126231  8.5638322241837574  8.6531688027250162   T   T   T
  3.6970946964982465  9.1990612283229929 11.6207783431356280   T   T   T
  3.8394919627329140 12.1928373057872541 -0.6187012419352800   T   T   T
  3.5205155542702267 10.7679254415478045  7.1399984387451294   T   T   T
  3.6419421441952338 12.9105057462287540  9.1643452442835382   T   T   T
  2.7849522497789039 11.3645529498535893 11.5881985534653751   T   T   T
  5.3167378261852356 -0.1050289943256913 -0.3557071305378923   T   T   T
  5.1664458216238360 -0.2375152147363484  2.7262417917300095   T   T   T
  5.8862431343175707  0.0114055790172937  9.6596117657466642   T   T   T
  6.5874605845507181  2.0037492376792274  0.7657849617010163   T   T   T
  5.9796864990493308  3.7147967052217030  2.7251407906495162   T   T   T
  6.2055357230686141  2.5288979123920159  6.5812326440010995   T   T   T
  6.5333167404188295  3.0383258082052627 12.0723838348893402   T   T   T
  5.9211330626411218  4.9270510543395671  0.0422154098199872   T   T   T
  6.1285888833283364  6.7044063733571662  5.5713684002178638   T   T   T
  6.4496408763381536  5.5066850423384279  9.4454029401169119   T   T   T
  5.7241204935840369  5.9921859270957682 12.5745600689982577   T   T   T
  6.9182418890654285  9.1164445610622487  3.9082947329796518   T   T   T
  5.8621592259325705  9.6065770617192108  6.3893861503649845   T   T   T
  4.6019448685717972  8.3319337293362157  8.7615412182970029   T   T   T
  5.9912464853581753  8.2379857074809379 11.1155389513232858   T   T   T
  5.9785418150063254 12.4590221141649913  0.9837256071465661   T   T   T
  5.1628647377082713 10.8972859947745029  2.7397149156733596   T   T   T
  5.4424876085811693 12.1307817225721220  5.8692913380666525   T   T   T
  6.0669325125014240 10.8916536666075405  8.3132492317327831   T   T   T
  8.6978321068979376  0.3128714772162328  0.6373338817578492   T   T   T
  9.8999514110051052  0.9250287646114788  2.7056599730350763   T   T   T
  7.9923299066621736  0.2258285239780233  6.1730218036230253   T   T   T
  9.7437352288027910 -0.6762294421502719  7.8770156152001753   T   T   T
  8.4745508039369284  0.7133709283172412 12.3476870133127345   T   T   T
  8.8415266557786811  3.1730445892847454 -0.3005918493456901   T   T   T
  9.7689754971280376  3.9723393832556479  3.5575228073295175   T   T   T
  8.5587128188705908  2.9653791001725596  5.7808487390672303   T   T   T
  9.9165258874433899  3.1278703991794630 12.3659113334512547   T   T   T
  7.9706462815314314  6.1355340930108575  0.6889812162965597   T   T   T
  8.5296157661505809  6.4412224768407986  3.5402037084587303   T   T   T
 10.0569392793150971  6.5482129790099153  6.1171373740917998   T   T   T
  9.1454216754922033  6.0140435349364374  8.4187655066100291   T   T   T
  8.4833259364555946  5.3945027775911498 12.3580302859188826   T   T   T
  9.4436181796218293  8.3001790671174405 -0.3177830438890900   T   T   T
  8.7590536983949150  8.4338858948878759  2.2150948751236585   T   T   T
  9.3416254517733606  8.9678937187670460  5.2759094046279476   T   T   T
  8.4891206376306396  9.2192353064613286 12.4042404751090558   T   T   T
  8.3547726640054218 12.3151288583892402 -0.2693410219746612   T   T   T
  9.1808470832857569 10.9571782372570734  3.4059684993051191   T   T   T
  7.8113692211718213 11.1797972922756603  5.6851472150991889   T   T   T
  8.2735704816338949 12.0759110219763954  8.4289401204227801   T   T   T
 10.9917997999128829  0.8887927008801010 -0.0896079549695502   T   T   T
 11.9052891240587684 -1.0216696996197472  2.8550280290210286   T   T   T
 13.0053502730315262 -0.0975774576506832  7.9699176956448694   T   T   T
 12.1240147379566618 -0.7902366038939485 12.8831326789490426   T   T   T
 12.7903781555792797  2.7299278164746856 -0.7038011246584799   T   T   T
 11.0359137043066955  3.9375859051891848  6.0479980624817147   T   T   T
 12.1048064184731263  2.5880740749321127  8.0670676014608560   T   T   T
 10.5682882562827700  5.5195141798563734  1.1464321137625926   T   T   T
 11.8063393597065254  6.9386775048453311  2.7125460071375120   T   T   T
 12.7894685110090869  5.9025054276925291  6.6177503751695941   T   T   T
 11.1039476006077482  4.7276518764371005  9.8423382547261102   T   T   T
 12.1450358741484425  6.6001919875613142 11.7445382429884813   T   T   T
 11.5558756717681064  9.5787291679942204 -0.5190545838153816   T   T   T
 12.0315670989188206  9.3077622813206773  3.4531342170407506   T   T   T
 11.9340024239467208  8.4255052068400857  5.9593824286763573   T   T   T
 11.9713388070267026  9.5573550863757220  8.3149580696022909   T   T   T
 11.9386250856922569  8.9678462022425620 10.8682488211187120   T   T   T
 10.9415336522093813 12.6950944041321812 -0.3435471856887869   T   T   T
 11.3916661590894641 11.5395345971035947  2.2447085304445489   T   T   T
 12.5709059083300243 11.8800784588447783  9.6941922598188874   T   T   T
 12.7827783792744434 11.1468579939640939 13.0118684402968832   T   T   T
  2.6100024265812309  2.6521079964570493  9.5806874285128085   T   T   T
  5.8513478113221149 -0.1196319849798902  5.0489616794093815   T   T   T
  6.0912794567412352  0.5064095231147134 11.9323469900183792   T   T   T
  5.5203790252975971  3.6213095236279433  8.5365261313967871   T   T   T
  6.0720586818713560  6.8691995280913112  2.4914102840505987   T   T   T
