Zr Ti V  Cr W 
 1.0000000000000000
    15.4587842636866384   -0.0032293511975409    0.0082388701308688
    -0.0032271162884385   15.4523236864820461   -0.0077372164595043
     0.0082378582767830   -0.0077376883952526   15.4599035016914126
 Zr  Ti  V   Cr  W  
   1   2 108   6   7
Direct
  0.2006195080979077  0.8015151945842162  0.4023570807003290
  0.4007482353749160  0.8016162456408633  0.7931910145165468
  0.6172862267910290  0.1984644877367796  0.1990210609986080
  0.9994324716196387  0.9991204331137414  0.9998310426186141
  0.9995012899689493  0.0019586415363975  0.1995075178723310
  0.9993299088399540  0.0006180984470459  0.3991683496597757
  0.0000297829242784  0.9966443789521188  0.5985529545281096
  0.9987667154763813  0.0001411279604693  0.8013448014839837
  0.9999724102033781  0.1991306364264891  0.0031144371207720
  0.0000615080661759  0.1989570229620696  0.3977944574855586
  0.9997351859759096  0.1990910759147820  0.5986490150752332
  0.9991325788041681  0.2000614393400438  0.7998314814594988
  0.9998411088072338  0.4011770687876865  0.9988706477232018
  0.9970548436903531  0.3978167883148255  0.2009251190426316
  0.9994903353406980  0.4009166240947216  0.4014865441446710
  0.9991420143350684  0.4015404696576964  0.5994091100599489
  0.9987806479369981  0.3999492263140894  0.7996534100540876
  0.0008940450483935  0.6014687051945105  0.0000061474357642
  0.0004678494863399  0.6022171856523370  0.1994592483901588
  0.9996185720563087  0.6000999094573665  0.3994794751878705
  0.0006039409790528  0.6046789708578999  0.5992095718650637
  0.9995204859649321  0.6012190515654844  0.8014616739333518
  0.0000293894130213  0.8013928193853455  0.2032287965184870
  0.9933746408037879  0.8013554334086217  0.4039694219352954
  0.9978752562097942  0.8010604942859134  0.7947439678988405
  0.1990908263284384  0.9989761639337192  0.9979123696749675
  0.2041851985766481  0.0054534006603415  0.4004666954319224
  0.1995806978936436  0.0012855802706368  0.6020954377334440
  0.1995496170259735  0.0016710459423332  0.8007342192485396
  0.1997443657854490  0.1994832576400830  0.9983518283915357
  0.1959406941417871  0.2016052483660183  0.1989554452554982
  0.1988069529145405  0.2017150534627023  0.4010450605645545
  0.1991571534417909  0.2009563050912119  0.6006490513771608
  0.1995078609122715  0.2011870062889681  0.8005631028109348
  0.2009917693245127  0.4012730720572934  0.9996450635914680
  0.1983379024852434  0.4014263025090526  0.1996626599906037
  0.2012296342530581  0.4002047920792069  0.4006067632123078
  0.1994327808945579  0.4007802816514620  0.6007094688190908
  0.1996803266095260  0.4000828718244958  0.7997509393431603
  0.1996006072229427  0.6003614124733276  0.9997382774617189
  0.2014812450688180  0.5963312507487167  0.4000630007670709
  0.2005572270979281  0.5994876662223585  0.6014882847782628
  0.2000981534402453  0.5991604621388665  0.8011131453156267
  0.1708979164607986  0.8001120994060308  0.9998262864782439
  0.1969109665611509  0.7995794753521188  0.1965362200891187
  0.1950187435487415  0.7996065998600416  0.6072502240973450
  0.1964167550587622  0.8004603717119437  0.8028461172634801
  0.3994561079471277  0.9968550984960589  0.0001075793341400
  0.3987687878196887  0.0044155747683818  0.2042727368972467
  0.3980849953047768  0.0012001015797043  0.5963930851262661
  0.3999198862775212  0.1991539144689847  0.0043486400244859
  0.4007100356446839  0.1966063823897066  0.3961712171015597
  0.3996647220497521  0.2011119865523745  0.5997955766876579
  0.3999075664748468  0.2008684497359791  0.8004727990669296
  0.4010568656229556  0.4008482942058529  0.0007705434398990
  0.4013367492703830  0.3964112791754810  0.2004778436048412
  0.4015602650708567  0.3996320916154343  0.3998245581626230
  0.4002779847354952  0.3994611541890746  0.5992025671977705
  0.4002828015504347  0.3994383384233958  0.8006973771525501
  0.3999421696918177  0.6031759233219626  0.0007964414284529
  0.3997753089438521  0.5991301983313470  0.4000120924136136
  0.3995435481202156  0.5976055970255124  0.7998787607272004
  0.3986786855213116  0.8001210265545349  0.1996991588737118
  0.4062160905027756  0.8040854929484578  0.3993033057321033
  0.3985083606830865  0.7994659445997514  0.6009385580225123
  0.5974380539206467  0.9994236598887108  0.9991602214250519
  0.6007505181868318  0.9988169792190045  0.1990527386285293
  0.5946067167553201  0.9955981913093324  0.4014976918513367
  0.5997093050219857  0.9998802300570732  0.6017593994208931
  0.5989230740214009  0.0007194091312681  0.7991424817945403
  0.5985508169686118  0.1991486855265200  0.9973468564968676
  0.6001885301978949  0.1990889192689709  0.4023716981101565
  0.5997393634503015  0.2002642794638664  0.6008240824810164
  0.5993266007703479  0.2005295948823303  0.7997756426431507
  0.5981781034284784  0.4015692045462913  0.9995359550623730
  0.6046724681114322  0.4020674385804339  0.2008016657157870
  0.5980578174881557  0.4012105411614715  0.4013807283077962
  0.6005593880648646  0.4006376384868408  0.6001184366410687
  0.5987296374008741  0.6008450079864277  0.9995593408919201
  0.6000107841591045  0.5994173199585302  0.2001934487724340
  0.5980815139922153  0.6040900667717529  0.4015522643892735
  0.5996029744359019  0.5996351834016802  0.6011072612327507
  0.5996867602089653  0.5996758334068440  0.7998015986819702
  0.5951382828083270  0.7999164533707576  0.0004584197026858
  0.6013740235877437  0.7989402259000078  0.2047665398384296
  0.6018134683134339  0.7993065040270578  0.5978816413425516
  0.6008198097681607  0.8006837445450354  0.7982273763141454
  0.7987643772437498  0.9986254479042816  0.0001884748692100
  0.7993703388783815  0.0015980406989544  0.1998076635020135
  0.7967950487707478  0.0013168346296606  0.3990039281743568
  0.7990820366360073  0.0015852499104822  0.6000518908705260
  0.7986592033851251  0.0016513100462143  0.8006799434814239
  0.7983092869013134  0.2002512255249088  0.9993597878306040
  0.8090530032201584  0.2046588390179171  0.1999345878126169
  0.7981934038525006  0.1996255989974844  0.4010980298397549
  0.8007037539056276  0.2010190348683986  0.5998180183165037
  0.7996887949473888  0.2010927863310838  0.8006534053651876
  0.7981160194382231  0.4006994133327311  0.0034126234284899
  0.7977408562968488  0.4000980689453723  0.3968840551958987
  0.7998578154040156  0.4002957684314774  0.5991229005214804
  0.7994361600470425  0.4000061691423902  0.8014735896932416
  0.7996726736820605  0.6025520169576117  0.9999718899974833
  0.8016344391615245  0.5960653141416569  0.1998688769016848
  0.7985973966234731  0.5996637245080778  0.3995929246488362
  0.7999345228658721  0.5985808058243545  0.6005752471885993
  0.7992381095538911  0.5990533978327889  0.8007772340822696
  0.7951487360814563  0.8005024082405070  0.0004435685938064
  0.8022146878913893  0.7994970299587306  0.1977646999665534
  0.7940811346414154  0.8005933767707214  0.3990404398739848
  0.8028803220755504  0.7999273090844603  0.5997709408671715
  0.7989087845476294  0.8005428926693637  0.8016683506517170
  0.1982943217024337  0.0005732014280357  0.1978171586037880
  0.2003787146079626  0.5988287197810830  0.1993483962761519
  0.3990956229055861  0.0034366349120974  0.7988801404430033
  0.3995038040304800  0.5983481803321421  0.2011225713002119
  0.3995034206077426  0.5990591032739341  0.5997971898416525
  0.5999773137692882  0.3999094968580016  0.7997216682091878
  0.0012915503060751  0.2010694760265442  0.2007702097454083
  0.9980898308431372  0.8005190998618796  0.5997185820102230
  0.3994424384591909  0.9994124109706907  0.4004657379165348
  0.3911516444721460  0.2000613898120586  0.2004901940777873
  0.4006548698696650  0.8011799999204671  0.0063218425150477
  0.5993224068566769  0.7987474611034248  0.4012876611862327
  0.8007735012685063  0.4011835345358923  0.2002894876798239
