Ti V  Cr W 
 1.0000000000000000
    15.4171836946855763   -0.0006458025225840    0.0021743795697675
    -0.0006464432342440   15.4108214600062574    0.0048957167363750
     0.0021730867805691    0.0048939939426410   15.4267125679285311
 Ti  V   Cr  W  
  13 101   9   1
Direct
  0.0011336094099899  0.4011674570903138  0.4007825190634676
  0.2075950781055590  0.1992197996753635  0.7944397153627117
  0.2024183455539973  0.6024284070253580  0.0049655853782227
  0.1987465267527136  0.5987584313916535  0.7911657111242838
  0.4003691764048413  0.9946443886025043  0.5991174121453668
  0.3950862239320076  0.2041595400683094  0.6055073978434489
  0.4019344410419560  0.6039549368954814  0.4022482111982804
  0.5982996180582725  0.9980821301000575  0.9954452480367306
  0.5965763821878410  0.3993705186637332  0.4064959134662726
  0.5912333321872916  0.7976959772342538  0.4017900621660390
  0.8059067932131330  0.4058356524615524  0.9911238565857221
  0.7980176730905817  0.5935413694792602  0.8040707844221937
  0.8048891007624321  0.8014864496288737  0.4019118555566438
  0.9998190340672000  0.9999349959147076  0.0000567425737326
  0.9992084241790421  0.9993678291799934  0.2006406364362276
  0.9996598469587594  0.9991079297934159  0.4005007846352265
  0.0003144307243599  0.0006446862407965  0.7994384095358900
  0.0016099798147422  0.1990427075651529  0.9987840708117267
  0.9993008529312059  0.2003745337309582  0.1993097844504417
  0.9999695369559785  0.1977477542014147  0.3996311706433089
  0.9989093576203241  0.2005446429296576  0.5999858262242912
  0.9995021225413006  0.1995804766994290  0.7996964514629116
  0.0043474258512641  0.4004763087319687  0.9987687020890190
  0.0001675159847168  0.4000051043167078  0.1971317212919803
  0.0010826820188539  0.3988908085828279  0.7997601606457806
  0.9968992346971735  0.5998838566719755  0.0003559516892323
  0.9976463468112935  0.5986205706359108  0.2015915970736314
  0.9988560239960929  0.6016054938832150  0.4001929032433083
  0.9976155561059146  0.5990830770038469  0.5995387888753273
  0.9993471653203642  0.5991025075328743  0.7996087091836231
  0.0028371040114656  0.7989737802982222  0.9997540647790113
  0.9982981809517136  0.7987672935238542  0.2007051479364027
  0.0030442517402816  0.7994452135239871  0.4011584844674129
  0.0011247429527996  0.7987301189298401  0.6023638885750700
  0.9996955836081696  0.7987937340537909  0.8001844673242628
  0.1997679899980598  0.9973690729994432  0.0002827572890113
  0.2001656927860975  0.9999197691177700  0.2015497155343484
  0.1995977650247192  0.9996379460993948  0.4001042305805500
  0.1974060577220715  0.9988273952725542  0.5998050789130660
  0.2012226414562691  0.9982711008566217  0.7988069356235163
  0.2016349522552116  0.1998457008267126  0.0007841036978549
  0.2007291332210884  0.1997558007070156  0.1991941611010301
  0.1993638812225994  0.1990821363313046  0.3991294102155206
  0.1968344083648869  0.2000342845875170  0.5961500611731818
  0.1993242690904844  0.3991834657672111  0.9990481511550712
  0.2022855366351833  0.3997479706172406  0.1991663280637886
  0.2012385034813330  0.3996626182254894  0.4005822788816222
  0.1977574342235173  0.4006465338226945  0.5998035582634023
  0.2019300771868516  0.4005180649223005  0.8004143044388268
  0.1996535791543884  0.5995137307114913  0.2042102135568339
  0.1978319171057600  0.5999788995335458  0.4001861857244928
  0.1992759601459437  0.5997996351079604  0.5959288878214853
  0.2003901016640368  0.7992651720712972  0.1970469165869291
  0.1998302602203161  0.8006523881142880  0.4004397874252846
  0.1998216570955121  0.7986279764459425  0.6020332791139930
  0.2014033340903981  0.8006024464874172  0.8042067012728871
  0.3991101120893349  0.9993772688445622  0.0010276124182838
  0.4013476222307338  0.9994922145208152  0.2005167498315868
  0.3994730925674848  0.0002630220982240  0.3996281215951171
  0.4022906687370670  0.9988311364168474  0.8018362473587802
  0.4013108701274843  0.2010642074225964  0.1991910043395706
  0.3999000696392943  0.1989574326987000  0.3986145886812962
  0.4047142118560751  0.2005219519764755  0.8039909444787448
  0.4000281665182556  0.2313920451099296  0.0011217527014971
  0.4014677725828517  0.4006661770274321  0.2030636225194403
  0.3975151354026398  0.3983446189887704  0.4019470730947235
  0.3988249122573411  0.4034598965951278  0.6019196494072570
  0.3991111070864294  0.3993258248692262  0.8006490944777299
  0.4009593315246647  0.5999016982046146  0.0001392402137857
  0.4015734104708154  0.5987101057824229  0.1982436933026950
  0.4003250725248059  0.6002308380248321  0.6021851910770819
  0.4026556007804927  0.5991446746530179  0.8010677011785454
  0.4008977613471363  0.7993662035533572  0.2016193299921541
  0.3955538732207736  0.8020646432222481  0.4008574240460029
  0.3990828423403705  0.7969453207696476  0.6024045911499193
  0.6000974491223865  0.0008655944390209  0.4002976352830406
  0.6025672487124751  0.9991595647192113  0.5986477061620713
  0.6009105040897970  0.0000620576559827  0.7959274275031363
  0.6003843894275590  0.2033067720936066  0.9991798491422732
  0.6009118247355395  0.2000411152857499  0.1987584580824814
  0.5989022543449907  0.1983740833437289  0.3999511537717689
  0.6021530209125896  0.2001849868472066  0.5996790062640254
  0.6013863904682445  0.1996888442252959  0.7993576893239589
  0.5954473858073672  0.4009818074305130  0.9987223313508929
  0.5995654720543722  0.4002854145696307  0.6025585454675130
  0.5981872991980083  0.3995805283191061  0.7997738861701015
  0.5993539164147546  0.5995973001677020  0.0001641571775486
  0.6006216494477898  0.5989152114253489  0.2012769452903454
  0.6016792399304127  0.6002856592828837  0.5985679089139143
  0.5990804783631929  0.5995759533696008  0.7991999781348417
  0.5995227074290898  0.7981984657684755  0.0001128600639868
  0.5999162899114430  0.8006811461119463  0.1987118811404627
  0.5995150175330084  0.7993352947136527  0.6026260768158878
  0.5995221854656099  0.7992743173986916  0.8004117933557015
  0.8020811974903125  0.9995372493935399  0.0005816101331964
  0.7996737193238982  0.0004578140808156  0.3995685146704028
  0.8008434695270318  0.9992337911455950  0.5986536131399358
  0.8002492878218431  0.9990384141334517  0.7990307152820176
  0.8001268867538821  0.1983347136716836  0.9999100680320842
  0.7994151115200763  0.2005855095548513  0.1984245569046582
  0.8000800618935044  0.1998457578351706  0.3984442540675417
  0.8004318465248577  0.1992983079799192  0.5983785676890929
  0.8002907182474615  0.1984926773570456  0.7986909004485933
  0.7986656939730505  0.4007648573086404  0.1993869249688950
  0.7994493861461289  0.3991480966088078  0.3983497948744420
  0.8011655198396110  0.4002804908103735  0.5985407947443211
  0.7993262829930859  0.3957567222028515  0.7957640043845755
  0.7990968745890993  0.6033570474071754  0.0044896078442652
  0.7987595615653720  0.5979788773146261  0.3983220989358675
  0.7999990825966502  0.5996756968194336  0.5970246126487457
  0.8008935995230680  0.8007623015851790  0.0001517834942355
  0.7989190392027348  0.7993759563257808  0.1993777712557271
  0.8003982029829462  0.7983600436071283  0.6031259888612621
  0.8003337271315351  0.8014547459718819  0.8015269860033468
  0.9994192287359108  0.9988049922956885  0.6002327733609376
  0.9998804823948240  0.4000940390446671  0.6024527753466064
  0.3992196278174712  0.7994542903448094  0.0002022043966161
  0.4002467714447661  0.7986922571299946  0.8018276492497315
  0.6007706198682837  0.0000913291062826  0.2021721074022308
  0.5994157600572140  0.3994868821159271  0.1969596559431321
  0.6019251296033271  0.5992988051946119  0.3999534243801923
  0.7995316127798123  0.9999990630663461  0.2001999506543128
  0.7989513326528092  0.5998904350977107  0.2003445732924592
  0.1972839234219338  0.8026421060059632  0.0009836338992482
