Zr Ti V  Cr
 1.0000000000000000
    15.3990340272275770   -0.0170018773457157   -0.0022529018582575
    -0.0170107766548915   15.3787801482628375    0.0165544931564424
    -0.0022517709109467    0.0165430754876648   15.4057927644380346
 Zr  Ti  V   Cr 
   3  13 107   1
Direct
  0.1903788356412944  0.2023842669013525  0.3743613839736726
  0.2040184799338571  0.6180407122931083  0.3832649842998763
  0.3833044355479183  0.7945683872643502  0.3902296490200992
  0.0015835218949192  0.0060702643533628  0.9967771132343769
  0.0011082213587827  0.1949215523767486  0.8081301111907435
  0.2037588005636520  0.1993791714257523  0.1763932261129601
  0.2026609806741322  0.5906465904368723  0.1834471979209593
  0.2091127923194803  0.8006855747176036  0.2134914090579226
  0.3928881497223212  0.2038071823118107  0.6024379421451985
  0.6105227859417022  0.0135837503888394  0.5905282054824046
  0.6057034021336803  0.1909166641800574  0.4114873730139121
  0.5906914216954755  0.2020511708079619  0.8113824966964995
  0.7977502847176420  0.1965980806896077  0.1971476187531725
  0.7864842633307394  0.1943207978770165  0.5918441764242133
  0.7979888033820257  0.1985102153041433  0.8019164184784069
  0.8010327773887871  0.8041919838592403  0.2006754193867138
  0.0021708449193747  0.9996105031490264  0.2050123694131840
  0.0015505108100237  0.0012921165160860  0.6007122418373670
  0.0019390081958422  0.9975169159182473  0.7982589451086504
  0.0010729319773015  0.2032314822611002  0.0065946643248693
  0.0028754069460493  0.1992840715010288  0.2024609521038707
  0.9901780938219900  0.2021191684810201  0.4015047102973697
  0.9991509043008463  0.1994916628402432  0.5976503708033118
  0.0005294695887916  0.4001557172226520  0.0021526562436901
  0.0005583136855610  0.3993426362945654  0.2021105061002944
  0.0008178854575261  0.4002364605738418  0.4014704084874422
  0.9992708678259240  0.3990142107319089  0.6017647992520310
  0.0010051812668850  0.4005117601040322  0.8012432951044153
  0.0012205711413427  0.6001001829563422  0.0017237275744369
  0.0004872584335798  0.5995215576015042  0.2000059097234759
  0.9958462569268590  0.5995687116732414  0.3995619421087760
  0.0015115819369109  0.6000235385731010  0.5989742967098628
  0.0002451246068288  0.5995797802210613  0.8016671331145827
  0.0024031147403682  0.7991716327126936  0.0030286827618442
  0.0023195449278226  0.8011283772343910  0.2017981031237649
  0.9911995752785739  0.7999357490569400  0.4010955486655735
  0.9998661129907429  0.8008697126757780  0.6009771988729571
  0.0005024087905610  0.7989040116011820  0.8011198794003911
  0.2028395810511546  0.0000992083735909  0.9999257101466020
  0.2014957900436425  0.0033977304454591  0.2011630786601749
  0.1994980852522061  0.0022608898870029  0.4017651464296402
  0.2018042683316914  0.0034862191243472  0.6003096375735770
  0.2022481157564343  0.0005639726761316  0.7988156115007804
  0.1994404227048025  0.1998067214888104  0.9883618468683673
  0.1962953038726738  0.2010155242552704  0.5963878382975401
  0.2018287250871386  0.1995585904529305  0.7960257795500887
  0.2001457130020870  0.3982393445097571  0.9995540203364761
  0.2015033063438970  0.3957892052360617  0.2009980584989584
  0.2000114601502812  0.4060517798325652  0.4018321616948262
  0.2000641933902616  0.4012464596810836  0.5992845459663747
  0.2002717180049214  0.3994883326560143  0.8001629695078324
  0.2007143400517856  0.5995247547966563  0.9934814226977762
  0.2006661406588219  0.6012539200461566  0.5997066579860816
  0.2011922626591541  0.5997319081509259  0.7982548627409320
  0.2008990574270859  0.8001144949086390  0.9998002726442153
  0.1822411479678972  0.8174343140497228  0.4097902729459145
  0.1994972834811906  0.8015313700715244  0.6031490262746190
  0.2005083540995987  0.8022363199479242  0.8016530350842801
  0.4011769133528475  0.9997124205311406  0.0018890388868540
  0.4010148352879139  0.9975677662353253  0.2009167054510500
  0.3983163805877759  0.0040569469833031  0.4003833796326119
  0.4021871862217652  0.0001471146504382  0.7986919825733817
  0.3993630630281148  0.1986939414219111  0.0018299455056603
  0.4014897882426863  0.1983833450103081  0.2013275994515067
  0.3990441189839127  0.1990503425184683  0.4001251090622273
  0.3964057695806603  0.1994152314779608  0.8051927985908930
  0.4006090264024068  0.3987471660406661  0.0020613949038917
  0.4015566886358534  0.3976428628573474  0.2019959810872738
  0.4001904506496504  0.3950619178502857  0.4017122680511658
  0.3998905556698601  0.4013143836006832  0.6014531962989916
  0.4007236999726668  0.3994190815061450  0.8007703455014570
  0.4005746942310573  0.5989821811320494  0.0008536957049528
  0.4038983820977755  0.5969040036357580  0.1997248048145965
  0.4089888680940501  0.5900761216001809  0.4000934751550518
  0.4008561206427860  0.5987575798529604  0.5995684350293523
  0.4013279613352903  0.5998742095584627  0.8013549082502764
  0.3995928816539646  0.7997301634391812  0.9975363727423417
  0.4051055726555272  0.7993577098833206  0.1910161654334414
  0.4001929149778931  0.8004804910624775  0.6019256716560715
  0.4006343016303615  0.7999590653530012  0.7996819400900339
  0.6012975026033631  0.0004450082488627  0.0000933916252987
  0.6021788011064009  0.9996906916460117  0.2023813772355580
  0.5937437104785499  0.9942750881031029  0.3973901834899903
  0.6010507594371570  0.0004538740999193  0.8008486269481486
  0.6000276499229341  0.1999567402204377  0.0067449170634040
  0.5979386920836455  0.1983432140784502  0.2013326240164199
  0.5929692310357273  0.2056376984102448  0.6082838434040442
  0.6015780472944504  0.3995194421507103  0.0015222975814755
  0.6007839963071201  0.3974873344900783  0.2028742574221531
  0.6013054537015301  0.3986909606582489  0.4023077600478981
  0.5999870476507139  0.4018306177315940  0.6025467659456694
  0.6007170562007166  0.4020685577963430  0.8022962319574545
  0.6013173869599399  0.5996972420792354  0.0013544718972711
  0.6025849214915660  0.5995431539521729  0.2001788157225389
  0.6022638350512246  0.5983282378750773  0.4002128817960755
  0.6005622346556186  0.6021970047574429  0.6008402889928640
  0.6008256415337950  0.6004085108930761  0.8010758455252925
  0.6011855201847484  0.8002775773390055  0.0007894876925654
  0.5988741502697662  0.7989103043182795  0.1999290690231998
  0.5986416660956420  0.7997508555757701  0.3998072518285004
  0.5988540730583686  0.8013485896495207  0.5996777532535824
  0.6001939539727201  0.8019253386951033  0.8004446875894348
  0.7997666865866019  0.0002836716592016  0.0007060709466705
  0.8018189838736285  0.0005279772396188  0.1997202683398283
  0.9165799592531949  0.0012078129036250  0.3991772657085549
  0.8062278261456793  0.9963322191702504  0.5995879126401387
  0.8010703913425276  0.9977645798026573  0.7987095238951142
  0.8011866665013796  0.1995760562614705  0.9984490028124393
  0.8009426749165161  0.1986348247939982  0.3957629545608180
  0.8013247620734966  0.3985988195371281  0.0009280565282550
  0.8014677622443678  0.3994522705258168  0.2007886052480630
  0.7999789610761209  0.3983808424728282  0.4005146866413584
  0.8000179409682274  0.4005531706205435  0.6003145494705566
  0.8007816496011806  0.4000822782065577  0.7995781700951814
  0.8016435985252598  0.5992182194467741  0.0003652190228940
  0.8007614625049334  0.5973057035004773  0.1996135546546821
  0.7992276433507753  0.6002444895201992  0.3997096901327876
  0.8001636466135187  0.5989253435812215  0.6006265796877672
  0.8008107254140996  0.6002418845650818  0.8008608434637853
  0.8016431209767989  0.8003945635708574  0.9979634376593749
  0.7962780067458954  0.8002595502555108  0.4030244765706733
  0.7993427578846218  0.7996457647492617  0.6014573128250086
  0.8006373460586357  0.7999559763913642  0.8007995021026105
  0.3991623285551368  0.9978726782694983  0.5987095673076749
