Zr V  Cr
 1.0000000000000000
    15.5277836321495606   -0.0011014415353407   -0.0036444284316418
    -0.0011015311309700   15.5268057001839015    0.0012045176117796
    -0.0036459540422085    0.0012051907892001   15.5242636607114743
 Zr  V   Cr 
   5 117   2
Direct
  0.9993629609698608  0.1996073406268406  0.3991010895830562
  0.9902521637065997  0.3991102616765504  0.9937894105154539
  0.5995061667343422  0.0003729797726610  0.0045324297339382
  0.5987178141321904  0.0007677471761540  0.7812854281879446
  0.8060861100679195  0.3985225253244004  0.8096883553133477
  0.0006885374012575  0.9981220369477544  0.9992418533627867
  0.9999477659295537  0.9988473503775305  0.1997468558191921
  0.0000527949255509  0.9940620811427943  0.4003012152070395
  0.0003205962633217  0.0003585515087574  0.5997326370560833
  0.0013285862108732  0.9988454856124291  0.7980278696306574
  0.9987647023187831  0.1946861534057729  0.9984085054721583
  0.9991287847596616  0.1994669340010994  0.1952818744551261
  0.9993687009730751  0.1989521834014475  0.6027587064367337
  0.0021819744434226  0.1985083439913096  0.7990182543793241
  0.9994927929179316  0.3995392276447948  0.2013372609304743
  0.9998877382821079  0.4037803640949636  0.3994140175678651
  0.0010462046609749  0.4000530059708878  0.5977941967442785
  0.9989019896938147  0.6039501317643997  0.9993959166852121
  0.9994035700217478  0.5990944611658545  0.1995517103013831
  0.9995932175889480  0.6009305109084735  0.4004529340519199
  0.9999488939389566  0.5996478912525749  0.5988810364512647
  0.0023584173717851  0.6012925378596098  0.7969005109887278
  0.9991566633606895  0.7997209737584234  0.0003273410188709
  0.9994270522467522  0.7993892897226599  0.1995545115425672
  0.9999167713964040  0.7981542030106060  0.3979219927092433
  0.9998092466650517  0.7998281010744827  0.7338397534256325
  0.1980418334341494  0.9992058815095707  0.0004198246166141
  0.1988670222996315  0.9997459981504002  0.2004734536908131
  0.2006626575930180  0.9986920844416781  0.3999821651972382
  0.1991586388506272  0.9989330419993068  0.5989382732478313
  0.1981091127895212  0.9991429991057816  0.7992201735993902
  0.1989306580161242  0.1999587471332273  0.9995657373139651
  0.2001656598480984  0.1993837317658529  0.1989617502913940
  0.2042629624378730  0.1994093107824271  0.3993663218508196
  0.2013775744029020  0.1997134172510222  0.6007740476702771
  0.2012304420504974  0.1990901824811696  0.8005470502417027
  0.2006207071654135  0.3992954897927908  0.0006404482983363
  0.1987937242344597  0.3989648548826505  0.2000425472671123
  0.2010455136869634  0.4001257446556488  0.3997056873129958
  0.2014017032126742  0.3989651321925507  0.5985367263858079
  0.2025826575303784  0.3996368587887825  0.7988232630900272
  0.1989606080457838  0.5988493647979247  0.9998010257704059
  0.1992630419011158  0.5991106808165423  0.2000240474713057
  0.2003283647761812  0.5996619462414570  0.3996315016972329
  0.1994344408357492  0.5996808915188766  0.5998908175035070
  0.2009113907465856  0.6002276916062980  0.8000570497949909
  0.1994346837391663  0.7992521844423961  0.9999022063539991
  0.2000669555669463  0.7992865916091909  0.1996127201795554
  0.1998359614406355  0.7987067863740202  0.4004391523431379
  0.2021047563038317  0.7999300560505387  0.6003364336444575
  0.2001549944432814  0.7992529043131857  0.7993984209068342
  0.3941405471672997  0.9994542501234833  0.0010088108285216
  0.3985257312240978  0.9996802944539780  0.2008399804470353
  0.3992217716595279  0.9991478416761161  0.3999111731166155
  0.3996992420906473  0.0000539600418611  0.5996983219891024
  0.3944265215529120  0.9997314468825941  0.8001984105396659
  0.3995280630876448  0.1993871099956382  0.0000501491549090
  0.3995625371049144  0.1992577625986920  0.1994526683462385
  0.4011331930097095  0.1991426523853312  0.4003827905992964
  0.4009933174080910  0.1992856126149607  0.6009208293806105
  0.3997552645962347  0.1998825116978357  0.8014440113991399
  0.3981852191725691  0.3996364353224328  0.0007320427328414
  0.3991591780826861  0.3992758857986981  0.2011656237960439
  0.4000801240486238  0.3999079532915751  0.4002553325931936
  0.4006262604748251  0.3991734808439829  0.5997887665068901
  0.3997423187732990  0.3997029687619193  0.8001175744280573
  0.3994395475188081  0.5997345911492589  0.0004446407640437
  0.3993450154968678  0.5994228368668993  0.2002169406300249
  0.3998656866122289  0.5995675207602261  0.4001719203189646
  0.4010245548226034  0.5995391553514889  0.6002146601402149
  0.3997615721755115  0.5994844490610151  0.8004336550624989
  0.3991845102832994  0.7994613683255278  0.0002719554039147
  0.3998990923237463  0.7995258089753038  0.2000564181890072
  0.4007017408388091  0.7994225864261610  0.3999162459491653
  0.4008011345310951  0.7995787720497526  0.6001386336912508
  0.4000287757887712  0.7996835027861653  0.8011397774127762
  0.5994632605845833  0.9997584218077897  0.2063453632359984
  0.5995042798100645  0.9992414217246429  0.3988658723277083
  0.6003220580462991  0.0000036454685559  0.5881985952634631
  0.5987561755183132  0.2049252710379907  0.0007915394141796
  0.5990442743539631  0.2006162371772583  0.2009874156284914
  0.5986838482440774  0.2006448734430296  0.4006814609261482
  0.6001755655810891  0.1998596879893176  0.6007030058605594
  0.5998887162360447  0.2053337578626933  0.8006744230658459
  0.5949892126749265  0.4015250888073112  0.0019730636879839
  0.5981399035820057  0.3999004703592121  0.2024964341151680
  0.5987853828005332  0.3999357320985780  0.4009415061684867
  0.6002781567531371  0.3999956416380518  0.6002254966592043
  0.5978510208769764  0.4012293123948916  0.7998269913525262
  0.5987998408193833  0.5986039639209662  0.0006271463661605
  0.5992822962965324  0.5988715316705548  0.2011517087123962
  0.6001089892484429  0.5988511252456412  0.6000762761680118
  0.6001032742796599  0.5983542254047808  0.7999047285705220
  0.5992702837938492  0.7947122404570796  0.0010242723532328
  0.5994312198967738  0.7984792944668161  0.2011061367828456
  0.5993276373615741  0.7982345149980143  0.3997118788479023
  0.5999482719509055  0.7987825592359202  0.5994460822531801
  0.5992354010022839  0.7954362635784061  0.8003496059358910
  0.8043784083611485  0.9986262470458572  0.0013807459709434
  0.8006345804090774  0.9996101762008083  0.2012028682181058
  0.7999617572642697  0.9985360430136204  0.4002366853548648
  0.8014441843493960  0.9985957187468859  0.5993272642534827
  0.8052823942091968  0.9980378560337290  0.8003195922533750
  0.7977900719294201  0.1978489035908440  0.0013129870073376
  0.7987334765886187  0.1988484088680907  0.1999677274176485
  0.7946848732590004  0.1985297758674942  0.4001691338719910
  0.7992020407040782  0.1996703210115695  0.6019432709745510
  0.7996336119432679  0.1944308814537307  0.8020827623446746
  0.7879405641172913  0.3992113479387329  0.0123412813447786
  0.7983635558133260  0.3989447398751188  0.2049132370552472
  0.7985057034115346  0.4003458781417958  0.4013202917364468
  0.7992004275647205  0.3988259190869992  0.5991834864321507
  0.7982728512822698  0.6006874479321203  0.0015752037578790
  0.7995027006472382  0.5996270328084592  0.2012525671530778
  0.7993215947588840  0.5999684202667761  0.4002851275354221
  0.8005741120909212  0.5999705857646426  0.6009019780029282
  0.8007438452116736  0.6042260642137030  0.8010467352550455
  0.7990208294454669  0.7998219713024975  0.0008057424238472
  0.7987593262407864  0.7994751422757974  0.2003700029648146
  0.7993267432837575  0.7991170659733789  0.4010357866714518
  0.7980818697164583  0.7995459382728448  0.6004184474497276
  0.7996612487129775  0.8001084399885109  0.8008835020435358
  0.0079672361151200  0.3995532371519058  0.7922584630668837
  0.5997371869776298  0.5993447347602113  0.4008146135796121
