Zr Ti V  Cr W 
 1.0000000000000000
    15.5087483082677728    0.0011241511672532   -0.0011658627052895
     0.0010760835604324   15.5496415199413960    0.0093654870697751
    -0.0010458555872954    0.0094419591705861   15.5080119952370001
 Zr  Ti  V   Cr  W  
  16   2 101   1   4
Direct
  0.9869667542699093  0.2206130225125607  0.6261440259334085
  0.9694161325147425  0.3825421731717644  0.4224138133264385
  0.2136021302291804  0.2099902450211989  0.9725126132974595
  0.1985144241223283  0.3658691631607684  0.7655915075899102
  0.1695378143745168  0.7954103982810105  0.6050144061497923
  0.4018111581402224  0.0400469350338384  0.0023021486554598
  0.4270396942251209  0.9450970504198117  0.2123769191656633
  0.3840989696250571  0.2419641415869904  0.6218055254210862
  0.4305629771224843  0.3985053753654589  0.7861458703224804
  0.4102691507537117  0.8120898779286624  0.0149435471567659
  0.3979437574364586  0.8009267268653580  0.6017962610232532
  0.5993156167826516  0.3817259532991670  0.6086231717252554
  0.6010921792313476  0.7988066175230388  0.1904440194018246
  0.6245637028318495  0.8001885949412181  0.6017096363372268
  0.7673326943425685  0.2063889329273440  0.5856701478696416
  0.7496885554730749  0.3976139925802509  0.4305182278949645
  0.0017403242477197  0.7971937288450883  0.4150737829767632
  0.4035026185694916  0.3913842760198096  0.2015305782976680
  0.0026749534598465  0.0041059453321361  0.9976727922281069
  0.0005027478166438  0.9962336345617508  0.1985627210552938
  0.0038153870277875  0.9992551885409753  0.4013092579402185
  0.9991923686732026  0.0052464126313519  0.5998419914539802
  0.0006315185274760  0.0028178089902611  0.7988067832258234
  0.0037375295956503  0.2040127335560377  0.0049410785580651
  0.0031117592682084  0.2017897192458331  0.1950550398123520
  0.0062421614040495  0.1907075482958011  0.3886193005985789
  0.0052883548292912  0.1994607931811912  0.8197272706304358
  0.0030445611832827  0.4046891081473033  0.0018538359988345
  0.9998025215683586  0.3998579384803385  0.2081194869080458
  0.0033112285955655  0.4164032503557010  0.6178702569810930
  0.9982875954434461  0.3999722339693391  0.8083040905378638
  0.0028005530127518  0.6024112942877724  0.0034374028735633
  0.0032221294024344  0.5978465601926407  0.2042077879802487
  0.0010670018656430  0.5994747620538456  0.4038855238795894
  0.0060841625126191  0.6064839859991220  0.6036106988648464
  0.0036337340894292  0.6017775168507917  0.8063196145170279
  0.0002372639947275  0.8009515989569639  0.0014353285228823
  0.9994654601140918  0.7973225920090918  0.1998088962330411
  0.9828094533878365  0.8031247076183666  0.6109294739909157
  0.0053559501699241  0.8042669272898701  0.8056428411171412
  0.1984685804330502  0.9959364509919483  0.0020735905988096
  0.1953366644129652  0.0028504419633804  0.2003199623949714
  0.1984346747433251  0.0014300958228553  0.5865251342387978
  0.1986349533308482  0.9842724374513947  0.7858948279602272
  0.2036897707110709  0.1970893825288003  0.1864542020138213
  0.2037119234985505  0.1926570471292657  0.3876005081466061
  0.1892557724972022  0.1925320158779116  0.5843969019599728
  0.1883236804805453  0.1737643474188798  0.7750441626255017
  0.2028400318134630  0.4149508208102991  0.9978661490482640
  0.1963268000552745  0.3983398096201221  0.1918534657020836
  0.1996446374194654  0.3931463569891376  0.3826442614964377
  0.1601848279391603  0.3834084135280327  0.5673583867749605
  0.2043398877938974  0.6067178099310734  0.0074991060447274
  0.2032159817439763  0.5937056857733809  0.3953587582136889
  0.2020439387303954  0.5839272577137372  0.6019897554050267
  0.2047912767929235  0.5972733908538046  0.8078877296924244
  0.1997055082117959  0.8032581208383903  0.0024348831041521
  0.1959505567804505  0.7884423108608334  0.2000009974310618
  0.2035564546621483  0.8084340177201786  0.3972340906654447
  0.2048950809965142  0.7946389364908074  0.8079517635576650
  0.3948509171532444  0.0033939730209225  0.4071858680746168
  0.3990683336783217  0.0070364039050379  0.5990434827855242
  0.4013011723031178  0.9981976906910907  0.7956540103045396
  0.4138692377710740  0.2367620385993763  0.9970507581832274
  0.4031204678652287  0.2035392032689317  0.1899743823942807
  0.3999750877143980  0.1973049848588440  0.3857231229530337
  0.3711999644221688  0.1897787178087016  0.8168615449733212
  0.4052926326650795  0.4098221491548109  0.9938777692132792
  0.3949436209990783  0.3985954251475525  0.4061969689353869
  0.3456560542512012  0.4209806527026937  0.5937316795034870
  0.4038538474284645  0.6023560485920640  0.0027461231166071
  0.3955317985289361  0.5853113967074989  0.2093491464521319
  0.4020486492757982  0.5973341152003687  0.5994419691372457
  0.4032004396194537  0.6061909089050364  0.8020956950687047
  0.3916564676099943  0.7627129288125339  0.2088497019550255
  0.4012775023426685  0.7933558457490016  0.3957944631409958
  0.4035663983191738  0.8019355015984526  0.8074273147415998
  0.6090207977488944  0.0092360292746518  0.9935813236885245
  0.6148774063444105  0.0101320019415241  0.1954494668041165
  0.5972186172812652  0.0010447888557972  0.3939988745949013
  0.5998863438575769  0.0054035451240411  0.5964737435455164
  0.6001285357617157  0.0045918849347569  0.7969555414465516
  0.6051918741514427  0.2054598930329463  0.9927578059174393
  0.6051656339677006  0.2025512602098004  0.1946202751340460
  0.5947242368880398  0.1990238747479691  0.3933355690347484
  0.5791598045966087  0.1886505567161819  0.5971912303582205
  0.6140756801943135  0.2069032362380919  0.7909969598021527
  0.6056198330756698  0.4049734162393882  0.9974099870525840
  0.6087607315062898  0.3974846356588720  0.2013697751806350
  0.5677954576559469  0.3982670240196019  0.3986687074802844
  0.5996849431323178  0.6031000359945015  0.0040026636248152
  0.6027555134892469  0.5922032336793104  0.2014406424869374
  0.5909909517661907  0.5982146558123145  0.4021855220039732
  0.6004702857214375  0.5945462457773216  0.6009787307132533
  0.6031426771611320  0.5994489256741419  0.7999010452408372
  0.6157402616981333  0.7996883011887720  0.9908537031006867
  0.5980653611799877  0.8011615856086370  0.3994677714555748
  0.6015052956499813  0.8033743745616705  0.8030659203651919
  0.8052486487224048  0.0034614897084801  0.9970808460875166
  0.8063392633249717  0.9993085537734860  0.1998731312498087
  0.7998541466111501  0.9988014586316087  0.3970166884732902
  0.7990101675491986  0.0005208670319108  0.5950576041626772
  0.8026001961163425  0.0018467676205461  0.7965584322475290
  0.8042906958332859  0.2023025364378932  0.9951834199542601
  0.8021018192530913  0.2008095740092619  0.1950094968750209
  0.8120628640588837  0.1955464170084096  0.3897137098789548
  0.8054920806076425  0.3993194570682532  0.0044820222260662
  0.8054982093898791  0.4006772179433495  0.1985367920743511
  0.8230192585646207  0.4083217235557060  0.6159260348381300
  0.8046039177784978  0.4067370693420879  0.8093125848699607
  0.8051416318437039  0.7652977196577891  0.1682561435714736
  0.8007733715650105  0.5983655779314230  0.2079581820438249
  0.8020794365156012  0.5996322869565965  0.4022595982058789
  0.8004544241254062  0.6025934788812725  0.6004473493097441
  0.8040084006891867  0.6060715579030226  0.7994528348087754
  0.8056658497837279  0.8054983937907162  0.0006618741527546
  0.7934897943009969  0.7999413647140370  0.4001272578889039
  0.8159067607112774  0.8017961825311157  0.6008368912520242
  0.8035330301269452  0.8019266982023160  0.8018469240794825
  0.8085503744717354  0.2015983531591047  0.7984361435928305
  0.2025136110711886  0.9989221472802062  0.3923771110323941
  0.1993860746857203  0.5943016280401224  0.2031953652187828
  0.3977988473254260  0.6007466793587219  0.4060434872169639
  0.6239729124982564  0.4059904858287337  0.8080004084143496
