Zr3 Ti14 V93 Cr2 W12
1.0
  12.4966892740713664   -0.0127905507363100   -4.4000742921243257
  -6.2543589739800716   10.8221124976081224   -4.3856040098718241
   0.0018392309309037    0.0207838815801528   13.2053074102526420
Zr Ti V Cr W
3 14 93 2 12
direct
   0.1987694295556608    0.7964705999078066    0.8032185026963875 Zr
   0.3997018538292353    0.3975901854655844    0.9981861903553146 Zr
   0.8000541546993725    0.2021811002222082    0.5990217446896817 Zr
   0.9958743030995240    0.1923010876644528    0.1954637728914521 Ti
   0.9977354677408231    0.2028154821454519    0.4061560095389294 Ti
   0.0019447046633349    0.4019915267022031    0.5976677116920934 Ti
   0.2008310160280218    0.7985941293368380    0.3951907385597618 Ti
   0.4025850283810947    0.9975420391339982    0.7954891385105061 Ti
   0.3994727200492486    0.1939252407565744    0.1923725157845614 Ti
   0.3947564680094527    0.1955860507656990    0.3999565850659659 Ti
   0.4019440341959065    0.4047832345839085    0.2175606539443653 Ti
   0.6048079005623944    0.2017092636661937    0.7952880802484906 Ti
   0.6103028747534456    0.3977289242982364    0.9917009391366695 Ti
   0.6072693058921961    0.4033164174223204    0.2077284925407137 Ti
   0.6025336397406016    0.4041167139724553    0.6024264312847045 Ti
   0.6022518771524803    0.8023694051599227    0.9973197005432777 Ti
   0.7984827345867014    0.3966574158478988    0.4000580030650706 Ti
   0.9975900649149089    0.0009309068227343    0.0001564680159232 V
   0.0000061761845787    0.9978722515702050    0.1986036391371245 V
   0.9977987063386460    0.9978065825165945    0.3984795975298138 V
   0.9935765035627959    0.9959659855046665    0.5956382720468546 V
   0.9931467324734861    0.9946277762735265    0.7989960511394512 V
   0.9965171615532924    0.1940931894520327    0.9929847736618748 V
   0.0071193789335642    0.1891215764194484    0.6062977889636838 V
   0.9984676793323687    0.1970422222797372    0.8011563178346782 V
   0.9981720583584797    0.3985886171132242    0.9976976368194556 V
   0.0038251850880297    0.4076651523079646    0.8092680656119471 V
   0.9966986809733528    0.6002814644280112    0.9980423188543943 V
   0.9971739024660823    0.5986198922379022    0.1957229989538525 V
   0.9928764682231747    0.6002893546188730    0.5968862568237758 V
   0.9959925656856393    0.6025353877700402    0.8010307760177905 V
   0.9979211564737148    0.8011068320215692    0.9964433617394289 V
   0.9965944146126610    0.8000217490508564    0.3998654695150883 V
   0.9954353251448890    0.7994037200661795    0.6008775896368675 V
   0.1882034028980795    0.9955722296581313    0.9955581915380654 V
   0.1927805316111857    0.9978580565031041    0.1940215751610501 V
   0.1990560502920328    0.0042930223098691    0.3973241687324167 V
   0.1910425539735472    0.1931984978097301    0.9976049501540304 V
   0.1971007325167516    0.1981488951506035    0.1978114799655656 V
   0.1941512149783294    0.1985141946821552    0.3948018936401474 V
   0.1965444512923103    0.1985456815345919    0.5953598400440001 V
   0.1879123377255771    0.1935812714217695    0.7918608181835021 V
   0.1924412544926896    0.3988573061945855    0.0007662163314426 V
   0.2056544596984452    0.4038390005047347    0.6020696690977970 V
   0.1946095566794882    0.3976543904784975    0.7965449326818553 V
   0.1989947843750169    0.6013706993094859    0.2017903274910345 V
   0.2045538411081840    0.6017408064774830    0.4042734454234020 V
   0.1965855631923438    0.5959178944900771    0.5948119452973424 V
   0.2012805123318466    0.5930611015381683    0.8013613970963083 V
   0.1946380749036619    0.8018126030969812    0.0094802211468711 V
   0.1982266297629066    0.8017881070982107    0.1963468394188997 V
   0.1956191456867956    0.7920992281624777    0.5912894893874141 V
   0.4049079376116777    0.0074738213286271    0.0126999891088149 V
   0.3977023512288045    0.9988575501098166    0.2025254574668974 V
   0.3975333796542286    0.9958509991385069    0.3995169025871269 V
   0.4015973090241641    0.9990262137768672    0.5928927902180268 V
   0.3945210787669775    0.1830671076625173    0.9852010235610043 V
   0.3987300340008034    0.1998276945408189    0.6017641466260175 V
   0.3915973699961118    0.1971092897152892    0.7875969705100891 V
   0.4012677307302274    0.4097403344235885    0.4152637749142509 V
   0.3953183211840871    0.3989928977239866    0.5969386128776359 V
   0.4013114508561536    0.4009571511952885    0.7898059013708680 V
   0.4037708641083730    0.6075407750968508    0.0004355416279148 V
   0.4016581699208703    0.6044202150487973    0.4055200464303492 V
   0.4003057467063444    0.6029734081987241    0.5986404119838247 V
   0.4018027741930945    0.8040531332169788    0.0021425827931282 V
   0.4055568682840941    0.8024919203585827    0.4052962747413908 V
   0.3995640261648064    0.8004263080306825    0.5983353377623077 V
   0.4089810917462113    0.7943962138002060    0.7963753434273469 V
   0.6020521974314774    0.0017754633805974    0.9961136922031819 V
   0.5994025019120187    0.9965729474895172    0.1962785842288890 V
   0.5958734411485055    0.9956048425541737    0.3973093111982409 V
   0.5994019739230425    0.9981701039368605    0.6001765449620282 V
   0.6056740397801788    0.9941957907546343    0.7956780008931666 V
   0.6006871403445355    0.1889290229572162    0.1951696101856165 V
   0.5990796625467798    0.1987614153815995    0.3971664459126369 V
   0.5836944890608062    0.1901375021962790    0.5849193331840072 V
   0.5968154689632491    0.4116695118985524    0.4070007165483547 V
   0.6013613582956434    0.4100383794465561    0.7992180227844670 V
   0.6039267438332180    0.6018561615956304    0.9994612237437831 V
   0.6075229282050840    0.6131087418390042    0.2123597528157302 V
   0.6064280638748617    0.6088662493551676    0.4106281210362707 V
   0.6018383422232252    0.6075606959801708    0.6020572999265241 V
   0.6029005395567081    0.6031540380014855    0.7995852564067851 V
   0.6024902057423450    0.8023937637958410    0.2027474436158613 V
   0.6035617782305174    0.8038802593455907    0.4057517573780469 V
   0.6002447862139666    0.8027112055819332    0.6008230838020808 V
   0.6031661321152642    0.7995805743315626    0.7936040368048097 V
   0.7951930012243705    0.9918700213554804    0.9919975151650996 V
   0.8021731434021515    0.0024043907116100    0.1985815524952528 V
   0.7991531133139155    0.9969465362021965    0.3988674413028441 V
   0.7986660913577883    0.9926580082706586    0.6009762941457849 V
   0.8003876888509657    0.9979594571078984    0.7993003816482386 V
   0.8009985241917648    0.1959024987985505    0.9973831823045534 V
   0.8009341854034603    0.2006528435068800    0.2035100089358159 V
   0.7820826903320772    0.1793472047229250    0.3769131690582138 V
   0.8091310577926981    0.1990042298021818    0.8095494388541092 V
   0.8132755164260455    0.4071672816656703    0.9999847828944564 V
   0.8018311361708286    0.4007750455089425    0.1952020347998166 V
   0.8080358874194403    0.4208858588283446    0.6142059690180546 V
   0.8018347788326663    0.4060054092595786    0.8021118026894766 V
   0.7998042954906216    0.6006686647582878    0.9977862170167220 V
   0.8007035857912571    0.6029410006720124    0.2025506783591376 V
   0.8030405598840448    0.6102882488292865    0.4066597934064900 V
   0.8030611643268205    0.6081497441276603    0.6062336593961233 V
   0.8038047552845616    0.6042927849817197    0.8052107852431405 V
   0.8033579978429058    0.7999244870106342    0.9963140331455367 V
   0.7992145571411752    0.8022659647386143    0.4019602155046151 V
   0.7986283801032854    0.8003237673937572    0.6010340891764584 V
   0.8029381435988682    0.8002293969775200    0.8003536804001110 V
   0.0034268698952088    0.4031254459339134    0.3974494884269140 Cr
   0.9898063701953446    0.8002103507562015    0.8009795221406231 Cr
   0.9986094280980604    0.4007444471831421    0.2010475195598213 W
   0.9984417888984898    0.5997584413567482    0.4001197121800791 W
   0.0004046938138779    0.8003423508469752    0.1989602682199063 W
   0.1969071349724473    0.9961388762937714    0.5934214388705240 W
   0.1927055515391612    0.0011939502237022    0.7967858276092205 W
   0.1960982372720355    0.3987678651685110    0.2020462398587588 W
   0.1978179368675639    0.5995127511967040    0.9993935729729677 W
   0.4028075739486932    0.6042227539491020    0.2053266162020390 W
   0.3993400077759579    0.5982766902597014    0.7968209497952716 W
   0.4014674255934671    0.8032939988781649    0.2023673804860736 W
   0.6048518426464269    0.1977272774165788    0.0012532830300891 W
   0.7981157561960972    0.8006842323444100    0.1985215671038831 W
