Zr Ti V  Cr W 
 1.0000000000000000
    15.3960504026614231   -0.0029059402776773    0.0109527228615838
    -0.0029019596058232   15.4211892961187402   -0.0178703021294289
     0.0109643357546517   -0.0178836246684765   15.3929296075496413
 Zr  Ti  V   Cr  W  
   3  13 106   1   1
Direct
  0.3834693067611236  0.4138826316908759  0.8037505703698333
  0.7996909810896264  0.9729336370592143  0.2186057712938355
  0.8107835672288374  0.2094737359341799  0.7782425571223290
  0.9841513770233568  0.3894788471610158  0.7987354243301066
  0.0066391236183352  0.6041569437104599  0.9893408774453499
  0.0001588209519887  0.6356053372471536  0.1976023419205652
  0.0117241338152503  0.7926580516517715  0.3896359526943950
  0.2086788734160103  0.0008950793168464  0.0006085573669086
  0.2006448566082125  0.5860004934061964  0.8077886058085866
  0.1867491291397285  0.7945009048416946  0.2052153922168178
  0.3952003982317019  0.0031869047603866  0.8094975998891785
  0.5945532138149093  0.6013658255267008  0.0021953535469208
  0.8034245002451142  0.9962539173914685  0.4208096581943209
  0.8009173692024794  0.1944546008580798  0.1864436811028866
  0.7988929185768017  0.2011895031656127  0.5764654386642800
  0.7971417370903983  0.7741739641387340  0.1926683848348818
  0.0004871410835556  0.0027475456576698  0.0001550078299655
  0.0048300177339252  0.0070580064982080  0.1982175487699731
  0.0017498013189773  0.0014427653693054  0.3982820839005582
  0.0002385430653846  0.9981237971967912  0.5987500286708868
  0.9990466956462933  0.9985425139767848  0.8011133997296501
  0.0013089262920922  0.2008560998928322  0.9960728417367725
  0.0032717744024215  0.2010298058359845  0.1968703348497501
  0.0003266137627184  0.1983413166551640  0.3981385764594598
  0.0029606151353112  0.1984193001232646  0.5983912256024747
  0.0091911385544956  0.1925464787178236  0.7991506448468551
  0.9987978944921988  0.4003038850939888  0.0030341969083562
  0.9987352470222676  0.3960529629687217  0.2001667741256007
  0.9991918356221740  0.3987186707144655  0.3988701971187174
  0.9998277067345199  0.3989756416128279  0.5975921523433771
  0.9999407460015123  0.5962141699408369  0.4017459537937406
  0.0005768248049389  0.5999683344311255  0.6004220817454438
  0.9961947558077265  0.6014313561070708  0.7970726873037272
  0.0009174351190850  0.8071676805522990  0.9951988591751263
  0.9902670145384693  0.8164322828882067  0.1918903238512500
  0.0008889748679484  0.8003891657967150  0.5987897663919786
  0.0003528219081324  0.8001017416148296  0.7979083866230471
  0.2011589048801583  0.0017410906107310  0.2042640861518925
  0.2009172724178619  0.9993286048943796  0.4011960316743508
  0.2000695948464159  0.9996654255308867  0.5995038440770502
  0.1960097157699791  0.9986199023087471  0.7977956271182653
  0.2001200298636427  0.2045069743742981  0.9990016522295604
  0.2008087355717040  0.2009206577038584  0.1990077500253812
  0.2004875361069112  0.2003935365907054  0.4004557776914559
  0.2008567738976816  0.1988446451288277  0.5994131588029531
  0.2027513075860154  0.1983745694461789  0.7985697056734113
  0.1981900380529697  0.4013915959965889  0.0011135205742174
  0.1973765369793614  0.4018618709943881  0.2008873637497928
  0.1989586274316172  0.3980770523516136  0.3997676729422569
  0.1981054895845981  0.3995242821340609  0.6015170043796825
  0.1861247264114332  0.3925732504543527  0.8010709718880032
  0.2012069697236434  0.6005718981341396  0.0066455398315723
  0.2003945569762839  0.5974007240510142  0.2019192782887956
  0.2018105611777346  0.5952839281488200  0.4027259290921548
  0.1994065677493083  0.5992720310827955  0.6004703178818666
  0.1987653585266909  0.7980468136826934  0.9988549553905721
  0.2062563198178392  0.7997112125436749  0.4043240774487475
  0.2001599845904174  0.7984614965671992  0.6027966892045272
  0.1989673668818104  0.7993318271299377  0.8020059880186403
  0.3981915587874697  0.9988496068051324  0.2004274203275953
  0.4012512628197240  0.9991309796365011  0.6004002953790912
  0.3992614826518769  0.1975942637169230  0.9998163501902494
  0.3990211021903878  0.2012639444296642  0.2001529033006955
  0.3999014522591727  0.1993739093523498  0.3985680288689759
  0.3997350534272257  0.2007221436430546  0.5996324198695470
  0.4001214465843885  0.2031549884697561  0.8001057460893269
  0.3992907690389860  0.4004967371190926  0.0062734246201706
  0.3989575817959901  0.4015974826063899  0.2005761340592767
  0.3997572968320801  0.4006582566681857  0.3994102402914747
  0.3990051994116655  0.4011420449898399  0.5975007603270188
  0.3968135167116050  0.6041666074113557  0.0011890476145303
  0.4002065289709926  0.6030792004015471  0.2003478641654597
  0.4008478556094554  0.6008857173719887  0.3993001661697438
  0.4006870151172942  0.6035356749492464  0.5998049670351187
  0.4036792425553127  0.6126915098501339  0.8019630456696072
  0.3982709294395674  0.8061250843974944  0.0029659904134002
  0.3996669688925577  0.8002040643048827  0.2010128814924437
  0.4027828687466103  0.8002333165682791  0.4010591110190497
  0.3987103519887661  0.8021443750007858  0.6023575194457602
  0.3990124311475067  0.8027782611657722  0.8013517013430376
  0.5985655250135105  0.0032263867162883  0.0025415090882777
  0.5963197489660511  0.0032584055615967  0.2024933322833900
  0.5999609443152663  0.9994296038170712  0.4013306750053308
  0.6005482238484637  0.0022648649927719  0.6015592025180906
  0.6024506292232522  0.0021594694553691  0.8013194371708926
  0.6010351474783876  0.2022108871085530  0.9983538000038397
  0.5975758128045430  0.2007293778283303  0.1987321597640500
  0.6000726078737953  0.1996124415640899  0.3984709496211576
  0.5987832781925639  0.2002553448352227  0.5989774813420278
  0.5984584232554453  0.2027039359459853  0.7987362610313548
  0.5985510982795126  0.3992448964911111  0.0001841387971973
  0.6004573291567139  0.4002724299340515  0.2000793227510536
  0.6007616193583339  0.3990837673461328  0.3996364372405285
  0.5987023505292439  0.4005244827540209  0.6003589166733421
  0.5973882001885967  0.4018332475593837  0.8008434040560309
  0.6009462670044267  0.6014582092629324  0.2020888059739358
  0.6003914201916749  0.6011746474754318  0.4001270093151255
  0.6015510275681207  0.5985944167637968  0.5989329369397853
  0.5996147240212870  0.6035600971531916  0.7969365712761576
  0.6004989364241894  0.8047898189414826  0.0000287851128431
  0.6016915581440785  0.8032258713897624  0.2007496258169015
  0.6012297522722768  0.8009198797304706  0.3995718609739370
  0.7699144725849225  0.7997648364672296  0.6001718793559329
  0.6002935006987864  0.8031745724018672  0.8016077550042523
  0.8001305203772219  0.0033306357834477  0.0035315782195160
  0.8002304493612141  0.0004684911965445  0.6106671939069976
  0.8005262722047127  0.9989779778441038  0.8047592106381066
  0.7997739826837365  0.2017130978298423  0.9924443749339565
  0.8008762342771223  0.1969803775148027  0.3869151680951555
  0.8000770535441208  0.4027839429275500  0.9995009311450195
  0.8009106581830351  0.4017724077785980  0.1984648186361407
  0.7995422999696100  0.3970469343911888  0.3993029823270914
  0.8012409669095409  0.4020737788407993  0.6007954542025423
  0.7925400805918071  0.4107420624588282  0.8020425071202009
  0.8036615487856599  0.6008329710893235  0.9999491286896509
  0.8004995374302221  0.5919643990889060  0.1996263206348219
  0.8017416338290982  0.5966087098034266  0.4005873208087034
  0.7997455552383038  0.6002200678284081  0.5990385869177279
  0.7983430837845041  0.6046492737700651  0.7988856926063487
  0.7996597866061527  0.8008095656498331  0.9955691877373987
  0.7982550246261599  0.7947897974723651  0.4071497369375838
  0.7989084940396741  0.8003840078938372  0.7993979386357247
  0.4008867410363189  0.0001486748363040  0.4010745410236476
  0.4045232154297824  0.0017861168689432  0.0063141703181447
