Zr Ti V  Cr W 
 1.0000000000000000
    12.2882735461728885    0.0000000000000000   -4.3445607757035454
    -6.1441367710433559   10.6419570608175889   -4.3445607757035454
     0.0000000000000000    0.0000000000000000   13.0336823299999995
 Zr  Ti  V   Cr  W  
  13   2  82  12  15
Direct
  0.9985534699865589  0.0011037924055989  0.7913424965346187
  0.0169683564086567  0.2266370647400110  0.0003761625482431
  0.9932390939843786  0.5843879661906399  0.0059158818868537
  0.1946484031832466  0.2002519611663619  0.3983859882433721
  0.1945228767412533  0.2049669655825794  0.8002883864079787
  0.1713242758730978  0.3966951482754343  0.3902307485257103
  0.4040286195420534  0.4002363992012914  0.3984006592850083
  0.4036993233609242  0.8099449270878100  0.5987721919898608
  0.5959306994659945  0.1975696460100522  0.0033712426239417
  0.6030236409124170  0.3970193001809681  0.8020574403125481
  0.5988225447960599  0.7999551296542137  0.1996499531038814
  0.8076254820364280  0.0094953704387842  0.3995033644965515
  0.7829886551054527  0.0011005342811934  0.7888225955893923
  0.9887645372695806  0.4476031066616264  0.4114581905221844
  0.5970484780466223  0.1844178413108241  0.7886223075389455
  0.9906528079150390  0.9910501595854935  0.1939220507376814
  0.0033160377541041  0.9958508495015715  0.4041395593890580
  0.9839821005872803  0.1880820868965487  0.1873339282197458
  0.9926087280093564  0.2018800616776186  0.3995924862543802
  0.0089406436072932  0.2134748052788756  0.6010891524530503
  0.9886561976241020  0.2167878306710519  0.7813007633712968
  0.0031406528050306  0.4035762225365382  0.9987070102734228
  0.9865126145994263  0.4007779001805896  0.1926479442812721
  0.9960582991325073  0.5981891862697439  0.6053942846273861
  0.9980997214976347  0.5919102196014714  0.7964199218256314
  0.0012790630459371  0.7977185774191777  0.9987661650358519
  0.0046995997737563  0.7942369713696059  0.4060346431686868
  0.9973483522325848  0.7967741320156565  0.5995095429197118
  0.9977591862023536  0.7889641662493670  0.7989793716601402
  0.2038319640652081  0.9960823604182696  0.0029696512885339
  0.2012298097072832  0.9976582818908240  0.1958653423793509
  0.2204596420795325  0.2102958575021266  0.0207403969353607
  0.2037773256016208  0.2007328779303951  0.6037305889999717
  0.2136726309006999  0.4082439642095549  0.2032227881884647
  0.2018793342071962  0.4081455030338557  0.6155389862763728
  0.2006908087143039  0.4101780387577634  0.8036799948128676
  0.2026825369322762  0.5975806234141480  0.9966058492678302
  0.1974274754174756  0.6012002871662768  0.6061176997295548
  0.1926083368467399  0.5920312814990788  0.7975365105140517
  0.1985404537226720  0.7981205446003558  0.0018726626665966
  0.2056127355201394  0.8024504381151615  0.1983515278466135
  0.1969922689098692  0.8000594785318046  0.3928971640204773
  0.1813282836341263  0.7894010701419436  0.5883429646803020
  0.4028774857000614  0.0030634252134541  0.0091652827202234
  0.3995799099784833  0.9983673849901020  0.2004638081551348
  0.4031573108179299  0.9997982490692581  0.3991303339353678
  0.3904883962662858  0.0028745840430450  0.5964755594502588
  0.3929126456427508  0.9952861249654161  0.7956112922304771
  0.3979448476473666  0.2014779483308103  0.0056920442371974
  0.4047038273469070  0.1968527456720097  0.1997547772924921
  0.3974813189579773  0.1948545823978369  0.5988053016424790
  0.3945968385319508  0.1967462787660634  0.7944848938719842
  0.4049412327947992  0.4058325031447956  0.0050394871711930
  0.4074912215773397  0.4001332120714639  0.1965346298513529
  0.4113987198617972  0.4091716329419548  0.6177720061992505
  0.3985811797890965  0.4042318728310581  0.8017226101429764
  0.3960049375227737  0.5945027880336393  0.9932657665477224
  0.4030393319248292  0.5990671158096074  0.1986919289494946
  0.4025097834213179  0.6042733035037552  0.3978122482195912
  0.3987645371703709  0.8039693786789237  0.2031901617476067
  0.4033351603760967  0.8036939446029722  0.3933238609878174
  0.6007897773508581  0.9950357812063356  0.0056753833304665
  0.6022623370793180  0.0143290295700267  0.2023766756803120
  0.5969141287983811  0.0043519980743624  0.4004617540873276
  0.5993262134911613  0.0040244751444266  0.5922734155539212
  0.5999721399467537  0.0046254953868035  0.8155161158882802
  0.6045531872244174  0.2005083023771823  0.3965548338008491
  0.6072985201197557  0.2033780456980861  0.5972187598213654
  0.5968800424774005  0.4002939297829343  0.0075115936194319
  0.6106446588258446  0.4018784486504239  0.3993284550549018
  0.6057828171060978  0.3997681815485725  0.5971057910444314
  0.6012608674657502  0.5969913013451978  0.9993854419373748
  0.6053343785019063  0.5987642920678984  0.4027253091229451
  0.6071196464797227  0.5980455519233367  0.6045644737882296
  0.6004616850401939  0.7954823566934298  0.9979883233495365
  0.6021617661588665  0.7999662205359915  0.4068984013569091
  0.5973292740420921  0.7857432951437094  0.5839436975340404
  0.7983665430000512  0.0001175827806632  0.0080702408783808
  0.8009124646560077  0.9994115613213047  0.1932220184601360
  0.8002807035691136  0.9987951197608838  0.5905670052665863
  0.8032166038618634  0.2052290409184039  0.0108734383402023
  0.7989538882283000  0.2025282563728929  0.2068275861387471
  0.8102561594371389  0.2170437572024511  0.4074501859843476
  0.7994622253430412  0.2039903475777829  0.5949334856719297
  0.7988550881384547  0.2128100654801128  0.7895326588995636
  0.7994553538533187  0.3983569103527323  0.0048508564520070
  0.7978473399707621  0.4020233448975846  0.2082336997891062
  0.7895708052469979  0.3966102795453926  0.4003544960522420
  0.8039499120575837  0.4013167825812440  0.6023334306364923
  0.7986741530666523  0.5984585325769867  0.0026296701124644
  0.8097980633113937  0.5968016873785240  0.4061719434155532
  0.8008580199296473  0.5944308857288825  0.5995627415192537
  0.7980081338618705  0.5903520313689731  0.7970106187367677
  0.7965312598936852  0.7913807286265198  0.9993195325247303
  0.8064921779798063  0.7967261249509656  0.2018906789841659
  0.8105528834735869  0.7978739252181137  0.4083736310631870
  0.7967827232133958  0.7888296321244930  0.5906877305411119
  0.9977934939239872  0.9910133679638048  0.5840357101522610
  0.0000416280683551  0.4054215550354572  0.6030060844806929
  0.9976204378573779  0.4019435592776375  0.7935455626641159
  0.9910496329967546  0.5953574430008080  0.2649202132906860
  0.1985924982175231  0.9961506004763370  0.5983033633365760
  0.2008171487153464  0.1940719922894941  0.1912559579982194
  0.2117872695754277  0.4120558437290056  0.0022161795312433
  0.4012627107800645  0.5972303197651161  0.8048091956656747
  0.5984187523743993  0.1977909345830896  0.2061127083928438
  0.5995504451374394  0.3998867401473924  0.2042214455933127
  0.6004687688884760  0.5990215629131604  0.8012355223150546
  0.8017908777556243  0.3935482391771067  0.7895046652100175
  0.0041128002935089  0.9987062673097306  0.0069332920471889
  0.9978316946267075  0.7936641390509179  0.1969053545015806
  0.1983541689052858  0.9944358191168647  0.3993509609701480
  0.2046837262620159  0.9964900451235137  0.7982516960675031
  0.2082189713209126  0.6039134907790525  0.1994367713073972
  0.1849637099548927  0.6063209394600307  0.3940214106872303
  0.1961383257200167  0.7954053487058939  0.8008632716256162
  0.4067471070849548  0.1943746262580420  0.4006143717788396
  0.3983662477442981  0.5951715148445204  0.6018469057614730
  0.3978916072243314  0.7986474583498889  0.0031152803985144
  0.3974361231245120  0.7963625433142365  0.8034500111760409
  0.6051719883562485  0.5964684728409244  0.2062090752412976
  0.6008853572614291  0.7950002459072331  0.8028224541566512
  0.8065641762531113  0.5969655402991711  0.2036190551272381
  0.8017396362894664  0.7912720836495820  0.7981935179666226
