Zr Ti V  Cr W 
 1.0000000000000000
    15.5037299355992140    0.0053875915022060   -0.0049673339968089
     0.0053888447929185   15.4932120490820822    0.0008447035454455
    -0.0049676779853922    0.0008426987699688   15.5021949562625245
 Zr  Ti  V   Cr  W  
   5   2 106  10   1
Direct
  0.9853145708226603  0.6037284059769540  0.9881025564990790
  0.0013550269748887  0.7993313614743923  0.3980061166110311
  0.6065090363640998  0.3988122836748584  0.1810148952973930
  0.6342899172088231  0.5984579004613412  0.6390900321906052
  0.8024514476809907  0.5990048822409610  0.8052408747159524
  0.6001628792020288  0.9980248728847499  0.8024665083811601
  0.7808301221813198  0.3990749168842276  0.0025931839751145
  0.9967083187709143  0.0010881524563016  0.9986746162331691
  0.0003514781511320  0.0034124450980214  0.4001184921796296
  0.0008643862811515  0.0005364670239071  0.6004886329080215
  0.0007414798761645  0.0013493510428861  0.8001452347596381
  0.9985193784736468  0.1988393863079158  0.9993427994008230
  0.9999423815573732  0.2001104054651161  0.1983679046342331
  0.9997097079104762  0.2005893279242320  0.3987883263472602
  0.0002575375452659  0.2000592147280843  0.6005918988269531
  0.9998058950070473  0.1999325918799979  0.7998368147374375
  0.0034254239583980  0.3984998066436553  0.1984091852513155
  0.0025189139657293  0.3974205507069775  0.4011252256093130
  0.0014500307208723  0.3976256560376863  0.6010501926622792
  0.9988348084115319  0.3975854701031020  0.7991299169599567
  0.0012953067097277  0.5997109654105910  0.1976091914099746
  0.9967457769328144  0.5938229565053975  0.3976892647925790
  0.0076682800233960  0.5989798057196606  0.5980132196239499
  0.0070144853772669  0.5990960538516071  0.7905677715629376
  0.9994220836531269  0.8066037441416223  0.9977672576458417
  0.9980808696417272  0.8006000084008078  0.1928106910415637
  0.0014951882583554  0.8012245208463754  0.6042536519179886
  0.9994741402753480  0.8006480684638234  0.7991161563940400
  0.1997623426114437  0.9333105063345916  0.0666532116683338
  0.1997775323339709  0.0016163302959697  0.2011515085722880
  0.2010035007329147  0.0002891440532407  0.3995151775343279
  0.2003240642939511  0.9996284072374834  0.5996001369365639
  0.1994517782585253  0.9998678740256572  0.7985699550869259
  0.1997633599281795  0.2001965960211383  0.9987426426357306
  0.1996242538564789  0.1992598408104059  0.1987460298300927
  0.2014618806719440  0.2006403758670620  0.4003653461766414
  0.1993890709841039  0.1997846400573802  0.8001296440530882
  0.1968477084561709  0.3996431148962101  0.9991262141858155
  0.2008834238675933  0.3995402307264053  0.1997507458031150
  0.2014139689238104  0.3999792607690409  0.4002105780686394
  0.1979506973490226  0.6008949575540505  0.0010311877130966
  0.1986707069098738  0.5979635071065251  0.2002635273229573
  0.2006485704203232  0.6000911336223479  0.3990984970605196
  0.2030527691194305  0.5999371069465068  0.5986746105701090
  0.2007265779434038  0.5987607942441533  0.8000320558084147
  0.1984521669251394  0.7991404302986329  0.9975156537238504
  0.2054830458122820  0.7989943044853404  0.4003364856215149
  0.2009081610239009  0.8000072421806184  0.8003682772458220
  0.4001536008212520  0.0004572171505974  0.0009811507218677
  0.3979461113336458  0.9987636135887992  0.2000311176989741
  0.4013560130009310  0.0003336427183376  0.4000808143229286
  0.4000023372142437  0.0006170893975501  0.5997379707303033
  0.3974355727247209  0.9998575112628617  0.8003984667547078
  0.3983045071398353  0.1991951100916081  0.9993630178385768
  0.4015413938577822  0.2005341223916478  0.4002396626913037
  0.4005921255881780  0.1995037262011819  0.6004072305078100
  0.4004869923262277  0.2011853895881482  0.7995779279722568
  0.3954107692748777  0.3998386220509416  0.9992833086033183
  0.3974833363795622  0.3995303380301871  0.1997929009025998
  0.4011069586308671  0.4000556212150718  0.3991545813197027
  0.4007644618392311  0.3997633650756915  0.5999886698074844
  0.3984661246662250  0.4000007771379809  0.7987257314074960
  0.3962778387052585  0.5995392044636195  0.0023779141416373
  0.4042634628096313  0.5993150008150228  0.4023766029703689
  0.4007865598755898  0.5996065139017838  0.5996681477789924
  0.3991063567541700  0.5992021827876332  0.8009986898448282
  0.3983604434906824  0.8000403359189403  0.0009237960627546
  0.4010730635455692  0.7998280699014905  0.2006028229187645
  0.4018489950054083  0.7990637084376485  0.4003421522085626
  0.4021134767281243  0.7994740242169556  0.6010856593884281
  0.3999659943528352  0.7995518306918883  0.7997969168292214
  0.5989621403749252  0.9990077650489472  0.0011478634299975
  0.6002515968111536  0.9997726012605339  0.2002745635563428
  0.6007231138868806  0.9998160923738704  0.3998300324634477
  0.6014902287213552  0.9996334411007575  0.5992707074270169
  0.5982751759645788  0.1990914681855395  0.9992544563875716
  0.5997586202883861  0.1946693504553264  0.2000623800626975
  0.6012538331633283  0.2003633164775678  0.3987753924745365
  0.6013398110088193  0.1988901661924302  0.6012250176472030
  0.6005325146300603  0.2006820905564158  0.8003163497670498
  0.5891770322022436  0.3979241579470494  0.9867097080452510
  0.6000141797722235  0.3998056310134213  0.3992192855091470
  0.6000731111246768  0.3953421550681458  0.5982508248076351
  0.5982600916538519  0.4018580465694694  0.7953588776552089
  0.5953187672537293  0.5994494096294282  0.0089464795964513
  0.5980233097100489  0.6046513854087465  0.2031590347081136
  0.6055252278255293  0.5986240675206750  0.3969460085030673
  0.5922848891255907  0.5999921661423431  0.8222040319446868
  0.5980660962608043  0.8006151508453144  0.9987057536262629
  0.5993714947908281  0.8012878492858206  0.1980390248812441
  0.5986619497023661  0.7997010352898488  0.4022711983806118
  0.5998237567095271  0.8031178863670718  0.6015319835513451
  0.5993050829749769  0.7956440565150614  0.8008312869445617
  0.7982380003502882  0.0009539577641553  0.0011418390819253
  0.7999556737097676  0.9994171617050505  0.2010775154122229
  0.8000318487931621  0.9987985882817975  0.3995289818367626
  0.8015918669332085  0.9994393511893453  0.5988175282847190
  0.8013253922891310  0.0004143587189724  0.7991994509856848
  0.7973719857161048  0.1979538483759510  0.0002351746430732
  0.8021652290034094  0.1996816011932107  0.2014345797287636
  0.7994908259046265  0.2007234395774845  0.4010887901033532
  0.8004455090017200  0.1987331450862239  0.5993563863355480
  0.8011270984786074  0.4036170315947210  0.4024670582357275
  0.8016021541559949  0.3999514479418330  0.6009733097457209
  0.7986968490698014  0.3942812441125347  0.7988970880880736
  0.7884076306080696  0.6024698088893241  0.0117519766909608
  0.8031425782758552  0.5990352333139886  0.2081623027220613
  0.8182940244333063  0.6003863007134735  0.5921266657328721
  0.7950884350038202  0.8008304949470432  0.9994664729831447
  0.7992769611395557  0.8011846200239031  0.1996322021870236
  0.7944685371566588  0.7951325584477923  0.4004178653667493
  0.7996802084860085  0.7994126533186151  0.6024856822418384
  0.7998452515603760  0.8047403858395668  0.8006989440326595
  0.9999091502715562  0.0014009027656046  0.1986191300290308
  0.9994939089168344  0.3950647107149761  0.9994438603358967
  0.2007685420304627  0.1998579233538297  0.5999288441228080
  0.2005554462370013  0.3988994185373388  0.6003025284777790
  0.1995510790596742  0.3994877076967698  0.7992624670152558
  0.2019143377549128  0.8002590392940151  0.6012655122790207
  0.4001942898294059  0.1994594410389100  0.1997160318013382
  0.3990895068615436  0.5998695474528061  0.2016754425794504
  0.8000816917699258  0.1992190126662811  0.7995455747021094
  0.8093911821693405  0.3987038674205672  0.2064573105590451
  0.7997370855028777  0.6005265248402650  0.4033987793137601
