Zr V  Cr
 1.0000000000000000
    15.5364267418827353    0.0141760265446098   -0.0034442262972265
     0.0141671620811882   15.5240745923983035    0.0049821264813726
    -0.0034426786392167    0.0049831204927505   15.5354998368454975
 Zr  V   Cr 
   5 117   2
Direct
  0.9504901923414251  0.4080167958023770  0.4004312186540814
  0.1992686896054612  0.5998166349919810  0.5591023757899136
  0.2007228750323425  0.7960174547278009  0.2045411364327697
  0.8002946430971549  0.1990878116632719  0.3947720523774697
  0.8053830747497221  0.5960298747500140  0.3994159113436438
  0.9997327136210320  0.0003365832389797  0.0007133876884560
  0.9994817439922097  0.0000779158421460  0.2002201672611162
  0.0015640498297375  0.0007685286587587  0.4004540985591667
  0.9999271742676573  0.0001361268887181  0.6006477698207194
  0.0007486793924698  0.9995519296201577  0.8005925114308489
  0.0024081497792023  0.1990570669866082  0.9999833960015966
  0.0065704433959193  0.1981465836809869  0.4013486413188077
  0.0001999681612803  0.1995310272450919  0.8017650502014626
  0.9988317624559149  0.3987701074465940  0.9998345239172256
  0.0010164970397798  0.3994367951362222  0.1962478192258461
  0.0006928950753040  0.4000517992171795  0.6051196496547132
  0.9997455883362486  0.4001654984997818  0.8002361767164164
  0.0003880335315587  0.6005957628177487  0.0002503414471451
  0.0023127188313605  0.5997362707554049  0.1983359256752082
  0.0129373231297444  0.6075267218018778  0.4003269300741331
  0.9984449724571450  0.6012687694718605  0.6026339061212170
  0.0023781101681581  0.6003620231013246  0.8009719606219196
  0.0010874387018575  0.7997060225006033  0.0003378461844765
  0.9963899112664885  0.8000577689655425  0.2012455504850138
  0.9997727462672850  0.8030801438796917  0.4020597461713912
  0.9996099228482447  0.8011951719056085  0.6020931876698884
  0.0008585512614130  0.7996955921328386  0.8002153453205333
  0.2008438071297801  0.9999123170845973  0.9999236039676485
  0.2010701904357651  0.0018483321676401  0.2009096717330504
  0.2007992462224375  0.0005611795582153  0.4000402328407622
  0.2005997865820519  0.0014428895686537  0.5994732971303312
  0.2005361383195026  0.0004883925609419  0.7997769083993719
  0.2006719090123332  0.2000380575106834  0.9997622370639029
  0.2003977241501501  0.1999654299518028  0.2003495527695401
  0.1990598277019959  0.2032128349637213  0.4001897957000894
  0.1999482073335217  0.2004895174033336  0.5993871503492079
  0.2006487707742832  0.2001416134660236  0.7991562138225851
  0.2008355892896434  0.3987962364364072  0.9997466460941004
  0.1994375625127351  0.3964295143113028  0.2000765762091348
  0.2058460272039467  0.4043994108336637  0.3991819266931300
  0.1985799212791684  0.3966978764290557  0.5984030769061678
  0.2002703428768042  0.4011203050261422  0.7994596838434630
  0.2015673898888314  0.5988633819543238  0.9992391004217352
  0.2020466980204733  0.5930525989291101  0.1940488544013536
  0.2041369297040748  0.6035244943852892  0.3680711703265343
  0.2014639755444290  0.5996789878891056  0.8035546704345186
  0.2008969036504095  0.8007363083710920  0.9983755627894987
  0.2019689569635707  0.8006854570102309  0.4069421200266408
  0.2009255582148373  0.8042118541275868  0.6028045702267734
  0.2009014831429396  0.7988418436882447  0.7995411872680820
  0.4006068956375086  0.9987545652710387  0.0005237556660151
  0.4011610936468362  0.9992496267699639  0.2002365502962192
  0.3991817049821409  0.9986496581888011  0.4004850252938520
  0.4010151147238954  0.0002020980151689  0.6004447688550199
  0.4005507716913388  0.9991561509177052  0.8006638926260794
  0.3998050674936476  0.1990404126394741  0.9999289925243883
  0.3992450197882721  0.1995764707098451  0.2002647111278716
  0.3970377856677781  0.1987737318540104  0.4004107621859215
  0.3997532394263601  0.1995902667918754  0.6003344448427277
  0.3998363499510816  0.1996142714151428  0.8000653285277324
  0.3998806205586295  0.4001394919659091  0.9993488598262509
  0.4007700547830294  0.3991321343675281  0.1988858990161556
  0.3996968575154902  0.4001459130671454  0.3999477517238134
  0.4003041935393361  0.3992147162284751  0.6022535763896969
  0.3998573789478022  0.4002466581031281  0.7998058834493157
  0.4024255687352130  0.5999295767204603  0.0004448433792966
  0.4031662815963769  0.5978694357404903  0.1988175507184874
  0.3986682891944861  0.6017829720699314  0.3998959682100220
  0.4035914156770189  0.5991760756992145  0.6004868950122328
  0.3996589740570697  0.6000652612463575  0.7993535620143813
  0.4009885852718584  0.7993650788128555  0.0000750028106313
  0.4057581085533717  0.7990051504731158  0.2008133904037749
  0.4016682943587713  0.8004084314482900  0.4018914722293028
  0.4019420986025274  0.8000215772579331  0.6018708501872985
  0.4007354567467715  0.7992160791986357  0.7999256089235502
  0.6013461691413382  0.9996464238472326  0.0008086112434182
  0.6012263645691892  0.9990527216738728  0.2008412496158545
  0.5990516230251127  0.9977294177595770  0.4003649502324919
  0.6009070039010025  0.9990109054616465  0.6005079898204125
  0.6005906085945873  0.9990314594617432  0.8003864179662493
  0.5983873636437634  0.1988488546725513  0.0008349986884818
  0.5986512760679452  0.1990378470227029  0.1998131747379021
  0.5930835170810758  0.1962053589880089  0.4007413127145606
  0.5994382143340649  0.1991659632548279  0.6001062547217423
  0.6003839565099819  0.1991839876381333  0.8012031358505169
  0.6012429542504353  0.3981506627366179  0.0002649296415222
  0.5997606230718321  0.3985162413840334  0.1986581643292283
  0.5915854332620286  0.3998256425490386  0.4001727969916111
  0.5991283579636316  0.3989664932530721  0.6017671707029046
  0.6001013034110021  0.3995999701916366  0.8003942882935072
  0.6002359748189695  0.5995061650482079  0.9998867211096841
  0.6019369209060109  0.5979526977738814  0.2004189566406930
  0.5967578338537771  0.6010887855769753  0.3994862157813305
  0.6014580981763369  0.5986016744529089  0.5993472007666933
  0.6004549265968397  0.5992702289616055  0.8003697349458780
  0.6009815572828732  0.7989332909733162  0.0006124300795217
  0.6021729489779607  0.7985212086511005  0.2009090465386691
  0.6004591833245245  0.7981797027323054  0.4010012300921627
  0.6016209919997482  0.7992052455372819  0.6004973149256501
  0.6007836330167241  0.7988745669978481  0.8003548232683250
  0.8006481165137561  0.9972727812128572  0.0014712370696168
  0.8007690926026536  0.9988133656969225  0.1999815644464203
  0.8001005564938550  0.9948327066777569  0.4006925589575711
  0.8007925881426680  0.9996873747712938  0.6004997173823862
  0.8006293923835417  0.9995886638988323  0.8015729916404190
  0.8002009766708822  0.1981882107767572  0.1305038849020028
  0.8000760129257193  0.1983285400972925  0.6027165582985997
  0.8006514060958674  0.1996789301314436  0.7985866184821946
  0.7996587672341383  0.4002360836363882  0.0004345431563080
  0.7998443427983049  0.3982961848879823  0.1992339930547314
  0.7644150604277137  0.3983734815582143  0.4018860190560933
  0.7995314594577023  0.3976186551302859  0.6003810837594664
  0.7998365356449284  0.3987791879028197  0.8019365100839273
  0.8010730712321281  0.5990605086967832  0.9994413989199195
  0.8018478530691497  0.5997341825349749  0.1949749940596076
  0.8006033584680571  0.5995781400866046  0.6052552692086250
  0.8004007785263304  0.5986683810809209  0.8007838707358494
  0.8004593242149693  0.7989285910722498  0.9999545251294284
  0.8000154433677535  0.7980510162765639  0.2010059734290602
  0.8006959212089932  0.8003313515442674  0.4013654363688007
  0.8003860100992269  0.7987929275361415  0.6009092267892182
  0.8006826683526795  0.7989786438914147  0.8008945739482797
  0.0018214066913760  0.1999118141777274  0.1990259189592138
  0.0007912551320555  0.1998055655137018  0.6014881468384955
