Zr V  Cr
 1.0000000000000000
    15.5364267418827353    0.0141760265446098   -0.0034442262972265
     0.0141671620811882   15.5240745923983035    0.0049821264813726
    -0.0034426786392167    0.0049831204927505   15.5354998368454975
 Zr  V   Cr 
   5 117   2
Direct
  0.9514115072303103  0.4092373998619225  0.3989037192581480
  0.1987401839783747  0.5997281973737567  0.5594225213404342
  0.1802693859153477  0.7951879995156003  0.2038252061499198
  0.7997435157692774  0.1975899344048008  0.3993335446978235
  0.8049952684752268  0.5954819650340664  0.4008705020911262
  0.9999872561757442  0.9993866999724113  0.0010839657125592
  0.0033071310682922  0.9989792872147611  0.2002452170187712
  0.0009218442461974  0.0008756680779134  0.4000483980720173
  0.0004256557429425  0.0007570979956517  0.6008547757876087
  0.0014414706397383  0.9997342881922341  0.8005330462009821
  0.0007864817911323  0.1989522547438966  0.9995182877982062
  0.0059332226242970  0.1987880242145567  0.4003011218021014
  0.0010579986765564  0.1995848658067189  0.8010339065897427
  0.0000654605336163  0.3993300935544077  0.9993884524799120
  0.0013327279989801  0.3994458807066610  0.1959201988487337
  0.0003012799459632  0.4000012377694425  0.6043904184244386
  0.9999222313200805  0.3998775580057781  0.8000779183313375
  0.9998056161380987  0.6000325745864468  0.0005916314898846
  0.0021539396615173  0.5977009210505611  0.1991724806996501
  0.0123276979614416  0.6084360250135993  0.4009068016711860
  0.9984752256813123  0.6011720215310006  0.6034200651376649
  0.0025438724643760  0.6000213845720573  0.8011211393270412
  0.0021368679081123  0.7991319948814700  0.0003582372413733
  0.8992082533348534  0.8997108002701233  0.2004051769755754
  0.0000973801944433  0.8031776035349960  0.4026955175151167
  0.9996424714772849  0.8016591864976048  0.6021522251510253
  0.0010499064509637  0.7994416156244828  0.8004921232026615
  0.2020281800597366  0.0003794840899716  0.9992769295452629
  0.2018246296451270  0.0019359080691741  0.2009692201896930
  0.2021016300899831  0.0008728056360445  0.4008396776068890
  0.2008048987271063  0.0017688940397310  0.5997552035251774
  0.2009288120637147  0.0005675375234077  0.7996407590908500
  0.2004267029560579  0.1999125047387761  0.9997474476401189
  0.2006842048574139  0.2004465974477926  0.2000857889666539
  0.1986265290058613  0.2032982067784232  0.3997677008695548
  0.2000897791450973  0.2007671084853147  0.5993750477928350
  0.2005090669931825  0.2002442205675203  0.7995465230272726
  0.2005094747337191  0.3980620386681344  0.9998108199325787
  0.1993313826760981  0.3963660514061979  0.2000887691001532
  0.2059917416553248  0.4044979011468293  0.3994165106768792
  0.1986431782593543  0.3967291785089027  0.5985295229525897
  0.2004694289786013  0.4008152569453822  0.7994575360786977
  0.2023450169411861  0.5984160123885206  0.9992417762011867
  0.2018691801923647  0.5931437894067298  0.1938115621301887
  0.2045622703658925  0.6043195529329748  0.3685209856284751
  0.2014214295143478  0.5991596920341206  0.8037688230554809
  0.2015266207648116  0.8006232433607000  0.9980935901135201
  0.2026166232408536  0.8010342562556787  0.4065615811599161
  0.2011971688817854  0.8041881136528232  0.6028256252040241
  0.2011528623853822  0.7986106152452300  0.7992132164160611
  0.4015396307615494  0.9991298046247405  0.0001721707269828
  0.4009214734448175  0.9991896843358219  0.2000475643090548
  0.3999643723973286  0.9990403267398567  0.4006641218213344
  0.4015146471388921  0.0003100910519249  0.6005010494238066
  0.4009247853290889  0.9991726113360135  0.8005263689043526
  0.4006664031600810  0.1991204632944245  0.0000675226491670
  0.3999298678400328  0.1999843366511500  0.1998689275420734
  0.3975458455623629  0.1989826501663212  0.4000190662881897
  0.3997284162245843  0.1997676604600405  0.6002000967073008
  0.3999603266332249  0.1996388530863664  0.8004455360176111
  0.4001411720775136  0.3997857816956140  0.9994001459456004
  0.4009124126467767  0.3988941915197934  0.1987852614301791
  0.3998666699224405  0.4002122160954416  0.3999624802916180
  0.4004999355534942  0.3991717673586442  0.6023416020908174
  0.3998103256003918  0.4000892610876366  0.7998451403504411
  0.4029464962992888  0.5996814069446402  0.0003266279154323
  0.4023152107324026  0.5983156403346186  0.1986064974671777
  0.3992897022475523  0.6015792510529635  0.3998287581610346
  0.4035776920389272  0.5992150850814810  0.6004609903376499
  0.3998921544151153  0.5999096870676526  0.7994299331388979
  0.4008850087803899  0.7992167841181005  0.0003301740127792
  0.3991899222208245  0.7987939580433046  0.2006468076231820
  0.4013797269901431  0.8004827681051166  0.4010684904905261
  0.4022626275753505  0.8000354477639047  0.6019296817021581
  0.4010918283171750  0.7991258243831999  0.7997651222401483
  0.6016977812389160  0.9990530622851199  0.0010905605376061
  0.6005838750505738  0.9991013828965982  0.2008294478797862
  0.5997152348898437  0.9978535907433261  0.3998787510307216
  0.6010901119463228  0.9995980336044592  0.6005460394557615
  0.6006819083722328  0.9992648765304277  0.7999727203653348
  0.6002029900934980  0.1989881460540430  0.9998353796244739
  0.6000941022030305  0.1981396592635290  0.1997782073636313
  0.5933793712315731  0.1966290016501075  0.4003534172328845
  0.5994221808280110  0.1994668744476519  0.6005913560738023
  0.5998107763035260  0.1994604229980564  0.8004089319902474
  0.6004597161729027  0.3988030670703157  0.9999560888229020
  0.5991942803392436  0.3989533063520544  0.1986783916951947
  0.5917145926741813  0.3998664376805010  0.4001855861457223
  0.5994411106757475  0.3989790099605990  0.6014012565185012
  0.6000774594716142  0.3996100688944329  0.8001713187245908
  0.6007517603388559  0.5994719182727999  0.9999464475253853
  0.6018390974224087  0.5977669473188735  0.2003712936478939
  0.5968646669359836  0.6013319629246654  0.3995775518335559
  0.6014075668161716  0.5986690751926975  0.5996209040120364
  0.6005392607183749  0.5992757066811658  0.8003207612298970
  0.6016049751289517  0.7991971749851885  0.0005795715959283
  0.6014347122433940  0.7992484596615057  0.2007114775007491
  0.6007453277127053  0.7985303253343444  0.4008384219229821
  0.6018044343560796  0.7995089120833350  0.6001991602817518
  0.6010605752923726  0.7988278089501246  0.8006974964719307
  0.8010857212152499  0.9989173210120116  0.9989155665520091
  0.8002113036844309  0.9949776668766180  0.4022594272487907
  0.8010370784553650  0.9999030464505168  0.6013486833935028
  0.8008750263062688  0.9988019882646394  0.8005731260870993
  0.8008312419569987  0.1987119674455407  0.9998952997838162
  0.8006941212026573  0.1995950631692733  0.1950164960602860
  0.8002601993429290  0.1986464576303978  0.6051025760535141
  0.8009894067546929  0.2000405495588542  0.8003149734094535
  0.7995732616029789  0.3989661312756994  0.9990386176633358
  0.7997946550514959  0.3971065993834782  0.1996071931823531
  0.7650014439258511  0.3972715124398410  0.4004373922067050
  0.7995785856320011  0.3978979126813170  0.6002536347039915
  0.7999302503105397  0.3996084756691334  0.8009196821203699
  0.8011636472598717  0.5982865205221248  0.9994928879247514
  0.8025172137673655  0.5990350651771778  0.1953132444260539
  0.8005091904905426  0.5998900652956939  0.6057871819263821
  0.8004704757615848  0.5986890621246349  0.8013238184120979
  0.8021251912465952  0.7998896704241116  0.0018263443087176
  0.7992711934323720  0.7956673829253129  0.2012644732773373
  0.8019305740039303  0.8008163521046096  0.4000771534721617
  0.8004597284154036  0.7988480360556723  0.6011550979214493
  0.8008632719695228  0.7988377706658043  0.8012112250930589
  0.0015240744385356  0.1997256313764875  0.1987895603698595
  0.0009858613434341  0.2001247502331585  0.6013513393877470
