Zr Ti V  W 
 1.0000000000000000
    15.3704372863088707    0.0041087699184726    0.0045828320708022
     0.0041071823098185   15.3593176205705255    0.0049868964281650
     0.0045832368054306    0.0049883200619353   15.3853693029952101
 Zr  Ti  V   W  
   1   2 107  14
Direct
  0.7917502901869794  0.4017518615445210  0.8100664816426949
  0.4086203588747538  0.7982208517339147  0.8045086316755926
  0.6131645261359084  0.4006202497662444  0.9888107250789707
  0.9977356353357243  0.9979407492899617  0.0020627797244721
  0.9946260045610312  0.0018848830828788  0.2005409748845234
  0.0001712439972250  0.9966739501704356  0.3997357871288515
  0.9942460828943843  0.0001836214691302  0.6019473607787441
  0.0024402953324025  0.9987682184626516  0.8021972473702853
  0.0008982146874386  0.1984249409256078  0.0004171355163516
  0.0011718787617156  0.2023804049306032  0.2020927792334913
  0.0006874711037115  0.1997935245482132  0.4005754192049057
  0.0026900951409006  0.2007180520528360  0.5993118317855319
  0.9994793864264628  0.2010717044162807  0.8013833504808879
  0.0038430120073951  0.3995274037297355  0.0059549495665057
  0.9986011113456112  0.4010450257377235  0.3969432183165293
  0.9974834620615534  0.4000550882458477  0.5999130242110440
  0.9994332022158401  0.4010016502864310  0.8028479349298560
  0.9982407733225245  0.6051106253432461  0.0002770520430089
  0.0027505104497931  0.5962177694261921  0.2008375431255087
  0.9995508161233898  0.6028021620993953  0.4023877864053457
  0.9994101020333730  0.5995474627559713  0.6013738281359310
  0.0025746666201896  0.6007631753364673  0.8000697340009170
  0.0035444877192664  0.7993611893093655  0.2017877045765999
  0.9992559293023134  0.7997742250944190  0.5954000790222350
  0.9997494236474151  0.7993170316802516  0.8059480769971811
  0.1989266311168144  0.9983538043223158  0.0973691145639446
  0.1980507248044458  0.9990606641714177  0.4044401869884073
  0.1982089955749752  0.0029502096780767  0.6062585383560135
  0.2003887854902023  0.2043600231361347  0.9995251343649455
  0.2003685307661923  0.1988414808437747  0.1998668318892632
  0.2024836823629363  0.1988833894626543  0.4034438121226866
  0.2009134506662160  0.1970783655205249  0.7960403203349196
  0.1962761318510029  0.4052813540880378  0.1957106394373711
  0.1994341858923029  0.4013818640164065  0.3994866196198959
  0.1977880651907303  0.3967991250613315  0.6008715288355524
  0.1978765585164606  0.4049793066837203  0.8044076272771618
  0.2005922933738758  0.5965180944279350  0.9960710601877504
  0.2009495039359894  0.5996076942311237  0.3998006402078175
  0.1996209520939894  0.5989585425795443  0.6046464933895587
  0.1961212218000932  0.7972548317275554  0.0028664626868651
  0.1962880666041619  0.8006147677369982  0.3992145863215898
  0.1995537832425051  0.8001844793559870  0.5999366618617245
  0.1987430626533345  0.7987805611627257  0.8011164091442201
  0.4008931465101854  0.0009080494409448  0.0002108711340954
  0.4017460830869333  0.9962999664821331  0.1986787276374800
  0.4000668807840351  0.0024377279212432  0.3994137601507903
  0.4008032884944267  0.9986529314813651  0.5999471674554651
  0.3974053456219941  0.0007181286448236  0.8006663569391326
  0.4001671431141095  0.1997843945265735  0.0016681904889981
  0.3981251355973681  0.1974659157008627  0.2035999065492536
  0.3961682679687146  0.2001765039228257  0.5950174422819962
  0.3997457393030305  0.2002966883337905  0.7987357365767056
  0.3962359944785053  0.3983720775769509  0.0001801033875011
  0.4022055468817955  0.4006874934888537  0.1980733904001969
  0.4000758657079197  0.3967803611813221  0.3976325001007800
  0.3992652791840915  0.3997992488840599  0.5981229908455512
  0.3966809791192522  0.3992527841635629  0.7995457527766472
  0.4019525257448847  0.5992097325060856  0.9991229852455201
  0.3985621509085908  0.6028026000026167  0.2004847906600689
  0.4004267295047660  0.5987361298684764  0.4008748054090553
  0.3985397026649832  0.5998129199317493  0.5987337961946116
  0.3959127821561323  0.5992828329925184  0.7996751147490063
  0.4005888647011990  0.8018080099209655  0.0070225706745385
  0.4014159336208948  0.8014817303810049  0.3964999114224588
  0.4001620400685240  0.8008354050509195  0.5942745125832919
  0.6007686783683042  0.0003769467489296  0.9976088633560383
  0.6028066695523373  0.9998936207519120  0.1985558407707517
  0.5992841079971962  0.0002217347097211  0.4013268729340957
  0.6019664860401370  0.0007218611638619  0.6023075955693653
  0.5981034994539747  0.9992331544442604  0.8006173205934917
  0.5993055782702317  0.1995203820295004  0.9988040824027336
  0.5982128793002686  0.2022564120984941  0.1987113763201406
  0.5947521446821985  0.2013055185376557  0.4009869841909315
  0.5979316057304345  0.2009139703053134  0.6008349149688685
  0.5965821098032109  0.2013113483439151  0.7996793619645870
  0.6025153819471896  0.4011703828877793  0.1992034805646955
  0.6011579047448593  0.4011106797816459  0.3984933398735307
  0.5998146448419348  0.4005049819075351  0.5990879294520690
  0.5899146280501562  0.4011346945643933  0.7943496011564266
  0.6005459165792972  0.6014157887469987  0.9982515385997244
  0.5983411256590421  0.5985678478755665  0.1979566103018273
  0.5994028474245719  0.5991013699272871  0.4018804271113950
  0.5984481370718160  0.5999302682296019  0.6020303143672335
  0.5957070594467581  0.6008155114700946  0.7999210495996477
  0.6018290217480031  0.7992369113175839  0.9996981872630262
  0.5959112279950424  0.7990573949925243  0.1998034274786658
  0.6033922048489305  0.7982257408849133  0.3994299332646126
  0.5996550702654325  0.7993995822029013  0.6000841611766801
  0.6027538617531794  0.7994527004976743  0.8007777488857278
  0.7989977666349928  0.0004123570480106  0.0046666880372522
  0.7982721412616367  0.9971483609747029  0.4014890068232627
  0.7991294795869228  0.9995142828078906  0.7970189009660009
  0.7996362436454273  0.2000484446829201  0.0009761390047445
  0.7983326263886015  0.1967823377645580  0.2026174373096769
  0.7980966607236850  0.1988614804843650  0.4016169979754337
  0.7991888892789926  0.1965270873591948  0.6001623021854749
  0.7997081751565495  0.1956666792083391  0.8006337722303485
  0.8081814745478233  0.4001616920269537  0.0107765831007167
  0.8041972783451279  0.4001281286527166  0.2046858776886057
  0.7998179556757566  0.4002221967409559  0.4017824760476664
  0.7993162925364614  0.3986967943419847  0.5992821794549353
  0.7999188409317699  0.6016297142046249  0.0012959867286345
  0.7978481272982988  0.6008776418085423  0.2012071427085684
  0.7983378995362702  0.6048475511618795  0.4017720693731328
  0.7986262774634055  0.6000417561387750  0.6028670571289484
  0.7992714475656862  0.6065623662285770  0.7994475479055262
  0.8039256466482685  0.8013148393103090  0.0033094127314485
  0.7982815479728752  0.8037717408258631  0.2053644741007235
  0.7998819934996169  0.8048523011766205  0.5963284596192224
  0.8008272213036507  0.8016299006623074  0.8001394278018199
  0.0008109334285058  0.4009165715132966  0.2017234098696130
  0.9995373862345707  0.8009862844418111  0.0042203757303065
  0.9981732203761445  0.7989238568559649  0.3986851933637659
  0.2000443146246980  0.9980982057191722  0.7982844752893239
  0.1992960693971179  0.2007259071869799  0.6006270655367458
  0.1998925702968844  0.4007755099976504  0.9997945372814224
  0.2022796941130352  0.6023044001722943  0.1988917347361918
  0.2006452971695269  0.6007873681822476  0.7994465064858837
  0.2026555376208579  0.7906084770038887  0.1998896358781690
  0.3986754304814908  0.1993631892033119  0.3985063163347897
  0.3974722464782838  0.8003656048748760  0.2018138216729547
  0.7978768304150844  0.0015788002227229  0.2021677211694220
  0.7983445727776529  0.0008499719878860  0.6006416403817779
  0.8033351953540602  0.8008511121966375  0.3999959161340096
