Zr V  Cr W 
 1.0000000000000000
    15.4863295998759050    0.0024137293282322    0.0105674120120943
     0.0024156779473548   15.5040449564505511   -0.0174543962439357
     0.0105707746262879   -0.0174578174046017   15.4782021514271442
 Zr  V   Cr  W  
  10 107   6   1
Direct
  0.0005541393988127  0.9691679892710611  0.7582404947419411
  0.9982339045265124  0.2008632193792480  0.6086467032186312
  0.0002724002789036  0.4333843874520839  0.0404504980218827
  0.0041620038207903  0.5787765656029682  0.2205936249547762
  0.9612223958595313  0.7921241357707774  0.1935684506251768
  0.0039272411479854  0.7974089250015494  0.5983918833743692
  0.1993174348739246  0.5833372394607310  0.5991059396119596
  0.3586736009720813  0.8034740196490323  0.1995063572674376
  0.8341196707935865  0.4308220726219612  0.3977503518452437
  0.7506496070150038  0.7914551214803849  0.1980351809465330
  0.0010927283145273  0.0066412721262079  0.9987647208322867
  0.0036423925854305  0.9990219929379237  0.3935556593751690
  0.0011019592899580  0.0027676784086022  0.5708820440502386
  0.0010171777050636  0.1995916814664634  0.2023163152813625
  0.0008171837528892  0.2000720581735816  0.4006368061027296
  0.0006234008021972  0.2047383824649802  0.8096379721077663
  0.9999641526461334  0.3868295252193599  0.2322245468682695
  0.0221686196454031  0.3986004807791667  0.4110102204497770
  0.9918128862320363  0.4038211214787141  0.6001515481684189
  0.0016396485707773  0.3974178405359677  0.7996909749834655
  0.0012234013043368  0.6230069564148235  0.0123630331146594
  0.0064187133249405  0.6068835637010654  0.4182000078167599
  0.9949294289508578  0.5973370054070336  0.6092578677784194
  0.9991899807199616  0.5928384559674140  0.8094638448552504
  0.0015136508217948  0.8124018957979132  0.9927247239283379
  0.0024873243885299  0.8006790038917218  0.3948487320642334
  0.0002392297259810  0.7824749569361312  0.8044035452157471
  0.1997698566645909  0.0025146270048599  0.9972469496348000
  0.2002689503315048  0.0020270679278550  0.1987487865983921
  0.2021369715741232  0.9996334139101763  0.3973299147254375
  0.2013182871478855  0.9983232402629610  0.5975130229118017
  0.2031131970080436  0.0006981540184871  0.7989011813912993
  0.2017240880217195  0.2009753696879674  0.0008475206288150
  0.2012017512747927  0.2002710892455580  0.1990759328226451
  0.2029443908180896  0.2003087383954908  0.4002792794607648
  0.2014499700774719  0.2006593183177351  0.8006104698709128
  0.2033403483060165  0.4010272173391727  0.0007034583359118
  0.1989077741238335  0.3995457899751918  0.1995942466239160
  0.2065259633431082  0.4034930483485042  0.3976032240402069
  0.1992368770809955  0.4007426926409853  0.8043369115734198
  0.2015508190060930  0.6024255039561460  0.0018510749921237
  0.2072455296791407  0.6009646536072282  0.1988978259607521
  0.2014165905219056  0.6020158889338260  0.3935949977237631
  0.2005229913866201  0.6001957701070537  0.8058576626385514
  0.1996469474458034  0.8028552440704252  0.9997949256402986
  0.1716561303696348  0.7971645313091525  0.1970621093801777
  0.1995092780742044  0.8000603499198192  0.3974715155949334
  0.2074339125314669  0.7947422941869593  0.5984377573855764
  0.1996096654179532  0.7998013842610300  0.7989499620295438
  0.4015600800295088  0.0007984720849075  0.9984512394491443
  0.4021665074911500  0.0042376322219220  0.1982431027962355
  0.4003733575763195  0.9993190735024591  0.3988065787140673
  0.4020458623500296  0.0005309748634275  0.5983465585648485
  0.4003598216079290  0.9995334874808668  0.7970578829137186
  0.4014390755940845  0.2003896482735222  0.9988305048290487
  0.4009554259555503  0.2008911423957518  0.1999239223732724
  0.4003580122656950  0.1992001864416501  0.4000388599475594
  0.4017469841437432  0.2009733078496140  0.5990449883704473
  0.4007351607042657  0.4004755646164260  0.9998933056309450
  0.4002435604826156  0.3981098475169752  0.1994528600076171
  0.4009048652246371  0.3990283829317928  0.4014519970903210
  0.4023975736602753  0.4005866007287900  0.6005045630157445
  0.3994064768684810  0.3999115127537199  0.7982603895417585
  0.4028205423647728  0.6010873931745818  0.9999641685974211
  0.4044918767561837  0.5942418825759305  0.2008032236737321
  0.4017840700368651  0.6016998845859346  0.4005200307301964
  0.4060434392228710  0.5995654810888887  0.5994361585533324
  0.4014131235841183  0.6009337772203378  0.8008234750336299
  0.3995089324562695  0.8011565750002168  0.9949781927888299
  0.4009071778768480  0.8004011245013114  0.4025700621180845
  0.4016185155794030  0.8003617514077483  0.6003005369486852
  0.4004221526105216  0.7995000243155832  0.7989216834596983
  0.6007702129955604  0.9994449601675871  0.9985408393604026
  0.6009499737134700  0.9965628353406660  0.1986551966169513
  0.6007636190393625  0.9979260746563313  0.3977534866195152
  0.6008198852571101  0.9991717368182349  0.5970185995099655
  0.6006214372998753  0.9980715615207665  0.7977416176202030
  0.5995939188860654  0.1987474947159229  0.9998540602794476
  0.6013772861194205  0.2005089024468824  0.1988746826756184
  0.6001277229283865  0.1985570595040484  0.5993174975236241
  0.6003395555187888  0.1997807164065615  0.7999971933705217
  0.6005946701407234  0.3991776179844002  0.9989847909469576
  0.6021447244458400  0.4004361811757389  0.1995927833278675
  0.6013049843525446  0.3987661355470355  0.3980133813371268
  0.6008296973939187  0.3997507416152723  0.5981056254672965
  0.5996485710179214  0.4001238482799621  0.7996807074944361
  0.6028289243261465  0.6002158759292731  0.0039998510000145
  0.6046571077210957  0.5991766692000401  0.3955729095846507
  0.6025033524391261  0.5999935037992112  0.5969071079132949
  0.6022909136275333  0.5996203731711847  0.8017860643751497
  0.6011006828356386  0.8006840689355625  0.9979992842473964
  0.5647703592235862  0.7907962112563440  0.1986247864342492
  0.5999056114651582  0.7998910585400898  0.3981630401431740
  0.6013261211750845  0.7994102871971686  0.5984214085133679
  0.5998894419187667  0.7982627088944348  0.7985136528731237
  0.8017162611144566  0.0014915283367669  0.9970035235321734
  0.8014108584375929  0.9977132345636415  0.1980709326593923
  0.8000798699732228  0.0007724610151954  0.3980293497228299
  0.8023996515646722  0.0000706291967986  0.5988934156233175
  0.7981440560212498  0.0000934484194523  0.7987433045450427
  0.7996991231107029  0.2004607372688020  0.9996600884063604
  0.7993967142054493  0.1995454821659349  0.1988554283477415
  0.7992292074146933  0.1967703441555327  0.3984652711613859
  0.7941720424384534  0.2013865045343223  0.5996211081555360
  0.8002387948943435  0.1992338006374676  0.8015311724764653
  0.8037947317397204  0.3979041133531548  0.1945337903466455
  0.7965891776955579  0.4004586212320420  0.6009245860111567
  0.7994955029915922  0.4002067445700696  0.8007319880949934
  0.8037016230882451  0.6009768084778698  0.0003587350882863
  0.7944308934772573  0.5944911654218273  0.2077346186662382
  0.8031394213086489  0.6182807692512763  0.4035244174137394
  0.7987147026054091  0.6005196237834491  0.6002482936616896
  0.8010267835413498  0.5991011951097098  0.8025202676170052
  0.8024989797901929  0.8025538893333444  0.9970187177431320
  0.8062940895314251  0.8064034304821399  0.4008695015045155
  0.7963133824181641  0.8004351601496613  0.6005651716981254
  0.8004298844903909  0.7988551363672953  0.7986851519168229
  0.0002062469738999  0.0033816301532914  0.1972594420186302
  0.0007434179159148  0.2013669101879931  0.0037772357857163
  0.2047917827237553  0.2049324178035422  0.6002957361016958
  0.4011532579128980  0.2000622320080147  0.7992615715829319
  0.5996852032852596  0.1987223526930672  0.3983687283926526
  0.7980524056895069  0.3997541662119277  0.9983231531289154
  0.6018718249470176  0.5980147858707135  0.1989936699982342
