Zr2 Ta1 Ti3 V111 Cr3 W5
1.0
  -7.5249999999999995    7.5249999999999995    7.5249999999999995
   7.5249999999999995   -7.5249999999999995    7.5249999999999995
   7.5249999999999995    7.5249999999999995   -7.5249999999999995
Zr Ta Ti V Cr W
2 1 3 111 3 5
direct
   0.8027121898546026    0.2008407479826319    0.7988305538019537 Zr
   0.7987654256074275    0.7947370788528028    0.7927551410613251 Zr
   0.4010439571717494    0.7959221002871496    0.3995621338574629 Ta
   0.5992030928704237    0.7999598447294508    0.1988327419177923 Ti
   0.2002532021053890    0.9994864357476538    0.5992623573208579 Ti
   0.1953360712098834    0.4019577720258800    0.3978301432985138 Ti
   0.8020169216266689    0.0016887141318382    0.9993073787428364 V
   0.5923045305550531    0.9942765076486538    0.9950395217631745 V
   0.8013543230910838    0.1955194708828444    0.0042717706464406 V
   0.8033213377064878    0.0053532576635484    0.2049247233127233 V
   0.4006553524878236    0.0009530115659144    0.0009285319152505 V
   0.6037494431821626    0.2005664717640222    0.0013145181911635 V
   0.7987296058899623    0.3996724509407810    0.0001787872707454 V
   0.5992989387199147    0.0048244050480604    0.2035934351768815 V
   0.7971223109449828    0.1963786691242488    0.1994622494455741 V
   0.8027540784756380    0.0086525667139702    0.4054256821478718 V
   0.1999779010475805    0.0000948908080139    0.9988732719139217 V
   0.3995982533320325    0.1992728801000546    0.9989391503833953 V
   0.6011400682910298    0.3949640752238920    0.9966280341862654 V
   0.8008882741259187    0.5996411082091541    0.9995465115643402 V
   0.3988055572978587    0.0011527489224947    0.2025100101071146 V
   0.6030807266672961    0.2086082790778859    0.2036256454876302 V
   0.8009440074563359    0.4005415788420896    0.2004193969718994 V
   0.5986331355068415    0.9997718461161108    0.3981039729449204 V
   0.8009576865870593    0.2042790666172661    0.3993872878389009 V
   0.8017791991377929    0.0017752207770720    0.6030943519184514 V
   0.1982367113225439    0.2028247711250452    0.9993132982025911 V
   0.4005639544142270    0.3986275060434719    0.0060462352238069 V
   0.6072415084419713    0.6047001460973596    0.0074597162193257 V
   0.1978206972265615    0.9950859698990578    0.1982369579345112 V
   0.3992701338269653    0.2012742934737935    0.1996757141463014 V
   0.5978754449135667    0.3934547970284352    0.2002073011695733 V
   0.7985740498914532    0.5996252009359782    0.1984988680829101 V
   0.4078285424652534    0.0037193293632922    0.4007019050539355 V
   0.5957289000079656    0.1982769274938528    0.3959950533161059 V
   0.8051192123634887    0.3987127555702659    0.4063552378079372 V
   0.6009524825415444    0.0008765210995955    0.6010737578537159 V
   0.8029049886215498    0.1995555073818495    0.5968606504251315 V
   0.7986166382119004    0.0016565234792024    0.7938480974301655 V
   0.0012914692985175    0.2012022551791900    0.0007576579075470 V
   0.1960494582114257    0.3987220283085224    0.0021405214213916 V
   0.3996510278495872    0.6020103396176875    0.9982240262784716 V
   0.2033944646651220    0.1971674071139230    0.2029588198276878 V
   0.3983813448734538    0.3979342819976268    0.2010322173358183 V
   0.6000417757268477    0.6003232699322177    0.1972823120328512 V
   0.7972871210982548    0.8001412146437705    0.2044889732795678 V
   0.1991005457843220    0.9963478408595762    0.3997830726666399 V
   0.3987465404092287    0.2011263866109915    0.3997593084867004 V
   0.6008547913114166    0.4005864373501830    0.3987430915287423 V
   0.7991222416872181    0.6008448224130513    0.3990577586584860 V
   0.3982621419504356    0.9987923520195726    0.5991690202248480 V
   0.5927529569885218    0.2011237798663997    0.5962621129983543 V
   0.8020376038349994    0.3996120722329206    0.6027250247444165 V
   0.6003428598017141    0.9995780056379608    0.8008757740788157 V
   0.9985205018759540    0.3981527343608321    0.9991119952689957 V
   0.2004487292730216    0.5989897280826240    0.0042181640369439 V
   0.4007611733619882    0.7946115610706288    0.0016495804503947 V
   0.0030329350066849    0.1992405160788053    0.2033881335586881 V
   0.3950849520918732    0.5960383861859847    0.2022166752608100 V
   0.0006017129208689    0.0044692893600091    0.3967047025689840 V
   0.1979843390155314    0.1928650201802717    0.3950833589881688 V
   0.3999521179714400    0.3983211475137868    0.3952290940742649 V
   0.6019383134025249    0.5943740998905780    0.4002777506771407 V
   0.7963493181584121    0.8045493278104261    0.4027160007004703 V
   0.3995589091548243    0.2003664530905232    0.6004660200578568 V
   0.5996912990765674    0.4003773174527566    0.6007199270367604 V
   0.8005846525350675    0.6030803790560608    0.6023885625493328 V
   0.3974965071497333    0.9936790763954950    0.7934773609576801 V
   0.5982497813121478    0.2017650884101449    0.7994129547604917 V
   0.7981920301900511    0.3952159583606359    0.7968639195123344 V
   0.0009583277864438    0.5998717096734412    0.0012730091008213 V
   0.2052736757535701    0.7969926298650192    0.9984240735668302 V
   0.9989155998578590    0.3988944871672328    0.1997334768590122 V
   0.2008864803766003    0.6003799479560195    0.2007958440997742 V
   0.3919701013357766    0.7940610853696537    0.1968723142871195 V
   0.0012601762036598    0.2063623385914803    0.4042596599479735 V
   0.4039566433583810    0.6034298970947285    0.4027750326631274 V
   0.5970282282896218    0.8053755466108803    0.4039347350164346 V
   0.9995798820218298    0.9990509710119939    0.5977757335488902 V
   0.1967414517395059    0.1955160915968836    0.5992026287090650 V
   0.3963726033053373    0.3960313254371206    0.5940103769365477 V
   0.5931017551462484    0.5935052906063456    0.5913804563032021 V
   0.7937452572044605    0.7969609813961984    0.5985894887055132 V
   0.1992710485838692    0.9959461692075930    0.7995642910071155 V
   0.3987336512902165    0.1992537689376965    0.7975833361428660 V
   0.6016300927034826    0.3969290549930328    0.8012563714251930 V
   0.8007466309179434    0.6020361359537812    0.7949037648245485 V
   0.0023085018249261    0.8016467227066951    0.0045622312177393 V
   0.9958019904993145    0.5922662430005867    0.2003521209495201 V
   0.1975724274368225    0.7953500070251034    0.1961792264063688 V
   0.9990450456810601    0.3998155848211372    0.3994415317750326 V
   0.1944461411005987    0.5996753540791365    0.3996543921192265 V
   0.0033053033433003    0.2051574937760242    0.5980649420698185 V
   0.2003391096560946    0.4016840867179883    0.5953106607000734 V
   0.5982886778792924    0.7968778473682421    0.6003062157360399 V
   0.0051237841713310    0.0055166614684148    0.8083443886100825 V
   0.2036941393999536    0.2032916134363656    0.8002042201395074 V
   0.5977015814881155    0.5991661495864521    0.8003904133658188 V
   0.9959929762548028    0.7978911670032376    0.1944272539153720 V
   0.9952983675258625    0.6006502750798107    0.3984835281678560 V
   0.1922302754642267    0.7958604144019799    0.3980579571027634 V
   0.9977251626446442    0.4016913971354139    0.6030820686165761 V
   0.1991513696715259    0.5982950326457309    0.5987052756882758 V
   0.4051140578035247    0.8076220725827421    0.6063615734614424 V
   0.9973186877728291    0.1951425621554658    0.7991120844356034 V
   0.3929925670168469    0.5949221765276287    0.7918544616103506 V
   0.6029247114107876    0.8040226266426389    0.8020677350922960 V
   0.0017668579103285    0.7954235545546878    0.4025723338735493 V
   0.9998848333588922    0.6009044644301036    0.6006365361444747 V
   0.1963107301067473    0.8015323269148523    0.5984696930771829 V
   0.9996610479355860    0.4028886219422716    0.8012910760275359 V
   0.2043397499581345    0.6069504360201483    0.8065647393783388 V
   0.3973451532975222    0.7993313254952181    0.7982158485923916 V
   0.0010007328244229    0.8010110264073705    0.5963676772361068 V
   0.0036521988697356    0.5997192035472948    0.8039704746738896 V
   0.2003102143830528    0.7994141138707433    0.7983300904101870 V
   0.9974327353783085    0.7990989319206803    0.7952665451266706 V
   0.9950365436539467    0.9991140392675560    0.9961089513177531 Cr
   0.7968161715034181    0.7999187733287224    0.9928361760794163 Cr
   0.1931186362515636    0.3997514414288844    0.1985947370488396 Cr
   0.5925403625948031    0.7943702033704931    0.9995315010278885 W
   0.0021358081609287    0.9988361606582825    0.1974544110600236 W
   0.3940865416304574    0.6026112408690346    0.5971888431481356 W
   0.3977766206795613    0.3972179334406067    0.7972348113251069 W
   0.2051340506495390    0.4034041411809084    0.8044886269231755 W
