Zr Ti V  Cr W 
 1.0000000000000000
    15.4652037604726900   -0.0016009608955667   -0.0129761032332579
    -0.0016020209982635   15.4475862773288313   -0.0003215664628219
    -0.0129694854319899   -0.0003254815724487   15.4574425535884750
 Zr  Ti  V   Cr  W  
   2   3 100  12   7
Direct
  0.2004677393529063  0.6018090492035229  0.4016213389779814
  0.7990853841408631  0.9967575258984628  0.4022985451957496
  0.2186882746651781  0.1972099950044066  0.2013588692708029
  0.4013951904361049  0.8069503935591482  0.7973929134053235
  0.7830038608748617  0.4053698424356271  0.9993068677566940
  0.0001908434992723  0.9993197687528281  0.0003317265397353
  0.0052155808579051  0.0008518397219466  0.3955917079912499
  0.0004386567534260  0.0014045448212550  0.6037871794281817
  0.0006991679618780  0.2038700775705488  0.0036066788872415
  0.0004549578906099  0.2021306913552476  0.3964554478884630
  0.9994392951731178  0.1997718943400943  0.5978954423727957
  0.9978740365526937  0.2009330746410144  0.8004855022065022
  0.9998795000393162  0.3961269933302506  0.1963859160135089
  0.0004413177929138  0.3998277496303027  0.3997118223097388
  0.9991139478903898  0.3991299164213322  0.6034462172502809
  0.0015928113379137  0.5972076420590680  0.0002116264180207
  0.9970028995981183  0.6003307703847466  0.1985046083534748
  0.9961735690477264  0.5978704947622782  0.3983864193789032
  0.9974098489269669  0.5955016511579894  0.7998275440775650
  0.9984243436913287  0.8046787876675953  0.1994276028918843
  0.0001217343500386  0.7983979562376320  0.3987756299056208
  0.9943876626686653  0.7997377335297695  0.5993272184619229
  0.9984048353746727  0.8012494300126202  0.8007506119134171
  0.1999049510347265  0.9975821035394770  0.9978591226691894
  0.1944349025222384  0.9967896716086033  0.1988278286896745
  0.2001384936166702  0.0001719540500245  0.4011150170001736
  0.1997432313381001  0.9982963081868309  0.6017809641507282
  0.1915507098028431  0.9992740801471820  0.8010011290167097
  0.2033468293737073  0.1992194304904771  0.9985798291700285
  0.2013731813243441  0.1999851577362850  0.4030735978449806
  0.2004245682691765  0.1988380332588952  0.5994964017112182
  0.2027467876525156  0.1980787024642628  0.7999738674250008
  0.2015011510863970  0.4036241779791575  0.9997871252413614
  0.2008487657877126  0.4001808369984901  0.2009676216480389
  0.1981019106040481  0.3970946927984026  0.4001994430516562
  0.1997824284153978  0.4004481819898245  0.6010776843224291
  0.1959059488632784  0.3986415000424788  0.7982398153724264
  0.1994029816637173  0.6005237965598308  0.6047832698555166
  0.2000671378718422  0.6013566192676334  0.8019419416640651
  0.2000625120732935  0.7949105019956033  0.9989376502032008
  0.1981812019817868  0.8006851859396535  0.1988254197465856
  0.1988728823709008  0.8037674593392081  0.4006382129531574
  0.1968131310810458  0.7985462161656365  0.5999651940524162
  0.1962444663587958  0.8007454115259856  0.7986030966592307
  0.3983750911397991  0.0000337358553196  0.9685006497379297
  0.3970525823855418  0.0000292068434546  0.1999459924865250
  0.3979527352616338  0.0000112823029910  0.3997992952687492
  0.3980967316956063  0.9985345799113026  0.5984785557213245
  0.4002790025883752  0.1984313478106637  0.9978122802527402
  0.4060365204971064  0.2002000523142871  0.2003382788807988
  0.4011905571767108  0.2004830625678229  0.4006030411363608
  0.4000995476062487  0.1981066087624715  0.6012438297255560
  0.4011303179091885  0.2012602110485958  0.7999654034608590
  0.3996045995800783  0.3992359792425350  0.1996856342746699
  0.3998667592685637  0.4000331834644423  0.6000304515119348
  0.3993698535817541  0.3995057126882711  0.7991323285575331
  0.3964060793868722  0.5995403640473421  0.9992516675449059
  0.4007532659916362  0.5988372195670768  0.1998213725300893
  0.4033204037819782  0.5990170894757736  0.3987614302669220
  0.4012228365597118  0.5995141483042122  0.6003914857058461
  0.3997846587805119  0.8005130679555730  0.0004216401133956
  0.3991941775600193  0.7999100470198989  0.2004300803586478
  0.3996589279268172  0.7991231991552349  0.3992883563989219
  0.4007791164043225  0.7993522814811542  0.5990021626626396
  0.5978100862925315  0.9987472022035885  0.9985521701032660
  0.6007956510421378  0.0000772333168368  0.1988842047454220
  0.5939782504175672  0.0003697562094367  0.3997217261527062
  0.5963706203395346  0.0001552972454057  0.6037756774216300
  0.6031479520962878  0.0007553701883367  0.8013467028631545
  0.6013778338354198  0.1996105056097510  0.2005272728822208
  0.5989786608140713  0.2000014101359632  0.4010721036478923
  0.5995291265041993  0.1987135666054270  0.8003664955330654
  0.5945519390220319  0.3997061158198966  0.0000308661059695
  0.6006031252765038  0.3989445983372672  0.1999153663116698
  0.5994313859609731  0.4002647789131425  0.6010382518425235
  0.6020448589849063  0.3986144722177617  0.8013513245792999
  0.5976791377996868  0.5995224413140462  0.9997725505944400
  0.5992587109366166  0.5986445875030024  0.1990922964591193
  0.5991582393138027  0.5988923414378929  0.8006781681244622
  0.5989825445316138  0.7982286883388916  0.9996343725452782
  0.6001663154445817  0.7996975185306621  0.2004790781142474
  0.5974248738173548  0.7991970321114252  0.3992242916342354
  0.6040532080453656  0.7986722255589530  0.5995932473136566
  0.6013102646454321  0.7999540859021895  0.7997933831734200
  0.7984134632853351  0.9983400803010201  0.9987922950974818
  0.8036707780684937  0.9983115812171229  0.1956017374712064
  0.7990709236710984  0.9952460121854227  0.6058969687059844
  0.8037952787383258  0.0001472723242071  0.8019916284079525
  0.7971068183730894  0.1992922213679652  0.9996176723233866
  0.7989050781230789  0.2008192372885846  0.1999419333323618
  0.7973078301032634  0.2031246127853771  0.4022225569644269
  0.7982778200614276  0.1990987960755776  0.5996548618376784
  0.7989724323306533  0.1999273598515176  0.8000191981027297
  0.7992130952376120  0.4012098810446870  0.2022423049474020
  0.8002218519344805  0.4008709972305047  0.4018627925080710
  0.7993253011162477  0.4013353740360326  0.5994764569344089
  0.8032105465279852  0.4001802530979944  0.7971100620162808
  0.7989534425856242  0.6032556404345480  0.9993071658677581
  0.8004004771046789  0.6006314927774243  0.2003074440293098
  0.7981387560956087  0.5966551869104111  0.4001096840418667
  0.7981848195615951  0.6038309675217922  0.6007970339807732
  0.8002233514138489  0.6006364400392172  0.7995514274089641
  0.7985436967234231  0.7984770287271777  0.0004010069447937
  0.7994728669272771  0.7990549324648862  0.2010050615514252
  0.7983611924552005  0.7922168551199965  0.4024847176023563
  0.9983230869395153  0.5996313509422928  0.6014142401647901
  0.9984158242851632  0.7987006356233397  0.9999624314804857
  0.1987494832069481  0.6000620922225306  0.1955074751164302
  0.3995792790292473  0.3988468635721287  0.9995444797522007
  0.4006858420454549  0.3993381550648595  0.4002072307658993
  0.4005314458848809  0.5993422011235586  0.7990621938386110
  0.5984885658383938  0.1988350098906792  0.0002997546992161
  0.5992920244940241  0.1998613121904180  0.6006122078570933
  0.5992693488478477  0.3993361614440494  0.4005727095950711
  0.5994637079533721  0.5980768961432837  0.4002380226064974
  0.5997146033240103  0.5993728665850980  0.6002956868902211
  0.7999190676092108  0.7994751928213842  0.7998393899470115
  0.9995994937473276  0.0049772637751000  0.1991675673038661
  0.9993952558800011  0.0050146151241945  0.8025391247043522
  0.9923969570896612  0.1972682449493020  0.1986637029148146
  0.0078647423696896  0.3994765973208247  0.9979571409324217
  0.9986317892438802  0.3969561647053660  0.8049792742557300
  0.1994206821981140  0.6009364516459726  0.9971458992112482
  0.7987202900783801  0.8004748188606409  0.5951313376133317
