Zr Ti V  Cr
 1.0000000000000000
    15.3990340272275770   -0.0170018773457157   -0.0022529018582575
    -0.0170107766548915   15.3787801482628375    0.0165544931564424
    -0.0022517709109467    0.0165430754876648   15.4057927644380346
 Zr  Ti  V   Cr 
   3  13 107   1
Direct
  0.2155160048666002  0.2068982917907985  0.4095091864295045
  0.2041039553096565  0.6194695692246819  0.3933904378237111
  0.3865545972349254  0.7963712827380752  0.3918293330384967
  0.9996859982807040  0.0016243095690752  0.0002263081900287
  0.0023946107873858  0.1995536893152528  0.7955986912375339
  0.1584064740332526  0.1986918975648681  0.1904267930794366
  0.2014057215621894  0.5894168987113066  0.1860802574774999
  0.2096523310113569  0.7953399214988182  0.2171731318922946
  0.3970949440640924  0.2028684782346165  0.5961894872254955
  0.6074889031055303  0.0051516037647241  0.5999346694750562
  0.6163574112314673  0.1994768288392848  0.4004649469531685
  0.5897382871124683  0.2024954464805629  0.8055597091923697
  0.8350193766540434  0.1984560212144062  0.1968981347302711
  0.7886496765428120  0.1931085417066508  0.5905053567798103
  0.7992852749582504  0.1989564923996708  0.7990332968662629
  0.8025995249359847  0.8011610829401100  0.2015521266210726
  0.0001832496068550  0.9936537233419240  0.2021006702549914
  0.0006527527019547  0.0012709223306484  0.5989548935961874
  0.0006655388443043  0.9978997559252909  0.7973750119987764
  0.9982125033268519  0.2009686955142370  0.9954694734895491
  0.9993129822148044  0.0355281926949248  0.3659050625480273
  0.0035842687590135  0.2022417446004609  0.3988262176132681
  0.0019813542888227  0.2000955823215461  0.5941395686180589
  0.9992467154314848  0.3998469412652777  0.9990934090046003
  0.0000119187620757  0.4019807974321816  0.2004884060880971
  0.0010948923239647  0.4015843366808639  0.3992765705490564
  0.9989082904742618  0.3997405672029312  0.5987963791131322
  0.0005109420504208  0.4018137894044178  0.7985567808046224
  0.9997691348696598  0.5999801667286606  0.9999002897847787
  0.9989111695485008  0.5993580183032713  0.1985024060818670
  0.9958682718880687  0.6005896833321933  0.3990056033850559
  0.0008322916597736  0.6002910092631193  0.5984614017899632
  0.9993586813493032  0.6002397698561771  0.8001398554094972
  0.0014496996580878  0.7986652373772318  0.0023666804578422
  0.0024087463340525  0.7978397134319172  0.2022865500102937
  0.9940817592710163  0.8011779922400306  0.4011359587095448
  0.9997849399828197  0.8006275320312968  0.6004921726318261
  0.9998886617741530  0.7994493730604398  0.8000005282789664
  0.2022863756852953  0.9994620848838701  0.0017542978240828
  0.1986276152239675  0.0007053640794399  0.2023272604197116
  0.2004184846424134  0.0057023964545984  0.4014657385287573
  0.2011514460699767  0.0044560035720889  0.6007736492172443
  0.2006829142847984  0.0007557930124611  0.7996329544171807
  0.1961306268527843  0.1993650108475570  0.9967335498648655
  0.1971998895794091  0.2015006271318357  0.6089289615540598
  0.2023867423275667  0.1996901432620525  0.8017555414219326
  0.2005237711438317  0.3986019510617765  0.9992903534629817
  0.1986806360272410  0.3961451268215707  0.1996994153269620
  0.2000206755400337  0.4086795870663859  0.3989316955693146
  0.1994126916717352  0.4010921069735325  0.5990524183539696
  0.1995395448362615  0.3992284851704042  0.7996628444575952
  0.1996152701511534  0.5996502353820505  0.9940297793011327
  0.2000932948179579  0.6013976559547215  0.6025125235209324
  0.2004593411019637  0.5993706440966093  0.7985643482782941
  0.2002898747525224  0.7994082612908722  0.9999897712822685
  0.1858093519922756  0.8185192153413942  0.4126526450740926
  0.1994153274373312  0.8024825388033671  0.6050898494251721
  0.1999670381378299  0.8022069721305087  0.8021430042574188
  0.4004480977230103  0.9999346596105048  0.0020478522272784
  0.3977918750180578  0.9987873141445609  0.2006039456196408
  0.4010737406156043  0.0061217802608165  0.4010347053656100
  0.4009608247786104  0.0003636653578689  0.7994398823700700
  0.3963922614330009  0.1984657098972449  0.0036100467562798
  0.3990305474959848  0.1980064638912636  0.2023907799255289
  0.4127246212498542  0.1991743817587437  0.3979988733587645
  0.3968885181085708  0.1990493660658469  0.8042929703232758
  0.4001645220481295  0.3980263307611401  0.0011385047804573
  0.3984802019083387  0.3968803501824882  0.2008120845007741
  0.4014186150840086  0.3954324309300500  0.3998075618408047
  0.3994215365215524  0.4014878897144384  0.5999333851273581
  0.3997675283013644  0.3988810906156743  0.7994699462752421
  0.4000681029245579  0.5990072740245790  0.0004006885859074
  0.4039105735650968  0.5964042712717047  0.1990932206064073
  0.4087897205444526  0.5906870916603894  0.3991919730641009
  0.4004693309356033  0.5987316694325607  0.5988835214346685
  0.4003495769309761  0.5995280302686089  0.8007393049039823
  0.3994561088021856  0.7997874451563930  0.9983606629118900
  0.4049002401460515  0.7991296071482783  0.1921604649843525
  0.3998429631685768  0.8008045369464998  0.6023425922063560
  0.4002497226946124  0.7997047268935839  0.8001363517179566
  0.5996984194957239  0.9999855969711552  0.0006788091765045
  0.6011973138885532  0.0004328316969540  0.2018142978531609
  0.5977910230654491  0.9965927798541816  0.3990936048668231
  0.5999454621500970  0.9991524030764430  0.8018844761557566
  0.6011458445812892  0.1996063815433371  0.0047277110880796
  0.5972609126905385  0.1983260094456420  0.1991793530161033
  0.5955466188995621  0.2025982921183927  0.6028577075069358
  0.6000237808024768  0.3995020738323615  0.0005619541192322
  0.6014377834891793  0.3969055779427397  0.2014098139679690
  0.6019995023187735  0.4007016451636024  0.4006991059632913
  0.5991754716518485  0.4004322466314376  0.6007845364712361
  0.5997409001289318  0.4017328598291149  0.8003951263947173
  0.6004210903792002  0.5996975091639553  0.0007675123764338
  0.6016567230566853  0.5990454548827647  0.1999184458152035
  0.6023091993367524  0.5993803501268010  0.4001598549052061
  0.6000694589643090  0.6011217351826712  0.6002241362271458
  0.6000604545634320  0.5999077237758893  0.8002072974686036
  0.6008650776684747  0.7997763524458639  0.0010833679528448
  0.5991429453176121  0.7995599520022098  0.2006862397770911
  0.5989734432967614  0.8003220926264725  0.4002584978304959
  0.5989629869453009  0.7997537951884320  0.5999342822385919
  0.5998768461230071  0.8006760713728497  0.8007011503113884
  0.7969179514820073  0.0000106404715725  0.0006132312824476
  0.8015013366567039  0.0007989806271633  0.2002967729485424
  0.8037622221977330  0.0019592816632745  0.3993857614242758
  0.8045498357304697  0.9960729087196759  0.5991794322443973
  0.8004007293119534  0.9982283314375234  0.7989054679838345
  0.8011182402370488  0.1993449726829765  0.9973005351186838
  0.8095079731390210  0.1992057387082918  0.3957008940356436
  0.7987952899538773  0.3983810221357548  0.0000457507923941
  0.8022646362429311  0.3993401242577944  0.1994821336718784
  0.7997075223072879  0.3976641523429451  0.3995760984057759
  0.8000122458253672  0.4000634579136736  0.5989734114110664
  0.8000259238511503  0.3999796399489726  0.7981380423005007
  0.8004331759667991  0.5990944506762391  0.9991758051903958
  0.7997312062956013  0.5971676122774607  0.1994332930492785
  0.7993404135653431  0.6005756384223004  0.3992631106432028
  0.7993559060970318  0.5988891841350688  0.5998426251040874
  0.7998186907049256  0.5999966751723429  0.7996838935483936
  0.8008239922196365  0.7998390229033095  0.9977380420776776
  0.7979474522088357  0.8018329756384808  0.4032230505164394
  0.8001636591465141  0.7990234351758833  0.6010849926515072
  0.8001077815274110  0.8000059223792828  0.8002860848863987
  0.3987172138981612  0.9974235141793124  0.5998157662993968
