Zr Ti V  Cr W 
 1.0000000000000000
    15.4845863230424410   -0.0024662552653210    0.0047761921724777
    -0.0024659162367974   15.4995276747292330   -0.0070350423122933
     0.0047752102939588   -0.0070333853308447   15.4811509152365012
 Zr  Ti  V   Cr  W  
   4   3 101   9   7
Direct
  0.9912196724961885  0.1979130054178594  0.4017664325651439
  0.0057691678386654  0.6033504279670099  0.3995893401964115
  0.2150249749223739  0.2015917957536616  0.3967772097126031
  0.3945884443764262  0.0024255784968907  0.9993277896317270
  0.0010017737219910  0.1913307469558393  0.0012228680277848
  0.9966294338337538  0.6055528693360689  0.1872459630957941
  0.6065729499644464  0.5984401413063082  0.0015936633891336
  0.9995790251676658  0.9996517184332125  0.1981368200409088
  0.9992165246630543  0.9981133436784032  0.6005492268251201
  0.9989989859892939  0.1995024952917529  0.1963803743401775
  0.9985851435040797  0.1972290035137258  0.6064701917449706
  0.9948970459047995  0.1994496838999409  0.8005275010640501
  0.0006032604780035  0.4004766085893783  0.9996805750921385
  0.9988419211349109  0.3980683145587104  0.1983546100418331
  0.0011033736378704  0.4005664102628214  0.6006939514374467
  0.0012806320879327  0.4004909021918954  0.8008166040086661
  0.0001185144685853  0.6002952187111729  0.9957484751585497
  0.9964698198655307  0.5998564853469823  0.6062150965264831
  0.0010685565449366  0.5998068553191925  0.7999287023895493
  0.9998022662409507  0.8016878174556615  0.9990403736292386
  0.0002286945482279  0.8017517536868555  0.1991720311763773
  0.9998645281642508  0.8037889256067019  0.3990815552645704
  0.0005416584942410  0.7997864734806663  0.6016888731358785
  0.9995590806023654  0.7990413740299673  0.7999419243610844
  0.1894944482629277  0.9997266106359255  0.9997292192970735
  0.1984684907087333  0.0011260894264419  0.2023281261220579
  0.1988748042633077  0.9948026769090863  0.4007715890922916
  0.1984420592321385  0.9988855580554490  0.6003069455685843
  0.1999095449294864  0.0005144975300775  0.7994994084042352
  0.2023109916254879  0.2006178651411503  0.9985619238700685
  0.2001540095645410  0.2004609226263568  0.1931291691311256
  0.1983443011784344  0.1978417437616653  0.6046239343873027
  0.2001319722269254  0.1988416440582495  0.8019219742969751
  0.1980242815306178  0.4005152250234819  0.0008756718372795
  0.1997645674392983  0.3997688446062929  0.1982619289354184
  0.1993040460090425  0.4079631314002308  0.3997066623788930
  0.1973684760780562  0.3943365957540437  0.5984363300045491
  0.2020590372328684  0.4003484106558428  0.7994516890911847
  0.1993887867782213  0.5997731272384296  0.0011301948867117
  0.2018233375392116  0.5992840904870220  0.2022739615522989
  0.3667333128830123  0.7645218130073660  0.5991886175936691
  0.1993213590581211  0.6004514572719564  0.8033144548566882
  0.1987714614503510  0.7984991051363407  0.0000662121364397
  0.2050018402076547  0.8015435522704958  0.1993175957082854
  0.2023634276141637  0.7973365392677951  0.4014248613601182
  0.1992467529827656  0.8035493996103540  0.6006982058942542
  0.2018433245966418  0.7986362960553918  0.7997783273311460
  0.3998249956876132  0.9970909070564350  0.2033455195285129
  0.4007231947917549  0.0029523163033777  0.4016600541071743
  0.3997852256386311  0.0003935746685495  0.7958015432667078
  0.4016083096014614  0.2041403122715614  0.0010053354674529
  0.4012222028669285  0.2006834885123935  0.2022682918500037
  0.4008447027954473  0.1991664412364458  0.5966754201382347
  0.4022065581721471  0.2049660715289556  0.7977123404991711
  0.3992685245916659  0.4009794796620431  0.9963627588861507
  0.4000941488036109  0.4017966006725410  0.1971466191521309
  0.4002619001288281  0.3967225044588487  0.3984801017880644
  0.3976684943730482  0.4033568121980247  0.6031148462834178
  0.3990896392721933  0.5990406719374600  0.9995568012480825
  0.4021356347208198  0.6030776932111003  0.1990730510645843
  0.4016612976695059  0.5987004336766136  0.4029291049374663
  0.3999948078807472  0.5973284705539613  0.7979658815769103
  0.4006341964203262  0.7949835322279568  0.0032711230690288
  0.4021401692039662  0.8014723519207999  0.3949958052870555
  0.4008248283614255  0.7995543222808448  0.8018010867518802
  0.6037233976256383  0.9997262764403336  0.9995040575153931
  0.6014736913207321  0.9999830945660186  0.4008092504207221
  0.5997881199828859  0.9989658538862809  0.5998618745686763
  0.5992510496962696  0.9991681070679130  0.7994770292490954
  0.6000029129377432  0.1987533646728802  0.0014161277809051
  0.6009472006821214  0.2000679760425758  0.3992007943382757
  0.5998231541817227  0.1984161172540557  0.6008514706734757
  0.6025878539407082  0.1983625876500312  0.7996914200238191
  0.6008836720554903  0.3981295738328657  0.0009215243681990
  0.5993129672617146  0.4005095787401740  0.1989107059607555
  0.6007089723562349  0.4004339459651415  0.3984760517516568
  0.6004859097617899  0.3988187976940598  0.5982335899956950
  0.5945786651070701  0.4006064814020197  0.8012013328821082
  0.5999889143959375  0.6004239570956912  0.2017260750393797
  0.6005729351067699  0.5993179182136426  0.3990785090727790
  0.5973362471397361  0.6009974385806968  0.5997803244534596
  0.6016306893658061  0.6008995285337407  0.7994781385059716
  0.6014729666120689  0.8026808315399669  0.9992690144232179
  0.5952823623278319  0.8003270949261535  0.1990655558463309
  0.5999152889335193  0.8020650644863481  0.3997188273034942
  0.6009497875969068  0.8011784146075323  0.5998343591842267
  0.8035905622213403  0.9999203417803051  0.0008682232803986
  0.7993337119585825  0.0007894007939293  0.2009916963270959
  0.8000395121738997  0.0001884928277238  0.3994079881401824
  0.8004924810402457  0.9988851007596070  0.5996793153098219
  0.7964634218769618  0.2004990124353060  0.9952909358249156
  0.7984451925917868  0.2009725679484240  0.1978590228023620
  0.7924509646011260  0.2006101408295042  0.4005048225539715
  0.7985414963272576  0.1999811153245654  0.6049213672147529
  0.8011746278657534  0.4002065651628623  0.0009443081899503
  0.7997863785779676  0.4006453619983613  0.3988737925773833
  0.7991852414044681  0.4008310715423317  0.5993587466129816
  0.7996649439375858  0.3984117502359816  0.8002368897927374
  0.8035835197167789  0.5997808702833761  0.9995658372640245
  0.7965337605098025  0.5988961707906233  0.1987104111191507
  0.7968880300143718  0.6004331040452888  0.3999288066237111
  0.7981224847554019  0.5994688466048076  0.6003768032288892
  0.7986266365898018  0.5977981311442820  0.8003898726703254
  0.7991884621052235  0.7992125601893956  0.9995410780113139
  0.7975302883758945  0.8006056716486610  0.1997244067708331
  0.7988705792387745  0.7996474940289148  0.3985334852029553
  0.7997104320237186  0.7999531252588634  0.5997653757539166
  0.7993896067466724  0.7985236983712125  0.8002805849655934
  0.9994826814792568  0.9958497647569752  0.3996477778991802
  0.9987610284065853  0.9985965005805143  0.8006725397968649
  0.9995358362668195  0.4000174529744644  0.3993552333424423
  0.3995721637071648  0.9981411807327095  0.6002166100672097
  0.6007529747760347  0.0011327844633864  0.2003277826710268
  0.6002898852758318  0.1999332924986541  0.1992027012836738
  0.5999125811089546  0.8003619174619938  0.7996538953273503
  0.7996176664626606  0.9996106399562629  0.7999062212068510
  0.7989770760060925  0.3994572687179378  0.1994857318722542
  0.9979526663955048  0.9947988243472495  0.0027915843618714
  0.2070061225347462  0.6004764111978913  0.3942931974362741
  0.4120561956536199  0.2009913079521851  0.3998739116306993
  0.3984514608497848  0.3996312219714712  0.7986984752150360
  0.4061434562898106  0.5993630148997533  0.5994708159579064
  0.3997231095780887  0.8010581459185785  0.1998784900179017
  0.7969527777367761  0.2043553094116837  0.8007077077303758
