Zr Ti V  Cr W 
 1.0000000000000000
    15.4765281992936270   -0.0050789034039742   -0.0001350537545694
    -0.0050784148071773   15.4943860135243696   -0.0053486089265410
    -0.0001341152771604   -0.0053468792676251   15.4638179106600102
 Zr  Ti  V   Cr  W  
   3   5 104   8   4
Direct
  0.2203836219004500  0.8200851050781440  0.9992219579458151
  0.3854950151428553  0.3872376768878716  0.7966748696817268
  0.3949253203944864  0.7995303205735764  0.8062366710471839
  0.0008929700313107  0.6185752409988485  0.0018227072894172
  0.9954969172655211  0.5990912144866791  0.6007909970941642
  0.2122491276856678  0.2086847943145882  0.7977515930065890
  0.3897093064033813  0.8031653021330344  0.1820966073755765
  0.8010272021982087  0.4011762483099685  0.3984016637482155
  0.0027798017315869  0.0009225432780573  0.9999393192860991
  0.9997888042167419  0.0024195892488341  0.1999678981764835
  0.0004619254028517  0.0021713401354475  0.6006135013556834
  0.0030784735340423  0.0028300713573399  0.8007701683619368
  0.0011988008870717  0.1989244144950864  0.0003767782069108
  0.9995170271628615  0.1998703879675826  0.2023110230734696
  0.9994319641136947  0.2010013933889923  0.4004250637282020
  0.9998839989132053  0.2010367853672630  0.6008528403148234
  0.9962105918113200  0.1990943523548680  0.7988947389634309
  0.0003196074065734  0.4015205651144144  0.1966662082480175
  0.0019523807970750  0.4010586196530581  0.4009411028803691
  0.9982896599802459  0.3986130471517081  0.6008489017532557
  0.9986887350147293  0.3999905614692175  0.8044882267347164
  0.9983737318194739  0.5993400649210985  0.3987108043349372
  0.9993056378921792  0.6007281899527915  0.7988237269709422
  0.0043240863113328  0.8054952037812485  0.0010165496147625
  0.9981555139146596  0.8002321393086126  0.2006167510106042
  0.0031539314229414  0.8012247077241259  0.4011626653818446
  0.9992365951916089  0.8032212970703677  0.5995022269028050
  0.0000068472265393  0.8011195809350321  0.7986606794222165
  0.1999643091373894  0.9996997873285071  0.1991372784178217
  0.1997211031660147  0.9966838382777993  0.3999683305627778
  0.2012867233227227  0.9985532617289745  0.7981869870531091
  0.2025650118841276  0.1990019800956675  0.0028063466892981
  0.1996672968416846  0.2000123464501236  0.2011977162237039
  0.2000911817022917  0.1996609531407971  0.4008736153820076
  0.2000289080718867  0.1989672452945459  0.5964893767832644
  0.1952958736810883  0.4012464239565652  0.9988483205073458
  0.1986410177874841  0.4008504539331922  0.2010386583118801
  0.1981165324705156  0.4022678219988807  0.4005830155106758
  0.1974193072519809  0.4014504513391899  0.6021487555624288
  0.2025282795993850  0.6013888880735015  0.9993199810326142
  0.1991872802526558  0.5990652260478505  0.1984449454437438
  0.1996440288297807  0.6032875975874246  0.4006217896515701
  0.1993934955687028  0.5976154169132478  0.7981541250802027
  0.1927963373565059  0.7997152205567909  0.2065150418645884
  0.1994716005579696  0.7994728823092032  0.5943752541896813
  0.1925471745277589  0.7972570115765254  0.7917121148235536
  0.3032321603802762  0.0033491400436600  0.9975062887153748
  0.4001638736658679  0.0038337303642833  0.2003717367386354
  0.4004624322692343  0.0000536026892155  0.3988505345203632
  0.4001656246932414  0.9998670547417055  0.5995495881880994
  0.4002337578371347  0.0017056493092990  0.7975336842662920
  0.4001697814322732  0.1976765323842353  0.0024497473805527
  0.4008246705496344  0.2004291581853400  0.2002035919706731
  0.3997611280238511  0.1998632939248112  0.4000859304940650
  0.4001082865640415  0.2003509035382427  0.5986904695772332
  0.4113587002283091  0.1881913602083180  0.8016112468413457
  0.3979827302665859  0.3994928180015923  0.2004190214230220
  0.3974735857093771  0.4001106885679836  0.3991084755116929
  0.3991957231639736  0.4008213533871693  0.5929442538264474
  0.4017128927244415  0.5978976716692717  0.0008588799865060
  0.4000539911215490  0.5967690337427086  0.2002118305956875
  0.4001445030267877  0.6004564794658858  0.3979154566204000
  0.4003813456611686  0.5993178297157054  0.5996168148242030
  0.4008277285488389  0.5955512618871210  0.7995398481495629
  0.4161215423356842  0.7972745475375723  0.0048665353765355
  0.3959606759812975  0.8001795284494762  0.3989242415097332
  0.4011555194935530  0.8006055951000108  0.5977072947565445
  0.6036523548017625  0.9984312376055341  0.0006006084402533
  0.5997376677154493  0.9997650571812920  0.2000044912818524
  0.5995582550220888  0.9991951702498943  0.4000751518141937
  0.6007915924429943  0.9996747722118583  0.5985422879218866
  0.6005034041075189  0.1990465555783733  0.9958782278368553
  0.6002433728181807  0.2007931175859184  0.1993668004590851
  0.5994332788660073  0.1999015232026817  0.4018701762641040
  0.6001476183030966  0.2001855066545404  0.6047376434243049
  0.5996639343331163  0.4011869544726905  0.0008815569772049
  0.6002417099825048  0.3993514703785823  0.1997039165153333
  0.5978057782960881  0.3999800520999912  0.4002888643624969
  0.5998325333690422  0.4010413045741855  0.5993861217305710
  0.6007028156566667  0.3982579994007139  0.8008667538656755
  0.6010945337469786  0.5987401426523352  0.9999726241026253
  0.5989962886467598  0.6004721951084990  0.2006439839373620
  0.5986998816504721  0.6009390988101833  0.4002930538684298
  0.5991199525830325  0.5996903427650802  0.5996957677927104
  0.5996668118987299  0.5979952012735703  0.7998306389736271
  0.6086584170312117  0.7993899052699326  0.9990426396819367
  0.6035688360793331  0.7998986636591335  0.2004332758156809
  0.6001837969558945  0.7996492429994613  0.6005034458279885
  0.6046543887824326  0.7977413889899644  0.7994501790921158
  0.8020557552403985  0.9999929803881524  0.0004419706006016
  0.8014812449091490  0.9997304126614308  0.2008902579977088
  0.7997488982237805  0.9995463207222941  0.4006249464845672
  0.8006937403634875  0.9997271475108418  0.5996556435425100
  0.8029945290309835  0.9995672477262320  0.7998559370457688
  0.7991752164188198  0.1992940325860302  0.0008880762935799
  0.7992481981509691  0.2003418665003523  0.2006487329267969
  0.7990803898203634  0.1990961066321328  0.4011951146654079
  0.7993853169833480  0.2005686487266138  0.6000298058926441
  0.7967832117478807  0.1993345964235708  0.8003097224932223
  0.8045962402077761  0.4008171652814320  0.0006429029221751
  0.7997393365688797  0.4016294057920853  0.1987192235860138
  0.8002457764453343  0.4020598113802261  0.8006830970085924
  0.7984907172247236  0.5996020923699350  0.0004465457421314
  0.7993610530928348  0.6000324282548993  0.2009868027459184
  0.7986549419240294  0.6027815048392318  0.4007561210331001
  0.7961492023763407  0.5994871996696040  0.6001051559040282
  0.8003464245447430  0.5994804972758727  0.8000961865178482
  0.8048826002808479  0.7994998994342871  0.0000869222789310
  0.8012754697570487  0.8000833603933996  0.2016971325329336
  0.8016547354165803  0.7999502640739894  0.4006038145205650
  0.8006583856861331  0.8007261821464400  0.5996735411752290
  0.8014680223884688  0.8001306059963793  0.7995219368782472
  0.9996654372006645  0.0013853206294793  0.4001527222304100
  0.9987764605373600  0.6004654513778196  0.2021956277469230
  0.1998661924227139  0.0005686063487556  0.5987650453076553
  0.2013546243120350  0.6003062582362129  0.5979340397218732
  0.3995803180829587  0.3979405861283150  0.0043505327781412
  0.6023396913802253  0.9979456923099219  0.7996259486424506
  0.5993183122480276  0.8003593299175459  0.3996233365388009
  0.7998816316051429  0.3998158485959815  0.6028490040141525
  0.9984629623060755  0.3915915552145579  0.0005982568548499
  0.1897903106034169  0.4030115439931537  0.8002142821717849
  0.1991186354065397  0.7988678127799691  0.3984218168654637
  0.6022769714461149  0.2063515645702401  0.8004177417669152
