Zr V  Cr
 1.0000000000000000
    15.5277836321495606   -0.0011014415353407   -0.0036444284316418
    -0.0011015311309700   15.5268057001839015    0.0012045176117796
    -0.0036459540422085    0.0012051907892001   15.5242636607114743
 Zr  V   Cr 
   5 117   2
Direct
  0.9991928082920580  0.1993382702200594  0.3991666482709524
  0.9936415502034190  0.3986106604443241  0.9973207115574041
  0.5981831431357399  0.9987952349275951  0.0047378859920240
  0.6072158656148896  0.0101785777243084  0.7823287750078982
  0.8075133979736951  0.3612330500152188  0.8115409639222104
  0.0006664849434546  0.9982886895568381  0.9996012691589167
  0.9997175674324056  0.9981234762273895  0.1997937656860478
  0.9996607422516733  0.9945082075116055  0.3998817114109854
  0.0003444810582607  0.9984706787047832  0.5995209748946860
  0.0020261747241925  0.0012225916654525  0.7986901819567584
  0.9984113859940353  0.1940491032096264  0.9981890608777316
  0.9991508584585301  0.1991366825882302  0.1958330086719327
  0.9987204592018182  0.1976412386891487  0.6031857419873697
  0.0026311560263479  0.2006300844692789  0.7993209826105464
  0.9998890703996371  0.3994857919578733  0.2031224150245449
  0.9998080815989951  0.4036530732928483  0.4006053632390418
  0.0009624365086642  0.4009643812314915  0.5985074077749427
  0.9987227631610588  0.6038179566228484  0.9990270398691544
  0.9989582305596527  0.5998608853180513  0.1997965643545205
  0.9992195637414939  0.6004993522660551  0.4001497452561326
  0.9993785990497733  0.6006454788063526  0.5993049354826507
  0.0004490120721808  0.5996355921097506  0.7981649055306254
  0.9994132563686758  0.7997606290753275  0.9993942553852354
  0.9993791177489385  0.7993162754033556  0.1997241536586768
  0.9999021759166735  0.7980033519291911  0.3996160051268052
  0.9995890027141926  0.7994576208280478  0.5999823311651815
  0.0010691097839214  0.7996145821302453  0.7993467926993300
  0.1980220499829273  0.9991124316447788  0.0004530344332179
  0.1985995136345902  0.9996920168390024  0.2004146876223168
  0.2001992780785738  0.9987178365958865  0.3996688516390279
  0.1995838447306059  0.9994200452611165  0.5986352432816503
  0.1998552106949067  0.9997973400288030  0.7990884099554773
  0.1995583219882899  0.1998030434223065  0.9997022553148133
  0.1995043124382057  0.1995222173866807  0.1988371863253189
  0.2037095678563485  0.1995622791606881  0.3992893346834718
  0.2010346017092257  0.1995949963178593  0.6003043745760803
  0.2004078658041394  0.2004981933737107  0.8003007264607435
  0.2017510612241044  0.3996742070909921  0.0010224383703225
  0.1990180000951625  0.3995369888503415  0.2007424947875626
  0.2007601001731681  0.4003059281984560  0.3999615927634814
  0.2005394347650543  0.3991312305243760  0.5987448791313350
  0.2029058794703744  0.4011646450330220  0.7989158321004851
  0.1987183465677936  0.5995477781143541  0.9998542004201213
  0.1987063763643017  0.5994472026777442  0.2000369258826934
  0.1997117916990671  0.5998110553317776  0.3997221563027906
  0.1994781429047450  0.5992397897965362  0.5998511693462809
  0.2004588925153231  0.6004139618489580  0.7999650259581232
  0.1996938958915445  0.7995294811935112  0.0002220160230675
  0.1994075407858350  0.7994399894251369  0.1998537423960509
  0.2001562643306035  0.7987519587686863  0.3997766245107846
  0.2005556241725519  0.7997641731956759  0.5996594061833191
  0.1999828113316257  0.7995194325939914  0.8000409391551383
  0.3938937479305383  0.9996777814796596  0.0005363577978046
  0.3980928186397244  0.9998389827368219  0.2008788319756177
  0.3989866345873779  0.9991943197056713  0.3997347211217925
  0.3994452339404480  0.9997484055751632  0.5992878196201311
  0.3974123787073633  0.0004651889042002  0.7995041232842417
  0.3987303087786866  0.1999155298986171  0.0002004362052841
  0.3989809644984598  0.1994365952034861  0.1993826746991907
  0.4005513298561976  0.1992782669389843  0.4001455948302724
  0.4003255209229056  0.1995689467119139  0.6003243735849836
  0.3993565584312148  0.2008946921398537  0.8010002260585265
  0.3986224760527869  0.4001968929746846  0.0009079711495639
  0.3988835641508167  0.3997974503010209  0.2014295533961949
  0.3996154943886200  0.4004194249396077  0.4003467671820604
  0.4001873296194035  0.3993298002122447  0.5995530904962675
  0.3996043184508095  0.4009272824911941  0.8000508390843720
  0.3990004845361753  0.6005119076486338  0.0002512974585599
  0.3989648877383399  0.5998404600248710  0.2000960963213507
  0.3995176024203870  0.5999603920435959  0.4002175421477809
  0.4002551012390377  0.6002877554896565  0.6002797564849910
  0.3991238444696533  0.6006526282765389  0.8002792365554710
  0.3988163626212511  0.7998951213435687  0.0002457818558213
  0.3996652340490435  0.7998399188523585  0.2000315134792722
  0.4000816829746082  0.7994275687958383  0.3999271300501407
  0.4002191659618145  0.7999105175970352  0.6002420445321953
  0.4008844113435609  0.8008578494788926  0.8008105974407519
  0.5994596903669026  0.9998258545157341  0.2061274222718724
  0.5994964068849983  0.9994883725381521  0.3985489803535347
  0.5997246285641180  0.9993647690608386  0.5876031524546962
  0.5980031499770643  0.2036985750935393  0.0008034266377722
  0.5984322306072752  0.2010721993273694  0.2008875611839855
  0.5978923349322203  0.2008356761045461  0.4000233696173496
  0.6001391703522706  0.1998082445649431  0.6007609210250190
  0.5985099549648824  0.2109054680623060  0.8014018099025549
  0.5954958498041819  0.4031767012736743  0.0027963571132086
  0.5979625594091242  0.4001390051507251  0.2026104901789677
  0.5985627615701313  0.4000473962610965  0.4010746096904312
  0.5994524324445721  0.4012443143625160  0.5995999978516217
  0.5988905375245512  0.4046162385450291  0.7998892371890839
  0.5982478091263623  0.5998180245388944  0.0009026422065701
  0.5991711036022151  0.5995242279113960  0.2011450506011395
  0.5998372816506270  0.6000148291886110  0.5996593331254345
  0.6002698042972017  0.6000332195566003  0.7999131609763213
  0.5994313971696094  0.7947890677362891  0.0008769146035139
  0.5991456386127717  0.7986641764819662  0.2014770486379199
  0.5993067794383887  0.7984850170509528  0.3997994460047221
  0.6001527716510930  0.7992041939397710  0.5993591853475270
  0.6004024619206754  0.7988407366589498  0.7994491742656428
  0.8036266311719011  0.0013787919396631  0.9992939873121817
  0.8005205901172315  0.9996471316068474  0.2005237082077879
  0.7997467026871676  0.9979991167091833  0.3995555668529939
  0.8083621612970544  0.9963964563470877  0.8007583988162439
  0.7973640604393645  0.2001849906198901  0.0018646426468953
  0.7983679385202523  0.1991950678904808  0.1993424242553169
  0.7943980218876882  0.1982703429052910  0.3995925051384178
  0.7989924963155673  0.1991719441754136  0.5982852616582899
  0.8004752690363297  0.0008089012210561  0.6007743316467712
  0.7904346424025419  0.4012656900593754  0.0112629721033127
  0.7984118247335444  0.3993950854757845  0.2051927655079309
  0.7984960201333788  0.4002577470067679  0.4012583746324014
  0.7993979215915127  0.3978874717448542  0.5994598252248843
  0.7980937916102303  0.5999040085110017  0.0003196077944401
  0.7993795954329764  0.5998492366778212  0.2011400551362339
  0.7990071233725941  0.5999927265481045  0.3999063900972426
  0.7995109650712079  0.5983709072092750  0.6012518104552839
  0.7999874072446940  0.5920863771560542  0.8013217531590261
  0.7991780610068374  0.8001186881485818  0.0007210886074260
  0.7990949674953878  0.7995531309249089  0.1998034458809503
  0.7988795555452770  0.7989575598474981  0.4005285976700835
  0.7995947913388949  0.7997183396718172  0.5998160200926670
  0.8010522913460874  0.7973127495267558  0.8012489268802098
  0.0078456863288794  0.4008616152224703  0.7938975639891986
  0.5993732017544302  0.5996888408911181  0.4005497364606955
