Ti V  Cr W 
 1.0000000000000000
    15.3660384737921660   -0.0005376361430344   -0.0071098524204557
    -0.0005380862180412   15.3658728178464994    0.0022583698723901
    -0.0071112580112583    0.0022581408279047   15.3780529877332786
 Ti  V   Cr  W  
  15 104   2   3
Direct
  0.9988900019478787  0.9985572140808736  0.4068057123830135
  0.9993445008670526  0.1965123737139255  0.1952215189164193
  0.9899243790475664  0.3944041731949776  0.4029254512873456
  0.9930033224172883  0.6042627792594837  0.6009495773143899
  0.1920861145584977  0.9997916742974760  0.7958688391201098
  0.2007765457532877  0.3988764003927548  0.4022566027417516
  0.3980135820750307  0.1997509286129329  0.6065530190355189
  0.4031832377167124  0.5946753260207857  0.7937333629857666
  0.6098842871468813  0.0002885949383606  0.7894215294795834
  0.6061182485773501  0.7988867006067898  0.2049853448236067
  0.7922604025271073  0.9993321252399625  0.6030657593216876
  0.8044209921463087  0.2062479284112234  0.4079715897616173
  0.8006487569513322  0.3947229722087321  0.7991318205180292
  0.8005836462706769  0.6068121648543858  0.7946032736741664
  0.8000504888925050  0.7903743897077427  0.6007106672721502
  0.0001207559255344  0.9999186681583413  0.9973273462521073
  0.0007683472789531  0.9972585600731639  0.1987758666619454
  0.0003008038057464  0.0004775005694537  0.6072371828176322
  0.0056461505445335  0.2010006879593544  0.9970723687877489
  0.0024644088593249  0.1981383887013897  0.4045580350575227
  0.9989897891459734  0.1990543909570322  0.6024607571477446
  0.0006267010795038  0.1966117110839278  0.8013973340924837
  0.9983333197132391  0.3991422039384267  0.9989080300304931
  0.9994406101544935  0.4012829979603262  0.1988857740939055
  0.9979128086912306  0.3985563323046796  0.6044140209630900
  0.0009191940693751  0.4001633549484434  0.8000913529526650
  0.0006178759463522  0.6015999921502723  0.9998558604823977
  0.0002683319281833  0.5996551589625682  0.2008870403109596
  0.9980430944299685  0.6019218721035599  0.4000386590860791
  0.0024082036778778  0.7990503024124954  0.0000944238624556
  0.0016162658781596  0.8004755540405231  0.1999475890439764
  0.0003829478900075  0.7990839950564638  0.4022597367915622
  0.0015099986524147  0.8030682849546283  0.6017805954219508
  0.0023509196338480  0.8041643355543798  0.8018965211504760
  0.2006975704099806  0.9994830956383999  0.0021667412699147
  0.1994229362461521  0.0005282491085470  0.2009967733756137
  0.2020968246011259  0.9993403669590732  0.3989482783856666
  0.1984511163856385  0.9999092666506010  0.5938141340175781
  0.2027641208455840  0.2001165167185107  0.0001673441412263
  0.2028413157021132  0.2001459043292448  0.2007452769655157
  0.2001637289396316  0.1977625578182751  0.4001937804402245
  0.1968881288413277  0.2006539343145954  0.5987081351617037
  0.2043358817295274  0.2028608048039021  0.7972436181697762
  0.2003880460457896  0.4013326184344239  0.9994276571654507
  0.1987854429863904  0.3990559146809810  0.1991459637702309
  0.1972325678413779  0.4011109558601448  0.6008866430748815
  0.1992767342312439  0.4006719478750748  0.7999367193067818
  0.2006484163831673  0.5993460176495294  0.0006306315507956
  0.1984942885192045  0.5985226658407049  0.2017559361162246
  0.1981151977823300  0.6012368707594931  0.4004536464230912
  0.1986289324695580  0.6003186014408796  0.5993575113836843
  0.1979146525865470  0.5989543951099725  0.7986299983196197
  0.2050464138981921  0.7988150403111277  0.9998718761186659
  0.1996992686602731  0.8005227380871697  0.4005271997420047
  0.2011061656655513  0.7993592567512359  0.6000655288361548
  0.2015614037946604  0.7970253301051662  0.7986558314904570
  0.4014732665077937  0.9953683384697793  0.9986546939614613
  0.4019027116525449  0.9995009125991962  0.1991603381085440
  0.4005881056081031  0.9994435645534820  0.3991055485643165
  0.3985242836031816  0.9974612822808541  0.5995765978053622
  0.4005186265354941  0.0034981944008452  0.7978069167903802
  0.4028232299327715  0.1984112838986688  0.9971288751747134
  0.4001506732077449  0.1993924156604297  0.1983008529565506
  0.4006475144579243  0.1991905254266399  0.3993498671224753
  0.4001839673985727  0.4025348252081988  0.9994037297874683
  0.4000822331917391  0.3995008032945552  0.1988832750866312
  0.4001152289939238  0.3999859186128963  0.4002076698794361
  0.3991166988808857  0.4035894869127850  0.6003286404186694
  0.3991374809403412  0.3934922942827039  0.7991106184278421
  0.4007471500036223  0.6032016182284110  0.0005296650731819
  0.3993491171856955  0.5995910731212405  0.2008685191032054
  0.3997839141401732  0.6020067638572806  0.3995014629978019
  0.3987807376041323  0.6009920477283142  0.5978370416642341
  0.3988261224157135  0.8001270805790895  0.1962609832470566
  0.3997729391385513  0.8009886570949513  0.3995764957285127
  0.3989794940365463  0.8001768256877777  0.6028247405812271
  0.4003221135987864  0.8037900320393768  0.8032983486081584
  0.6052324391680467  0.0013353805830560  0.0000463077081105
  0.6018314994357082  0.0029417254686830  0.2007885992908688
  0.6006980714859196  0.0012018017421184  0.3991318886729038
  0.5963205788715306  0.9999656139941682  0.5946406152507502
  0.5991560638741855  0.1999673832392388  0.9977146117012090
  0.6023862630214922  0.2008621574978856  0.1986173768407907
  0.5987182726799426  0.2008435113188744  0.4010929160863918
  0.6016847948958340  0.2005360686129192  0.5992254583570045
  0.5980218609229306  0.2017965378933782  0.7989467869355555
  0.6018104984764066  0.3998373522766022  0.9993557747154925
  0.5997682858647040  0.3993996585109681  0.2002083737268409
  0.5979229122894125  0.4006056902952716  0.4000495364982427
  0.5994249536201978  0.4005008746451715  0.5987903730810329
  0.5983578209588933  0.4009216788906250  0.7981823239950068
  0.6001174197521546  0.6002195852529272  0.9992499766770980
  0.6010269053675671  0.5974130002544054  0.2016630427194823
  0.5993761733600952  0.6017694909495143  0.4012644095865863
  0.5989978739833762  0.5991556131865263  0.5998936884597135
  0.6016834984138377  0.5992094002146139  0.7983978411990947
  0.5974713168603569  0.8001683082837805  0.9967670177060178
  0.5998593509444351  0.8008559933725868  0.4046088160013794
  0.5968464990046891  0.7991428222750973  0.6012428502380589
  0.6009107881994404  0.7988674531460380  0.7984786036354479
  0.8025366383016395  0.0031916412149771  0.2001153271995902
  0.7985105660705482  0.9995924442645949  0.3998910798541034
  0.8062201219889515  0.0009786200288708  0.8055067797001664
  0.8009163234503208  0.9976584704053515  0.0019759595846720
  0.7999434668610641  0.2009594303483399  0.1963236640818283
  0.7995831916121515  0.2016376187192052  0.6050934158713555
  0.7988101018932030  0.1980147953248508  0.7990821417241950
  0.7999756870107536  0.4046445844152852  0.9997025930872915
  0.8002353845145372  0.3988840418109765  0.1991606450551272
  0.7944630224976765  0.4042170449597695  0.3987520576904188
  0.7990311139923256  0.3979727865557012  0.5962091706627010
  0.8000950014553508  0.6016022985620371  0.0014867308552590
  0.8009344939021374  0.6007779083805570  0.2007575238277656
  0.7987997111706333  0.6016527949234255  0.3992757657668138
  0.7971461170857533  0.5950516817004675  0.5970580704734555
  0.7993087359931217  0.8007082384771954  0.0019353103818051
  0.8034532296293418  0.8002841133008471  0.2010618012301529
  0.8001164528020123  0.8016825773894879  0.3989631882589835
  0.8010980620871487  0.8032927140985789  0.8024741026234193
  0.0024140408062883  0.6014016590075323  0.8027812933180609
  0.2001237493999584  0.7992834842542913  0.2010402080096862
  0.9983534836060552  0.0014029618027716  0.8011102183811926
  0.3999761718996029  0.1983985331530878  0.8035164820152239
  0.4021020921042610  0.7990237231896670  0.9988163690196812
