Ti V  Cr W 
 1.0000000000000000
    15.3720038313806135    0.0023998420144863    0.0001449001601191
     0.0024007571799185   15.3633006247875361   -0.0006442210894229
     0.0001450310074229   -0.0006449824026597   15.3697544548857330
 Ti  V   Cr  W  
  15 105   1   3
Direct
  0.0056471002318645  0.3937505533750427  0.6011873769030854
  0.9908636800106687  0.8003935670310819  0.2040088659763244
  0.0090895365732754  0.7983246611676325  0.6024233931358329
  0.2009143427558824  0.2038256893969869  0.3933677268249834
  0.1969171597790416  0.2049616402155285  0.6053167032044913
  0.1981135356098438  0.3950741793679299  0.2005109300101056
  0.2021559370073192  0.7978167464433837  0.2007223696916535
  0.4056840809798986  0.9962260652861491  0.8062335734844863
  0.4023196607042698  0.5987315700485587  0.8011878520268577
  0.5938999754282552  0.9954374063024766  0.9948190856637187
  0.7916853032666992  0.1979942425393891  0.7951394098897151
  0.7994049798239979  0.4044443523257751  0.1932576316211745
  0.8018487183317156  0.5932512022135696  0.0029130485842389
  0.8067907762759140  0.7979172582487963  0.3918296386792991
  0.7985566991917907  0.7967997704581897  0.6043996386498786
  0.9995530477513359  0.0015429392833985  0.0007771417526468
  0.9985482973140919  0.0014813098881867  0.2014895824315758
  0.9981009055084599  0.0003299039985243  0.4009274070545142
  0.0003124428991656  0.0006839776801513  0.5992424352488885
  0.0000007629432057  0.9995975936875184  0.7991831262816973
  0.9977934097954393  0.1992918724794854  0.9998205055757214
  0.9987790828565696  0.1995519528224531  0.2003370806210982
  0.9976373409458715  0.1967058618183524  0.5981562635205809
  0.0019719815333239  0.1990223078106530  0.8007977178183486
  0.9972646365830586  0.3985568960788430  0.0004412751307854
  0.9996754007589377  0.3991972347617727  0.2009974295968015
  0.0000910560722296  0.3983550067595590  0.3978799920424786
  0.0000823667808898  0.3985234076657715  0.8018817879391767
  0.0020752530128958  0.6003729235214532  0.0018735640785370
  0.9994216773467920  0.5976569127830914  0.2015683748511810
  0.9999800930357797  0.5990460683498928  0.4006467916436092
  0.0007868726786035  0.5988372904663041  0.5987400292186913
  0.9993286211019788  0.6000252820827144  0.7993230490480595
  0.9996377682940624  0.7994336830927193  0.9997506848378140
  0.0032054862918718  0.7998028341272779  0.4015172780754823
  0.9992489284335336  0.8002879209952767  0.8027278657365766
  0.1978587139973411  0.0312973377241335  0.0002145269139487
  0.1974732309294597  0.0007355692817753  0.2008732143701975
  0.1992057494305362  0.9992016837740177  0.4005674101208223
  0.2004909275206922  0.9993517349575299  0.5998027797965735
  0.1994265421418250  0.0008577628095659  0.8011073443634992
  0.1989588352409065  0.1971763536082158  0.1999688831553558
  0.2015841451482445  0.1989187980276190  0.8006986876928557
  0.1982597258501399  0.4021742595007164  0.9996173784077892
  0.1992054434481172  0.4030491145887573  0.4052007687453978
  0.2038020064276819  0.4045135261170590  0.6026165504179193
  0.2002619090039206  0.4000315881185375  0.8026623834951193
  0.1989601775567983  0.5997916318859486  0.0006897027891275
  0.1989330291433319  0.6001068044591688  0.2018962240249144
  0.1986648110709898  0.6010858332377216  0.4006477605241145
  0.2005254232107241  0.6021705831067201  0.6010950934883602
  0.1974388592792636  0.6001405247657009  0.7998503665696126
  0.1992143791535281  0.7992778670613788  0.9982434125531349
  0.2005659210432001  0.8006426899942948  0.4038221288676739
  0.2053368399967816  0.8004907280912023  0.6021777584563078
  0.2005136846509589  0.7998212145679177  0.8001811394306948
  0.3947950566712153  0.0013253737705908  0.0042747987285939
  0.3977281703630736  0.0002064693656179  0.2010615066316959
  0.4024720342497622  0.0000985815144456  0.4001382979566239
  0.3998014554894329  0.0001601826435740  0.5983349797279154
  0.4013784491699345  0.1999883457906556  0.9994785487025186
  0.3984553393299747  0.2004439521097656  0.1964858318774260
  0.4019162570997029  0.2009603990646719  0.3997716926577052
  0.4005655507050380  0.2002464378095897  0.5998161786891103
  0.4020564762135710  0.2018193149783565  0.8009885207415486
  0.3976497715839838  0.4000076049671267  0.0011121910885906
  0.4019594897930557  0.3998836528721654  0.2006464765413292
  0.4002261605742243  0.4001445107364970  0.4002151127449915
  0.4012913402452354  0.4011935680365437  0.6003491928464493
  0.4009185572219814  0.3992181985233790  0.8010320518495574
  0.3994427353398158  0.5991335506895711  0.0036218884633956
  0.3995606914231908  0.5998335751691557  0.2013372429001486
  0.3996090988247883  0.6001860581709315  0.3994994166622747
  0.4012693664762742  0.6003485165047637  0.5968828578528605
  0.3989155194131139  0.7995931166441195  0.0004654557941439
  0.4011370631372556  0.7998375693723555  0.1994326899695314
  0.3996857287520253  0.7996776586616227  0.3991245246819662
  0.4009282554805206  0.7994439637023384  0.6013642490415912
  0.4015129249054415  0.7994422187029429  0.8009891211410398
  0.5987496068963689  0.9993819476300400  0.2042825868900115
  0.6009899159822434  0.9999726200652814  0.5940435278044395
  0.6048401345962158  0.0044174645003410  0.7935238127974608
  0.5990478743071350  0.2020181724372043  0.9943555591564408
  0.5989834519357632  0.1993980899525304  0.1976547432979039
  0.6002043404457957  0.1972160708851043  0.4003212381959018
  0.6008173031794455  0.2005214199114884  0.6028286594655995
  0.6043657602592677  0.4013985243385443  0.9996060457996595
  0.5974097183420594  0.4008386059570709  0.1999897219543595
  0.6010819311142347  0.3987527071847456  0.4003152676214572
  0.6009322145255592  0.4009406858592365  0.5997864690786096
  0.6007635695440682  0.3973672247905920  0.7994318030152100
  0.5969303840932577  0.6002402610929124  0.9995798946204422
  0.6000718079895885  0.6015447876301308  0.2017791000651273
  0.6018047603020050  0.6018154863755479  0.4000991011239165
  0.6011671968937174  0.6006112093179320  0.5988996603138834
  0.6035550223853078  0.6008671149304009  0.7988312798891540
  0.5994269132329780  0.7973629088239711  0.9982854438999043
  0.5987818926412175  0.8004124528981159  0.1979305747837341
  0.5989170649549825  0.8044215704573094  0.4000398409185575
  0.5992765927661552  0.8005905047031980  0.6002264209952241
  0.6008265351987950  0.8025701121809375  0.7995493159057044
  0.8013203295994974  0.9994141820995924  0.9991846785090467
  0.7985138539681386  0.0002732801525818  0.1983882677735045
  0.7964737423984499  0.0014480922237132  0.3990245090342464
  0.8021999261229946  0.0000147350604101  0.5980823873203192
  0.8014513693791208  0.9971592229828200  0.7987869693709565
  0.7991839560314350  0.2022106856415235  0.0012244967346194
  0.7977790573817664  0.1988711533786172  0.1983905230682901
  0.7993170039833809  0.2017239666290249  0.3973243985959952
  0.8009147547983471  0.2015837664716914  0.5962367821987005
  0.8004150232461680  0.4002167457299658  0.4007068230878265
  0.8004432472689768  0.3997235794459812  0.6004283916677428
  0.8010241114182634  0.4034069350952435  0.8015239155075603
  0.7989438950021411  0.6040007960289401  0.2032361596868964
  0.8016043757873895  0.5971999959654446  0.4002710226711723
  0.8020756806608019  0.5973722745349062  0.5993466950092083
  0.8010327890933422  0.6009381884726229  0.7975392098403600
  0.7989440601328751  0.8000840060660248  0.9988771589326211
  0.7949315222213110  0.8001066887429951  0.1937549607283605
  0.7999541879989704  0.7989722253995274  0.8027877679353390
  0.9960826914499453  0.1998075909657251  0.3991693842684138
  0.6002046282071580  0.0009597673464039  0.3991509946676490
  0.5977403890516917  0.2006836238059687  0.7971045466558263
  0.8003776615898829  0.3984280021218379  0.9957856942929247
