Zr Ti V  Cr
 1.0000000000000000
    15.3990340272275770   -0.0170018773457157   -0.0022529018582575
    -0.0170107766548915   15.3787801482628375    0.0165544931564424
    -0.0022517709109467    0.0165430754876648   15.4057927644380346
 Zr  Ti  V   Cr 
   3  13 107   1
Direct
  0.1920873987407897  0.2020657214255032  0.3727265369215590
  0.2016138401151767  0.6175200932766503  0.3845237230062712
  0.3813158070172169  0.7956209732647765  0.3902651354343505
  0.0016634608747865  0.0065914137450271  0.9962832822074889
  0.0003467210056356  0.1944741460839095  0.8078332474128616
  0.2032372242385964  0.1996097642997100  0.1752654706168099
  0.2040092466673372  0.5910994446667364  0.1838340464541154
  0.2069653042403848  0.8017805302575465  0.2144506147117014
  0.3904369442754925  0.2034941650938094  0.6036674472432373
  0.6094297658309350  0.0148447771532145  0.5934103795122152
  0.6039377549202503  0.1927260435705036  0.4131901586054333
  0.5896674211314056  0.2034935485188009  0.8128246217822082
  0.7958764389848315  0.1966835027106562  0.1971281900275884
  0.7850513934575674  0.1947610938930731  0.5937092639256895
  0.7972454940516599  0.1989346496010245  0.8030323249273695
  0.8053535945887251  0.8026314697552023  0.2017818504280178
  0.0030761362883376  0.9978436371158061  0.2043193887029879
  0.0016992809734454  0.0004226159228239  0.5989151169822364
  0.0016763340157895  0.9976271977528510  0.7975675886437357
  0.0008207032290133  0.2029061211466564  0.0062583371852908
  0.0025484566924850  0.1985518351243549  0.2020966430665177
  0.9916042734072428  0.2018558566959540  0.4015284226816726
  0.9978148450793609  0.1993332015824090  0.5985020558681680
  0.0005889237414785  0.3998089009802322  0.0019608319630342
  0.0003087694557747  0.3981204590786203  0.2017581342168003
  0.0006373082821942  0.3988031192751662  0.4013100777661249
  0.9991086772099653  0.3984244814889243  0.6018465851597234
  0.0009858332397863  0.4004540629983697  0.8007984890756565
  0.0013190684220599  0.5995139688935023  0.0008709885052393
  0.0006340274314929  0.5995220275542514  0.1999314338061982
  0.9955673184223582  0.5950868594680355  0.3986513479305124
  0.0011099780416311  0.6006489252877549  0.5972450738520397
  0.0003569644811657  0.5994645686339556  0.8009748921344860
  0.0027746734168974  0.7989417029246922  0.0023769215340621
  0.0044770203049281  0.8000955246177994  0.2004133178029661
  0.9996529095432112  0.9361058615599877  0.3996889177432701
  0.0006068810837112  0.8009012209884683  0.6009028715601008
  0.0006555202950673  0.7990089300632252  0.8001179627748464
  0.2031085251252177  0.0002252146579924  0.9997751037860321
  0.2029203614407904  0.0042681853539412  0.2010407234845462
  0.2011081618367229  0.0027525614779220  0.4016110836652907
  0.2025737066049626  0.0040180176030216  0.6002658107026464
  0.2020559743169118  0.0007545583348993  0.7987218189573958
  0.1993664982869956  0.1999629558732028  0.9876242823670186
  0.1949592709134889  0.2011643808463978  0.5961223585162093
  0.2014975660052792  0.1996377113781906  0.7957203167287986
  0.2002193415778443  0.3982545869320693  0.9994026304026290
  0.2014265293864153  0.3958129524901213  0.2007637126846068
  0.2001625970465813  0.4048178416191151  0.4018071830559953
  0.1998368056842724  0.4012338898715853  0.5992783273738767
  0.2003060600127292  0.3994241104973860  0.8002284535580153
  0.2008284909926303  0.5994508508782419  0.9937227743087090
  0.2009881995298318  0.6011307580538350  0.6001322729261468
  0.2011407602854411  0.5995776439777867  0.7982299682738103
  0.2011235694882204  0.8003324315714900  0.9996095227940474
  0.1770418180185890  0.8171555030199511  0.4090333176881041
  0.1995326154462723  0.8016867617236674  0.6033763629505967
  0.2007380192291814  0.8024176802702875  0.8016586160336220
  0.4015714575368575  0.9999486421854709  0.0018986419144275
  0.4024568994602692  0.9983570953537133  0.2010499764633311
  0.3999585624023138  0.0044037828709592  0.4008976016458921
  0.4027203006896267  0.0005027178762544  0.7985955900265647
  0.3993301800780313  0.1986202242287309  0.0021526936645689
  0.4007744474496852  0.1988810425052956  0.2019743389862195
  0.3996350109251461  0.1991738331623953  0.4006439837435571
  0.3959106919358580  0.1993741352306533  0.8055433196009489
  0.4006558785733529  0.3987068396166017  0.0022201807896864
  0.4017957630616119  0.3979894120091509  0.2021446346293690
  0.4005079189252330  0.3951229884916447  0.4018663641637401
  0.3997521983753198  0.4012388673186206  0.6014251726776434
  0.4007824642082912  0.3992270490759712  0.8006586028105627
  0.4009261401383221  0.5990235552533814  0.0006541597033645
  0.4043902386168269  0.5971364729541382  0.1996906659215448
  0.4085008040686340  0.5907925609944782  0.4000457108659876
  0.4009804046147659  0.5988953732317724  0.5994292591579493
  0.4014714172931912  0.5999917456648669  0.8011901927854553
  0.3999366112064794  0.7999487415458066  0.9978190605065457
  0.4049380931353925  0.7997991666866647  0.1915859503657924
  0.4000587993966775  0.8008011804922472  0.6017031333930352
  0.4010045957505897  0.8001787683652744  0.7997556983579807
  0.6017479517435301  0.0004340275270744  0.0004247824770514
  0.6021943352753123  0.0000899647346215  0.2020490383124577
  0.5971230864491038  0.9951626105782420  0.3986074185092771
  0.6009652936036025  0.0008973521207906  0.8015218764029149
  0.5999885676706133  0.1998346714470459  0.0077659131562694
  0.5976015397945031  0.1983908692015437  0.2022510175905163
  0.5917875265698787  0.2064782640891603  0.6095226551388190
  0.6015905208720679  0.3994336943200184  0.0016659916344989
  0.6007323763451378  0.3974592929383036  0.2029585465944161
  0.6013398586201593  0.3991866054604983  0.4023820329649892
  0.5997154853147233  0.4021140747122748  0.6026196348548033
  0.6006677279282653  0.4024021920532653  0.8024645524801027
  0.6015651425751480  0.5998237265972026  0.0012860877017046
  0.6029629247289831  0.5996135622729555  0.2001206065606955
  0.6023872525384582  0.5985959728484407  0.4002503135824739
  0.6007652833907212  0.6022512211877521  0.6009321279535383
  0.6009483433302619  0.6006274016743594  0.8012053879920784
  0.6018963102413672  0.8003572622019027  0.0012361714153082
  0.5996782884681437  0.7993016508940782  0.2004358620527633
  0.5983052076838424  0.7997442553966098  0.4002264227853429
  0.5989816671816361  0.8016410328119140  0.5997922198619089
  0.6005889447173199  0.8021654107166846  0.8004105392762481
  0.8000555202893009  0.0001610485345154  0.0003343459582439
  0.8021404752509114  0.9999463729575387  0.1997680420871349
  0.8158324744875228  0.9950534060567198  0.3969657332659607
  0.8056971823123633  0.9961598173483940  0.5987374138995074
  0.8007331648542514  0.9981165830709016  0.7984019260330842
  0.8009029036813881  0.1995153484125136  0.9988057222854742
  0.8000105485036955  0.1973179968199903  0.3965880753239908
  0.8013190087517985  0.3982551420009651  0.0005771956572094
  0.8012275563211060  0.3989333496478382  0.2006550142296926
  0.7995957618406698  0.3973012443263079  0.4004000737708662
  0.7996284100140174  0.4006319788029338  0.6001261810536639
  0.8006392939641125  0.3997190952355971  0.7991421350406597
  0.8017228771999740  0.5988130174893477  0.9999288289443876
  0.8008313174700004  0.5966508978156325  0.1990213641303117
  0.8002860048196384  0.6004883033254085  0.3993276299268715
  0.8000127178774467  0.5990617042550686  0.6003458762653043
  0.8009067303135404  0.6001476569801387  0.8003325802445125
  0.8022258272607738  0.8001914880488440  0.9977828739616860
  0.7973740313706507  0.7993869185473237  0.4025876685239823
  0.8011728460896311  0.7991056859800781  0.6003449712392681
  0.8006068158521664  0.8002706442658115  0.8003441488713617
  0.3994066377205616  0.9983083251717808  0.5990458624430702
