Zr Ti V  Cr W 
 1.0000000000000000
    15.7158854917930118    0.0424966629098852    0.0148409627212210
     0.0411830069389624   15.3323084803074661   -0.0160946220336397
     0.0148959253048745   -0.0159922465770031   15.6047261891567377
 Zr  Ti  V   Cr  W  
  13   2  81  13  15
Direct
  0.9847731040159082  0.1877852893352127  0.1901977544260489
  0.9953169645822816  0.8314202026695677  0.0175465604551641
  0.1868115703106146  0.7988707657272744  0.1868108875885387
  0.4480101215209128  0.0111626656810238  0.3785917138720707
  0.6332657674385251  0.9936710150714533  0.5426716060553957
  0.5749389351755552  0.0255039307983855  0.7556850152797966
  0.5896658774076527  0.2143561730132466  0.6134723428447584
  0.6013932740412439  0.4419324095570160  0.6228862957211250
  0.5536443048676676  0.5840377393532127  0.8050905233783338
  0.6421203816995250  0.7967655285494860  0.7688730660427411
  0.8373574627735638  0.0000009509320405  0.2211088512176709
  0.7657438742751551  0.5924943396533483  0.7664855950461539
  0.8544065275981814  0.7946863121639034  0.8456181178902269
  0.2151156433059477  0.2014144006838370  0.2091614476475445
  0.2091413598748880  0.6220695750299952  0.0165630865722286
  0.0050347803641556  0.9973598905749116  0.4040570218623017
  0.0033947982246481  0.9964866392732472  0.6177944834262256
  0.9957299796454941  0.1949800115051838  0.9867864963168825
  0.0007752018993536  0.1967382131719959  0.4091304013502320
  0.0038651843631526  0.1993532037225354  0.6030234911880045
  0.9918025633719744  0.2059748467491683  0.7967155299577895
  0.9992394509273806  0.3956640782706133  0.3982393808312289
  0.9995683877426045  0.4009700594808658  0.6004583039922664
  0.9954243429785347  0.4088251544706327  0.8033943831844026
  0.9978599398122063  0.5924834634898412  0.2029892896215490
  0.0016264978629903  0.5968239893451937  0.4013831103056844
  0.9990049131997500  0.5995834659789914  0.5961885965716415
  0.9852097611205591  0.7895402283003945  0.2147537553337494
  0.0002727010865204  0.7946126270616177  0.4064296755958872
  0.0064687665262597  0.7992248914119067  0.5992587117618393
  0.0260160913395308  0.7932491972949135  0.7878494832803650
  0.1750247952982502  0.9984018328127773  0.0121905904940280
  0.1963481892314215  0.9924904438961070  0.3971154775404695
  0.1965343772444718  0.0014751045530967  0.5983279506218168
  0.2005168780631301  0.9958084588906052  0.7957693359198351
  0.1949652615059105  0.2000799969602345  0.9954571380074666
  0.2076450819701544  0.1971864119019290  0.4097565726334350
  0.1921452016295313  0.1984637909606048  0.7948154722399321
  0.1975690817730585  0.3978699026014730  0.0079908119506897
  0.2011428964776898  0.3970224725079867  0.4002880355354599
  0.1948247224942773  0.3951380289110345  0.6007704286581204
  0.1879711732259217  0.3974188367932991  0.8018940547894593
  0.2022167244542227  0.5851931829619873  0.2085156585199935
  0.2015313507158050  0.5966819622447950  0.4031425569575240
  0.1969685553643574  0.5927385778542541  0.5988005140711934
  0.2009043964240378  0.8027150078629385  0.9899473692876920
  0.1984396801441448  0.7950816194317110  0.3992228760684530
  0.3837271293652789  0.0008982675029110  0.1817409392015092
  0.3902054506012555  0.9959197751118105  0.6118902372546439
  0.4046936889267587  0.1963600417138845  0.9915010418810589
  0.3874186648062854  0.1978916781169172  0.6001715605378153
  0.3892059651764103  0.2027781029898027  0.7997023068415798
  0.4153831913612131  0.3960934109038591  0.1976771741132201
  0.4043599318629518  0.4022995673764800  0.4101161329972567
  0.3970161124985809  0.3967042463263084  0.6064893019124409
  0.3737971783142185  0.4013698254900119  0.8082400960719529
  0.4023896039159754  0.5998905697063198  0.9992668839782682
  0.3998724308044738  0.5960597522589661  0.2030976725717138
  0.4011496711121851  0.6000599904846859  0.4025614301511342
  0.3943311025618914  0.5960832359443019  0.6141741125096994
  0.4025672973190801  0.8040154337310025  0.0015595181719406
  0.4044362279739761  0.7981247596325799  0.2013763531242933
  0.3895617850074356  0.7988687109948835  0.3980383990058161
  0.3976800689595852  0.7968552960262811  0.5971918296037789
  0.3931051780186691  0.7951030737756251  0.8003141305843562
  0.6008158332212054  0.0010242424059010  0.9993461629587349
  0.6241648792900245  0.9987865660409851  0.1927418371594316
  0.6368503174119978  0.0026871767463209  0.3629131083898172
  0.5980393818003904  0.2061572498915331  0.1979067699228381
  0.6028923312970090  0.1968840356307699  0.4018434526927568
  0.6020916803916708  0.2154677166922593  0.8169316892768312
  0.6142033420801304  0.3941576597181775  0.8150855290948783
  0.5994631275167155  0.6053366105698611  0.0003426594394731
  0.5964140694129749  0.8025600778784686  0.0024967234943248
  0.5988038473520333  0.7963021916210988  0.1967294869852662
  0.6036593411236586  0.8079544917648449  0.3891308638411347
  0.5670121295421112  0.8090207749471026  0.5807589422569098
  0.7982332067492353  0.9966974883228548  0.9851977896988926
  0.8103860772789018  0.9999418295963196  0.4174285808419493
  0.7914010474894176  0.9942286365377865  0.7890307958783178
  0.8229285026373020  0.1694536547452617  0.9992902198274325
  0.7895152533291235  0.2019147293756635  0.2004524002931494
  0.8020663536448709  0.1998999287911822  0.4004164328459256
  0.8028015239281506  0.1981157745220357  0.5976951516404007
  0.7953507890246629  0.1974157332207855  0.7946572607515567
  0.8032681805800406  0.4063343345222143  0.0003972403412897
  0.8009405761679731  0.3985744112896027  0.1996906690272425
  0.8007117514855677  0.3988460833194893  0.3993276032744858
  0.8063053952867920  0.3972928366597896  0.5952506132413727
  0.8034328980722257  0.3948746331265017  0.8067598551211007
  0.7972510247494407  0.6053589274432188  0.0005763538158976
  0.8004038568362697  0.5998311718285402  0.3924705317110725
  0.8057841333432623  0.6031281895634851  0.5751547263350393
  0.7938273146001371  0.7953291477889176  0.1998066435526860
  0.8018911339145772  0.8005448919599483  0.3953118111605536
  0.8165975572429641  0.8018264990665184  0.5923006975061351
  0.0177623526034616  0.9876599228533429  0.2070073387550671
  0.9969770063320820  0.3992853134246832  0.0015157437189398
  0.0004153511919448  0.6000490377111094  0.0000782139526678
  0.1898114091013830  0.5991116333302955  0.8031037183596788
  0.2025283316481674  0.7974564671226620  0.5956689632168074
  0.3993003568906217  0.3994139090984180  0.0017500000354738
  0.6005093946596275  0.4019450090765637  0.0083139616040641
  0.6032468228495782  0.4016023244255917  0.3971742737276348
  0.6000870169308322  0.5974121942269894  0.1992202880672727
  0.6009494653694260  0.6043668479030561  0.3960944971155416
  0.8157636501993463  0.9975746226371881  0.6027032192510544
  0.7993391051843675  0.5969517880408506  0.1976865034602918
  0.7908437667905768  0.8012758057245467  0.0122473861781375
  0.9934974476977990  0.9997305511367915  0.8556183394318342
  0.9966158985877305  0.3946490829921938  0.2036333059325320
  0.9901549209174049  0.6093147428797607  0.7862163257363005
  0.2051851639739366  0.0055041410434881  0.2045029070054695
  0.1962488739360590  0.1972636035097518  0.6002235655826968
  0.1814021265278528  0.3918910793095592  0.2056853398240988
  0.2040811666909407  0.8021415580933681  0.8004808657233963
  0.4114792504929861  0.9989020579684333  0.9880708817267452
  0.3872340642762663  0.9955584502183529  0.8036917716237816
  0.4075769310542126  0.1939225836597747  0.2289549843846378
  0.4072313054906772  0.2054542532085172  0.4118646097004420
  0.3657839739266670  0.5983025215779126  0.8054100343917022
  0.5972826192588091  0.1932783442439740  0.0062717652650413
  0.6069547479846010  0.3982143468311425  0.2043250688105398
  0.6220734646201515  0.6408874584280008  0.5976399268941600
