Zr Ti V  Cr W 
 1.0000000000000000
    15.4960714073365384    0.0051040368297593   -0.0105451014308825
     0.0051048562490338   15.4928697570257636    0.0017959002958950
    -0.0105492207125536    0.0018002513064147   15.5095395758870289
 Zr  Ti  V   Cr  W  
   3   2 108   7   4
Direct
  0.2002367607540797  0.1594418786685783  0.9973948333180165
  0.3655709403375085  0.8358606850943185  0.0008254753484995
  0.3997173318881161  0.8007661441908486  0.5967662012505466
  0.3958362327013882  0.0104495434745177  0.5966920033023502
  0.7994819281769523  0.1914144879943754  0.3993118997205344
  0.9972766381215200  0.0015067683736942  0.0007985074091109
  0.9994792020333798  0.9994222351947172  0.2015736071772341
  0.9994461013592486  0.0021812241370687  0.4005371254980368
  0.9988799603615272  0.0016481904232757  0.5994770540758723
  0.9982478302684895  0.0003920176899084  0.7993954016336327
  0.9967469246964696  0.2001394568503905  0.9995968937838210
  0.9994876151751328  0.2011977101243093  0.2001407425488423
  0.0011726632251852  0.2059342618821288  0.4006967400565190
  0.9992696543336859  0.2000138270296752  0.6011253845378283
  0.0000306362177507  0.2017506862455130  0.7996298569878582
  0.0008340685772996  0.3977778172423100  0.9999425754057203
  0.9999869267626960  0.4007316421068278  0.8007990762723495
  0.9990804256630372  0.5987690585201557  0.0002680115657446
  0.0026852032731497  0.6012936626161438  0.1990950129139837
  0.9985249501662560  0.5944044496372852  0.4010388916366454
  0.9999076737886909  0.6004516115520342  0.6007196284745795
  0.0004816098941447  0.5998764237984197  0.8006641728260456
  0.9987969302849309  0.8024523842878065  0.9999935028962105
  0.9987654513772849  0.8010880747299908  0.2013006096942475
  0.9987907709071822  0.7987046430629410  0.4002896392706295
  0.9982504454861968  0.8001985345383292  0.5991652066529489
  0.9992053617217137  0.8008297264068318  0.7999009913056357
  0.1992804851981042  0.9996030372740621  0.2020170696131759
  0.1995770834290447  0.9989096684351692  0.4005936829755967
  0.1959278404209510  0.9996816318134260  0.6019869320067167
  0.2001764347559160  0.1997209933910282  0.2046483761086501
  0.2005784917521471  0.2002205717861107  0.4017904842074991
  0.1997217811706822  0.1998155344193291  0.5992352212526635
  0.1998150737713620  0.2022424113134851  0.7951400667998560
  0.2038544726914237  0.3909166647705494  0.0009873474462837
  0.1994195724009428  0.4027317055227042  0.2011202552819653
  0.1943008162707930  0.3996274888064544  0.4022923389192066
  0.2009652191759987  0.4009344156651904  0.6006101363881242
  0.1995084194147602  0.4004721621817620  0.8001898298088339
  0.1987143343161074  0.5990479632295339  0.0045026740495664
  0.2004192816378640  0.6001344702373596  0.3974445839449864
  0.1992879228406000  0.6003064294569701  0.6001614835338090
  0.1997521407668179  0.6008289165788474  0.8004296405205302
  0.1953701089264724  0.7965910057729486  0.9994097224482217
  0.1990439191632319  0.7990550319217916  0.1994238506643972
  0.1985309786608101  0.8002470033501746  0.4010529353098857
  0.1945178572655307  0.8005180952749892  0.6011899813417568
  0.1985396948579888  0.8017826719939306  0.8012285767174750
  0.4024312853773896  0.0095470386136298  0.9997217609154608
  0.3998825419069054  0.0008918764273856  0.1998425556830634
  0.3998977158351708  0.0022364293177264  0.3982176948819541
  0.4006563612992458  0.0010225734574341  0.8009444656742001
  0.4043384853320322  0.2063414979568137  0.9997354719022533
  0.3997198920844478  0.2016041199750132  0.2007283269232302
  0.3997960583984778  0.2010359939714955  0.3996674964030792
  0.4004788315522015  0.2035146183612280  0.6005789514739188
  0.4013559749847458  0.2014157492609574  0.7985226711257868
  0.3997319266625655  0.4002639673535414  0.1970769055147555
  0.4042370885038913  0.3993014998700367  0.3990950181379377
  0.3996599227250789  0.3993865579249629  0.6010989441034724
  0.4008175601520156  0.4005579723298611  0.8034282955722544
  0.4005459663107177  0.5938258570335476  0.9993447178161403
  0.3953596096151828  0.6017314685878673  0.1999577191640029
  0.3993798402280090  0.5980648742547939  0.3998198456517654
  0.3990946470203676  0.5950393472413376  0.6002227838172464
  0.3998965664934773  0.5997055666594023  0.8004444240918541
  0.4004379126226216  0.8015310975703051  0.2021675608458659
  0.4010294683449566  0.8000047405186671  0.3955349257838755
  0.4003190213371932  0.8010002637909750  0.7997166797743636
  0.6008911640547585  0.0015424911291724  0.0004775551971021
  0.5999850823528227  0.0004280998702610  0.2010332491781994
  0.5995117507898902  0.0004389949337065  0.4006248982968527
  0.6003398567729220  0.0003271313135240  0.7985726339601567
  0.6026116585766669  0.2011342514555101  0.9992070918414244
  0.6004579415281115  0.1998566629783526  0.2007153756991788
  0.5986205343064214  0.2040162010698471  0.4009886086868654
  0.6016082129580843  0.2003809366257058  0.6004273248786755
  0.6004846032408431  0.1998024723039545  0.7986128288012232
  0.5980732913102115  0.4003200840869336  0.0005483168193263
  0.6008192745571314  0.4012397692738671  0.2052484518416893
  0.6008756644030528  0.3997500393663224  0.5963675624238901
  0.5999111884052487  0.6000029760300591  0.0002599710331687
  0.5993142517127836  0.6018331198885278  0.2000722699347114
  0.5996718147219712  0.5967032902769391  0.4000208245273371
  0.6004519513457254  0.5991925457968970  0.6003858270919565
  0.5999323219753364  0.6009945521935712  0.7990896015038549
  0.6038019571981853  0.8005099503725219  0.0000917068424012
  0.6003836630404950  0.8004970911430651  0.2009399672567226
  0.6008423770098310  0.7993430088726552  0.4001310824261334
  0.6047164448447560  0.8006859949546191  0.5988367107843647
  0.6009532981055934  0.8009150284246581  0.7991140185546347
  0.7993015567666298  0.0003380395161936  0.9997987153590917
  0.7994005027384387  0.9997941951979541  0.1998139401677710
  0.7995244252266929  0.9973545938858792  0.4000442612169602
  0.8006330171522371  0.0003345040920658  0.6005805974249507
  0.7990348925398015  0.0003136862524886  0.8005495074167781
  0.7988792912633634  0.2011934869687189  0.9996982343085113
  0.8001778256866380  0.1993606586576066  0.1976168872350165
  0.8005473872718769  0.1994195929609158  0.6029888957060446
  0.7983048284712162  0.4001594857877749  0.9999108879641443
  0.7997051921406463  0.4005165627825778  0.1987245314660621
  0.8014523775737282  0.4015996826281127  0.4001747911112107
  0.7996637415364096  0.3993664107272365  0.6018303182616686
  0.8000570653159265  0.4005980497353692  0.8003974565771120
  0.8003417107548031  0.5989018395429291  0.0005428041303900
  0.8005336886502102  0.6015100839998571  0.1990807372642286
  0.8002835296308382  0.6011562235570851  0.3995301896363941
  0.8001955678469911  0.6009437888720217  0.6014183201685546
  0.7997535197263431  0.6002716623869991  0.8004023316447392
  0.8001256206164064  0.7998668842003251  0.0001688127835937
  0.7996292154661881  0.7996616485915863  0.3997989039319476
  0.8008837972937255  0.8005180150003067  0.6002301102294008
  0.8000651122203699  0.8003930527200404  0.8000766343449889
  0.9992752939129199  0.4007295355049770  0.1995345576284190
  0.9998423363292844  0.4002132339784401  0.6016823130506935
  0.1989149166514316  0.0002196444888007  0.8003862646599708
  0.6029456112635606  0.0014335339410239  0.5995369369955985
  0.6007705888132470  0.4003451203754265  0.7981855470615155
  0.7998259150970023  0.2004597817693126  0.8004128877908885
  0.8003198671487648  0.8000856964276063  0.1999495825399766
  0.9980953830089415  0.4000325495671543  0.4006663295971963
  0.1996176270690126  0.6014896447473694  0.2017443309478834
  0.4000617095750399  0.3988744581103047  0.0005270522768941
  0.6014342976185920  0.4003368890112328  0.4004381081000412
