Zr Ti V  Cr W 
 1.0000000000000000
    15.4219977637485020   -0.0153525296692176    0.0018800521315798
    -0.0153399539639544   15.4042384266248558    0.0149563524432868
     0.0018828811446291    0.0149768248118706   15.4308175709018371
 Zr  Ti  V   Cr  W  
   2   1 100  10  11
Direct
  0.5998546447460519  0.9876889578896059  0.7917038565143786
  0.8063282889921838  0.4055273207419001  0.2021699973051642
  0.5974527909958021  0.4044460456940894  0.1980845459678856
  0.0014167039026187  0.0013637530569379  0.0003670017195483
  0.0008689061400012  0.0000642914811978  0.6006044825274558
  0.0006149236580089  0.0000205710575156  0.7995515060937917
  0.0059259477928225  0.2001323474197689  0.0008965425936047
  0.0013400818585388  0.2026165010346490  0.2005338448893186
  0.9971566886690614  0.1994063273284044  0.3998416400979274
  0.0016553120287062  0.1996579847862612  0.6004780397727043
  0.9994648492427870  0.3985671095080877  0.0040603831836543
  0.0009877896639094  0.3997608004666557  0.3980777586449047
  0.0010361267698652  0.3998727558700342  0.5993567491704724
  0.9994168581639689  0.3994395076978589  0.7990837465240710
  0.0025589000195095  0.6000467791222290  0.0010956613297915
  0.0016113214205193  0.5988584414203795  0.2003951089352016
  0.9999160333330184  0.5993603597762940  0.3994992795748922
  0.9992101401408767  0.5986941334111873  0.5988553294712441
  0.9996113748682053  0.5992287184445658  0.8007607800117787
  0.0001610734436128  0.8012179985193145  0.0003219124262408
  0.0010141390827851  0.7994843934572727  0.2006277293573598
  0.9996048991686141  0.7995135023044369  0.3990376738591623
  0.0029764642782880  0.8002454167901879  0.5995811470715210
  0.9969278754297042  0.8005469759287259  0.8000575569947875
  0.1988948694530646  0.0055658452450957  0.9995467381618156
  0.2020652068584084  0.9987384875070272  0.2006012180570129
  0.2008197368233900  0.0006681742033978  0.3998570071776155
  0.2010792928496259  0.9966612560590860  0.6004643039357366
  0.1986577226659583  0.9988469805761052  0.7993140904199074
  0.2000102792680504  0.1995393693081084  0.4009428590879495
  0.2003055864857518  0.1988457945556669  0.5997185280156458
  0.2004090959153833  0.3974883381416046  0.9993934883826349
  0.1996486565350541  0.4007758407230129  0.2021453741184390
  0.2000452734812419  0.3994049689870784  0.4018268309160364
  0.1996287444709611  0.4050616839984403  0.7983177780440619
  0.2045141603669278  0.6014305749620831  0.1958297099683810
  0.1995847026398937  0.5988612595477879  0.4015254111446070
  0.2010979647333261  0.6025316030511524  0.6048063239195093
  0.2009596630920247  0.7982992591423336  0.9981411061100330
  0.1995416039626809  0.8009477057708397  0.2008800531819135
  0.1996510521983334  0.7995097251063724  0.4040317464839578
  0.2001093006348385  0.7964738147315270  0.7962077178352303
  0.4014914169720188  0.9989016820963826  0.2005530630123595
  0.4012348372035145  0.0018648787642538  0.3978915697216069
  0.4029068744333303  0.0013480070788012  0.5982254826512980
  0.3940310282702253  0.0022210152213170  0.7992989242632044
  0.3993258991687253  0.2021425031987346  0.0003244097896000
  0.4024423489804148  0.2014440495792337  0.2013109911242953
  0.4019599559828558  0.2016341263433693  0.3989015173077530
  0.3996383214311320  0.2007325246737661  0.5991594292095535
  0.4001063032445164  0.2018969830810420  0.7989662561371811
  0.3993890408971985  0.3996026239410963  0.9993709676231014
  0.3972286112750136  0.4061613125797640  0.2022161433272477
  0.4003507000636642  0.3994991954931489  0.4002869608279193
  0.4000273204640762  0.3995664633343083  0.5986808629586293
  0.3993755153791679  0.4001511314365052  0.7974387698500673
  0.3956421914813923  0.5988958985841778  0.0027804812637491
  0.4010892154167470  0.8029980572619984  0.9988747123718935
  0.4008252162947631  0.7974635645228491  0.2002212520581853
  0.4014145553603660  0.8004681388368817  0.3996941554179578
  0.3958572130341412  0.7998904787872586  0.5975349732557935
  0.4022471304312548  0.8026755068352088  0.7998902104771692
  0.4651167854233063  0.0026269290122883  0.0010910648159010
  0.5997682193943876  0.9989177429747226  0.2005987765780763
  0.6009873061570488  0.9993092091231873  0.4009689888473271
  0.6000784633346500  0.1982078563886891  0.1947579865625240
  0.6052139003876973  0.2008217464455877  0.3988639457129817
  0.5998806426710537  0.1955342226424729  0.6033256236150213
  0.6007653359767350  0.2014928543459764  0.8027946314212597
  0.5995272058060835  0.3964698972307346  0.9959180070217848
  0.6004892385961244  0.4005939919651376  0.4034677646377252
  0.5992754627082768  0.3999448399733376  0.6004116211789490
  0.5998706842663580  0.4057381283332629  0.7973636308240112
  0.5989496146148743  0.5974171456110753  0.9957933341254831
  0.5945011836654215  0.6048655120502420  0.1975017736949878
  0.6010103748783722  0.6001263385090047  0.3999295576110959
  0.5994027888492790  0.5998372212384595  0.6024438301469149
  0.5995334865752722  0.7992053027364056  0.9948554039404468
  0.6007527523911287  0.8022960201501560  0.1968401421603208
  0.6015960467330328  0.7993568680564100  0.4007256260795434
  0.5985193697871809  0.8009622117802991  0.6004259224850707
  0.8056011241937057  0.0013688034553803  0.0008629359872179
  0.8012364345580678  0.9991181842163499  0.1999864714093365
  0.8016097197545705  0.0033790543156684  0.3996134052332631
  0.7981815850652031  0.9996272874222429  0.5996599931160269
  0.8063899861502941  0.0008169357430320  0.7999912005741006
  0.7958939345687061  0.1991117195721659  0.0002179953008812
  0.8010128066237042  0.1962883655040935  0.2039696439333846
  0.8007411779927028  0.1997947349513052  0.5969081249642860
  0.8012292949651080  0.2009057869575899  0.7994595680599490
  0.8018986884883436  0.3989869862059094  0.9968223272554424
  0.8001011088453762  0.3955029489422020  0.4065439407708937
  0.8006501767170798  0.3988676934064744  0.6016272198879812
  0.8011062373731653  0.5996775101368622  0.0002773165816938
  0.7979406460899857  0.6073449345350763  0.1994252514082935
  0.7989468291033038  0.5988557059094334  0.3999699669228072
  0.8007590699745957  0.5995753712040480  0.5989275350678183
  0.8003630647336719  0.5991073082615890  0.8002250092459245
  0.7997010097977487  0.8014804856530434  0.9999390667933310
  0.8006406065801743  0.8025190586863420  0.1998714516923147
  0.8009001634147833  0.8001384350747860  0.4001136118091345
  0.8028733287429993  0.7994462183137886  0.5984023479473801
  0.7991167046570001  0.7995009974325424  0.7991451807562328
  0.0020882717009593  0.0002411791276969  0.2008182181513475
  0.0009553922604823  0.0000917328676756  0.3998613618945986
  0.0006079317886885  0.2007990421133026  0.8004486907107761
  0.2017379638257214  0.2001160959913937  0.2013234712359586
  0.1998822184029845  0.2017566597719810  0.7994966846301024
  0.2005182480213605  0.4005266138547819  0.6000571640510389
  0.4003291176448089  0.5998059254469700  0.3997176667719545
  0.4003051873745684  0.6001082064284220  0.5995248856914437
  0.3990083710201231  0.6003556393869071  0.8000514979876340
  0.8014773127153213  0.3997004507153732  0.7990230872527131
  0.0071130241890368  0.4025266476714734  0.2017602688592642
  0.2027936692691185  0.2013743634825321  0.0008364073028617
  0.1991838538369511  0.5986264762665957  0.9973379409916585
  0.1941684202855153  0.6015307908987558  0.8051368081007807
  0.2006374087034933  0.8000479751807087  0.6005894658290141
  0.3987959945970785  0.6022104001450104  0.1970273741714875
  0.5996178267220554  0.9975803371544529  0.5956439005343803
  0.5981845137435565  0.2037355058906636  0.9977329857710941
  0.6031886908803542  0.6019428248565856  0.7997388416229475
  0.6003514666760346  0.7876242118386221  0.7975491765897061
  0.8004159941927493  0.1999243176110652  0.3998458387825624
