Zr Ti V  W 
 1.0000000000000000
    15.3704372863088707    0.0041087699184726    0.0045828320708022
     0.0041071823098185   15.3593176205705255    0.0049868964281650
     0.0045832368054306    0.0049883200619353   15.3853693029952101
 Zr  Ti  V   W  
   1   2 107  14
Direct
  0.7917108009850374  0.4017262592240692  0.8101694514575543
  0.4093589440842524  0.7981223166862036  0.8034229577121499
  0.6128054783784743  0.4008467460654669  0.9886653089520980
  0.0000414422034682  0.9981201212099656  0.9977306323420904
  0.1672232438189905  0.9959348442338721  0.1972854260469965
  0.9995925297030499  0.9972537278827988  0.4031178584901124
  0.9949844122793867  0.0000539678404399  0.6016255727934718
  0.0032346142523323  0.9985103594653685  0.8007411334016121
  0.9997527582945898  0.1981341427027229  0.0020744857476609
  0.0003610962297751  0.2043994013715183  0.2020231426902186
  0.0001314076454964  0.1981426276493136  0.3993510783316576
  0.0027914284923780  0.2011609989602872  0.5993046258874986
  0.9993924441179213  0.2014468686377437  0.8010692372959978
  0.0040693081247460  0.3998978786060391  0.0057385032340105
  0.9984400912824671  0.4016776312964179  0.3974146810355834
  0.9976930866563388  0.4001591644711403  0.5998228726650778
  0.9996958130643201  0.4010241791292055  0.8030573377776319
  0.9984243259992492  0.6053924211132644  0.0001088784711355
  0.0042022711901430  0.5956670397327082  0.2006969072965798
  0.9994929869330591  0.6030977191148894  0.4026462364601475
  0.9995892968880953  0.5997129241036877  0.6015806049366049
  0.0026949582627280  0.6010011014289192  0.8002715715543125
  0.0047702258022021  0.7938459006500165  0.2012242090869624
  0.9991500059120232  0.7992411625477258  0.5941568861957828
  0.9996946256935385  0.7991834609503393  0.8065029000325140
  0.1996769386501469  0.0009854571511228  0.9948427095829353
  0.1969164203644367  0.9990138953286072  0.4004205756654079
  0.1989324100377915  0.0027074131384972  0.6055162522937964
  0.2006013205893384  0.2031289048511587  0.9987709147859858
  0.1993789609687422  0.1961459793324273  0.2000030778210942
  0.2024721562719844  0.1992507760340263  0.4033364989465502
  0.2007560893289095  0.1955193534115490  0.7961053910553891
  0.1969433858255671  0.4049108460953384  0.1951025203249301
  0.1992601460593536  0.4007043618361467  0.3991282317468382
  0.1979537242143813  0.3963413082057045  0.6011988058457358
  0.1979386138961535  0.4047811463866992  0.8045206203020866
  0.2009387045760110  0.5962819292866667  0.9960933642554810
  0.2011691227108554  0.5990002273788390  0.4000540553268800
  0.1996962088089198  0.5988316608286409  0.6048458546866449
  0.1966205245130901  0.7996374634243260  0.0024475810665683
  0.1966467982008186  0.8003366432318839  0.3980362019171406
  0.1997047653125458  0.8005821786212762  0.5992373088328589
  0.1988965141192009  0.7992281311665895  0.8004397709019248
  0.4009034715203506  0.0008385974491559  0.9992174790327939
  0.4005986141809686  0.9957468089660571  0.1988341407487347
  0.4012147255685924  0.0026574302808558  0.3996103083772956
  0.4003753485011931  0.9986086006434023  0.5992532397631968
  0.3970030444183474  0.0007384440266835  0.8000182099450194
  0.4012346202492832  0.2003544157508772  0.0020882127327004
  0.3984202634943018  0.1976205466705472  0.2035144006539168
  0.3961989288254923  0.2003879494184048  0.5949384607410816
  0.3999435581833340  0.2004305030751579  0.7985482358626514
  0.3960313458156701  0.3980743065761846  0.0001664836684786
  0.4013652029388891  0.4002749898818488  0.1981021596653003
  0.4002015827713116  0.3967579912796008  0.3976389582178825
  0.3991626973084858  0.3999248023184738  0.5981158117748033
  0.3965567044904665  0.3992271553318409  0.7996306174184667
  0.4019807306899227  0.5991281840158201  0.9991774677772269
  0.3974374030463442  0.6031530848189507  0.2005956473086308
  0.4005246225756095  0.5985123860811985  0.4007265009849853
  0.3984830981960938  0.5998507984678360  0.5987156437320261
  0.3957711600193684  0.5993131982867820  0.7996939321520036
  0.4023159837072010  0.8011097741522115  0.0067097598719346
  0.4011966099586068  0.8017633015450389  0.3965178593657199
  0.4003375165969958  0.8006884976150007  0.5938293062966411
  0.6010477213981442  0.0004791916671614  0.9971056354114453
  0.6027012059610833  0.9994842387234901  0.1980731198590756
  0.5993923955485810  0.0004040252632564  0.4014392782866442
  0.6017715971359316  0.0008019659351230  0.6025495758445760
  0.5975223300022638  0.9991012067548523  0.8005229194440269
  0.5995509101153439  0.1991348080332343  0.9990253241098027
  0.5978145014183858  0.2022226785617297  0.1986031366959932
  0.5949190005860923  0.2013254897148853  0.4007644764780187
  0.5978364065419903  0.2009033650075545  0.6008095121409466
  0.5965908244530675  0.2012547503277145  0.7998383297574703
  0.6017758316141303  0.4013399899046867  0.1990473733509226
  0.6009467221383218  0.4011909105983262  0.3985476037875518
  0.5997230645074628  0.4006841639890449  0.5992252303097352
  0.5897824083571823  0.4011122423380516  0.7944988376527051
  0.6003824846885284  0.6012983643479587  0.9982839562925543
  0.5977765815389493  0.5985560382991130  0.1978950597717579
  0.5993360016884423  0.5993140933375137  0.4019311970798403
  0.5983856229958798  0.6000832594101827  0.6019497402622359
  0.5953742352601918  0.6009682807524832  0.8000195746072155
  0.6023118886487620  0.7995935715721223  0.0000445157137246
  0.5954148854866651  0.7984592986451292  0.1997102110406528
  0.6033800093028471  0.7987406360278645  0.3987562390680788
  0.5995175859169565  0.7995307005441296  0.5997688839446367
  0.6027311085622719  0.7995458732918849  0.8006005545974095
  0.8004398295997956  0.0008010236114946  0.0034178149590712
  0.7986620012519273  0.9978737717082526  0.4024703928193346
  0.7991845993805149  0.9994446126532546  0.7967407235353797
  0.7995379854326750  0.2001960204246407  0.0013331817905844
  0.7986590397839978  0.1975701791620654  0.2027327066660417
  0.7975202934847159  0.1992870609253568  0.4014743430987497
  0.7993851265560761  0.1966972346340449  0.6001054936568287
  0.7997889869644773  0.1957064536597523  0.8008642525647226
  0.8080849960024759  0.4003431382571639  0.0106049074929100
  0.8038589215204749  0.4012545518941177  0.2046726882957716
  0.7997539754138465  0.4002386898262937  0.4020054554300740
  0.7992679592553957  0.3990062112154179  0.5995249314085472
  0.7995964406701251  0.6016127241056444  0.0011930437618181
  0.7977668470009418  0.6003498730134321  0.2014129811432228
  0.7980951744276528  0.6051454533704012  0.4019310580888049
  0.7985293732516776  0.6001597437417674  0.6030027180368202
  0.7991610886943082  0.6064389075880091  0.7994736781593269
  0.8036070470896649  0.8016974942360736  0.0032418778333487
  0.8002828470948816  0.8022348103875913  0.2047003993303673
  0.7997015270613455  0.8046122374296836  0.5962339759615503
  0.8007007866982931  0.8016855534913114  0.8002214022657437
  0.0012689176579281  0.4006382920890829  0.2020778292133758
  0.9985500088367860  0.8018932334139707  0.0062795606601649
  0.9980515093288357  0.8001358629039789  0.3967649456867011
  0.2005247181686227  0.9978701032167826  0.7990942933077212
  0.1991104954664511  0.2000253184869479  0.6004228223011052
  0.1998696105989355  0.3998960597647185  0.9996021528554486
  0.2025823993090566  0.6013720283194818  0.1979968823800552
  0.2006562060047029  0.6011814508333838  0.7997688151225315
  0.2023765333667708  0.7922236400714849  0.1993559735229986
  0.3987542985342577  0.1994116235001095  0.3985313328451900
  0.3971490862145710  0.7997918539297088  0.2017765069471273
  0.7940112480564516  0.0009854863404626  0.2020554236754011
  0.7984678744109256  0.0006639662345609  0.6016983132555925
  0.8029240045512936  0.8015616594402195  0.3995184059867604
