Zr Ti V  W 
 1.0000000000000000
    15.3251724423404525    0.0070128769391973   -0.0004714545103314
     0.0070165878469139   15.3328247917111025   -0.0066220456422159
    -0.0004713462084994   -0.0066216079972265   15.3468382774047818
 Zr  Ti  V   W  
   2   2 106  14
Direct
  0.2300438884652883  0.6362394012465044  0.9991376131658736
  0.4001885350210204  0.7994327456513134  0.0020890706150638
  0.9959670047124836  0.0058291160254134  0.5948048878440941
  0.7943092512195720  0.4061457625667444  0.2046810713606708
  0.9987337544220364  0.0091680348020687  0.0039030991368945
  0.9989812764470924  0.9972112196396323  0.8022166682420062
  0.9988878524779705  0.1965398097969732  0.2008730014501208
  0.0047154408437775  0.1965353756506572  0.3999137976263499
  0.0000757047802240  0.2017626489166363  0.5972349134460684
  0.0004824936345896  0.2024262880114458  0.9343851840416185
  0.9982347761170829  0.3992704020181793  0.1966744274450622
  0.9990260700045731  0.3991426881770999  0.3967542364858014
  0.9952553593681933  0.3983059437373335  0.6029813884423322
  0.9983359465132668  0.4031762622446043  0.8034342468261620
  0.0083134512982439  0.5937931935231058  0.0028232895106186
  0.0041876316179097  0.6008714606845948  0.2020147376427793
  0.0034640966831137  0.5999622191948415  0.3982579243519973
  0.0011639608130459  0.5976204135701002  0.5954967773773097
  0.0015108707307936  0.6007401604219395  0.7996816829489254
  0.9997890910965674  0.7964832888679195  0.0004556851595425
  0.9950974766082128  0.8012500897168255  0.1981024580634748
  0.0009045661401292  0.8031806530963550  0.4009127526960241
  0.9987929412532570  0.7975561640087262  0.6010848429547074
  0.9982803418857945  0.7995459519972434  0.8020419341614284
  0.1977381298759181  0.0091410701589529  0.9997609158781633
  0.1965371247039740  0.9982287795410688  0.1983275584183727
  0.1962641286294759  0.0015275458562762  0.3990829344996933
  0.2014166012124007  0.9996761820048684  0.5991649738908859
  0.1974229874639566  0.9949017846411055  0.7978059494979176
  0.2022874872660333  0.2014972746642049  0.9962258692459449
  0.2020030208212710  0.1994298785634126  0.2051350440922835
  0.2039535286703422  0.2004094858351236  0.5972577402779446
  0.2013333590064956  0.1973747162091527  0.7966829476420614
  0.1956284803571422  0.3962339043756920  0.9978975039475690
  0.1981350828381686  0.4013219964294464  0.1983098923832909
  0.1970321497518187  0.3963395965720671  0.4012009425427728
  0.1977000312673173  0.3999786612635668  0.6022104946552460
  0.1982915868314327  0.4033764375693927  0.7996018355160930
  0.2040334698652474  0.6009361913220626  0.2046319807689491
  0.2036296182433913  0.6018456221252786  0.4005627294192363
  0.2015897756414690  0.5991157195486442  0.5990663774057282
  0.2002689578190257  0.6058129208875348  0.7938532516340168
  0.1907838315877452  0.8227546641180312  0.9929647704563423
  0.1983382489409920  0.7989934487103313  0.1924992796188781
  0.1989064123496133  0.8017419748956690  0.4049930078991377
  0.1994594874039256  0.8014408617405593  0.6069718934159487
  0.3990849685248349  0.0059122768506886  0.0018481271081503
  0.3981724914571995  0.9958326708219166  0.2000169087267586
  0.3979660668641430  0.9970316204971382  0.3967164985363213
  0.4000350593714521  0.0033990715660429  0.5961695040510150
  0.3994547549824814  0.9974572835381664  0.8003499105974485
  0.4005390008355037  0.2013607920902040  0.0008569786676522
  0.4005150237794339  0.2018651979265619  0.2013448519545944
  0.3960096260329931  0.2005561383686562  0.4013118941944845
  0.3981730478508413  0.1983263710948448  0.7948790003506080
  0.3970755253055093  0.3977902816662603  0.9996683014922010
  0.3993920058192847  0.4044787933992398  0.1982538108529414
  0.3998367167305663  0.4035746028730130  0.3991176317146687
  0.4000253446333987  0.3972975967868191  0.6006787346135146
  0.4023834466753546  0.4025012970841313  0.8009892387117795
  0.4174153342168298  0.5889835014451416  0.0079445662517498
  0.4000991917095733  0.5963248763825246  0.5914976770710783
  0.3982557310667467  0.6003212950754770  0.8065646086486910
  0.4019528121064832  0.7964389424281603  0.2063706494037749
  0.3985711169468942  0.7970251163658497  0.4015809309419601
  0.4011205401762006  0.7988226729877407  0.5992719978594447
  0.3996846008673626  0.7987983859280314  0.7937098105505243
  0.5990759067665956  0.0012854548197971  0.9997549371934741
  0.5998703588968963  0.9983429053971449  0.1998012286956184
  0.5996138833974156  0.9989152198161118  0.3991595536863578
  0.5998876857934261  0.0035886467781254  0.5995616778078210
  0.5986746541299384  0.9927370612296696  0.8008394866699009
  0.5996684516414427  0.1995234962159226  0.9984119120205188
  0.5985607833705537  0.1982928258523878  0.2009950660873772
  0.5985917041686405  0.1985879104769249  0.4031583540462698
  0.5988828494820280  0.2019285007637573  0.7968244857985405
  0.6044787197589337  0.3971393592604697  0.9943849089697123
  0.5992537405897930  0.3989470428123071  0.1988844399732920
  0.6015496873889618  0.3983991524829035  0.3997323333786235
  0.6043993210975562  0.3954816873092656  0.6059573473418521
  0.6063675405935312  0.5973134307765161  0.0012554071884350
  0.5955754233138426  0.6005498317326881  0.2003873501498199
  0.5957693431305363  0.5990956862654143  0.4011412374062893
  0.5978182451220716  0.5975906288788301  0.5995177064622299
  0.5979415223001711  0.6010781038850765  0.8006075389602632
  0.6052850294988338  0.7998290998314990  0.9947366076392038
  0.6032514612153435  0.8000487682359048  0.1980052872423812
  0.6014122759555406  0.8008264951424262  0.4052325428768735
  0.5998569803894649  0.8001152844584757  0.6055323085911626
  0.8010957636717372  0.0018701710138040  0.0007113199004984
  0.8019302709355397  0.9938330381695435  0.1991169385135990
  0.8045284903063483  0.9981148895851218  0.4003545038669641
  0.7976234908879983  0.9999393944922111  0.5983728547829656
  0.8013545884129133  0.9947882307095968  0.8007056654209427
  0.7993620335928999  0.2000633367737033  0.9988415491985700
  0.7978218604675557  0.1972334780002751  0.2019000289132745
  0.7992772766455328  0.1993262042723696  0.4002944882414277
  0.7964727919102328  0.2018926243892757  0.6003463677131585
  0.7978751469957354  0.1960834676670788  0.7997399393723492
  0.8038590001995249  0.3995732985043888  0.9968616390781465
  0.8008855033737416  0.4003327105862071  0.4058881026707339
  0.7968594724445485  0.4024154050683755  0.7969994261538543
  0.8047406171030971  0.5983572684248541  0.0026387362452251
  0.7977620098667104  0.6061443477258573  0.2015235306362451
  0.8003585002847093  0.6003432923768444  0.3989155069811314
  0.7999891988308682  0.5957292992377855  0.5971732165872733
  0.8007462218059765  0.6053545185376957  0.7991310669677468
  0.8023539844797146  0.7996640207095451  0.9986497385253730
  0.7993206775312963  0.7982522912899775  0.3985077396502674
  0.7993598630469344  0.7977918703827674  0.6049752055579162
  0.9995635930627635  0.9970631171862586  0.1999541258726830
  0.0008919489332539  0.0008556180432672  0.3925054853997478
  0.9995917523413070  0.4002988088264768  0.9996670701617280
  0.2016710440413998  0.2004640278740526  0.4008748970369251
  0.2033800517463911  0.7974573987896714  0.8049593944161426
  0.4028919763731088  0.2004125236102901  0.5971469943020197
  0.3974033068267000  0.6025322244250207  0.1985151273253249
  0.3998327528859136  0.5989803899093993  0.3956717853734349
  0.5966162400894697  0.1999227549118641  0.6001314146483204
  0.5994383106641130  0.4033573954998099  0.8006770127302886
  0.5995468967953368  0.7971281478047464  0.8009833034777407
  0.7995072800587254  0.3990769442775455  0.6017962155867150
  0.7984752766727338  0.7987137964497938  0.1985580264745211
  0.7971021480279300  0.7982505289071231  0.8015194265424288
