Zr Ti V  W 
 1.0000000000000000
    15.3704372863088707    0.0041087699184726    0.0045828320708022
     0.0041071823098185   15.3593176205705255    0.0049868964281650
     0.0045832368054306    0.0049883200619353   15.3853693029952101
 Zr  Ti  V   W  
   2   2 106  14
Direct
  0.1934678405210873  0.9858823032860548  0.1827122137170173
  0.7911464275475900  0.4017567316274567  0.8096012236890148
  0.4083648788922140  0.7971277424640212  0.8063209112704761
  0.6127098897562836  0.4020150216268393  0.9883428118475990
  0.9902025553497943  0.0032142258856187  0.2061018365876594
  0.9984610163671321  0.9963531817666718  0.4014410375705567
  0.9953610941429470  0.9997448167696031  0.6034595285576387
  0.0039254978523517  0.9988471727773793  0.7993346852135714
  0.0015206961871051  0.1661703059358588  0.0027828857451577
  0.0012967019448391  0.2019288520232206  0.2037890643722003
  0.0005931005827831  0.1999145129676825  0.4009600641632050
  0.0035072676101648  0.2006976461346836  0.5985762749207987
  0.0003821231042187  0.1994462679515296  0.8026663325766957
  0.0043015327129308  0.3991825402599616  0.0069315547534973
  0.9986828804765751  0.4004817073389912  0.3973605314461978
  0.9978579505984866  0.3997365888272378  0.6004027097051896
  0.9994719777057750  0.4007190281014821  0.8037249872816533
  0.9984687091190055  0.6064761652528222  0.0015500605304362
  0.0028914340153270  0.5961924739178431  0.2018518061006944
  0.9994741650690147  0.6022703660140842  0.4027920756951302
  0.9996303227512858  0.5989157460270548  0.6020886428191038
  0.0026724742436597  0.6005836092388316  0.8006475618904324
  0.0051249343676811  0.8028002601728125  0.2037226244355842
  0.9997391854797505  0.7989744539203619  0.5954103451663617
  0.9998355606788174  0.7998609208193136  0.8067027553835588
  0.2024760073721022  0.0035520165995039  0.9859981098529612
  0.1983535655296644  0.9993158939377862  0.4051470013473848
  0.1990629252492133  0.0032296398162353  0.6046702654746299
  0.2008744378030657  0.2032477360905793  0.9988387172260619
  0.2013552093573047  0.1983973374602079  0.2003275514148522
  0.2029115655392918  0.1992506407895409  0.4038631472855605
  0.2015559492582710  0.1967194011592066  0.7956636772590410
  0.1964377487581948  0.4042032952573334  0.1957139345384664
  0.1995118203504831  0.4016234415075907  0.3998701674211009
  0.1982378576965425  0.3969519848137764  0.6016071812459565
  0.1980036451164003  0.4048411761745419  0.8046504778503658
  0.2008885513979956  0.5963264114187466  0.9961170490941698
  0.2007479157111359  0.5991111622241075  0.4011343425885497
  0.1998607736157536  0.5988603433884853  0.6052244251503295
  0.1957363160300204  0.8009993935091910  0.0021737151812204
  0.1943372274090668  0.8006866759693740  0.3975759101887031
  0.1996283625716390  0.7998124181951882  0.5993539831335880
  0.1987124113340830  0.7986667589425245  0.7997150910735916
  0.3992092347711205  0.0017997203551282  0.9999310941544683
  0.4045370112679219  0.9970716359859911  0.1998537906504911
  0.4002529286144064  0.0030615692655187  0.3991234929726294
  0.4012849460401187  0.9990232703289721  0.5998920764424158
  0.3980933575937199  0.0008081970616496  0.7995836012598802
  0.4019413170184746  0.2016207057469569  0.0019871927734128
  0.3998561510930811  0.1986258928263699  0.2039369507671662
  0.3968978485880806  0.2004623299900963  0.5948369768390479
  0.4008810373388423  0.2007839752145034  0.7989669733531086
  0.3953683847834512  0.3990754381209046  0.0006484260929044
  0.4023650358008435  0.4017183059488376  0.1982701474089812
  0.3998940847459349  0.3972048149556073  0.3972556114540208
  0.3994141220335607  0.4002915714598703  0.5980571425934764
  0.3966832432445359  0.3997312516107286  0.7996095871783893
  0.4011374282001039  0.6006053727849080  0.9991753590991375
  0.3992081415791950  0.6040004644352984  0.2003068231639052
  0.4000791925481211  0.5999865984208422  0.4002210516882462
  0.3984485690602588  0.6001444085679699  0.5985732289725157
  0.3957077985323912  0.5996069008681824  0.7995824191389453
  0.4011899473897065  0.8013563033579911  0.0073426250436591
  0.4005580231677642  0.8022455359243049  0.3953645164477087
  0.3997536805565465  0.8011830424816178  0.5929618562894667
  0.5993619623892414  0.0007920947169759  0.9957392314381150
  0.6037958116854046  0.9999077593996345  0.1982505118300502
  0.6003851036410390  0.0006514578938352  0.4004736736999436
  0.6016473056322045  0.0005314461384774  0.6028601326699309
  0.5966547180342769  0.9988652081996499  0.7997590794341836
  0.5995171994609082  0.1996481753582412  0.9991925535143316
  0.5992872277047855  0.2024615211871406  0.1991241683756712
  0.5954428424832812  0.2010939796562713  0.3997431107512003
  0.5987921689275192  0.2007132407719323  0.5998751254627275
  0.5980662462342970  0.2009660441597253  0.7993274671845509
  0.6026310740649973  0.4015883798191990  0.1986801150524002
  0.6011491621603893  0.4011348972416247  0.3981860715100913
  0.5997239576437086  0.4004228051917109  0.5986281303635296
  0.5895403388936851  0.4010256629250069  0.7940280012138443
  0.5997921109681602  0.6015057539916725  0.9976866270324920
  0.5980791739356208  0.5993146423120560  0.1976108354561674
  0.5992532930732067  0.5991954554739324  0.4017690202594073
  0.5981935705422063  0.5998465038585332  0.6015333553582731
  0.5953336927218691  0.6010673221667647  0.7993412873688348
  0.5998988920140279  0.7998313589968816  0.9998801171101235
  0.5938782705457815  0.7991624856185350  0.1995230119611181
  0.6026244449259940  0.7989198234532963  0.3975959090142300
  0.5990733571871324  0.7993501244423029  0.5987933314071473
  0.6027387337961059  0.7996007334367258  0.8000663433883211
  0.7966113325809034  0.0002372899553487  0.9961592307318012
  0.7977927339449883  0.9973021657248249  0.4142022464924727
  0.8019719472275970  0.9986857596026891  0.7991681507148959
  0.8010051473775424  0.1995163860107282  0.0007476337017955
  0.7988446340336052  0.1961180000242563  0.2019761320656396
  0.7983762348869747  0.1973701205368709  0.4010970635081084
  0.7997173886448500  0.1968339784262206  0.6013322799811694
  0.8007844581154788  0.1959221930172783  0.8010456443142876
  0.8084920727616981  0.3998128475934418  0.0104426215992925
  0.8040209116051530  0.3998950148609236  0.2045832119323119
  0.7996751919220669  0.3999935516476750  0.4015453572456836
  0.7995288035099923  0.3985110190026838  0.5991093564986411
  0.7989760495470672  0.6003611791509269  0.0008207655057399
  0.7985025477468201  0.6015105230776090  0.2011588149793880
  0.7978077560440872  0.6050903555949894  0.4016780486702097
  0.7986476795298053  0.5995699882903307  0.6028256999275126
  0.7993695039776746  0.6058735259474437  0.7994942917797271
  0.8022096045007313  0.8006394499900389  0.0031565927125618
  0.7967413225426491  0.8035953500150480  0.2045845685234156
  0.7996530074614713  0.8034174283634236  0.5983509375453157
  0.8006780352093222  0.8005830814566252  0.8005316789903963
  0.0007293539753530  0.4012438841927745  0.2023948054564300
  0.9971449950688304  0.7966707505412538  0.0056959743674645
  0.9959898479995569  0.7976949591253247  0.4006066352635192
  0.2007970432509109  0.9966060797817453  0.7960002082623078
  0.2000548154244946  0.2012205473145157  0.6010028237727800
  0.1996834081839897  0.4007837263034305  0.9994978588922855
  0.2025584892389269  0.6002107915671969  0.1975840524112851
  0.2002683474462117  0.6015523683525319  0.8003766766015280
  0.2014653443823078  0.7850288102802451  0.2004817185772081
  0.3995189793579256  0.2000470349930192  0.3990525420048302
  0.3941583503677938  0.8031578342524153  0.2012811923822667
  0.7976595479163463  0.0004594629729862  0.1866990776515179
  0.7985969379653605  0.0001521671486800  0.6064708982189054
  0.8022374397223909  0.8019156117278197  0.3991602065005844
