Zr2 Ta1 Ti3 V111 Cr3 W5
1.0
  -7.5249999999999995    7.5249999999999995    7.5249999999999995
   7.5249999999999995   -7.5249999999999995    7.5249999999999995
   7.5249999999999995    7.5249999999999995   -7.5249999999999995
Zr Ta Ti V Cr W
2 1 3 111 3 5
direct
   0.7987781465262792    0.0004859137361808    0.8003272582088005 Zr
   0.8019555585211244    0.7982699394016542    0.4049351563572355 Zr
   0.0006748842302144    0.8043135567990494    0.0001446091246979 Ta
   0.5970939382899310    0.2042311464760085    0.0040306619671045 Ti
   0.9998628807960304    0.3991147718784901    0.5998161233549429 Ti
   0.0004909871708655    0.7996958962904670    0.4008420443070347 Ti
   0.8060302634901040    0.0001216535703127    0.0050459775279017 V
   0.6085995316217019    0.0052994714858289    0.0068849977138852 V
   0.8027211271943001    0.2054195004372583    0.0074786534202818 V
   0.8029958049296101    0.9996869670274400    0.1977622529385489 V
   0.3963852187737017    0.9978059229570012    0.0000768040629682 V
   0.7993803456037876    0.4006442594973936    0.0007668995931834 V
   0.5990657547244782    0.9975892109274078    0.2023294068708390 V
   0.7967010940675630    0.1972602760906121    0.2023326254525197 V
   0.7987196415715988    0.9925116193988719    0.3951262882610921 V
   0.1999069932487666    0.0012722904700193    0.0022812188629663 V
   0.3956843095140408    0.1949585425650017    0.0025077428085590 V
   0.6021472546761223    0.4010677394716657    0.9999462642745393 V
   0.8035420062084654    0.6063401420891333    0.0061139696347791 V
   0.3990026736953770    0.9996879323217666    0.2007373441045415 V
   0.6006715605332837    0.2024996662296707    0.2020568873016077 V
   0.8056558292897430    0.4032010733801753    0.2001412314566715 V
   0.5942705382864615    0.9949225200194018    0.3959794569129265 V
   0.7986037371218730    0.2010198769572096    0.4013502485004900 V
   0.7974191090036106    0.9963246236553706    0.6023500166509737 V
   0.9969064039286192    0.9933980137158391    0.9992158498121825 V
   0.2031975850590188    0.2004488190880473    0.9970254382198508 V
   0.4024059363183151    0.4048744304666683    0.0028410517158875 V
   0.6061329639853205    0.6066287800318424    0.0077382620049514 V
   0.2002379916570745    0.9998152202855426    0.1953323310913553 V
   0.5970820257690599    0.3949492756450999    0.2037101774901441 V
   0.7997600702782052    0.6031430074068033    0.2004225497535230 V
   0.4051228051307923    0.0087610383998268    0.4054274764566832 V
   0.6078601305745099    0.2039173448145005    0.4060193057343997 V
   0.8042912157367139    0.4061043596974114    0.4005629462819062 V
   0.5987954973111318    0.0004745183012497    0.6009568096229713 V
   0.7938443387411145    0.1930833813170438    0.5946723351638132 V
   0.9945662840998328    0.1990065402295070    0.9976055200948903 V
   0.4024638227654135    0.6070464575162378    0.9998457074402910 V
   0.6077301677555883    0.8064075997830723    0.0065013053463454 V
   0.9998886728022720    0.0071564465836569    0.2029558176435054 V
   0.1976680549984402    0.2018639270176349    0.2043817700956401 V
   0.4001688546311025    0.3961700003137905    0.2035328910265659 V
   0.6015938709762205    0.6014230217045768    0.2001765214832917 V
   0.8036826701560826    0.8022079464469053    0.2014781613248618 V
   0.1997100821310352    0.9986282044345945    0.3977093545707885 V
   0.4008651047060201    0.2007578986109474    0.3991672026792447 V
   0.5957699607283522    0.3977086234786124    0.3977122181419123 V
   0.7983064076879289    0.5968895774393259    0.3987266438553272 V
   0.3977864701949247    0.9956708724536839    0.5976331821520199 V
   0.6032963928907759    0.2055722033300891    0.5996268757065206 V
   0.8047518139112793    0.3979289927722570    0.6039034990598772 V
   0.5954045105274967    0.9994900311569858    0.7947101766639750 V
   0.7982783689840829    0.1990045353080042    0.8007844244347889 V
   0.9975978766183057    0.3986035973576886    0.0046444022248728 V
   0.2040074502405042    0.6043217547408082    0.0048579323268023 V
   0.0023252954313019    0.1987817738817110    0.2020544868178446 V
   0.1987182659939245    0.4002820002879988    0.1999917083263255 V
   0.4026817511244744    0.6042796310129324    0.2052374135406733 V
   0.6002013699299052    0.8023320890185121    0.1995724163488159 V
   0.9958239504828803    0.0026209842986303    0.4040166883648651 V
   0.2012946203796939    0.2011062961863666    0.4013015876062890 V
   0.4016386340594282    0.4019988664692761    0.3994159862053350 V
   0.5998721063366041    0.5978342981922469    0.3998537615342559 V
   0.1978704765926759    0.9991348351398784    0.5975508542510111 V
   0.3924378822833399    0.1967126405016803    0.5972596591956054 V
   0.6031577622892810    0.4020992498120303    0.6049703408178273 V
   0.7976175675577082    0.6015031012347783    0.5976232283641234 V
   0.5949242579833552    0.1963665968407743    0.7968567262216477 V
   0.7998407802092040    0.4000471197137516    0.8012024461943392 V
   0.9972915152276243    0.5961064677157406    0.9972188011608878 V
   0.1989131188508526    0.7989528692353368    0.9987421311714005 V
   0.0040681330539773    0.4004098985176997    0.1995156946853554 V
   0.2003072633814160    0.5966203018382987    0.2009606366090358 V
   0.3951153424772581    0.7973761424133030    0.1949418252358800 V
   0.9963037332608129    0.1993700902963252    0.3983786883040951 V
   0.1965927631934174    0.3945407209407426    0.4003398787406669 V
   0.3997515280144352    0.5979742802649392    0.4044860992428265 V
   0.6002831106115585    0.7995389675815984    0.4006163824821565 V
   0.9957848599073431    0.0010922543933428    0.5963415455356829 V
   0.2012146275332012    0.2034339564496708    0.6060793213263782 V
   0.4007723919911241    0.3923436704700305    0.5971532241838513 V
   0.6055418261622434    0.6010217670048457    0.6044094857566686 V
   0.7991276513483687    0.7974658686734624    0.5958422446137139 V
   0.1984413257725790    0.9988905631793570    0.7987156320834821 V
   0.3993301268942421    0.1999290048199365    0.8020121407095244 V
   0.5943982215168889    0.3906938537915747    0.7955795234822360 V
   0.7998273250965211    0.6013707924309077    0.8006037043163735 V
   0.0022069610931654    0.6056252518462423    0.2039155605620086 V
   0.2004155326202688    0.8009662179571366    0.2023678429643328 V
   0.0012901602770446    0.3997035751669393    0.4001441597863765 V
   0.2019039501420702    0.6011864486066881    0.3994867195791032 V
   0.3998048717705625    0.7980393413574924    0.4003156802760373 V
   0.9989079970806762    0.1990958480383103    0.6046234325537970 V
   0.1998431185070600    0.4004248456976850    0.6008824266515405 V
   0.6021769903428724    0.8053508699346883    0.6071368270666209 V
   0.2056314136652880    0.2058852609697098    0.8091868942359387 V
   0.4009843603744364    0.4005615309180111    0.8006109037661513 V
   0.7993058572309066    0.8016191350521036    0.7964108261650252 V
   0.9970175313903711    0.7953292842432632    0.1909623487747457 V
   0.9991245328855209    0.5986827382221903    0.3991381487963990 V
   0.2031624489076735    0.8007143164883138    0.4011875707138903 V
   0.1971595085512411    0.6007442814922739    0.5941797865917318 V
   0.3954023952938533    0.7933180679603600    0.5934541416045870 V
   0.0039733362151568    0.1996365597671329    0.8007549352698135 V
   0.2017537185907081    0.4080426239109521    0.8053208492148010 V
   0.4011235354353425    0.5978744438593537    0.8008385678647156 V
   0.5997993603239912    0.8058245856315542    0.8056313429230274 V
   0.9952268629347014    0.5999928734671552    0.5969129136573897 V
   0.1984438139412156    0.7996555941581796    0.6011800912974962 V
   0.9990323481989071    0.4002362191809498    0.8000394138280851 V
   0.2038262108194284    0.5969466071147684    0.7962027707988545 V
   0.3988244196252011    0.7997852341796583    0.8023217419190705 V
   0.9993175745226318    0.8000385197954366    0.6003957522612531 V
   0.0006725555751816    0.5971738362413971    0.7923051041944812 V
   0.1989911008954721    0.7969491798962919    0.7920377377544972 V
   0.0038235275182125    0.8066721459835616    0.8002550729167006 V
   0.3996629048487966    0.1975254477329084    0.2020806381951136 Cr
   0.4012649185127357    0.8031856138754023    0.9997956554403837 Cr
   0.3981671227917179    0.9996560385217286    0.8000690260118480 Cr
   0.7997880469846690    0.8044035595084223    0.9976729840199159 W
   0.1986100567507303    0.4005148568637351    0.9933969297593518 W
   0.3975822920260839    0.6001152589360749    0.6018313357011064 W
   0.9981972913631852    0.0007479222116100    0.7961616933353990 W
   0.6001255971182116    0.6014162086830281    0.8037924700628057 W
