Zr Ti V  Cr W 
 1.0000000000000000
    15.4411249493602298   -0.0057725826640909    0.0015034816595225
    -0.0057736157285930   15.4404920489432147    0.0129561230258158
     0.0015050534304008    0.0129519398306557   15.4493068869615229
 Zr  Ti  V   Cr  W  
   2   1 100  10  11
Direct
  0.3672466297316143  0.1622795786778021  0.0003352218552519
  0.7963738421119680  0.3982084175608170  0.2010380090211452
  0.7918412003050518  0.3961511039870721  0.6038868056029810
  0.9938540662966534  0.0001256841681867  0.9994666530331517
  0.9974673862882830  0.9996148445298622  0.2001593772615788
  0.0005723281725341  0.9988968345704717  0.4009331050614188
  0.9986381336184165  0.9981412427632140  0.6000792167743128
  0.0003065523880286  0.0003350487306756  0.8008590344581595
  0.0002604357396159  0.1999645803150203  0.9994628636722387
  0.0013010324661689  0.2014832619084272  0.2006962177531283
  0.9945845773793959  0.2011187227498347  0.4015063819689395
  0.9997094182441509  0.2012173704913023  0.6010301702342138
  0.9998332514218108  0.2015505051050299  0.7987512980946947
  0.0033283850946761  0.4017326842973660  0.2006049288215929
  0.0009180006666765  0.4015892708368025  0.4012280291233659
  0.0031802181611697  0.4042379619528702  0.6001943399456233
  0.0009837548835468  0.3992187200495447  0.8001086536236727
  0.9993556165652089  0.6008114818117758  0.2005637513047108
  0.9992108475834208  0.5995859764737311  0.4040251012297672
  0.9963697186739002  0.5994253747301378  0.7961356484744208
  0.0020236202735140  0.8012214363617706  0.0009410467926492
  0.0010613430559464  0.7994528709287936  0.2009186427143249
  0.0001730757651218  0.8001157461493243  0.3994018506465427
  0.0003462794839542  0.7962172704807018  0.5988025801533642
  0.0004405411831905  0.8000637142602266  0.8009426045817067
  0.1994199545782234  0.0020367726100392  0.3992201765145089
  0.1989119432871921  0.9999498273889620  0.5998356261010889
  0.1986843343599586  0.9983168614200407  0.7953180675954235
  0.1953261671414496  0.2030493715567142  0.0019610700209994
  0.1989898065723616  0.1990051410281312  0.2004635334302061
  0.1976926944769267  0.1990395711130056  0.4010145302657933
  0.1986507975302083  0.1996064778693231  0.5991896912105398
  0.2006960735183075  0.4010470468169088  0.9997372690884859
  0.2000511811943394  0.4008601626501288  0.1988694405543294
  0.2039232383909794  0.3981803081048097  0.3987073828917537
  0.2001305842033347  0.3984384396800559  0.6011036048979116
  0.1996740702825341  0.3998967116968035  0.8016391172234506
  0.2004606985656510  0.6006067034605781  0.9988979865733595
  0.1983576954244835  0.6001550108391979  0.1984148460065857
  0.1985218411558655  0.6000850633799648  0.3978915537614808
  0.1978820107178927  0.6002103351972786  0.6011977539643241
  0.1991938158400733  0.5991378522462695  0.8013000467186063
  0.2022932818550970  0.7976533657610384  0.0007908837746895
  0.2004104696016148  0.8005206268603496  0.1983978647000886
  0.2041908971803601  0.8011545354981398  0.3980848702838588
  0.1995394852315321  0.8004218933208582  0.5994887706488861
  0.2003637339525220  0.8010993327115282  0.8020621909285364
  0.4005781787849666  0.0005030832551044  0.2002081196693136
  0.4006973393653016  0.9984391759159984  0.4003217772184426
  0.4000885232265907  0.9979279564117465  0.5980126519119304
  0.3992764279205278  0.1992894090481556  0.2065248700352166
  0.4004997064154520  0.2024294163521184  0.4040715196333299
  0.3978033754068039  0.4010256273377952  0.2044260556460576
  0.3981358231659534  0.4044055673749607  0.5967513156868266
  0.4009481162894246  0.6003074802094984  0.9981784597626938
  0.3998508072405494  0.6000121466864019  0.4030129285027964
  0.3995615715665982  0.5985873729416580  0.7947799953694185
  0.4033273943276557  0.8006939539049965  0.9998261422302749
  0.3992550119194033  0.7999182284694133  0.2041408580045958
  0.3992935416535595  0.7958838776971711  0.5965781044700368
  0.3999039435324627  0.7981579561019244  0.7979209357467542
  0.6023187460726150  0.9941971008230936  0.9987377508389297
  0.6052728904613669  0.9997394613582345  0.2012632443415888
  0.5986844978001571  0.0003621213196392  0.4000666548418624
  0.6008758390698089  0.9984315152258959  0.6004276078523889
  0.6028922958458430  0.9986033763382502  0.7984317352771156
  0.6063066488516210  0.2015903117614302  0.0008546704829469
  0.5983077225067751  0.1995311344307503  0.2001940330699057
  0.6044206705669604  0.1995729743751239  0.4022192193274805
  0.6001569622541759  0.1983514548947591  0.6011172193057295
  0.5970972421739619  0.2003003439979212  0.7996207151804364
  0.5987192504227452  0.4015304006078850  0.0008907473110326
  0.5931146014555373  0.4008510000054871  0.1990970161001933
  0.5939363861237278  0.4005659222775872  0.3996388087935849
  0.5967638262992294  0.3994525320646231  0.6015324984676712
  0.5995987490571255  0.3995109686144270  0.8015409161335992
  0.6001130349546564  0.6029567886713412  0.9997948355014956
  0.6015048516234546  0.6005245832269626  0.1988949514503863
  0.6017859035704620  0.5996397396764626  0.3994249649310211
  0.5964128950427106  0.6002769942275189  0.6006727337150544
  0.6037220995487964  0.5974289174157472  0.8001353060850871
  0.5991154845859907  0.7986018958551083  0.1970585634063307
  0.5962312335017339  0.7991403258703942  0.3981647824639801
  0.5995419528866985  0.8005933233195991  0.6002692465334323
  0.5990094818638032  0.7985578113438774  0.8025579858221100
  0.8006306564335325  0.9977251782849712  0.6025720889868902
  0.8004170641071851  0.0007908068019280  0.8036935606220716
  0.8010245146046672  0.1971400441644830  0.9982663447994883
  0.8011860937021151  0.1918224127989083  0.2063127314784058
  0.7998991239858787  0.1956893252632748  0.5963812654717415
  0.7996313544211417  0.2007137579200464  0.7972848030879103
  0.7997664418862783  0.3992697953713130  0.9981858650075670
  0.7973063371060224  0.3960805140311209  0.4056129753344525
  0.7992870643134133  0.4018794077269944  0.8031807263370165
  0.8011718460654844  0.6016716554658668  0.9958625441391088
  0.8021919409592665  0.6042761338313963  0.2000632098636461
  0.7990035430234025  0.5992355584859259  0.4020353704256440
  0.8035308630937364  0.6022862864661481  0.6041723925532886
  0.7951329875512425  0.8026887132498516  0.0000573386012473
  0.8005712801928256  0.8036828613697852  0.2018384767546786
  0.7972898037089047  0.7997143275246381  0.4002542907683549
  0.7984225946784966  0.8016171918424201  0.5987475248456776
  0.7996074777099851  0.7962537286851079  0.8004180931016076
  0.0000304395522239  0.4014911271515868  0.9996376272816226
  0.9998744098519894  0.6008157117370276  0.9991812437085906
  0.1987901738475743  0.0001086412424580  0.2002987829271767
  0.2009847810277131  0.1991932289590679  0.7997680761699177
  0.4005447098141038  0.9980015908547909  0.7980022208548574
  0.3991903035793457  0.1995019288689073  0.6022894934935888
  0.3997586856983714  0.4036836096175075  0.0015580003653604
  0.3994328546172639  0.3994008659615883  0.7998210754259671
  0.3994333015632472  0.6008040508153746  0.1994433807435858
  0.7995938904710526  0.9996328873448814  0.3996532521434192
  0.0003409857766459  0.5999817036441514  0.5996150960810424
  0.4073678614319736  0.9963052494394571  0.0026967185681119
  0.4032890471269226  0.1989633572177540  0.7988086837243004
  0.3993974463657884  0.4004525738183963  0.4008942979149733
  0.3982832781212037  0.6010245869042681  0.5990396965718426
  0.4000094722224304  0.8013054357291802  0.3995027805075495
  0.5984065149899496  0.7979250334777803  0.0005063057790933
  0.7992551337684989  0.9994244116389643  0.0021563252357384
  0.7998598263920115  0.9991780996978881  0.1944887572674798
  0.7993618806605000  0.2017862145226027  0.3998195567306846
  0.8003436316533152  0.5993238421500982  0.7991206199760058
