Zr Ti V  Cr W 
 1.0000000000000000
    12.5634754236892725    0.0381978830787378   -4.4472749023781493
    -6.2548040355349883   10.8086996653888576   -4.4644645366758642
     0.0113771979427540   -0.0014472780863937   13.3739241919914473
 Zr  Ti  V   Cr  W  
  13   2  83  11  15
Direct
  0.9939458714869535  0.1931851932995828  0.5992640282241748
  0.9989988240099603  0.3988895081198452  0.7990169755638534
  0.9978949472497363  0.6059750466011132  0.0050435610644202
  0.0264502589081688  0.6484142470817131  0.8246042392752956
  0.2012417154184792  0.0021036967296766  0.3912594522803086
  0.2065153735462797  0.2071888543084114  0.8031511941666571
  0.2073872447498697  0.8008791989934009  0.4042286129406309
  0.4027851310904064  0.2005729216640813  0.6062628817128262
  0.4065903711241088  0.5985216803950446  0.0020742430570320
  0.5353522078861062  0.0064417723301049  0.1941589972203616
  0.7909476921263099  0.1935242989501315  0.1952740501713730
  0.7964927226094046  0.6028492971147817  0.2045134478657843
  0.8012254323447470  0.7916059292675784  0.7957807938821856
  0.5970003138612967  0.5962337126007257  0.4074514375929192
  0.5952304813440125  0.5989841649872440  0.7904879878099167
  0.0059064343800059  0.0058599621239713  0.0028942592581861
  0.9932181713385161  0.9989160973826808  0.3959711159391839
  0.9975539987488444  0.9835796350458073  0.5980802226113490
  0.0022762463130284  0.9974280024377787  0.8018364809720322
  0.9990186473457101  0.1959873044680660  0.0054424691349027
  0.9892267484520275  0.1873005814367080  0.8170057986197305
  0.9968999384650719  0.3878674777070771  0.0062111793308560
  0.0023365798590608  0.4075770670867441  0.5872745748393721
  0.9977639566357767  0.6019011767864055  0.5951988632493030
  0.0098071167506804  0.8236119197001018  0.0059559391933486
  0.9957026043054583  0.8002326027874126  0.1946109229952532
  0.0044904953452966  0.8106539913659442  0.4134718882546934
  0.0026909882521630  0.8018119124695077  0.6038257281922297
  0.2024207050947618  0.0053073408948115  0.9907084544282930
  0.2137986486763338  0.0053920775938994  0.1892816135870865
  0.2036120071492108  0.0018820248662545  0.6107470895002922
  0.2095707283407055  0.0016393920056991  0.8015694534398896
  0.2064088158855207  0.2017252764932203  0.0075730382669528
  0.2040136547568661  0.2099761822921354  0.3965603922905742
  0.1979226371587945  0.2064380633109268  0.5884856166520300
  0.2007798541185057  0.3960707883409819  0.0090406511472137
  0.2010856582250936  0.3973234786420847  0.2010533354408661
  0.1993165743148292  0.3987651058673862  0.3992199137610966
  0.2003498644080892  0.4019153369020328  0.5936024968013309
  0.2119903937376947  0.4112608578966905  0.7890397709809287
  0.2006939039555255  0.5925330175693306  0.2025098446543883
  0.2025841294756981  0.5901391355591302  0.4012253619611087
  0.1980306738556065  0.5974924399536192  0.5929670665546878
  0.2187873265936660  0.8159415919214400  0.2070936365530965
  0.2034581878596154  0.8038039947920199  0.6087600421389120
  0.2039218429318522  0.8070790181836367  0.7960277723493543
  0.3988823409815718  0.0083505260359330  0.9842619409304213
  0.2556122552814636  0.8578968356584165  0.0430368552506777
  0.4136530087994300  0.0023172143776266  0.6181216934687120
  0.4050145145275339  0.1972806179865367  0.1921881289611527
  0.4075091685448607  0.2033369897904379  0.3955254527081355
  0.4106335432087159  0.3932199807033885  0.0103870619216231
  0.4020453832889895  0.3966496691734066  0.1997152520841168
  0.4064641360633636  0.4039297278254559  0.4025571626008727
  0.3912047913096229  0.4024304938854811  0.5907758599179370
  0.4054747574781472  0.4032927323402681  0.7993713368962472
  0.4010132219910204  0.5927895685518001  0.2107925185255047
  0.3951615390720596  0.5948762483883975  0.4007037602581562
  0.4042456070015214  0.5997165323704099  0.5974340281164785
  0.4003732544833654  0.6035965248849139  0.7897870412269756
  0.4026739193166396  0.8057460267019514  0.9884111056489663
  0.4104208098614738  0.7997906509181175  0.4091244124035054
  0.4018716536324838  0.8056169448688407  0.7973494837884388
  0.5892504274613519  0.9913009244345629  0.9820402977203577
  0.6043930762096423  0.9977568629066025  0.6105686952619362
  0.6004468802810012  0.0038679177880527  0.8030434839126465
  0.5960322807191238  0.1965938390915587  0.9941302090505764
  0.5959092235535811  0.2214501707696576  0.1985653554804156
  0.6004262058018828  0.2110133789017317  0.4092307527426781
  0.6009057308148394  0.1944894514943522  0.6016739193221983
  0.5958032609923715  0.3889138783500524  0.9978964807162065
  0.5977744734219109  0.3938400711268464  0.3946277200443849
  0.5961536631823363  0.3987829088000751  0.5950392937212019
  0.5897662329287204  0.5915140825590891  0.2025401352684253
  0.6019073919273132  0.8054741506758282  0.9943475561466524
  0.6046855747791917  0.8097651050073662  0.2104981652593605
  0.5989382925296206  0.7984784899891068  0.4087171313701691
  0.6018181859858108  0.7965451048243846  0.6022657218159995
  0.5975180269109105  0.8085987173614076  0.8028588688960620
  0.7988213836912206  0.0006238128287694  0.9986284035026870
  0.7943243603268865  0.9901190706564701  0.1955207259712943
  0.7904772506547586  0.9919337358394945  0.3941356380593916
  0.7981124214660195  0.9957553565428058  0.6088502739935198
  0.7994075460868557  0.0033690544415254  0.8031543545388250
  0.7964082850031659  0.1987228005357371  0.9959212568738310
  0.7844528651530934  0.1983436560603475  0.6006982360099719
  0.7945156672352951  0.1969816195860460  0.8064631465395015
  0.7899188094865183  0.3943914736220237  0.1953258214796756
  0.7993203238871693  0.4024055482549431  0.4011772353309108
  0.7888354372315612  0.3978184614353247  0.5937492908644382
  0.7844186943492801  0.3850346150154466  0.7973749591013007
  0.7903088018143697  0.5979930318778262  0.9944118009647993
  0.7986634296849398  0.5951019326593163  0.4066744205875837
  0.7903594721004914  0.5934307692150879  0.5889962476326984
  0.7868286914793451  0.5737248795340822  0.7876767996340399
  0.8011340006212399  0.8074877726643852  0.0068428143150284
  0.7988063270890546  0.8099454044105904  0.1995199946277471
  0.8020663899364846  0.8030980050363644  0.5976954853587770
  0.0023309480781351  0.1974951484061946  0.1978947095641088
  0.0006549884628490  0.4015044971306149  0.4032881379334999
  0.0144370939752104  0.8233414662665078  0.7987510621896260
  0.4122332643391050  0.9997883759256055  0.4025445143657138
  0.4025718451839786  0.0033333018300323  0.8008033702166284
  0.4055741510148677  0.2041137327483032  0.9996516528771363
  0.4136659360364359  0.1997014089328583  0.8140707589665334
  0.6002146224798300  0.1962737776237985  0.8076617681697841
  0.5971589001512662  0.3972096647103057  0.1995341640692511
  0.5900875525592401  0.5883010594748728  0.5896394853025565
  0.7972545766982152  0.3923229098188306  0.0016680051905489
  0.9993761099374575  0.0030321532439902  0.1961518679168190
  0.9967104063900010  0.2008202605043250  0.3919639445153817
  0.9992323446812258  0.3914058692470601  0.2026465984599164
  0.9967055300738150  0.5906329150918691  0.2004618973427764
  0.9992673773480917  0.5968934781528861  0.4029383446222722
  0.2060074735469347  0.2025751503599770  0.2003586815055647
  0.2069054692263989  0.6048803282147739  0.0070399647712769
  0.2070448839466437  0.6066291619852738  0.7952098727465661
  0.4035728909807814  0.7965435631083345  0.2077033432426756
  0.4026995789762354  0.7977163467609080  0.6028326825671760
  0.6013235787305363  0.9993123763962318  0.4130187242753052
  0.6050427895768821  0.3997309967682517  0.8074414985751871
  0.6059995423430581  0.6017078639361821  0.0017246384845116
  0.7932125939198289  0.2021807146521352  0.4059541431078207
  0.7968928635786160  0.7990183720949624  0.4032441564207040
