Zr Ti V  Cr W 
 1.0000000000000000
    12.4323594838933573    0.0028198881221341   -4.4082088542398692
    -6.2047882130921810   10.7765871797057606   -4.3829042311317892
    -0.0117614519554904    0.0105487829037310   13.1913038418922532
 Zr  Ti  V   Cr  W  
   3  15  74  16  16
Direct
  0.9996231338943992  0.0276034285684854  0.0026356191845482
  0.4129852308134574  0.0028816699021417  0.0056066102116565
  0.8041769541376419  0.0008256759478844  0.5966363986349247
  0.0030448734052784  0.3924434518382720  0.9991203249927875
  0.0014692252012943  0.5931585599944592  0.2000007091994355
  0.2025331195166201  0.1933616379139051  0.5974049685587204
  0.1768441046506811  0.3714605650463426  0.1758835839961403
  0.1962843553607107  0.3943131627840885  0.3978246235130214
  0.1939604565727086  0.4029868041459112  0.6096183352502400
  0.4056737151961400  0.3987419672775801  0.6037252851820929
  0.3929487447917187  0.5952385425689461  0.3940860951160152
  0.5995570966603504  0.9976615679855009  0.1999442471253701
  0.6011371612492641  0.2022388193611331  0.3952800113978199
  0.5963910652619748  0.1986375080290798  0.7995255212369173
  0.6013042078907910  0.5970913824321640  0.1985041581222325
  0.6007533302839448  0.8000868361688839  0.6015567511405677
  0.8117317937595024  0.0219821346646611  0.8157108949283051
  0.7878554261488594  0.1959536461322229  0.2002012609296409
  0.9954322672454426  0.0000407362528345  0.2046016771118941
  0.9956570364683430  0.9963276338530160  0.4002865915645495
  0.9900885364812086  0.2008822327538550  0.2013705545464141
  0.9990407432003968  0.1962607212721330  0.3985937854761477
  0.0023587925010301  0.2042909240664952  0.6005815283035941
  0.9944801201043800  0.4004718465579201  0.4000094094746967
  0.9977205614520122  0.5952450455725218  0.9922589606642368
  0.9965238877361318  0.5951062990750524  0.5979546576220480
  0.0004694828299239  0.5973065396616452  0.8032610873997040
  0.9997687655064765  0.7949370101316492  0.5978391635592029
  0.0012384035880619  0.8004779321993226  0.8012121438456158
  0.2005640829502875  0.9996724591273701  0.9988045101694852
  0.1971899709263537  0.0001733357983660  0.1968639087801963
  0.1983951745979958  0.9979045478955259  0.4021574337732570
  0.1923102824581982  0.1851696794475877  0.3885141184424484
  0.1990183080183938  0.1964236543828367  0.7940856963643775
  0.1962010749198456  0.3992944598613701  0.8059860937662570
  0.1943979837220406  0.5928854347605240  0.9958799336154722
  0.2100748631887371  0.6027300447047195  0.2050027285789502
  0.1853111228366278  0.5944443636955843  0.3920007524211537
  0.1965434723531878  0.5936910766016399  0.7986477973718524
  0.1963152477108651  0.7947962886717814  0.9986363120659992
  0.1965318150383866  0.7940236901952185  0.1959300475752140
  0.2012782499629629  0.7975752732337101  0.4014924770409161
  0.1996059312652619  0.7980654609230835  0.5976255961583238
  0.3857018393817270  0.9935685058992828  0.2009745330905023
  0.3948314888735819  0.9950595873562779  0.6016468705474760
  0.4064804009939998  0.2065273238648599  0.9966554389053752
  0.4023873713737938  0.1972051337784732  0.1987685458573204
  0.4013713830278606  0.1985944613936456  0.4045659748000194
  0.4088760603870139  0.1977696000379118  0.6057720291227229
  0.3974745336548426  0.1968434304056183  0.7961238326805518
  0.3964641541548601  0.3973620593320213  0.9928623033182965
  0.3997614715951089  0.6004003521619461  0.9970006731983215
  0.3936347268846107  0.5953745969150503  0.1910412783108838
  0.3934488090828189  0.7817214575556479  0.9968035421197083
  0.3937923960833367  0.7923838942935859  0.1935811746172422
  0.3960030869546048  0.7975973453598594  0.3983142078530566
  0.3963116192100876  0.7984286581753783  0.5984402540025487
  0.4020591712418207  0.7984014875646811  0.8016480532825084
  0.5954267525480484  0.0052752713308538  0.6042528471598902
  0.5942576896503663  0.9959537445319980  0.8032987634250619
  0.6023081741845040  0.2007180849441874  0.0029192193868360
  0.6047845922611722  0.2073256534454282  0.6037285732451078
  0.6023288932808438  0.4011510565940145  0.0019630964095045
  0.6058288803554521  0.4059471300582374  0.4028021837904231
  0.6082692296398701  0.3986174733514566  0.6013316064757613
  0.6062461472745710  0.4071079877420313  0.8007050502083122
  0.6036558399883940  0.5996535467661003  0.9952071167469368
  0.6067791379600980  0.6002666081532056  0.4042447789448820
  0.6024715917416983  0.5950397711372021  0.6055151242836808
  0.5934750739820451  0.7919562760087484  0.9948783420570066
  0.5967986180927670  0.7944299188931658  0.1929045653710703
  0.5913460826279006  0.7858614737271326  0.3843188670500872
  0.6001239236379738  0.7933169137654764  0.8021787830297634
  0.7781196619035877  0.9945723692727312  0.0044074118886013
  0.8013272436557367  0.9917771881023806  0.2024115029847241
  0.7995968293378528  0.9982453832477904  0.3891647515461770
  0.8062423282309548  0.2046904031141782  0.0056647345769030
  0.8173778589329066  0.2123389857157731  0.4208144509478204
  0.8025432562886374  0.2103342634945551  0.6014464155371725
  0.7959330410227919  0.2088288891261409  0.7892415212046953
  0.8030472562706004  0.4045714314530781  0.2027132098447968
  0.7975757386738813  0.3985795196783186  0.3992828618494157
  0.8083682227264365  0.4047725552174954  0.6065848023130881
  0.8010243873323334  0.5978571885895709  0.0000970111339645
  0.7989059952205338  0.5986182446412383  0.1978201479252627
  0.8004779096385148  0.5940884633068036  0.3950417141233900
  0.8026007383636061  0.5979701519306360  0.6014752245732722
  0.7993217791875077  0.5960963440941910  0.8003226977941237
  0.7931917047647761  0.7919490160317216  0.9936593006102385
  0.7963534295194686  0.7936132525396269  0.1966935617919885
  0.8045004422897547  0.7995339195330181  0.4010514339266507
  0.7951724080555498  0.7949790085945704  0.7956915891303382
  0.0121148510860576  0.9990852680023768  0.6017970476752766
  0.0078494003595059  0.9959016382416022  0.7884444314209468
  0.9891631703887862  0.3955682467780411  0.2098412642539437
  0.9978857657859752  0.4023226350133771  0.6059783765962983
  0.9992001287526431  0.4023724140364216  0.7987357133197783
  0.9942815153186028  0.5955760081455841  0.4001643932092936
  0.1981386292536117  0.9939845664429581  0.5975428090117568
  0.2105484461564242  0.1978175750545147  0.2111094894468007
  0.2057887614301146  0.4010870391182104  0.9934149749820721
  0.4045488198902785  0.9996294802638698  0.7940996054258358
  0.4041859382430798  0.6012039325012934  0.8045557865504583
  0.6024611712748256  0.9929228158446139  0.9899292491783095
  0.6044308291523991  0.2254579292294089  0.2041376724633195
  0.6029297999841932  0.3972575575397870  0.1986003629958952
  0.6073233430529805  0.6019063824039113  0.8052604490051528
  0.8059540163679473  0.4020968684449369  0.8029255560383068
  0.0088369763402587  0.2104810616647048  0.8118074067028297
  0.9975770881965131  0.7980905832320289  0.9951011107274335
  0.9988965769790824  0.7994378569898924  0.1977525815483994
  0.0005730342678738  0.7950775748427293  0.4005058400947554
  0.2045241917286842  0.9978004048264865  0.7958829900786552
  0.2022904757716480  0.1991780488441253  0.9931797848583703
  0.1968164134401904  0.5995751762082252  0.5976459174603532
  0.1960518069474085  0.7923277897443257  0.7966149456224089
  0.3965121556513456  0.9976773216946907  0.3994164157554389
  0.4047550727337441  0.3995214391862412  0.1983598908676958
  0.4022154140993174  0.3935689660303233  0.3969922622795209
  0.4032844925089010  0.4045801437796100  0.8044441828857528
  0.4021686348910106  0.6032303313302719  0.6067411559971604
  0.5985824235942907  0.9959434228495203  0.3990846607455517
  0.7989199837781660  0.3990325938066365  0.9981791756321381
  0.8055674938370988  0.7947992816765845  0.6019967286470417
