Zr Ti V  W 
 1.0000000000000000
    15.3704372863088707    0.0041087699184726    0.0045828320708022
     0.0041071823098185   15.3593176205705255    0.0049868964281650
     0.0045832368054306    0.0049883200619353   15.3853693029952101
 Zr  Ti  V   W  
   1   2 107  14
Direct
  0.7915656591150246  0.4016945262236202  0.8100113599941438
  0.4089703414514425  0.7976093248500171  0.8046949994187630
  0.6129001854640073  0.4009511594301263  0.9888387875432311
  0.9998699675203137  0.9975991982279158  0.0017424277547398
  0.9944101069978203  0.0027821058457260  0.2005387964964190
  0.0008919035572816  0.9967321444168717  0.3987846808355972
  0.9945095087158966  0.0000437487978262  0.6018057029127791
  0.0025638194813637  0.9984322843845105  0.8011980260798089
  0.0002729985299560  0.1991534464547820  0.0010433783798061
  0.0005883178689076  0.2023737020784842  0.2018867939784624
  0.0011205117799369  0.1999265888888332  0.4002410688448402
  0.0024492215994136  0.2007144397762383  0.5992518728261007
  0.9990876565207538  0.2009494014919913  0.8013998397835537
  0.0037152583477853  0.3993792602305979  0.0059447126111494
  0.9987441664548804  0.4012702224061960  0.3971306599555559
  0.9975640980089028  0.4001109131629988  0.6000012400229264
  0.9993345089090387  0.4009956011222926  0.8028627916762483
  0.9981217407410752  0.6051498298658040  0.9999779782384474
  0.0029188403194322  0.5966593995990077  0.2004525556204815
  0.9997107571513273  0.6029941618336599  0.4022582574810281
  0.9993844101652685  0.5996958337681957  0.6014908129534788
  0.0026025888530898  0.6007788708906439  0.8001360273675386
  0.0033577918407711  0.7992713943327702  0.2010087894235194
  0.9990080051741356  0.7996746931074540  0.5947425357882350
  0.9993907152017236  0.7992083620368395  0.8061406100089176
  0.1998623676797620  0.0015731436677918  0.9941519938289178
  0.1983300134987226  0.9992678775544993  0.4049599488091966
  0.1982661853584682  0.0025804050350451  0.6060193983726164
  0.1998778031106486  0.2023658089120000  0.9986749834337290
  0.1998359837657307  0.1324239486541945  0.1998569365396413
  0.2022997352318209  0.1984053633610831  0.4043139559967415
  0.2008804460071099  0.1957339684482476  0.7958418559909094
  0.1967462391398742  0.4061290754243430  0.1955439903657034
  0.1994673534731819  0.4013039147848096  0.3995477035104464
  0.1978650544346264  0.3965989272868194  0.6015427417548492
  0.1977851424208342  0.4045429816527465  0.8048937813556464
  0.2004588617796421  0.5966040459660856  0.9959355357704177
  0.2009588325580133  0.5994614325572656  0.4002578978141840
  0.1996197471117406  0.5988568587307431  0.6048512075546842
  0.1957941136001319  0.7997171435825520  0.0022645727236403
  0.1962849709935388  0.8004552104691661  0.3991632195540893
  0.1994263511893020  0.8002095934833049  0.6001782391496336
  0.1984094291083539  0.7989108733503936  0.8001232879957288
  0.3990018028848126  0.0006020497798659  0.0006848256533211
  0.4028711051222243  0.9965499884168718  0.1992621918379032
  0.3996834980605501  0.0023861389422635  0.3990134496289347
  0.4008337231590422  0.9984553531599478  0.6000805499498926
  0.3971220287398255  0.0004387290364474  0.8003992789125427
  0.4002593774747162  0.2002727223309858  0.0025670930449727
  0.3985265091799226  0.1971020707375626  0.2034247039685455
  0.3964259237027841  0.2002954003198414  0.5952180670989601
  0.4000082937352658  0.2003145864995448  0.7988780072959961
  0.3959270175058959  0.3983038609562822  0.0003295459469076
  0.4020505129371048  0.4009180098261361  0.1981708301352327
  0.4000860231036095  0.3968684910191078  0.3977077301093648
  0.3992727789728798  0.4000007383935920  0.5983359751935401
  0.3966962177717448  0.3992398282047381  0.7997593273796888
  0.4016316516255437  0.5994655034079442  0.9988019597286520
  0.3984800583081028  0.6031600837703267  0.2005106257807068
  0.4003875039553420  0.5987043661378085  0.4010042311522458
  0.3985719150382751  0.5999232066042433  0.5988845982542457
  0.3957863096798101  0.5991411304477183  0.7995803740781029
  0.4017487471644662  0.8009634338958043  0.0072589376451169
  0.4013592582495961  0.8014153527629710  0.3964439468607348
  0.4002980599690741  0.8007333879391384  0.5940438404189866
  0.6007048437093018  0.0004462637731120  0.9973605269349283
  0.6031351315823507  0.9999918543179512  0.1981490520231196
  0.5993909459413939  0.0002183727193634  0.4014065846937971
  0.6019773351894849  0.0007872072674878  0.6024538125054208
  0.5976740125829291  0.9991457894214115  0.8006739573910624
  0.5991107097555377  0.1992339657559590  0.9988232907969445
  0.5982794267675555  0.2024485412595699  0.1987999353584617
  0.5945206226932475  0.2014079223116104  0.4010743707223851
  0.5979545701368036  0.2009185458923492  0.6009114476562303
  0.5967056426185872  0.2011951340094663  0.7998124112579377
  0.6026533238214551  0.4014598409707762  0.1991935611732263
  0.6012436424620586  0.4013454174184419  0.3985475403544875
  0.5998618335116608  0.4006121901889784  0.5991838894380943
  0.5898194436382286  0.4011203855745025  0.7944476465576270
  0.6003199121802079  0.6014775639727978  0.9981772660782192
  0.5984057071529322  0.5987545328797500  0.1977935345897400
  0.5994678965456548  0.5993517259822706  0.4018377197557444
  0.5985207712541659  0.6000561883734722  0.6019907693078036
  0.5955660816601180  0.6009568644408392  0.7998698729443855
  0.6016852371447007  0.7995778532282763  0.9993575935254254
  0.5962692802707320  0.7991950683177141  0.1996343317794707
  0.6034560710207992  0.7984463230861050  0.3993124028181317
  0.5997238603581808  0.7995290726013271  0.5999449303748460
  0.6029565016215735  0.7995224525015432  0.8004418043508171
  0.7991548010798574  0.0003700869699177  0.0042095941280181
  0.7984259706983633  0.9973164668086917  0.4016270805641370
  0.7995345798409915  0.9995328476378221  0.7972574065225773
  0.7995574110352619  0.1998458114551628  0.0009838966010136
  0.7981662848016149  0.1970034774261207  0.2028340630832655
  0.7980210338537409  0.1989312515441578  0.4018637948442744
  0.7992496163691698  0.1965236928342257  0.6002792588659628
  0.7995100238288191  0.1955593972681345  0.8007136473892430
  0.8079276222973815  0.4001303170303939  0.0106248211934223
  0.8045294121072952  0.4002786222779555  0.2046560580211738
  0.7999173359867675  0.4003277017870740  0.4019700291246650
  0.7993505487361602  0.3988453019492895  0.5994169945836417
  0.7995796806995694  0.6015256259642486  0.0011828566808124
  0.7979761082464009  0.6009623569339718  0.2011450109129134
  0.7984267458217014  0.6049776882196257  0.4017126687690858
  0.7986340727079944  0.6001619248544184  0.6028957890453305
  0.7992468483545038  0.6065135817857195  0.7994271394618317
  0.8034467771731338  0.8014604212532431  0.0031228047839762
  0.7980879800542300  0.8039290442657303  0.2050796396180438
  0.7998933238937205  0.8049735911430475  0.5962586870165807
  0.8007417962991715  0.8016862233999458  0.8001110059961500
  0.0013464868759701  0.4013080261290561  0.2019539720709163
  0.9982701775912504  0.8003503430326656  0.0041589893574478
  0.9981440439224971  0.7990899195477555  0.3982450092158208
  0.1999584275166396  0.9977899707782426  0.7999707517107966
  0.1992521710035196  0.2003127619919647  0.6011111319774679
  0.1997484076947802  0.4002932603875435  0.9998765421161928
  0.2023709096435944  0.6024851492136268  0.1979822426358483
  0.2005996112078724  0.6009389477741450  0.7996053723737843
  0.2027935192605061  0.7908675919315253  0.1998516370856814
  0.3983533583273812  0.1994079400008898  0.3983305127157631
  0.3979650813127423  0.8003255851608105  0.2018129942961300
  0.7983633264616268  0.0016657021162830  0.2017377889670454
  0.7986006408870754  0.0008926125881930  0.6009731785734123
  0.8033946542741272  0.8010595975577143  0.3998412604650450
