Ti V  Cr W 
 1.0000000000000000
    15.4680708186707445   -0.0019791925582942   -0.0047359324461698
    -0.0019790318440020   15.4527092295556869    0.0037359914958914
    -0.0047356967593003    0.0037361514560846   15.4658715029001890
 Ti  V   Cr  W  
   3  99  15   7
Direct
  0.9935283927721335  0.5916757630690120  0.7961305606656147
  0.8003879853753648  0.1955527784926071  0.8011270966723969
  0.8042086640028011  0.4103416788947610  0.8010236791832565
  0.0012697950708197  0.0008359620100383  0.2038791236240815
  0.0007111767564031  0.0003273878395609  0.4009332362317696
  0.0021664040847336  0.0003047984416328  0.7967157603370628
  0.0012908361247775  0.1996351393506967  0.1984402983448988
  0.0001727783448515  0.2001612502758030  0.4000304688211865
  0.0011094335413368  0.2006045920018743  0.6007942728067958
  0.0010269922020946  0.3925424213037790  0.0009136333016337
  0.0012383233094461  0.4009072483051202  0.2021190929159237
  0.9998603594291591  0.3997290066261981  0.4004354448783359
  0.9994408167011046  0.3984425327661964  0.5997161099717326
  0.0034674332271918  0.3959012958234031  0.7991713288891050
  0.0003247511894368  0.5993356110811995  0.2005130782843367
  0.0006799520088499  0.6014175430256629  0.4008283825467817
  0.9994379092839485  0.5996403643903703  0.5977386912802108
  0.9987810485991047  0.8005939987880252  0.1971669616755785
  0.0002136765329426  0.8007196499008155  0.3991561205718229
  0.9980757493782281  0.8013458386117068  0.8043449623745259
  0.2019288069853100  0.0010226064684704  0.1975779897336181
  0.2006778386535294  0.9999541831466540  0.4000885274908100
  0.2001452087334762  0.0004339554614230  0.6013567879032672
  0.2019200502029982  0.9994522971670614  0.8017780862649225
  0.1997622954965195  0.2004557247287290  0.4000122240947782
  0.2006967843399730  0.2010473315136153  0.6004920767980034
  0.2009354761620633  0.4022717066035622  0.9997118517080810
  0.2005124206454154  0.4009988710218816  0.1990332078991479
  0.2008819929353922  0.4014743869082625  0.4008613139610744
  0.2005316805082899  0.3997166484712156  0.6003965435252300
  0.2017593815501421  0.4027882249135772  0.8007696377366675
  0.1983491759004080  0.6000682781118671  0.9963368393361851
  0.1994156745383042  0.6007041094142669  0.4005392965144549
  0.1996755603787814  0.5998838920139388  0.6031974283704371
  0.1927366162511815  0.8006768342975709  0.0005785251402757
  0.1996945303753639  0.7980786873616685  0.2009249157693040
  0.1990454135426881  0.8002668323006477  0.4001744237016432
  0.1985188134199433  0.8007586190444410  0.5996983012529115
  0.1975725225207988  0.7940585183357999  0.7982765028283919
  0.3958687478289333  0.0012308394946415  0.9996044987563417
  0.4002675313761785  0.0008874966618635  0.2009178107715099
  0.4001218765777064  0.0004390573664883  0.3998843792754837
  0.4011072525090475  0.0009634943428016  0.6001005569613652
  0.3991070610234607  0.9998701064530537  0.7989797391632956
  0.4031135592008032  0.2018461110396206  0.9992844397678688
  0.4003009025582596  0.2013760904555362  0.1990184092671576
  0.4004659953285490  0.2005329814005650  0.3999559498573305
  0.3999175054263791  0.2003905682575100  0.6003127725377390
  0.4002159268568805  0.2006321956677314  0.8008331046762955
  0.4002913947515487  0.3996876462597715  0.0001778761397913
  0.4002120769952978  0.4007431718429821  0.2002008312874421
  0.3994023099394095  0.4009547784033193  0.3990493692868545
  0.4040047962255471  0.4001136222451179  0.5999154090182480
  0.4000446841226471  0.6006926874231413  0.0003516802179359
  0.3994460036520472  0.6007563222230692  0.1990985194630479
  0.3988216002196698  0.6013741563845518  0.3992494135446668
  0.4003667547091487  0.6013381029467965  0.5987905685713547
  0.3979642400051575  0.6003267510222768  0.8003859129123834
  0.3997131941252037  0.7990835855851028  0.0003592133984415
  0.4003979782174146  0.8002195919574041  0.1996752364765039
  0.3997108891543092  0.8004715491515466  0.3998189692215546
  0.4007455428177795  0.8007364052517878  0.5992992062190747
  0.4011621009334247  0.8006839968448161  0.8000629880005458
  0.5960930562531359  0.0010531980777551  0.9998361079257061
  0.5999209616403964  0.0009937089202934  0.1989801222407382
  0.6006436907552457  0.0010770531552946  0.4013786474127415
  0.6006818238065459  0.0017378838084645  0.5999727031208235
  0.5990552995875736  0.0011442592278514  0.8000078852073886
  0.6050819294815989  0.2006588127313817  0.9993978901728494
  0.6002568636090936  0.2009341788457386  0.2009238482058690
  0.6016174333840496  0.2002256559655300  0.3994940051540536
  0.6014023508719263  0.2043101132254733  0.6008146017156962
  0.6003285317240034  0.4011402010695500  0.9985202200964597
  0.5993944840405944  0.4006859784240141  0.2012476304383449
  0.6007790150760262  0.4004277487615072  0.4032135039263413
  0.5983000459870786  0.3999248761177668  0.7955385069100649
  0.5994243624888100  0.5993299437292186  0.9987287575380666
  0.5994813988571853  0.5998969228487195  0.1999089075010086
  0.5994810581469983  0.6021028048619438  0.3990759592991860
  0.6004025455095151  0.5980487300922128  0.6000431573069462
  0.5977552563768757  0.6002426636012442  0.8001923256351484
  0.6037658449762017  0.8012226380724108  0.9991203915519218
  0.6010931235521473  0.8014150506149772  0.2001042997995179
  0.6014703824925813  0.8000569929738321  0.6005856114653872
  0.5998024882026139  0.8002967929833394  0.7996848403092712
  0.9710992472653558  0.0030723633084658  0.0002349306524627
  0.8005407433184768  0.0002294906016829  0.3991847055780129
  0.8004575837108615  0.0000525844723627  0.5984488158738029
  0.8005410477446993  0.0019314651941158  0.7955902288494886
  0.8014275810823399  0.2001519316189513  0.4010417606523020
  0.7991122273637076  0.4011210304219819  0.0028560119911908
  0.8001890799515536  0.4027622147367080  0.2017377481610873
  0.8008539799703879  0.4009734753886516  0.3995415167086424
  0.7976131857920368  0.3997762175731301  0.5982401933913396
  0.8006775544131191  0.6035127621783033  0.0017350227366604
  0.7991483558536536  0.5998228362289700  0.2017685666440877
  0.8005570348951392  0.6017293801022867  0.3991792458463962
  0.7999803639581475  0.6031792654654083  0.5983713488426429
  0.7979839938362842  0.6025642248379082  0.7996769102560594
  0.7993022491183114  0.7995342384981670  0.1978550940151509
  0.8001277332813526  0.8003664470594193  0.6001755573980955
  0.7994274679959609  0.8024710542493028  0.8026699715576880
  0.0005330176003397  0.0001118197119950  0.5997221672681269
  0.0040601379849368  0.1987219738835595  0.8008199156174173
  0.9998573705294136  0.5956512197833734  0.0017123670986001
  0.9988930989680668  0.8007765612748450  0.6008417469217150
  0.1997010491519668  0.2004568234730695  0.9996495506557792
  0.2007909767871985  0.2010648643516744  0.1999881541237917
  0.2013398014088156  0.2008236064516039  0.7998082144916395
  0.1998847197637373  0.6003797914065354  0.1989739416107373
  0.4005004004272144  0.3995955522608479  0.8001541560104868
  0.5983113437518923  0.2004869561082943  0.7999028851724179
  0.6007748541923499  0.8010190463136729  0.3999388272794158
  0.8005671479665752  0.0011230614313948  0.2014697541870394
  0.7997171075902808  0.2011370953764957  0.2021537607526575
  0.8016191440055359  0.1998087777481402  0.5993211902060492
  0.8004045917404985  0.8011177336834089  0.3996732784879404
  0.9878335695155271  0.1969898333499893  0.0029167764404348
  0.9942176713787994  0.8087912860842084  0.0018141803129863
  0.2008518725666386  0.9957894799877471  0.9986079118775091
  0.2037411931134157  0.6005222114525177  0.7984372787461731
  0.6005110665446023  0.4026217983127455  0.5980763424606632
  0.8013674327499273  0.2065593380133644  0.0013962242024983
  0.8024522661573881  0.7975269106692335  0.9999382484319388
