Zr V  Cr
 1.0000000000000000
    15.5364267418827353    0.0141760265446098   -0.0034442262972265
     0.0141671620811882   15.5240745923983035    0.0049821264813726
    -0.0034426786392167    0.0049831204927505   15.5354998368454975
 Zr  V   Cr 
   5 117   2
Direct
  0.9528237381651928  0.4386749215575476  0.3987287088574314
  0.2033318281063930  0.5987135237123199  0.5613555305764525
  0.2008414929701548  0.7946876826343489  0.2035165307936202
  0.8000806315677511  0.2039858844203603  0.3999918138451427
  0.8320076791620158  0.6378195720881332  0.3996500608206229
  0.0001211452908927  0.9976570673522600  0.9999772270698001
  0.9991255439156083  0.9985715646440578  0.1994108352534030
  0.0005355924539188  0.0021713652759192  0.4004903855849027
  0.9993379627967659  0.9996101238592089  0.6011785869538854
  0.0004572989996552  0.9977911181212326  0.8012635312632729
  0.0000390455538233  0.1977997737275118  0.9991317927045975
  0.0037324211949070  0.2010306077874346  0.4000306975279457
  0.0003281446897039  0.1985438844665345  0.8011768161594586
  0.9988305413804660  0.3994919494452465  0.0001962395696404
  0.9990456719264170  0.3960793479517699  0.1970280569121006
  0.9984797124435295  0.3978046568770675  0.6031378108217538
  0.9988012356490414  0.3999439016253757  0.7992524459314525
  0.0000073839242271  0.5992535233034738  0.0016325591748421
  0.0001524555660710  0.5955004180013782  0.2040031692246524
  0.0249842328350253  0.6189250955983031  0.4020853589788376
  0.9977253505599917  0.5989524201850102  0.5983919661854334
  0.0019684884187354  0.5995507341517701  0.7998206425730544
  0.0009780654499972  0.7972215508010772  0.0014669774420430
  0.9959725001169039  0.8003246509981100  0.2021886706662593
  0.0104820280881856  0.8082803776521430  0.4014748901570455
  0.9997717324583216  0.8020499177238813  0.6016574415390523
  0.0010048179631472  0.7973657066958910  0.7997869710867030
  0.2001024473177041  0.9992516111901625  0.9999606286140272
  0.2001003440954920  0.0017161530801189  0.2008172995943800
  0.2014470986616968  0.0025759080513857  0.4001782632085117
  0.1998753476582052  0.0010943114131036  0.5996796237342661
  0.2001939974113048  0.9995059554788442  0.7997668755674358
  0.1994274369233886  0.1989174990711172  0.9996716792410939
  0.1994543882676817  0.1993479600033853  0.1998500672547630
  0.1976876566959593  0.2046517103010446  0.3997888350841765
  0.1993740566915667  0.2000135453508582  0.5996218840477221
  0.1994364886766837  0.1990840577912924  0.7997710132862339
  0.1994606902054888  0.3970125996115704  0.9997955406739462
  0.1978188887776809  0.3961141276297991  0.1994648992935911
  0.2009951548385352  0.4051156683566638  0.3994144720832357
  0.1975428940307928  0.3964421066738313  0.5997565689119517
  0.1992343672446363  0.3997258739225620  0.7998894419114669
  0.2000196009521936  0.5977001000507918  0.9990548740972351
  0.2014195674846115  0.5917294041838453  0.1924277301176066
  0.2075062384455859  0.6061787981594847  0.3695285289895133
  0.2001014366727625  0.5982990933195224  0.8027616111627303
  0.2008649936717590  0.7998128710097695  0.9983781881489007
  0.2060247828188862  0.8039943408656519  0.4068020232494103
  0.2012330892780914  0.8025517367786053  0.6035319943351177
  0.2007002694313828  0.7978469757607373  0.7999561045785206
  0.4002721255913928  0.9980029074363596  0.0004077966526248
  0.4008404943185070  0.9984814703127228  0.1999445247079810
  0.3991471245433281  0.9994957274247626  0.4004337174978206
  0.4009424167703926  0.9993368783088261  0.6006327575080707
  0.4000031660104805  0.9981945609680629  0.8007827472502091
  0.3995405320025156  0.1980165244871943  0.0000295483696298
  0.3987878061705563  0.1984234668457262  0.1995888431846957
  0.3968803423133936  0.1990557681531465  0.4001101642348896
  0.3988330676015547  0.1985943439473093  0.6004808233700409
  0.3992592019276960  0.1985989670300048  0.8005024370757094
  0.3990127287119395  0.3985777301986920  0.9994082672378556
  0.3996446336644784  0.3978633277625645  0.1995607419962706
  0.3979391937569542  0.3994447669864508  0.4000365790737178
  0.3994056081592722  0.3983880847754432  0.6017801162911419
  0.3988841526753682  0.3989021911789248  0.7999223614408441
  0.4014894472409093  0.5982753169473506  0.0002817983738118
  0.4020414538264817  0.5969533634000735  0.1983056367115974
  0.3989173217709227  0.6002235156292105  0.3997027533018716
  0.4046633462212436  0.5987147411281035  0.6012456195859222
  0.3992362949388643  0.5984679847428742  0.7998804221038701
  0.4007217803432051  0.7980989584358459  0.9998572649974280
  0.4054927891530250  0.7978339796235197  0.1999120671391182
  0.4017920852661467  0.8005433575189409  0.4019931357904248
  0.4018506082616318  0.7990425589110206  0.6029275446436129
  0.4005629854110870  0.7981761127675214  0.8003131367416093
  0.6002032437972421  0.9976634718987875  0.0005850212475875
  0.6010682747722675  0.9978633522886142  0.2003538067536652
  0.6001882144847628  0.9959650131031134  0.4001859414387023
  0.6011709735233016  0.9983288854826526  0.6003862811618393
  0.6001384822717022  0.9978608707874889  0.8002028047507760
  0.5992800661954766  0.1976487549335604  0.9996349435203090
  0.5985271316984095  0.1978112822836938  0.1995728232509062
  0.5930132470847362  0.1965027980766904  0.4001129000702149
  0.5986266022757221  0.1982258900857533  0.6007980313692053
  0.5991188637758583  0.1980160358967726  0.8006466795565618
  0.5997927849427815  0.3977703110272958  0.0002302834775325
  0.5979217553500722  0.3965440594198977  0.1985417235757521
  0.5936966330197680  0.3999440330596588  0.4001421156077906
  0.5979948185302080  0.3970975642136970  0.6014626232361536
  0.5995883418940605  0.3983261270889040  0.8001179057695458
  0.5998222240324427  0.5982577736293655  0.9997580739525842
  0.6014213971097335  0.5957975694836651  0.2003579886656750
  0.5963455033968164  0.5985227156928639  0.3996423996757663
  0.6017347948196161  0.5966519814714094  0.5994225783539717
  0.6001271842023598  0.5983151642016584  0.8006702448856384
  0.6009760068121957  0.7976838320150830  0.0006370268716441
  0.6027380493687824  0.7979530184926559  0.2022382210408849
  0.5963169810081036  0.7963801494507168  0.4007241613777213
  0.6026016641811642  0.7987949082297732  0.5989715773697554
  0.6006352731859207  0.7975667068354667  0.8003528869854741
  0.8001980743381871  0.9977384951440172  0.0002236430608065
  0.8001510236998391  0.9968145779289903  0.4002474422843394
  0.8007371012145156  0.9972551083689893  0.5993349044799040
  0.8002472798119241  0.9980234815034528  0.8005501059414069
  0.8000141062193408  0.1984144336946263  0.9998589492272323
  0.7993829540192026  0.1981935309480831  0.1950945371844396
  0.7994601069603180  0.1988387961692458  0.6051178897682180
  0.8001596501340458  0.1988504420519266  0.8002877478083843
  0.7989741200911330  0.3979053576549861  0.9989815291141225
  0.7984903378771853  0.3983847144094089  0.2002759975636678
  0.7690768010502700  0.4101546602433544  0.4002563945535466
  0.7985331327709976  0.3991315282010037  0.5994952428123747
  0.7991161886160555  0.3985608361351645  0.8014357520418517
  0.8014088981119109  0.5977696568207090  0.9999645598400057
  0.7993432019669099  0.5971116957942357  0.1954004393205493
  0.7994127942041812  0.5984263704982153  0.6048332141684726
  0.8008691119070541  0.5978648025459772  0.8008257129467677
  0.8004218322624144  0.7983518999559035  0.0002728937501582
  0.8006761529924998  0.7943449842899705  0.2015892474511082
  0.8005142563540254  0.9966386604148608  0.2014329299985032
  0.8014595789765839  0.7955467190874076  0.5997360268992687
  0.8007429984493596  0.7982927327076208  0.8010695451695261
  0.9999297071181941  0.1983794873271691  0.1981184534136880
  0.9999716641955652  0.1990459366771311  0.6018776994214330
