Zr Ti V  Cr W 
 1.0000000000000000
    12.2882735461728885    0.0000000000000000   -4.3445607757035454
    -6.1441367710433559   10.6419570608175889   -4.3445607757035454
     0.0000000000000000    0.0000000000000000   13.0336823299999995
 Zr  Ti  V   Cr  W  
   5  10 103   3   3
Direct
  0.9972516691778485  0.1964002639894293  0.7990954911384067
  0.4016460139999832  0.0011759719651226  0.5934346093798466
  0.3963210267883033  0.0045228924925058  0.8096045574994073
  0.3947008512241489  0.5933344934827642  0.3928243820827475
  0.5984912514017791  0.3947358505489502  0.0020244513913497
  0.0032473155057070  0.2061349927757496  0.2069495487318237
  0.0033902841424556  0.6170208498158714  0.9999325684975655
  0.9948126968131359  0.8811574873979120  0.9949645387125575
  0.9977775769348960  0.7992323415072409  0.1913506920543939
  0.3991787855662200  0.2034990716926377  0.0068513075451995
  0.6038169373119465  0.2019355978451428  0.5995967882486231
  0.5924652569667996  0.6067709549118993  0.0032067272628000
  0.6025115098506084  0.7882172996971692  0.7984353963129373
  0.8124940690411842  0.9753825164777176  0.8068495944916817
  0.8024267746331343  0.4036147899095099  0.6033735525869801
  0.9992455598666646  0.0028237021788267  0.2079095648807811
  0.9982847600135757  0.9980165375225020  0.3977936476076006
  0.9963109657911484  0.9942508180895830  0.5931244487403602
  0.0108590775824496  0.9888735123107374  0.8021284941769309
  0.0105993898717040  0.2033642793882628  0.0116324484973751
  0.9969170723744525  0.1991258025360941  0.4020322456098339
  0.9967852996640831  0.1983136302126300  0.5926606754625914
  0.0022196709720977  0.4042133451308790  0.0018150034227029
  0.9995033779182314  0.4004765194394159  0.3989362370199465
  0.9995968909208566  0.3995988145029010  0.5989922464951364
  0.9986326480115685  0.4094024472782255  0.7999137814325005
  0.0004190512049021  0.5944948332284132  0.2000298815579347
  0.9991894987322978  0.5977422941462300  0.4003938981082237
  0.9997480136026332  0.5987157395985407  0.5984203544473358
  0.0038222963103253  0.6050266239236183  0.7969093811581267
  0.9993581224539898  0.7988375148050821  0.3996386317217062
  0.9974352777819693  0.7944808951481026  0.5960164482738178
  0.9985297631526898  0.7925303006377025  0.7947276222299384
  0.2055636516152893  0.0019981546188649  0.0029720554484679
  0.1986722245811230  0.9970894137571145  0.2002933304930893
  0.1969401734636526  0.0015253684242811  0.3958727690096924
  0.1866032524022521  0.9956574017103570  0.5921428038145232
  0.1833156306286001  0.9944898607042352  0.7950160769591820
  0.2015373076868415  0.2021715952522034  0.0059497906415833
  0.2061247472755785  0.2008983612927856  0.2039745360140062
  0.2001519213486188  0.2015720003037003  0.4002368457420306
  0.1921186650472521  0.1954667662050873  0.5957123547393331
  0.2049012817778485  0.2017999399153307  0.8003431173945310
  0.2028918724376620  0.4073910247931677  0.0069328174567216
  0.1874864881863640  0.3927305926679311  0.1929367661186676
  0.2016434144915536  0.4029352166319052  0.4042195720646239
  0.1988785302256185  0.4042779148501143  0.8022013947138940
  0.2046341290894909  0.6034558029302630  0.9988364104902233
  0.1980033434133050  0.6015143887579099  0.1964035327161182
  0.1901837872057664  0.5964040278131709  0.3971457390030904
  0.1990292741896688  0.6003109380370398  0.6002757418767406
  0.1982919708458166  0.6017884024340171  0.7988404214121858
  0.1972549904763911  0.8010825508229784  0.0000560129624616
  0.2104464324199118  0.8030051803592483  0.2067342129190132
  0.1914442834329913  0.7907737568647193  0.3905063026587586
  0.1908687435058805  0.7903213824025492  0.5912217596003164
  0.1980330418442905  0.7963717743948153  0.7994430603848617
  0.3998391240634037  0.9928945953104978  0.0142031139849465
  0.3988402070495434  0.9968229114591892  0.1981146614352524
  0.3938630150162148  0.9947222343528598  0.3823682994373951
  0.3993067295236929  0.2019385731434869  0.2048556021400912
  0.3981016319642363  0.1995009372796528  0.3986296476962725
  0.3941127429697131  0.2121012925703135  0.5950635420183930
  0.3857622218888652  0.2029477973721336  0.7848295047327668
  0.3903020329715070  0.4074568851965788  0.9993612373296479
  0.4000322404206584  0.3975804299997920  0.1975170399059893
  0.3990808001815168  0.3919087445717782  0.4018907371050198
  0.3927585491157442  0.3964064435233900  0.7937772581086843
  0.3988224768035302  0.6020107385427474  0.1885345766997895
  0.3971037574223922  0.5920500940000331  0.6026405342083894
  0.3974563125268935  0.5997264606295852  0.8039890855996166
  0.3981324316454408  0.7951957160059007  0.0000196774961450
  0.4014848464761266  0.8004557630005820  0.2001713114611013
  0.4008279136625952  0.8035450814806807  0.3986066716068444
  0.4002378038741697  0.7930089734855577  0.6025307519466102
  0.3953744567924386  0.7898227966540446  0.7995501832172451
  0.6020081317162559  0.9957835600727488  0.0027584392180349
  0.6026286091196492  0.9977805011993978  0.2014141042108299
  0.6022284802092954  0.9964687433917800  0.3986690313385859
  0.6153626008287905  0.9957541011381236  0.6032345645672142
  0.6223736683350263  0.1984122582242738  0.0162382651444782
  0.6019750182062389  0.2008159401788758  0.2027425166205434
  0.6159291520561683  0.2081794599193676  0.8122447103888293
  0.6070102730586907  0.4048488825621689  0.2152685460904320
  0.6008601764983036  0.4019041148732865  0.4005362455909904
  0.5961335394132390  0.4055351498598416  0.6002619847536159
  0.6000563177251550  0.3986988030692806  0.7922659753264140
  0.6010768455212955  0.6008932479171770  0.2052558305710180
  0.6066373333174626  0.5991900620185933  0.3982456964598749
  0.6044682451662278  0.6016926316075336  0.6017355049077420
  0.5904867725987655  0.5850895746027431  0.7944510216116315
  0.6008123618129404  0.8073199145680650  0.0062151365728967
  0.5972397326593555  0.7983483517929887  0.1989107085424535
  0.6014311788853010  0.7979876191441697  0.3957134562709487
  0.6022566063420933  0.7991326379701497  0.5953389088091005
  0.8038698336654948  0.9961893274079694  0.0128570188373563
  0.8003034407301950  0.9999387143650140  0.2032658967464368
  0.7987990251572672  0.9983130269220154  0.3966417938885821
  0.7951753227549174  0.9845195946539615  0.5864838091703546
  0.8113047552782041  0.2019517592771402  0.0058208347430366
  0.7986382164963942  0.1987859365270572  0.2038168173336154
  0.8028224251385846  0.2009392794058914  0.4010408935801548
  0.8048280129123626  0.1963397167562833  0.5981163124866069
  0.7975010957185662  0.2063081366342758  0.8013794427062435
  0.8123220935604513  0.4048587606512067  0.0016744744450067
  0.8094767019644800  0.4017635332636502  0.2039277391637878
  0.8039051982722371  0.4006407361896480  0.3982486131757975
  0.8019718057307711  0.4079067476605975  0.8060790551863303
  0.7914266026896460  0.5966447960806258  0.9925053403923567
  0.8086590295261733  0.6087525674611742  0.2078836052676797
  0.8015269154480782  0.5988703157219434  0.3986878336286896
  0.7996825535335742  0.6003004037727887  0.5951162639383062
  0.7940783680812230  0.6045448879438071  0.7971307572388960
  0.7931338476690554  0.7956166740795383  0.0024993439988002
  0.7999524368800265  0.8035912173277991  0.2042401561939715
  0.7987731955357774  0.7967392886549045  0.3957204728073377
  0.7991216970919490  0.7929675345996234  0.5951789286494570
  0.9055326523835602  0.9022391888024679  0.9042047818872218
  0.0020350931334747  0.4047421816312514  0.2022527646134829
  0.3975112423146146  0.3973784481095803  0.5980562358779806
  0.3928966021046028  0.6013698038636072  0.0000201598003026
  0.1985721409066957  0.3993598721562925  0.5998688956736034
  0.6095239821608235  0.9975540362999588  0.8038568893129414
  0.6012334621463131  0.1984866905594001  0.3954341447165683
