Zr Ti V  Cr W 
 1.0000000000000000
    15.5633147981762434   -0.0105082892338306    0.0011052113616143
    -0.0105224976463168   15.5390273600018674    0.0056805954645976
     0.0011054290159095    0.0056800010957864   15.5617863503600393
 Zr  Ti  V   Cr  W  
  10   1 106   6   1
Direct
  0.0074296387246653  0.1863976362252908  0.8014316026311445
  0.9987533340961327  0.5967386727836804  0.7987545083637080
  0.1902386861222480  0.0046582311770282  0.8056688405207219
  0.1970171538639451  0.8000203213862100  0.3980534223114923
  0.3969403064942815  0.9989921583842222  0.9976204821990294
  0.3980983943387396  0.7738066325489094  0.0012350385719109
  0.5991819653097328  0.2021630781657734  0.2032129936498242
  0.6102465839495715  0.4097847624965665  0.3991239687466616
  0.6009829645628642  0.8011208021074971  0.6021015057678326
  0.7935833542760371  0.5920150720300841  0.4005414907985820
  0.9999570991305211  0.9981719879822765  0.1967497623227469
  0.8672133489979807  0.8667235127810674  0.0004238785871629
  0.9984962658130510  0.9991738337277156  0.3985394835870992
  0.9985393606537335  0.9976185458083877  0.5963140761087491
  0.9873502348934005  0.9876950034706771  0.7936157102839795
  0.0027034168000760  0.2021502702544696  0.0048106492892654
  0.0022146671186754  0.2019206748109376  0.2010740158799311
  0.0027412457428229  0.1980822323110906  0.3995224020995422
  0.0026336246951659  0.1982222207644288  0.5958293109691088
  0.0020960655317197  0.3993251989387119  0.9999714956809126
  0.0013302184125690  0.4010168682347510  0.2005773303259570
  0.0039070126845325  0.3985839426771721  0.3989964070767500
  0.0022078914034813  0.3984569124064292  0.5991982098869119
  0.0003061967785044  0.3952335148603892  0.7991127793704413
  0.9999932999212946  0.5986456094393124  0.0034823072433219
  0.0005695674415227  0.5993386428582079  0.2009068394126293
  0.0018177228246019  0.5987927255096406  0.3989753819310666
  0.0006981750045685  0.5989166195474489  0.5945958118275515
  0.9989898464411529  0.7942447926545344  0.9991733212714016
  0.9977372019494997  0.7974090456615729  0.1980420064417819
  0.9944200070277776  0.7983178699310876  0.3988323385780920
  0.0001704108783720  0.7979462216941429  0.5984966397649873
  0.9980335549584620  0.7988123130659791  0.7997947558501453
  0.1911234877846064  0.0036174614793325  0.0073128424778108
  0.2016495166171886  0.0026808201070185  0.2003725731011655
  0.1990779464043733  0.0041324227312030  0.3986942054937056
  0.1982787989559072  0.0001157203053002  0.5972757313172932
  0.2018452728619614  0.2029322630459060  0.2013881054032829
  0.2010295615276932  0.2013409781159710  0.3992449229732025
  0.2063952738357338  0.2016828951685511  0.5988341257824690
  0.2093459520781552  0.2088056551791719  0.8012464944762897
  0.2009479391648148  0.4021924628947666  0.0001956488193071
  0.2014117693268587  0.4024533189522046  0.1983701070670306
  0.2007219475773318  0.3998903257401343  0.3991895337727581
  0.1998997613870730  0.4003862500781276  0.6001008860662583
  0.2022432056268874  0.4025511186656557  0.8016041764059717
  0.2011788856661531  0.5998783176015232  0.0005884624513316
  0.2008019548152749  0.6002344891250436  0.1992374589325277
  0.2007416145475864  0.5967791430149983  0.3996851782344819
  0.2021121718932083  0.5987499602669885  0.6003822236286351
  0.1924200689738154  0.8032351218252952  0.9989457735938733
  0.1999336056462876  0.8002415318172053  0.1953856993431996
  0.1978862293139436  0.8008739432918571  0.6037158298681434
  0.1999850220031332  0.7976466546345627  0.8008946425556176
  0.4001633280900574  0.0013134827606276  0.2051409073512849
  0.4005058626353833  0.0009176982076169  0.4011366482384807
  0.3977713511219818  0.0046907920659380  0.5972617987372653
  0.4015518421534039  0.0008825372200538  0.7928243416321722
  0.4013677559791928  0.2053692418391982  0.9996186537632951
  0.3966399342137537  0.2021197940247604  0.2013391496496517
  0.4006394288743109  0.2017615481397377  0.4051436056320180
  0.4023340698530488  0.2013863464125924  0.7962639865553535
  0.4009902917780103  0.4011291541724735  0.9984239829480988
  0.4010761098790501  0.4018895678058801  0.2005921236964389
  0.4004023115607071  0.4009917501052817  0.3996287490157284
  0.4008365801334831  0.3970593155766754  0.6001915660462609
  0.4022003491764331  0.4014924154689281  0.7993775371149300
  0.3995234201950266  0.6011706005030253  0.2009658063822201
  0.3977105138193725  0.6003450207995836  0.4010419491468317
  0.3987011458836338  0.5986370225211157  0.5995459757378445
  0.4014571301640930  0.5996982367464359  0.7987200606376486
  0.3995733531068505  0.8012434102386968  0.2055256345481022
  0.4015087286587220  0.8016188666196012  0.4021656817734219
  0.3985797529996120  0.8010357338403079  0.7960250882870014
  0.6052447061952215  0.0002388722652542  0.0002020661751942
  0.5997607130615806  0.9970194455821193  0.1992713248853437
  0.6004195953901125  0.0006251360423046  0.3993601217704527
  0.6000368877744490  0.0040887577461315  0.5996715648642167
  0.5986669764179811  0.9991820420796781  0.8001965908753802
  0.6006145786332973  0.1996958230703140  0.9967573683521458
  0.6019356326623042  0.1991022567871746  0.4056569969935732
  0.5964376080617396  0.2018156623300676  0.6014882237292644
  0.6009422370359877  0.2000740956585662  0.8006308801316523
  0.6027532995168464  0.3995089780361291  0.9985423500321436
  0.6020321743300093  0.4003341411974109  0.6038839493211003
  0.6008781841797344  0.4015266142481734  0.8013790969495316
  0.6005605070080773  0.6002653555043143  0.9994323951649554
  0.5985193232954773  0.6026499492508790  0.1983938143907349
  0.5902492574104876  0.6111821994543643  0.3996549983237511
  0.5970758428790301  0.5971230359785499  0.6018930816715495
  0.5984877459150116  0.6002192814309877  0.8009428973538955
  0.6041155446744488  0.8002792964221286  0.0015320982860212
  0.6000647236874643  0.8004422601959528  0.1986735514413154
  0.5999178041312344  0.8040170377625238  0.3968316610588630
  0.5990654456236572  0.7997658255301868  0.8060054241804444
  0.8018035583071783  0.0009368464740018  0.9993867375567352
  0.7993635480728346  0.9994114772996423  0.1985874917378513
  0.7995406664161923  0.9997426763876024  0.3992381811082691
  0.7989676420230121  0.0012768779407957  0.5983261609832391
  0.7950468910964342  0.9983073949340981  0.7998265100026003
  0.8034800004067183  0.1989937527363485  0.9998451241444565
  0.8017152354484249  0.1967088047428003  0.4003144552430650
  0.8011039708489026  0.1992528130731206  0.6004089006373492
  0.7979548859757587  0.1982381855213844  0.7985822134665422
  0.8019138493734924  0.3984171625436400  0.9988289254738493
  0.8031821323120133  0.3993507314964024  0.1970652569389117
  0.8118646302464771  0.3892917290335270  0.4001842257281091
  0.8022879452135681  0.3967745268718965  0.6019682200764315
  0.8000525094188484  0.3970099360557711  0.8000102202255688
  0.7989448138758790  0.5964778219283147  0.0000147406150552
  0.7989840309246210  0.6007784237048830  0.1955453463967147
  0.7998770220195494  0.5968712750214946  0.6035051936721788
  0.7948535629902620  0.5994037194602446  0.8010947202707907
  0.7993604829693184  0.7991924073765642  0.2010860871121365
  0.7994287147712273  0.8007922450370630  0.3994053277126988
  0.8036050066862944  0.7984844414099039  0.5996646427709725
  0.7977496919098636  0.7986061959632940  0.7989196392351360
  0.2025328600660177  0.2044358045145081  0.0026985529909356
  0.2044508575384716  0.6004142458297810  0.7999409958699836
  0.4016013497536244  0.5908369534027802  0.0007939373681936
  0.3951002525695382  0.8003531154018232  0.5995886218920908
  0.6012477234005703  0.4057744275291710  0.1938163259376568
  0.8045768356561529  0.1994145429133354  0.2001298654292178
  0.4008656741510215  0.2012670494884259  0.5998719942894418
