Ti V  Cr W 
 1.0000000000000000
    15.4603446293932016   -0.0041322082870834   -0.0012082850725322
    -0.0041323107289872   15.4623066666688764   -0.0009055477358807
    -0.0012084946887904   -0.0009048943237887   15.4540012347107183
 Ti  V   Cr  W  
   3  99  15   7
Direct
  0.8029494230567594  0.7978894781957249  0.9990086879546251
  0.5922490640607603  0.3979466062758177  0.9992498265831947
  0.8030398074579037  0.3957394222947448  0.9988114794364368
  0.9985946319228897  0.9997901230419917  0.9987079719470443
  0.9978393930602458  0.9999466330925951  0.1970731743731763
  0.0021060500553661  0.0003168374632125  0.4044179594070455
  0.9999680219426698  0.9996195954937546  0.7966082457667033
  0.9984757607490015  0.2013297061915684  0.1999129988177740
  0.9989067252879121  0.2013072704395343  0.3994501945186140
  0.9999952991006762  0.1977528636090945  0.6009551738127359
  0.0004689841468646  0.2017800345429450  0.8010011150068255
  0.9991164832210334  0.3974843787798697  0.9990690943392335
  0.0030916786997461  0.4016352547131057  0.2013275495668461
  0.9999170884200520  0.3986729523831471  0.4035745186131099
  0.0007041600043383  0.3997849208847125  0.5999701445467384
  0.0007470407743106  0.4004514584008312  0.7988085179338283
  0.0007989977567542  0.5959877136442230  0.0042809019711145
  0.0005505341095333  0.6013210221136218  0.3968681839515766
  0.9988403693909145  0.6005536778292678  0.8018083087708785
  0.0003487997803946  0.7997030913626686  0.3993625258850924
  0.0007156640894786  0.7996147064030263  0.7990398641988595
  0.1985878496068293  0.9991120187370024  0.0023747419188445
  0.1988474725815307  0.0011290189988242  0.2025953079317644
  0.2003478342673203  0.0008135711132584  0.8016163643810614
  0.2008064640332783  0.1971525208869127  0.0007094649601523
  0.2001504286421137  0.2047044107877881  0.1988658564966505
  0.2010424820273914  0.1944878272181005  0.4004369965108195
  0.2008889014670525  0.2018022094130701  0.6001936584680343
  0.2005407737344984  0.2009351867110239  0.8016547883731592
  0.2011873750516619  0.3992497179459773  0.3981439987393820
  0.1997959329839251  0.4015304253355289  0.5990943231675991
  0.2000089552057892  0.4005410162661054  0.7991524885695422
  0.1971260169373366  0.5969006089967746  0.1971722340480589
  0.2013293610775331  0.6031048278458585  0.4015283900508931
  0.1989805908846274  0.6000422204555201  0.8046867120511716
  0.2047957608868388  0.8021655672491265  0.0010143461453242
  0.2024284586137253  0.8016450801194120  0.2008093564386065
  0.2017169881316402  0.8041287785403608  0.4011119890180523
  0.2019495642226219  0.7982293822679510  0.6005546678305178
  0.1997548799407675  0.8016755166152670  0.7997023593539939
  0.4035803130490221  0.0005431041906165  0.0005710426684971
  0.4001295288694812  0.0005276482749268  0.2007954193723584
  0.4016859142682818  0.0002899883556997  0.6006790892160114
  0.3991991881619633  0.0009487825565896  0.7995665117870979
  0.3995450017144173  0.1991691092157874  0.0006721465369098
  0.4010613085131428  0.1992197547683847  0.4010691717268677
  0.4007102202072723  0.1998118632948346  0.6008714196331868
  0.3997262979278946  0.2010550549376936  0.7999686075174571
  0.3997411268683577  0.3991854703004281  0.0003887788101469
  0.3963649788185456  0.3997315136503082  0.2011213438398822
  0.4004843524569192  0.3989463885071707  0.4010964653394310
  0.3991534526476305  0.3993758021816259  0.5999189461699426
  0.3991792184537155  0.4004076839138296  0.8005960401387070
  0.3948875232955084  0.6005594558655651  0.9997500233907956
  0.4014843239447914  0.5993437994678044  0.1999429667474754
  0.3999983691473676  0.5999469985280554  0.3993640386286967
  0.4023149164350852  0.8015005834268937  0.0004332811015817
  0.4016966679955600  0.7981630707824066  0.2012085926434791
  0.4010053404436226  0.8002779090219913  0.4003041622345262
  0.4003076203552878  0.8012137224633038  0.6002980859940459
  0.4006098855230775  0.8004340332861866  0.7993904088559514
  0.5997907221867603  0.0005925533727170  0.1979048309929092
  0.6005498018187058  0.9999804768294468  0.3997461921834893
  0.6015640009585264  0.9989881828683421  0.6010736441503580
  0.6002519718855210  0.0004998861355343  0.8032718810671081
  0.5991554530319436  0.1946225772238681  0.0006142979134372
  0.6004108693339546  0.2010649779937980  0.2008621263583022
  0.5998261536397895  0.2002258175068917  0.6002933032761495
  0.6003510870683342  0.2010984465948616  0.7999225001387134
  0.6006368065694555  0.4008610003637046  0.2005380056644958
  0.5988273198775970  0.3991160830308918  0.3989947380660754
  0.5995597883969511  0.4054776710064650  0.5996153256002474
  0.5995730800096739  0.4008390228617772  0.7993312219123133
  0.6012174819836908  0.5999617399387459  0.1989936854068136
  0.6006545131758630  0.6004344642750827  0.4025428396231098
  0.5993640233810078  0.6009201882411752  0.7971557116936493
  0.6008230428225770  0.8037365046799143  0.0003154386463100
  0.6012296938120602  0.7995458855761181  0.2011739228330384
  0.5997725954573088  0.8013667634439258  0.3996898135902827
  0.6002735565226310  0.7965720825408517  0.5999615393638096
  0.6006545828254841  0.8002450038660521  0.8005668140160412
  0.7972988378443500  0.0013577630230140  0.0002341068013919
  0.8009167738693830  0.0007114981873679  0.2008450936306569
  0.7997743105939609  0.0005661777069059  0.3991839671095335
  0.8022550263750815  0.0002442224613961  0.5998051190386322
  0.7993254685846543  0.0015988613513615  0.8003588371639340
  0.7995936905949662  0.1999793764822996  0.0009539844732707
  0.8004473911282457  0.2015989358106992  0.2007997568095493
  0.7988351224359717  0.1998530982638429  0.3993329969391850
  0.7977202928725045  0.2026540488244186  0.5998679613922461
  0.7996571396141718  0.2013382255385721  0.7999729010453506
  0.7999571686506992  0.3995430892428314  0.4001466681613202
  0.8012967142292057  0.3999719898497155  0.5988501704894961
  0.8001237758512714  0.3999509245005665  0.7983356187381561
  0.7977096773152493  0.5997636247759228  0.9996682050822238
  0.8031352124592563  0.5998886582454952  0.1993403557985362
  0.8008063611323784  0.6001009091585582  0.3992023175252684
  0.7994775199069536  0.6005101518446494  0.5994576804023677
  0.8006433484029281  0.5990988432753130  0.8000736151888805
  0.8001128110545804  0.8012673337442894  0.4003966571012219
  0.8011096114916308  0.8002458153839507  0.5994804455509518
  0.8018677294342964  0.7997149163568301  0.7986722889932192
  0.0007298215107130  0.1985788370701741  0.9999728352744871
  0.0002078574376851  0.6005751899534278  0.5997866215872109
  0.0001814968438185  0.7985364190001518  0.1995778049932514
  0.0013744430333287  0.8007260951401359  0.5994700205761507
  0.2000092652920163  0.0000617349674401  0.5999460605973265
  0.1995562266256542  0.3988889446475241  0.0006636224459433
  0.1996326372024479  0.6002244391489652  0.6014956597315240
  0.4000973127204429  0.0002123423496818  0.4007898930530245
  0.4004411177440245  0.2001536589535058  0.2008231611561780
  0.4005151764866300  0.6002660299126161  0.6008453807764934
  0.3996469303774240  0.5999274158771457  0.8001411238825303
  0.5997112853862916  0.1996130299634780  0.4003109848066775
  0.5971917922694184  0.6044468377343526  0.9987824061966721
  0.8003881205867898  0.3993851533548357  0.2027655493830273
  0.8007391814234717  0.8002117028719404  0.2025314928499122
  0.9962476897487571  0.0041947352341540  0.5999809972377168
  0.0010151394728876  0.5960122335075866  0.1995948317903748
  0.1962076838878189  0.9998070189510104  0.3959495692439320
  0.1997971859011061  0.4002113417093856  0.2035570541683547
  0.1943285582279055  0.6120574125145077  0.0020057150016524
  0.5993539721366845  0.0006760944414275  0.0016362389950643
  0.6046483353445046  0.6007821882081086  0.5990871837190166
