Zr Ti V  Cr W 
 1.0000000000000000
    15.3960504026614231   -0.0029059402776773    0.0109527228615838
    -0.0029019596058232   15.4211892961187402   -0.0178703021294289
     0.0109643357546517   -0.0178836246684765   15.3929296075496413
 Zr  Ti  V   Cr  W  
   3  13 106   1   1
Direct
  0.3846675987027817  0.4173550498336660  0.8004244989892831
  0.7967124720886432  0.9721321924194731  0.2216846889845906
  0.8111441991688596  0.2079233233061897  0.7750921841779730
  0.9835856587642461  0.3891068855774952  0.7971989003884277
  0.0061381325005414  0.6047872208246330  0.9891246609978478
  0.9998892833130224  0.6358523797246579  0.1979062623134026
  0.0104675345472747  0.7922777726588049  0.3907940394982514
  0.2097493705231772  0.0009448882460814  0.0022096190134964
  0.1983093413011772  0.5871899348691240  0.8073812408041229
  0.1861382606623651  0.7945528302416187  0.2060454876481911
  0.3982040454039393  0.0036828405528621  0.8124745359562064
  0.5969455885757791  0.6043307069101502  0.0001280146778271
  0.8042373368904143  0.9961505146184427  0.4222764609215422
  0.8033552438741467  0.1931912383184402  0.1881276764039233
  0.7983436273271960  0.2008109759089902  0.5747856748517304
  0.7968226281085530  0.7741411954371108  0.1940678829667843
  0.9988167023814438  0.0028492925115429  0.0005194723158575
  0.0029902204018269  0.0071879346732727  0.1990783458880598
  0.0014331586703120  0.0017466045730192  0.3990410580223200
  0.0000825169986758  0.9981610512843074  0.5985676158524340
  0.9989493799751168  0.9988104892646684  0.8006334743625980
  0.0010490052200212  0.2015749142153684  0.9958804076315342
  0.0039015550747019  0.2012901255287667  0.1974344791947196
  0.0009239640490872  0.1989340537930414  0.3986374856222878
  0.0029910210218427  0.1989510656422565  0.5985974651989091
  0.0095846401911024  0.1926915677421746  0.7989156357934187
  0.9979445059981608  0.4012740440982062  0.0029264286430793
  0.9985828989417748  0.3964403669437044  0.2005549801701153
  0.9990449847743763  0.3991667045650788  0.3991680254472250
  0.9996605741511065  0.3997601934208894  0.5972600767843291
  0.9999967611024597  0.5964506262277088  0.4020481576032470
  0.0004084950136942  0.6006173320781942  0.6000912887184909
  0.9958943303422673  0.6017112446636359  0.7965705292880588
  0.0003485555376849  0.8071062881751911  0.9952741900193623
  0.9893942489097731  0.8167604907786831  0.1923878975754609
  0.0007503973304144  0.8008420017567832  0.5991671628896028
  0.9999734173178515  0.8004666799223316  0.7978057471841009
  0.2006315006500852  0.0009779571735523  0.2044041986308152
  0.2002869456906491  0.9990591644540772  0.4013419570038421
  0.2002828193977622  0.9993783801480116  0.5998487156178026
  0.1963074392627337  0.9981095933432624  0.7981152441603204
  0.1985119766187509  0.2039063169297439  0.9988844112332117
  0.2023560514777945  0.1999085607322853  0.1973215313642477
  0.2005988337639839  0.2002485860323613  0.4008223898265456
  0.2006946190185921  0.1988889452234041  0.5997473655631945
  0.2042831434167164  0.1978259674782899  0.8003585763926281
  0.1981311812678440  0.4008091909031906  0.0013901063145678
  0.1973205635895643  0.4016572213286788  0.2009148266219526
  0.1988618917867029  0.3981879886382852  0.3997528552856964
  0.1981564353034201  0.3992444422016551  0.6017120036433093
  0.1867500375204110  0.3930432393720174  0.8011441892853804
  0.2004132389928848  0.6009273304211830  0.0065665633598850
  0.2000935170692918  0.5978431866684543  0.2023133959379484
  0.2017279438311961  0.5952651621758075  0.4034209478237830
  0.1995883104541318  0.5994809153487141  0.6009114373628598
  0.1985843804611496  0.7980705036747930  0.9987831563252273
  0.2053717555592899  0.7995101889349536  0.4050942029703367
  0.2004159047154973  0.7983604035521267  0.6027312218232947
  0.1991578247396082  0.7994553426847693  0.8013977525756665
  0.3977253350216742  0.9983902733495923  0.2009106324204463
  0.4004428005655932  0.0001362864817851  0.5990101692486335
  0.3996370618455031  0.2005854464237962  0.2015216812002214
  0.4000777020496110  0.1998267242483346  0.3984445413246658
  0.4002372028301358  0.2006680085828090  0.5990425149624549
  0.4001879990168697  0.2041379780626065  0.7971949647040587
  0.3995024724210907  0.4055874592101382  0.0056525168156007
  0.3990669355175397  0.4012287390297384  0.2005167240870712
  0.3998864120438536  0.4012475156647759  0.3994356463861953
  0.3998036899372139  0.4014898761490518  0.5957696399221324
  0.3969696283206304  0.6043283081026318  0.0020385565309243
  0.4000584655909813  0.6034940416679390  0.2015421651394586
  0.4009052216396092  0.6011086145785032  0.4002302581481789
  0.4001655191449303  0.6023073247369486  0.6008245568744216
  0.4026541666397802  0.6129336626702986  0.8025942363866297
  0.3984961993951054  0.8040951810549942  0.0027115676026350
  0.4002514975082486  0.8000240961643311  0.2011548430028653
  0.4012421077136420  0.7999340960093407  0.3998999465002893
  0.4008988804515180  0.8018844649934469  0.6014073815979406
  0.3989958269801396  0.8024864519535431  0.8011428339148127
  0.5996266180253748  0.0025609640395243  0.0021669402469529
  0.5943515173869848  0.0023742802853375  0.2011239385176118
  0.6013219419541025  0.0001610625359111  0.3995255210656501
  0.6004731245919049  0.0013304771924731  0.6011927695035925
  0.6031445229771809  0.0023960952614497  0.8020063773725224
  0.6029109487854133  0.2015094156473594  0.9979367254214923
  0.5968162239558831  0.1997079554414396  0.1977747901415736
  0.6004587102966750  0.1996946721754569  0.3986855807950444
  0.5998261066936305  0.2005122251585080  0.5987238315407076
  0.5966676016237878  0.2019461610435038  0.7994611689327733
  0.5979574032104235  0.3980523118683685  0.9999855889504905
  0.6003677287328423  0.3998385748986061  0.2000222010493183
  0.6012196014279384  0.3996668126599641  0.3999418353959486
  0.5991425057917679  0.4007796889726586  0.6002664004899160
  0.5976966606933225  0.4016121903871268  0.8003153184974032
  0.6009600800757638  0.6014917177714363  0.2022338731957042
  0.6007339189275901  0.6003238954577309  0.3998610689156212
  0.6015243399401222  0.6010986032032578  0.5997022241302850
  0.5994765072205843  0.6018004815121776  0.7985190105677961
  0.6005511893588670  0.8045508613704632  0.9999033142105920
  0.6016309302329329  0.8027351146360163  0.2005507405619502
  0.6005380167640799  0.8004500154493928  0.4013801865268266
  0.6007891248624911  0.8025660463552263  0.6000745553572031
  0.6010827053109004  0.8020129751669300  0.7995422079691528
  0.8001246372175532  0.0027023974003506  0.0041785730003976
  0.8009096813773102  0.0011806596484270  0.6116796736467356
  0.8004609418105587  0.9980403893780554  0.8048814827609507
  0.7998988571198067  0.2018074188640441  0.9917967707868500
  0.8016289469451405  0.1966956447678992  0.3866020773665805
  0.7996135071635451  0.4034275060278114  0.9996152410891267
  0.8006560026959314  0.4013193851252869  0.1989453448323511
  0.7996493199170294  0.3970964251316401  0.3996250731059580
  0.8008198692769188  0.4020524881075810  0.6008662407817091
  0.7923059550934715  0.4098756711988627  0.8015575575821819
  0.8034854867672480  0.6013485665760363  0.0000567024175495
  0.8003430932557641  0.5912477344731605  0.1994242213987232
  0.8016987984822003  0.5967922490646261  0.4009237406814130
  0.8004879196183444  0.6001718215053382  0.5994452705354185
  0.7986352030916292  0.6037717518318979  0.7989291875009005
  0.7997823644706841  0.8005717745232667  0.9965827096796223
  0.7988983834630010  0.7945355226397033  0.4030697844807313
  0.8019922304751015  0.7996394054620232  0.5999675117912405
  0.8003520806955641  0.7996793676446422  0.7999903157834055
  0.4009172434197439  0.9999224604761001  0.4010303532840338
  0.4027631758646997  0.0332260966082298  0.0038321498150825
