Zr Ti V  Cr W 
 1.0000000000000000
    15.3205282173675101    0.0002014824685806   -0.0032720455521328
     0.0002023707323046   15.3277042438828079    0.0007193262014022
    -0.0032728540049734    0.0007198926617368   15.3420216939870571
 Zr  Ti  V   Cr  W  
   1   2 102   1  18
Direct
  0.3920401618206080  0.4179014736339408  0.8183287557709271
  0.6096483634586204  0.6097321800683637  0.0083225127930082
  0.7918523185665932  0.7890357841400292  0.0090656899340871
  0.9966522078879175  0.9988670115679417  0.9964023700444016
  0.9996364966685931  0.9991344079297889  0.1978294281486311
  0.0000157594380377  0.9985315400552210  0.3977305480559822
  0.9995828411524958  0.9971373077382985  0.6053049920301358
  0.0020929682389036  0.2010476675729391  0.9994433672847968
  0.9987873271108184  0.1990225080675027  0.2006081171768168
  0.9996796788684359  0.1985724559622326  0.4020551543350555
  0.0001692600589825  0.1989985238989917  0.5998019686570574
  0.9950639494281419  0.1999204246973313  0.7986710992071370
  0.0035331390670301  0.3996302567521179  0.9984684499236691
  0.9995435055482498  0.3991470067693658  0.1972239770515310
  0.0007069916657352  0.3999826799119031  0.3980691554233149
  0.9995280893107245  0.4020827978475493  0.6050781539942008
  0.0024334079090851  0.5995710958010154  0.9994697470562474
  0.9990547318128324  0.5982116581413174  0.1991539152266789
  0.9967060838155637  0.5984003048871254  0.4041120613946989
  0.0022941862331749  0.7982865005512424  0.9983701163988296
  0.9952579184310388  0.7990897248447941  0.1993406650846188
  0.0027821150973045  0.7999040554438249  0.4043617044150800
  0.0009918381478642  0.8032717674741342  0.7970484950390936
  0.2002059472029017  0.0013746295254204  0.0008056447535637
  0.1988031864405112  0.9998997105836134  0.1982640849830012
  0.2040951538887513  0.9954775786351081  0.3981178938602321
  0.2002672928845102  0.0051042261108088  0.5997792998777082
  0.1960364205380597  0.0007584692887417  0.8007278491949829
  0.2009796473823477  0.1990026934920856  0.9997677237224283
  0.1993538049941053  0.2002354274609371  0.2015936269785981
  0.1998685114667977  0.1992452576893800  0.4044852022154926
  0.2014271138333470  0.2005317773614139  0.7942870983094735
  0.2066435402479005  0.3987472864818473  0.9990585671823630
  0.2005860009535069  0.3993662888444734  0.2008294588775076
  0.2003953868870919  0.4000995629352654  0.3986701647674617
  0.2006354823602989  0.3946896170461971  0.6003666067816492
  0.1893838623057346  0.3982402502838522  0.7999381920456116
  0.1987622628523436  0.6009658923704436  0.0013137068608336
  0.1998363584107503  0.5988130377036252  0.2006394879507059
  0.2025332501987241  0.6028429536180854  0.4002709495035023
  0.1981158624286275  0.5972409946229906  0.5996059950821380
  0.2065886169160061  0.5968494066307746  0.7999800557777624
  0.1993984489165199  0.7998917155991070  0.0015503617197485
  0.1990719100653094  0.7987194533864735  0.2032818555682927
  0.1963052198213076  0.7996946426671729  0.5950404137104118
  0.2017449925457143  0.7992155048746306  0.7990475639431498
  0.4000645050781405  0.0016541488324182  0.0015100347152272
  0.4013887867126728  0.9996110841765056  0.2007817989852601
  0.4000800384390403  0.9991909252668428  0.5964111968284452
  0.4001474154238696  0.9957535269814266  0.8026346636460632
  0.4005293737526799  0.2031529641344611  0.9980151139069803
  0.4005276578256244  0.1996804674624538  0.2012792849743729
  0.3995023930159557  0.1955357047624681  0.4012381865345239
  0.4009484073631712  0.1998787356067755  0.6019704149090719
  0.4012351268436398  0.1982411916251292  0.7992034589647933
  0.4040170030037873  0.4007369248205484  0.2026309557326255
  0.3991151252944983  0.4015066029352224  0.4006156874377834
  0.3996240230395740  0.3988321238601283  0.6019267373538933
  0.3998790877187199  0.5985841941784438  0.9973713378829575
  0.4021238571817031  0.6009178541421563  0.1996109370463240
  0.4006931420004032  0.6004738967988407  0.4027894362980702
  0.4007509600793558  0.5982199841055592  0.6049417311022599
  0.3978911367402767  0.8017078323322866  0.9977657410589466
  0.4014051047635923  0.7981067820916303  0.1966710648522808
  0.3987544679034418  0.8007070003667908  0.6029159981783365
  0.6019504496001327  0.0033238628812996  0.0004176592458951
  0.5998760390869760  0.0008151563186385  0.1995810507336616
  0.5955801503792273  0.9982654354803513  0.3981574870609712
  0.6000147641797388  0.0036958542923637  0.6002153104499339
  0.6007136312474216  0.9985736818570127  0.8003123643749932
  0.5997115078504270  0.2006331351730361  0.9986299044944856
  0.6020072965492275  0.2024731269345568  0.2023082944071680
  0.5993894834039618  0.2002148659128114  0.4051111414988542
  0.6025113295424572  0.2004896195802278  0.7961879764403094
  0.5962860052908233  0.3983663604794754  0.0053620690325768
  0.5984032063650665  0.3989859006040183  0.3960380806571974
  0.5987642000737019  0.3960547362985831  0.6001756608001551
  0.6009937965661247  0.4008421744773797  0.8038534098399039
  0.6002272121134417  0.5951702812137049  0.2057567653475695
  0.6021570091551971  0.5992879838238999  0.4043734873638978
  0.5988949354857724  0.5975323416894499  0.5993231093211662
  0.6022412904278028  0.5995633557167279  0.7969916377571613
  0.5940482110041202  0.8051877761781291  0.9995798564270599
  0.6018952610031438  0.7980892951771941  0.1996513029246709
  0.5996400681966185  0.7989473634817941  0.4010350056269199
  0.6024323084276134  0.8001726935387269  0.5980998406429646
  0.5979381039961276  0.8016884674136909  0.7974196257122377
  0.7993311618390420  0.9949961111245049  0.1950330369755307
  0.7991351252653069  0.9986345623737111  0.3969189626389547
  0.7999574115771085  0.0025491768057786  0.5981259941725038
  0.8030970512049472  0.0017159003027129  0.8073906305627103
  0.7989262600308682  0.1995103869786737  0.9954994703543659
  0.8003647280203882  0.1990016135485482  0.2025476847030156
  0.8006087254001693  0.1971034295505544  0.4036099435439545
  0.7994277690726850  0.3980131076807505  0.0019916876276467
  0.7965648972239574  0.3989873781594938  0.1985404110739229
  0.8007076210439318  0.4027101261304457  0.4003927355593944
  0.7987099598332839  0.3915947021119845  0.5993064834907167
  0.8010793037455566  0.3977005847332901  0.8022142747892265
  0.8041599292397680  0.5943734431376404  0.9953008511310311
  0.8002707083156131  0.6026528485804609  0.2041482032755203
  0.9309866981692180  0.5967301892275132  0.7323577866744559
  0.7990545350629107  0.7973862051899225  0.3978222928867817
  0.8024631863151359  0.8060493704645281  0.5987201298313513
  0.7977990306916429  0.7946977847054590  0.7977005385785029
  0.3999208907198696  0.7990672896888763  0.4000052281794420
  0.9995616018207505  0.9984879407249240  0.8014675236206678
  0.9962588658300748  0.3982350372272439  0.8043117262379270
  0.0038348941957145  0.6033156344921230  0.6011599926021443
  0.9990000111305136  0.7988213313059778  0.6009053448084062
  0.1996834669274147  0.1995270542610257  0.5985608542362681
  0.1974116073356388  0.7995910887757652  0.3988120934568952
  0.3997798359134023  0.9994590378583882  0.3977944796542499
  0.4020252800882933  0.4013130284895490  0.0128623360340474
  0.4034849877452367  0.6150067737089762  0.8014889880952765
  0.3991010210212169  0.8009286745590987  0.7998479301624678
  0.6015977226166414  0.2001161029573427  0.6007091604138137
  0.6006664929035077  0.3982330952242061  0.2009546733518154
  0.7996164562255912  0.0067431660241875  0.0007873333263149
  0.7972334040692152  0.1987774358462063  0.6021907825536752
  0.8001067687216292  0.1989214519638290  0.7960568416965206
  0.7997357118122411  0.6004361954139041  0.3977561031454335
  0.7974360003729127  0.5960805233614374  0.8022599696320896
  0.7991552485971224  0.7999676914537246  0.2038817730900823
