Zr Ti V  W 
 1.0000000000000000
    15.3704372863088707    0.0041087699184726    0.0045828320708022
     0.0041071823098185   15.3593176205705255    0.0049868964281650
     0.0045832368054306    0.0049883200619353   15.3853693029952101
 Zr  Ti  V   W  
   1   2 107  14
Direct
  0.7914360961537169  0.4019488956089351  0.8096862206250757
  0.4089319660101974  0.7974845154928029  0.8045474370126950
  0.6129373475372680  0.4014338927099011  0.9886542997624527
  0.0978983111544458  0.9977944435328158  0.0984529530427247
  0.9936931323066466  0.0022035212613032  0.2029656171163756
  0.0004086663800960  0.9968211468030708  0.3994174056068673
  0.9944477597268765  0.0001020278484198  0.6017680330886762
  0.0029342452615617  0.9985785905458088  0.7992429492698294
  0.0002126522936879  0.2002246805710260  0.0012195802887822
  0.0012800714712500  0.2019716199773496  0.2021128829548470
  0.0006150935988767  0.2002702758233794  0.4008212291998274
  0.0029470859659719  0.2010024849727726  0.5988745833410881
  0.9996572511780851  0.2003508483382108  0.8021937725559612
  0.0039167262382316  0.3990585778465872  0.0061459745811320
  0.9986309992653245  0.4011861856164141  0.3970129843054107
  0.9975785761753085  0.4000409724479698  0.6000405098291544
  0.9993510722025070  0.4010672956733942  0.8026697073853670
  0.9983667091055330  0.6052447545339324  0.0002903650753349
  0.0033151282303452  0.5962553779458680  0.2009241680390559
  0.9997216694927540  0.6027385346747347  0.4023041065942316
  0.9994847147241802  0.5994547787378784  0.6013364177935508
  0.0027467776911159  0.6006459032967025  0.8000383630390248
  0.0034071387235006  0.8000168115934524  0.2019907250615761
  0.9992742532070831  0.7994148213986461  0.5946313594708819
  0.9996985831198004  0.7994796557077471  0.8056156591105234
  0.2016727262446039  0.0017475749075027  0.9935211905212747
  0.1984494436310793  0.9990149011078081  0.4048357167329339
  0.1984926487769911  0.0028166343757983  0.6057463972338059
  0.2000192553326118  0.2026526338987815  0.9997176527237910
  0.2003008850410452  0.2003466553094107  0.2005892149610100
  0.2025655089154214  0.1984167030179585  0.4031005742462778
  0.2012007162969445  0.1962021820794805  0.7957627156966193
  0.1962400521281656  0.4045747978888314  0.1954561180138197
  0.1995433154315565  0.4015377625566177  0.3996836440160256
  0.1978997281997925  0.3966480998791032  0.6009507452305899
  0.1978224409448724  0.4044670635491401  0.8047113001440788
  0.2008783521650908  0.5964382573909779  0.9962322171047127
  0.2010190025913570  0.5994146230531189  0.3995442028825652
  0.1996988982535763  0.5989570803924612  0.6048506415646049
  0.1966889812242010  0.8006514244447717  0.0024083879627164
  0.1964381700762514  0.8007254626563844  0.3982680723520939
  0.1996183261294678  0.8001621303993828  0.5997335404509304
  0.1986937165724856  0.7988258697287216  0.8000643054048809
  0.3994529605239028  0.0009280875887424  0.0004038071027390
  0.4022860005838518  0.9963524547305302  0.1993795305427016
  0.3997767245666358  0.0023334487929498  0.3989859047937283
  0.4008615416346785  0.9986268932505609  0.5998580161648580
  0.3972283486202972  0.0005246922903200  0.8000671084990539
  0.4013638822666188  0.2007510132265926  0.0021123153745420
  0.3979016640267066  0.1971895266898609  0.2036571555905868
  0.3964156713714825  0.2002819860969343  0.5949250870846949
  0.4000926954202479  0.2003623345409861  0.7990303514490276
  0.3958267280385916  0.3983520958601606  0.0002650626083694
  0.4020767556510340  0.4009960317378544  0.1982234365846117
  0.4001233240873546  0.3967877064086637  0.3976449699331919
  0.3992198109830865  0.3997665452343580  0.5981486558466681
  0.3965721412464753  0.3992305541010119  0.7995348353151001
  0.4015099451111431  0.5993334024781076  0.9989732011050371
  0.3977217518507839  0.6029146546667424  0.2005810127782262
  0.4002518286382464  0.5987740168269173  0.4007691120014569
  0.3984709460232486  0.5997345087955493  0.5986580627220655
  0.3957760317298619  0.5991121098058048  0.7995410236368550
  0.4021072293894150  0.8007631983037323  0.0073301910909394
  0.4014802444664973  0.8012451780031645  0.3962500701957132
  0.4003274182680290  0.8007437555032334  0.5936857105485914
  0.6004023361748746  0.0004818432712790  0.9971293074942676
  0.6027846448332154  0.9999061857008156  0.1981619335256303
  0.5993797152026119  0.0003408344417988  0.4009623157031543
  0.6019883258463803  0.0008092551007370  0.6023499153272011
  0.5974635876383673  0.9990938283579035  0.8003563913783190
  0.5991869354247787  0.1996740685153021  0.9989545202807951
  0.5981869307114616  0.2025281761527912  0.1987901901833799
  0.5947033211348368  0.2014144698488146  0.4009530328929722
  0.5979734930480758  0.2010003702000603  0.6007156201415463
  0.5971066247204632  0.2011650524400906  0.7997387291883943
  0.6021384067133493  0.4013385492621482  0.1991068716234655
  0.6011468787858970  0.4011829857929476  0.3984859281474541
  0.5997239290713521  0.4005778254614217  0.5990466744541743
  0.5897312708491875  0.4012272526433386  0.7943128984907312
  0.6000456619226743  0.6012673323783457  0.9982301655700684
  0.5979701086422252  0.5986589877004427  0.1979332875120114
  0.5993639383081483  0.5991843686115621  0.4017569161157120
  0.5984225612609599  0.6000050884197040  0.6018523308969138
  0.5954048464670302  0.6010463184085300  0.7998329849327629
  0.6012325002355309  0.7992915546845105  0.9994967239007126
  0.5957103161407590  0.7989514060539777  0.1996143823566688
  0.6033214185847002  0.7984256737774696  0.3990548040838549
  0.5996312240160182  0.7995217116154302  0.5996837194612608
  0.6029980537469506  0.7995612410448999  0.8002880208729327
  0.7973447254262309  0.0000901909951574  0.0035023637966676
  0.7981539025880870  0.9970668614082239  0.4023031997115132
  0.8007271912931043  0.9993296740285966  0.7983744105643128
  0.8003708891066733  0.1989111309901483  0.0014199340589431
  0.7980395075914753  0.1967196417978935  0.2028046091566203
  0.7982104932215324  0.1987533687255863  0.4017144592215339
  0.7993152141130208  0.1965122337946257  0.6005572491756271
  0.7998524718714660  0.1956631032937616  0.8008929526986892
  0.8079056412761336  0.4000889473696809  0.0106589319834165
  0.8040647641321153  0.3999352503615235  0.2046068937113595
  0.7997524516649545  0.4003229775794350  0.4017480260285605
  0.7993016370730915  0.3988730550367336  0.5991538566273067
  0.7994179109652408  0.6011452131225820  0.0012370057138538
  0.7978883331877498  0.6009864297235478  0.2011245219376801
  0.7983466550517488  0.6048478112308000  0.4016607617865895
  0.7986378977732239  0.6001211166377161  0.6027967447943461
  0.7992746568280167  0.6065596340946582  0.7994584952443293
  0.8029269673656386  0.8015693651941316  0.0031165618548897
  0.7980191385524666  0.8035170218628508  0.2051340069551656
  0.7999196945820370  0.8050195445099511  0.5964433910655498
  0.8009409937868279  0.8016495887240056  0.8001738977116520
  0.0006289246842905  0.4014617667035170  0.2020624697052771
  0.9981836687569555  0.7978217319347582  0.0044517635554888
  0.9980886881732405  0.7987234158181566  0.3988869734220954
  0.1997190526037164  0.9976098106906112  0.8001456750918743
  0.1994789724968316  0.2004970037580182  0.6009099106583001
  0.1999023111171442  0.4007877534814768  0.9995818761441320
  0.2018715805493114  0.6022503148447723  0.1976542569142135
  0.2005918119672270  0.6010753475780537  0.7998617955638463
  0.2021458725167799  0.7917968009959273  0.1996281266553250
  0.3988093743131848  0.1994329524657133  0.3986356040945445
  0.3969719281907147  0.8005344942021176  0.2018988225966053
  0.7987185867689014  0.0012026317118912  0.2003499478510756
  0.7984096002681297  0.0008780652044725  0.6011561299765722
  0.8032781207248773  0.8009604893506200  0.3997730062157844
