Zr Ti V  Cr W 
 1.0000000000000000
    15.5004896741728189   -0.0004158105810668   -0.0050371344900328
    -0.0004152438767701   15.5184971327380818    0.0022293626541477
    -0.0050375150765819    0.0022293852992323   15.5073736479438065
 Zr  Ti  V   Cr  W  
   4   2 110   6   2
Direct
  0.9982997005598406  0.0006802918131122  0.6002370542926907
  0.4037749747381352  0.0003845537900922  0.3974828371729643
  0.4027179665818947  0.5919544217695397  0.7990244433646599
  0.7759736245173081  0.9989884342687962  0.5971802879936104
  0.5978330376219158  0.1950736288361790  0.7985068097927025
  0.8061961405978236  0.1983740852366718  0.7989087119858391
  0.9996271998601590  0.0002024709899777  0.0011477883627540
  0.0004841726922335  0.9998882816116604  0.1982707230782741
  0.0008998819072217  0.9998746543428563  0.3950982614741991
  0.0011168620254175  0.9998084373860519  0.8050167853184625
  0.0006209808767392  0.2004453696045281  0.0008735164018527
  0.0017352679464405  0.2002533972684750  0.2007045968027880
  0.0015765723588006  0.2004751071766306  0.4004799811881218
  0.0017417972179297  0.2062231810654885  0.5998939236690417
  0.0037423706138481  0.2004004082489030  0.8001958242944742
  0.0003963232729300  0.3997932378025471  0.9999018477964948
  0.0004986581846873  0.3997519307195144  0.1997041227055179
  0.0005293314249564  0.3995203725546106  0.4001266778717731
  0.0001948534777195  0.4000982340584631  0.6014105233318333
  0.0009643370544561  0.3993312091623186  0.8013356508229462
  0.0007067567751236  0.5992396284595427  0.0006461405337885
  0.0011915402336754  0.5992234331342201  0.2004167701055896
  0.0002378699314607  0.5992468880947440  0.3993099275673460
  0.0039698579208651  0.5986378743099897  0.5998974635097748
  0.9987458601088358  0.5991918455221826  0.8017187224124382
  0.9998590982610982  0.7990137114440451  0.0001728820088930
  0.0010535701994578  0.7993682326444882  0.1998141158538275
  0.0007697983923314  0.7993386003350557  0.3999110580137702
  0.9997305010775329  0.7952890154427814  0.6003158960239628
  0.0003007870466525  0.7996993128201441  0.8005808357177435
  0.1976761297275403  0.9996803522050738  0.9997981530416011
  0.2010814360065170  0.9998605829860303  0.1987146005239512
  0.1974059043702694  0.0000472242676044  0.4021291684138222
  0.2027955049135605  0.0011075463196880  0.6006506885426175
  0.2016075811296715  0.0002287470639042  0.8004983549750765
  0.2015904739885633  0.1985871576932447  0.0011137924866130
  0.2010448915698951  0.1997907510706879  0.2012431964100672
  0.2007395734578584  0.2004809347094841  0.4009199361295628
  0.1997206198169139  0.1992108678248571  0.8000735222035423
  0.1995961293513265  0.4006700001718196  0.0006599458534304
  0.2018567711948205  0.4004765783397221  0.2007054650637943
  0.2012669746892863  0.3990183781298311  0.4002616852820355
  0.2004706975980050  0.4036471257068783  0.5996127930836669
  0.2039114261890475  0.3982585996546621  0.8013826871940904
  0.1999014319556258  0.5998803034377098  0.0008696708379252
  0.2008824328855372  0.6001790691591116  0.2023303529184433
  0.2008992020786758  0.6002340180409268  0.4042989614183641
  0.1955023387484714  0.6013707357918715  0.7956813981411037
  0.2014694754790698  0.8002606675884918  0.0001309511033991
  0.2014999944789685  0.7993845305322979  0.2009939832094035
  0.2004754278380242  0.8003004151348180  0.4000155600769880
  0.2004881183693417  0.8006743960968975  0.8011278919577859
  0.4014724296370752  0.0004079707520047  0.1966769212548509
  0.3964878971204521  0.0007490094591491  0.6040978473411277
  0.3999783563420103  0.0014129429536817  0.8007412134880316
  0.4008739675654650  0.2024799673944817  0.0011531149090288
  0.4010935835429760  0.2005445430365014  0.1985793127799549
  0.4012777723924980  0.2045926287727333  0.4016515511946433
  0.3999963386171043  0.2011375604097846  0.5994788399416632
  0.3985841654673640  0.1992882812458121  0.8016598314346758
  0.4014424736526238  0.3989555132479271  0.9983806925617896
  0.4015412545405706  0.3998556115001987  0.2000820321154932
  0.4020311233138093  0.4002691430537543  0.4008208214551063
  0.4021186778758281  0.3979292670071505  0.6033753214715031
  0.4008920602300649  0.5986446003657923  0.2019772954811590
  0.3953497360533861  0.6008402797050981  0.5948362787708972
  0.4009353587359291  0.7969048667383859  0.0006123340416743
  0.4012106247098537  0.8001304209969835  0.1985737544258386
  0.4016236043152217  0.7958158062340114  0.4008855137049419
  0.4003659121685145  0.7992062910933264  0.6004779535470608
  0.4010272455347698  0.8033928710805707  0.8014427359617942
  0.6018493892076265  0.9996413209517389  0.1989831859038679
  0.6074745786416822  0.9996297015297831  0.4015777924058588
  0.5867267109320622  0.9987711737181773  0.6008231429102873
  0.5999435822759874  0.9982008149425302  0.8019223271870140
  0.6006560489503964  0.1984528108655827  0.0019174974122904
  0.6012936460189635  0.1985619147651191  0.2013214602033236
  0.6018943592077813  0.1997335178957395  0.4002295997434442
  0.6011310131139154  0.1987434875309623  0.5986663877578988
  0.6022262928251499  0.4002323722668562  0.0004950537243100
  0.6006493575208557  0.3998135043252207  0.2003597208850543
  0.6016694934152352  0.3991953353351412  0.4012703512665702
  0.6004284719231433  0.4005582349153554  0.6000502377889549
  0.5980938293286505  0.4005996563581962  0.8006264693898976
  0.6024168466449465  0.5996474001871235  0.0023305480010271
  0.6016227972900603  0.6000694671505690  0.2013296284482055
  0.6013316789481110  0.5995003579880970  0.4007297143573813
  0.6002356112615277  0.6001551704993844  0.5989217132834217
  0.6062419961045075  0.6013076456850016  0.7999764533856372
  0.6004795450402294  0.8001113560008241  0.9999270974237339
  0.6010669770751311  0.8000818935463819  0.2005880430326881
  0.6016870047530748  0.7996486621135085  0.4006852105751950
  0.5995351660836125  0.7994348023716751  0.6002845889787554
  0.6006144178585583  0.8000126482785279  0.8006623630298439
  0.7986535375024498  0.9996478369683186  0.0004273907145593
  0.8008284835872493  0.9994179921863865  0.1981124682666666
  0.8026686132168346  0.9994164715965349  0.3941633765319149
  0.8005682002707135  0.9970413338177714  0.8034762374494365
  0.8011640710513974  0.2000187950485612  0.0019141554702667
  0.8013091089421923  0.2000133304704464  0.2005348869763979
  0.8024987117307979  0.2003294193462891  0.3994550203246015
  0.8009837496940632  0.2042332227432472  0.5976094865582537
  0.7998018428379468  0.3995064628385551  0.9996984674468112
  0.8007782060840460  0.3997215449215394  0.1998392779580518
  0.8009381800334299  0.3998675917719448  0.4002023452764829
  0.7993304943918069  0.4010478498488337  0.6012570303380599
  0.7997496904703307  0.4007877452283068  0.8007159067059386
  0.8013956138364731  0.5990997231484591  0.2004330353779482
  0.8017148819474857  0.5987981006480081  0.4003506432765310
  0.8009695462315277  0.5981981134041782  0.5996547632217161
  0.8017770254289894  0.5988356525956345  0.8003060927829779
  0.8007062646976904  0.7986109036348547  0.9999684128373613
  0.8009577712481668  0.7989839774597042  0.1995533530936877
  0.8017578916432688  0.7984393428789081  0.3998188156711155
  0.8000119161193457  0.7944711779358838  0.6001616378255842
  0.8011648196050606  0.7986903468398309  0.7999557523415914
  0.2008286260580186  0.2023943144888235  0.6005906070690318
  0.2003756299835298  0.7995402686569799  0.6006073597102295
  0.5994824141669625  0.9991034145926523  0.0005390401375291
  0.4009802344590002  0.5987990742214427  0.0043811106664287
  0.4012839806721217  0.5984556580705993  0.3992830970247478
  0.8013981452067241  0.5991134804356906  0.0005847341251684
  0.1992332086799003  0.5969586218461699  0.6004568302177863
  0.3999422073671643  0.3929269536060775  0.7998373068257207
