Zr Ti V  Cr W 
 1.0000000000000000
    15.4243531601052801    0.0069213360103042   -0.0227130969377285
     0.0069117328085832   15.4243730448160701   -0.0099851585265742
    -0.0226677546087976   -0.0099574154515165   15.4321734753061364
 Zr  Ti  V   Cr  W  
   7   3 108   1   5
Direct
  0.2047558620727642  0.0023058733262717  0.2116734529739854
  0.1701705318829910  0.7675531665315463  0.5988286870447451
  0.4009388323817761  0.1999333157100289  0.9972903137275073
  0.3641678013949838  0.6341260936545211  0.5995833071745396
  0.6361175487888614  0.5983816081541452  0.0369444668890783
  0.8043231376704023  0.5968930594280941  0.2077767033064533
  0.7598998264153547  0.8000271638558970  0.5976043927936765
  0.9909301850771459  0.6016205933935694  0.3879046881204795
  0.2031053178895507  0.6008553954426130  0.0044636657734087
  0.5592925959890711  0.7868840443037991  0.5976636801170847
  0.0018981676297103  0.9946836226862604  0.9982198754523143
  0.9987443519164757  0.9992991399372179  0.2008768502882936
  0.0051411803124934  0.9971026665561517  0.4043814164320761
  0.0034580669111287  0.9988430752635680  0.7935281341521692
  0.0015901272884469  0.1991790726634169  0.1976746366732716
  0.0005812304030126  0.2001941055029253  0.3979124280283191
  0.9983772920497663  0.1944535133969569  0.5993911625314314
  0.0068381379510143  0.2002610511219347  0.8003882608157895
  0.0009586316295983  0.4034261298997253  0.9982356378519345
  0.9997606032454942  0.4002315669806192  0.1961826076517820
  0.0018000417969548  0.3987044242021983  0.3987947424433328
  0.9968363265108133  0.3961182379051255  0.5978131359633927
  0.0015887195688389  0.4018768057522218  0.7997846568892762
  0.0129530040817601  0.6057589415837507  0.9972160796364036
  0.0096409845313152  0.6007017287192182  0.1957559970459813
  0.9923145399612249  0.5998704903059957  0.5997803337209512
  0.0049551020460092  0.5989888627859813  0.7979199668659211
  0.0003590511256160  0.7992064910131960  0.1921365209179127
  0.0015335028777501  0.7984697999356940  0.3985594362542291
  0.9749034839513053  0.8041624803045127  0.5993162441080998
  0.0048771809392607  0.7984427744089840  0.7997664027885797
  0.2019249596546853  0.0005454022086731  0.0016273329536041
  0.1954894585038864  0.0049213816586229  0.6002960334288129
  0.2050198873446652  0.0040323870378169  0.7988920212346942
  0.1948665182508447  0.1994463950917021  0.9962795448570572
  0.2008752028458551  0.2057701082450439  0.1987213427898965
  0.2015569921034476  0.1965030813605995  0.3984497673686879
  0.1975953496909062  0.1998701527294920  0.6037714111156910
  0.1985209819794448  0.4002772982770628  0.0002906915131602
  0.2022936236516867  0.4017006542524121  0.2004251512777426
  0.2011612662269334  0.3974110850542440  0.3996904021467577
  0.1971268723998605  0.3953496797084524  0.5975826580754454
  0.2082029361325225  0.3952788673559688  0.7992618909703728
  0.2032512756541054  0.5978172657594470  0.2082990863440008
  0.2008491578335829  0.6017217349504501  0.4058252764029304
  0.1737290783095610  0.5794497430823066  0.5969387283376776
  0.2040811570986228  0.5995427551578909  0.7910766049717755
  0.1976148073988502  0.8035034299264036  0.9995005863932480
  0.2012997291613088  0.7942058241272703  0.1981834524875670
  0.1997587773949800  0.8042182162365012  0.3938183199390510
  0.2039977682890065  0.8018801814012526  0.8044752927230722
  0.4027405639769213  0.9950111460754321  0.9998597961867157
  0.4082552613546553  0.9976071877375082  0.2007317474430914
  0.3983018552715700  0.9997707028595253  0.4003477426676266
  0.4017033014370445  0.0047835089301231  0.5997160553067564
  0.4036105188004290  0.0004906823837012  0.7984422837734374
  0.4034897051693352  0.2029793479354334  0.2016498487231527
  0.4009680881505183  0.2005433853729479  0.3998369695493024
  0.4012232720945543  0.2025703004329906  0.5965522469504215
  0.3983553385723222  0.2048714860042814  0.7932297078315355
  0.4023782759440238  0.4075504536292731  0.9962628976036698
  0.4017964335037261  0.4024940165860711  0.1980629099851925
  0.3992472481808699  0.4021972819746817  0.4012057269703280
  0.4007372881882216  0.4041493969956225  0.6040540592214562
  0.3962435117433039  0.6046392796672770  0.0011028554741596
  0.4006149276832524  0.6012476028285215  0.2010886076918263
  0.3978493188255360  0.5999157047157038  0.3984938054576730
  0.4043609718665948  0.5962279862184641  0.8063642422464512
  0.4027177988884503  0.7991969143076973  0.9991899856935276
  0.4011330486088204  0.7991135923625901  0.1973078576018369
  0.3995345040687587  0.7996649207765711  0.3989083998972423
  0.3742839133439269  0.8219121861792965  0.6009088609284237
  0.4010553804726235  0.7998316616942092  0.7993275446862487
  0.6048522766480280  0.9964336166392189  0.0004885359017690
  0.6001599678107803  0.9976148039625835  0.4003805034445435
  0.6015763125628323  0.9972892146188369  0.5995911410220168
  0.6012560133364624  0.9994545832408501  0.7997268597683632
  0.6089727371232794  0.1993128329162578  0.0009001131081845
  0.6023456162126976  0.1993847002533754  0.2004974532333860
  0.6005101040229919  0.1989782642591857  0.3996400011508656
  0.6024505154935056  0.1973451724571332  0.5999302530835543
  0.6013813211040617  0.1985636963366118  0.7989444936188581
  0.6006498304695637  0.3982013632672184  0.0009810914109039
  0.6013356285972880  0.4013908183314295  0.1998542171676221
  0.5983095284936657  0.3992912946345906  0.4014252679880368
  0.5984752700363747  0.3990236433646048  0.5986952709206562
  0.5973291790903549  0.3993252969174098  0.8026093519209383
  0.5948157529062273  0.6000901366909822  0.2234791709181050
  0.5967649064410445  0.5991801076320762  0.4096471892359022
  0.6040955429939882  0.5973866721205418  0.6038713805791404
  0.6006374368796893  0.5991472617291977  0.8004279551090691
  0.6024739240579602  0.8003498725063157  0.9998553263705170
  0.6004840104631548  0.7969402873202999  0.1988217479102362
  0.5994706174219839  0.7997960786087015  0.3986116444781065
  0.6007467473829949  0.7977880731060891  0.8026645693687152
  0.8037033318086542  0.9982657575662869  0.9989253239523276
  0.8008616766173161  0.9995715168854867  0.2019442453123391
  0.8021527358868104  0.9988620110151392  0.3999891588073292
  0.8049235016412309  0.0020424384655262  0.5986437247427260
  0.8019368068839732  0.9995492975388647  0.7989385477526720
  0.8042983222957486  0.1949258094049480  0.9996809704482419
  0.8016925456711691  0.2001669683848038  0.1989533673415531
  0.8008192302876215  0.1981311621769107  0.3992848489289928
  0.8006964111776804  0.2003420589549813  0.5997995417789620
  0.8016608614562075  0.2023433143153681  0.8017673337614402
  0.9989713252793579  0.2008309524180351  0.9988378819074627
  0.8009031566121255  0.3946104525027856  0.2057154403817961
  0.7987604137182301  0.3995283395916036  0.4016541005896418
  0.7992799938301740  0.3978184944388185  0.6010607760237575
  0.7995514737742134  0.3991974282050938  0.7978309154371483
  0.8230412445843575  0.5989094260948900  0.9958186830232058
  0.7963080768883105  0.6005398681474527  0.4104436688369448
  0.8000231686344631  0.5960519722799176  0.6034410398114632
  0.8023727837611548  0.5962853153111582  0.8018819445985551
  0.8074008631726375  0.7971864380907777  0.9990007533304077
  0.8010881109933768  0.8028298131890624  0.1975580123342874
  0.8000830040481874  0.7976955628961453  0.3929563640923348
  0.8006906628457079  0.7968928341361666  0.8009154874188739
  0.6034710992498828  0.9992266449777385  0.2008739893440761
  0.0013249764667167  0.9954718973497353  0.5992496168106660
  0.0026396682131312  0.8020823317798800  0.9964941815642021
  0.2020719770117369  0.9986907393681641  0.4105078229620948
  0.2038465524444697  0.2007907319336363  0.8010395889378439
  0.4014086132680765  0.4022834172465790  0.7985570631006228
