Zr Ti V  Cr W 
 1.0000000000000000
    15.4549315649027950   -0.0222495129286640   -0.0105509386160289
    -0.0223053274730288   15.4776580052303601    0.0156777599783081
    -0.0105831741986949    0.0157005871891177   15.5087905410777189
 Zr  Ti  V   Cr  W  
   8   6 107   1   2
Direct
  0.9964076193487503  0.9979415782217047  0.4348362166684880
  0.9992452833174721  0.6563438601981882  0.9688095081744501
  0.0039235071060691  0.8077671082236664  0.7991416821756626
  0.1991908745338657  0.0872635675421791  0.9936078414417213
  0.2243239332712130  0.6018358190146390  0.9972000033115659
  0.1680854284155520  0.8268232031249433  0.9918426643083835
  0.6022717588847700  0.1999741891798931  0.9962813050208797
  0.6003684261143741  0.1962768182789660  0.4029529761121852
  0.9986368899331688  0.9933860510131274  0.6328593120921531
  0.9904741991318118  0.4028329094965814  0.4220156166192546
  0.3957812001902990  0.1999290211309130  0.7992751940615581
  0.8083661751996880  0.4022166069241746  0.5896682273922219
  0.8008594780729987  0.5932168516741677  0.4077816852691444
  0.8156745021711969  0.6006440382696412  0.8057529459184112
  0.9910948634155348  0.0127311388403183  0.0088735320365090
  0.9970627277814536  0.0006136869909696  0.2083724476754534
  0.9987005399460239  0.0098801505819806  0.8158653932810481
  0.9986791974500634  0.2026451957849584  0.9989136834683975
  0.0009929248572598  0.2044729101904085  0.2041396124722011
  0.0001273984892369  0.2004223807222217  0.4017608246066516
  0.0003760672896310  0.1975049314973279  0.5995104192599224
  0.0010012044105507  0.2039993150981513  0.7978094637942269
  0.0055830328012612  0.3947629110820540  0.9999369465376952
  0.0050883994641260  0.3976675902947715  0.6085474984843013
  0.9997975348322387  0.5930987460360853  0.2053990666609944
  0.0029709002767686  0.6018218181646096  0.3989161908530365
  0.0034730556673093  0.5994097463478333  0.5938503222534997
  0.0082757248268389  0.5944752286171390  0.7829779578679107
  0.9756276113102297  0.8368683165669997  0.0100905794545754
  0.9972998979595298  0.7973461442105056  0.2016107817902156
  0.9961718294626840  0.7957245216732211  0.3980576797696492
  0.9986116102966814  0.7969424916561633  0.5927096374654487
  0.1963682634585728  0.9946153433629787  0.1681967795185703
  0.2012367735874422  0.9971804379046133  0.3677209473303497
  0.1994140841315814  0.9976774288421411  0.5656171195509576
  0.1977271868006799  0.9927250648346612  0.7657656573436846
  0.1985008046164363  0.1649640584087746  0.1353527864909156
  0.1993112343120444  0.1982355088076127  0.3664352663050182
  0.1995801211396224  0.1976842460006495  0.5652543068585338
  0.1982124370624848  0.1994150588810139  0.7602087617963101
  0.2026667473401597  0.3695402587037517  0.9632583767103037
  0.1979747714118052  0.3951052052382842  0.1646676819356301
  0.1997371454023099  0.3988812722314902  0.3672048301108111
  0.2020911923754167  0.3977513665785398  0.5661381725054148
  0.2027831139928489  0.3968321228980181  0.7683239527663414
  0.1987388050510231  0.5654889105914676  0.1352763006230702
  0.2021794953798573  0.5981356419111575  0.3665263633547611
  0.2023509082216326  0.5968801611182116  0.5630235913260552
  0.2020194146453246  0.5973643208516671  0.7592353920788548
  0.1977059094189401  0.7652878943397885  0.1338789175415809
  0.1997532341895014  0.7974958731776345  0.3657808614224645
  0.1999729856511162  0.7969938527707140  0.5618170650583586
  0.2056747259440820  0.7953343468845359  0.7561508599006080
  0.3649995855254011  0.9628538627763039  0.9641381197625852
  0.3972193570214397  0.9973243176519458  0.1992077599248354
  0.3986292995354951  0.9975585438603353  0.3999973014356051
  0.3991740302429989  0.9987040680281885  0.6022649046309572
  0.3989457092902867  0.9958428502682476  0.8003648616991650
  0.3995945261899190  0.2001760783559650  0.0022105066552121
  0.3974081119609931  0.1996012352132479  0.2007459713157821
  0.3964846165349872  0.1980568767023630  0.4007571207526424
  0.3996539192389369  0.1977808167940254  0.5971155820107471
  0.4032927871114286  0.3973983711102024  0.0000600320451193
  0.4004641237514427  0.3986994576312970  0.1998288079353875
  0.3996386975849634  0.3990886816904149  0.3984292071483752
  0.4027783692818712  0.3982644276360296  0.6003348989485628
  0.4027601597695306  0.3997983533366106  0.7996641060650783
  0.4161285098155661  0.5982216911014232  0.9992640463979282
  0.4000179064854040  0.5964604445854776  0.1985555333774184
  0.4013492964791808  0.5977424802495601  0.3999839105224574
  0.4006651576675868  0.5979041856987058  0.6000859588048729
  0.4027724426480074  0.5973324667036944  0.7998745127737147
  0.4037608312466252  0.7948079125577516  0.9997084795611421
  0.3965541473238464  0.7971332529939333  0.1976855623698474
  0.4032237592662483  0.7972736541536545  0.3993617002068778
  0.4003903232891781  0.7976333980170153  0.5993453257078640
  0.4006123559571746  0.7974753101103222  0.8001770276088177
  0.5974534832097034  0.9948748415244292  0.9998071360165939
  0.5969507048865489  0.9978939001587435  0.2000894323581622
  0.5970335067489863  0.9904632996322842  0.4026469960467180
  0.5996014714040787  0.9980032473376783  0.6025460833025563
  0.5984754253363340  0.9987039712241005  0.7995159465656650
  0.6006060928676519  0.1995941401804505  0.2008788388737516
  0.6016882486917090  0.2001269832239089  0.6037569749937771
  0.6039540813968816  0.1997119861195959  0.7937387183801845
  0.6038010377274647  0.4042000230017876  0.9999285527592729
  0.6015746657796189  0.4009511072200428  0.1996254168897318
  0.6001716058348034  0.4036063615496713  0.3996981577049205
  0.6013917539413537  0.4004491717121543  0.5992778415923173
  0.6042717180796350  0.4021598608710577  0.7985981173668095
  0.6062611578830376  0.6007444024392272  0.9989148147707937
  0.6016052129686910  0.5990767938568305  0.2009787177652761
  0.5993279842440787  0.6019123880577754  0.4008262075627792
  0.6024442345040866  0.5986960585853045  0.6023571552231575
  0.6024402943175542  0.6004456186189756  0.7991504776260188
  0.5986949194316711  0.7988277329231177  0.0009517991613305
  0.5999272900219164  0.7973054312901841  0.2047510237616660
  0.6001566440414334  0.7988061976138113  0.5958833512242759
  0.6011765339049284  0.7980981505053835  0.7972735234232623
  0.7909566500928944  0.0046804201128830  0.0007779429080124
  0.7982336924049189  0.0003889987647210  0.2011784748983869
  0.7942073139683518  0.9979405768843955  0.4000350867731668
  0.7992344740869614  0.0003956871692516  0.6015902252543571
  0.8005196959075347  0.0006737606434057  0.8012693900786508
  0.8039280419454952  0.1998325828624014  0.9995611755920011
  0.8007753313162591  0.1994893231033967  0.2003843852507210
  0.8037571046968071  0.1957369301051191  0.3983705105690357
  0.8019434737854266  0.1979320399928555  0.5985358759535624
  0.8022866201093998  0.2012976559666711  0.7973341395349959
  0.8036472834643420  0.4026997524188441  0.9982641265189511
  0.8040390963392321  0.3990648879678761  0.1978235221105417
  0.7961436045850071  0.3952925362480946  0.3942240167408880
  0.8037153831719996  0.3984860575222890  0.8018356630196147
  0.7997096809582851  0.6021664084561191  0.0044130879988704
  0.8024014748772078  0.5985261144935151  0.1992851961910470
  0.8036287937782525  0.6024553426659880  0.6030190957743194
  0.7915371989973671  0.8036526642151756  0.0009363323345328
  0.7986110263739902  0.7982918148046839  0.2024136592089220
  0.7951977313436056  0.7998444967384228  0.4000504796494897
  0.7999770584138153  0.7993248866904096  0.6007404955475133
  0.7965372133289409  0.8033730530190323  0.7991342468221958
  0.0028524589592984  0.4010016543206315  0.8017425416652039
  0.0008112063638144  0.3992957106772637  0.1935594799153844
  0.5990489517289278  0.7967076301568057  0.4005049896514657
