Zr Ti V  Cr W 
 1.0000000000000000
    12.6684183398854717   -0.0307505724529021   -4.4332041932590505
    -6.3522987228625292   11.0024455963999124   -4.4090858170264262
    -0.0126403058899142    0.0077772339306734   13.2640939031610330
 Zr  Ti  V   Cr  W  
   9  16  88   2   9
Direct
  0.9940276643423940  0.5999628491780931  0.4085203643952571
  0.0062072868317562  0.8080845146821972  0.2057439112963410
  0.2158311082204833  0.0180180219317481  0.6102102071329836
  0.2218099981077127  0.0177880529545894  0.8380470382442282
  0.1968099667553251  0.3960476430281291  0.1963040172915913
  0.1964819336082884  0.5836263705994793  0.9983929091255110
  0.4086807048346701  0.6036970225715173  0.2144018014373358
  0.3987840072416707  0.5556885260134866  0.7956454303559344
  0.5728165876268906  0.1987940667996094  0.0026546519569716
  0.9933084094074962  0.1920172139595743  0.1902749592645972
  0.9950578993512862  0.1990835803940780  0.3959061395777910
  0.9955249397715323  0.4002073621320845  0.5949189781243921
  0.1994504815318615  0.7959116428617468  0.9956726789145571
  0.1997750420913955  0.8024131501870236  0.4052247015581438
  0.4165331505448081  0.9963093610923549  0.5856755510192274
  0.3997828004898791  0.9760905398961562  0.7902677203024426
  0.3940344737365152  0.1777839925970279  0.1609777702704275
  0.4007307022488462  0.2016009626961983  0.3871853579623273
  0.4056412813001908  0.3869407306210181  0.2116449827721372
  0.5886863976258789  0.2085088103862670  0.7889933141699498
  0.6067243486787361  0.4088645301722441  0.2027084347118545
  0.6032869102888335  0.4003990306303757  0.6058171698053554
  0.6093481695765198  0.8001732672205402  0.9998391627687666
  0.7970239369630920  0.9951355513296414  0.7980776992902633
  0.8005447667814780  0.3983770389694362  0.4019703803905928
  0.9884812007772289  0.9952410286221283  0.9976212140137174
  0.9966480758010341  0.0044511377226766  0.2015723854113252
  0.9993982052462472  0.0007962453372159  0.3998809848663955
  0.9909214009593853  0.9949855024375260  0.5970439727627804
  0.9914689143267428  0.9886967009487867  0.7968116705862659
  0.9857067895909186  0.1920307851826898  0.9862921941901899
  0.9887193492379376  0.1907027016328444  0.7938995531586098
  0.9896339090106068  0.3891988615197753  0.9889605905618312
  0.9838845961912532  0.3866428214452431  0.7909129952226817
  0.9925139045877830  0.5957351551703757  0.9936024563691546
  0.0048744432762256  0.6106697508468399  0.6225395555878170
  0.9929574066612051  0.5921900534341200  0.7958294516394328
  0.9930599589907881  0.7939710226329760  0.9835210591702861
  0.9843025698893282  0.8066287473659658  0.4107814630107055
  0.9963245261759323  0.8011726357869910  0.6112243175259184
  0.1715235307041247  0.9814091173823383  0.0013571141743083
  0.1980228076719535  0.9940663847900312  0.1964519281995752
  0.2159704103494744  0.0208608765865884  0.4001767444893085
  0.1800964347058140  0.1855071236548416  0.0001251646788265
  0.1988558755823047  0.1839432330667490  0.1985922875084864
  0.1994368168529175  0.2017097182481191  0.3942012596165762
  0.2003090219252507  0.2144906313913260  0.5908595661218512
  0.1832332840300272  0.2013391984449339  0.7929404256950213
  0.1909161285716453  0.3631977620745327  0.9729468192309995
  0.1987466608148962  0.4011361233088131  0.4076058361793853
  0.1947162531481544  0.3986760016995342  0.5855008918366548
  0.1866771625208646  0.3909475853791828  0.7853911794086627
  0.1982073899986461  0.6160829755117848  0.2171865580997143
  0.2000061325167128  0.5966084106693726  0.6021957831680225
  0.1945251679863784  0.5987370085258804  0.7939863790066521
  0.2124234753284985  0.7993544491143419  0.2035007649112194
  0.2025853296386866  0.7896006384274827  0.6123314693474833
  0.1979068892830874  0.7870416976382721  0.7950965999399626
  0.3998871987955435  0.9735475100501138  0.0021384166898431
  0.4054112862563242  0.9945546000654381  0.2063365427156580
  0.4041668787128221  0.9978296900724077  0.3889791695960145
  0.3792150081634403  0.2610243521411205  0.9799903516492385
  0.4023852354442067  0.2025239030685918  0.5906737819480631
  0.3903425185406774  0.2818504403577175  0.7878077664705637
  0.4115105539520520  0.4291412078274002  0.9931288128811969
  0.4063717317659734  0.4108681669223992  0.4144487996414438
  0.4003038659498782  0.3953288432301255  0.5914117911718261
  0.5701942824053450  0.4106254111150731  0.9659146435381953
  0.4226180262159150  0.6167310761684325  0.0157595704703213
  0.4122613465825160  0.6105485636371353  0.4233417206906771
  0.4075560578613753  0.6016840698372558  0.6008403117429952
  0.4027440700771598  0.7941025109024131  0.9989413427475773
  0.4088925654615693  0.8093778618365223  0.2116766539412004
  0.4097175727418085  0.8081688775708924  0.4089710989184889
  0.4050439115519237  0.7964470578368414  0.6047799676408786
  0.4038883432635875  0.7894896680029705  0.8018528249351410
  0.6010929937977693  0.9941186980317733  0.9963359199165147
  0.6054565916124949  0.0037904846945594  0.4065038526332480
  0.6125326003589918  0.0010038129262887  0.6014151468042874
  0.6090128136338553  0.1924379615586439  0.2108408028878211
  0.6068794707701499  0.2016658649397893  0.4002680473230379
  0.6055306352411421  0.1978429349152834  0.5919311875528391
  0.5959878485445389  0.4009369440987800  0.3975139642740702
  0.5988607642651551  0.4105307073709089  0.8126236383581460
  0.6270566270616035  0.6123285858295443  0.0138652057838297
  0.6231050100247484  0.6184313764586703  0.2151506939752434
  0.6108055096602446  0.6047371829241744  0.4105170511549434
  0.6072443020829589  0.6036916196425866  0.6006161183080505
  0.6148487594633498  0.8112277194331876  0.4165337111421832
  0.6017799488234745  0.7954789259640549  0.6000220147252892
  0.6067150418451045  0.7993761223972021  0.7970274377149354
  0.7913331658233133  0.9905228066849170  0.9982952007685654
  0.8028650359996430  0.0029972359299481  0.1988863268540911
  0.8045411397273036  0.0042817426453568  0.4039298247142625
  0.7987911271292844  0.9995852117343254  0.5981937171886662
  0.7951376776317353  0.1939155917668995  0.9928070179337694
  0.7983578067563996  0.1988338716880978  0.2009591302938502
  0.7924069782147058  0.1957534480024326  0.3979275474299744
  0.7989560596764097  0.2008774737695165  0.5997038806815879
  0.7993548970887137  0.2011139709124822  0.7962396812605032
  0.7985078170638173  0.3912211605840958  0.1906819065937126
  0.7988163357095134  0.3984410571528332  0.6046946569361780
  0.7967876403701742  0.3961881077781371  0.7963412701459663
  0.8016234434545098  0.5978072816261274  0.9930219141322673
  0.7988682002679381  0.6026958640880595  0.2013320129420406
  0.7969615601401242  0.6139567643340993  0.4140582105414534
  0.8022766821111698  0.6031947639625723  0.6059055249372393
  0.8053672091441971  0.5999185412305978  0.7995580990189681
  0.8084872631339957  0.8032328388955234  0.9997395249322693
  0.8056446237236852  0.8105616588336426  0.2079969528089299
  0.8064559957923495  0.8072564672078431  0.4109373916741772
  0.8025113870540732  0.8012705989344503  0.6063383976288599
  0.8043487619659627  0.7969509924896384  0.7988281704296630
  0.9969205251649874  0.3894749609493682  0.3892909366620530
  0.9915101141375522  0.7937783623855431  0.7981944226690414
  0.9938773770465341  0.1948044039690810  0.5974607059642185
  0.9914728721909566  0.3961197439950759  0.1985446926705383
  0.9947579836178662  0.5943430490199914  0.1935162641549833
  0.2071842706498595  0.6014463022396310  0.4071485321452329
  0.6042148067288505  0.9981297038995024  0.2013760627308813
  0.6010208577130892  0.9967329077285044  0.7970144015703940
  0.6155109356610327  0.6053175704380408  0.7990791050538498
  0.6115773892447766  0.8070536935622559  0.2121798889154805
  0.7955213257975938  0.3970308678987317  0.9936144908356195
