Zr V  Cr
 1.0000000000000000
    15.5176564344983579    0.0055358052127085    0.0009235349890332
     0.0055289702635454   15.5339659065587714   -0.0041197367383691
     0.0009253811786535   -0.0041210125583897   15.5341853465245965
 Zr  V   Cr 
   5 117   2
Direct
  0.9996925768590884  0.4010415252641213  0.9998222998090895
  0.3877557896029267  0.2023796492517984  0.1902263332513773
  0.6069059171768898  0.1994598968636247  0.2276807938002574
  0.6085013709574633  0.7916386563274815  0.8003306409246176
  0.7931132879683925  0.6077952526829429  0.8000646971642894
  0.0009984510063883  0.0000942984743008  0.0001505110132024
  0.0006253871315953  0.9994208085181094  0.2001907279014276
  0.0014612240602433  0.0002600249132276  0.3996465114113960
  0.0009320453312125  0.0003333394901256  0.6002197132151404
  0.0018108247334621  0.0010321112583707  0.7994041242639283
  0.9999408949355575  0.1966199467770550  0.9992864439740359
  0.0013608114367975  0.1996099482914306  0.2008910076344748
  0.0017733321420867  0.2000770941494165  0.4009957947812522
  0.0011166758174152  0.2003367283719839  0.5999637115109772
  0.0008938065785098  0.2003747413399126  0.7997359926891324
  0.9997692304349579  0.4014408107814519  0.2039981862846528
  0.0011290929053431  0.4004114517977762  0.4003972553983697
  0.9999925302396978  0.4009365295633798  0.5990750801552207
  0.9997643554689052  0.4013094428847277  0.7954260957760263
  0.9996996527435592  0.6050953170624295  0.9993483942816807
  0.0006478283908403  0.6010429240305368  0.2002320661343515
  0.0006862861913992  0.6008471786648710  0.4001081545443871
  0.9998693596988092  0.6007075047183098  0.5996500159575052
  0.0016282032776547  0.6010685663096794  0.7991456641902016
  0.0010636644427923  0.8012439748522767  0.9999161385366774
  0.0012197386014398  0.8006564951910613  0.2002122864564552
  0.0012598298951194  0.8000556490578986  0.4001422191578496
  0.0012095584664633  0.8005506608689998  0.5991113645506367
  0.0042174610060252  0.8013809769288148  0.7996101401976834
  0.2012071285131135  0.9999041427361872  0.9998454066332181
  0.1994956292471442  0.9994590898239865  0.2001271591945878
  0.2008960032773903  0.0003503282828434  0.5996526727739582
  0.2008114585404667  0.0010804765271004  0.8003087346756446
  0.1997370579088998  0.1993083057227230  0.9999050970629366
  0.2005674366923031  0.1998264353692503  0.3999129386331833
  0.2002007318423351  0.2000390260989207  0.6000978601920440
  0.1995769344796398  0.2003898606367403  0.7998163244642749
  0.2039243601496301  0.3997689654081090  0.0001383879747385
  0.2000614783633309  0.4000639064954150  0.2007117680768027
  0.2008517280226385  0.4000867091208104  0.3999264165586044
  0.2003121793592925  0.3999574562230875  0.5992214683301736
  0.2004582443518815  0.3994122468914789  0.7995342246778930
  0.2010102264421836  0.6005193373881828  0.0003564346331306
  0.1990660171617567  0.6001527429686827  0.1995192591261557
  0.2001660705046031  0.5995897906370282  0.3993421773780795
  0.2000939978505685  0.6001573409653500  0.5995722882162225
  0.1992599031510007  0.5995925179148811  0.7999917652851205
  0.2007872498780256  0.8006977513360775  0.0003210856980118
  0.1998915941847102  0.7997406305254208  0.1998968215947373
  0.2006015059294310  0.8003672891826734  0.3996146018247689
  0.2004488441071984  0.8002819842327598  0.5993438568760773
  0.2009989742289982  0.8004528940982246  0.7999144052653426
  0.4004646982307076  0.9994656241456229  0.9990268971693460
  0.4002368533046715  0.9952817871905989  0.2001681044502068
  0.4005392022278575  0.0003859909696408  0.3995091511598272
  0.4011908740750647  0.9994780284507396  0.5990960753180887
  0.4007087141339800  0.9989813560773434  0.7993200987417801
  0.4003252982486713  0.1991134648686920  0.9914126614204505
  0.4020509564941284  0.1990235320536498  0.4013526702169610
  0.4006370950373841  0.1993841826135229  0.5992923056099638
  0.3992638714718915  0.2000123528285039  0.7979885779777851
  0.4007452942290839  0.4002259573917796  0.9986828990028874
  0.4000659062096038  0.4063065234349794  0.1996677190217430
  0.4004430084116927  0.3996407935531389  0.3997946015052445
  0.4003308598725438  0.4001457304359474  0.5998378056072476
  0.3993883039792506  0.3996471952788135  0.7989566764800949
  0.3997907262461989  0.6007287530594463  0.9994133605937605
  0.3988260801703832  0.6015657154424621  0.1992720894868921
  0.3994314724379069  0.6004048304886879  0.3997933436460234
  0.3995437452184860  0.6003698051109361  0.5992945892288281
  0.3963005843950245  0.5993231064617310  0.7995886203152714
  0.4011078596433724  0.7999299954124117  0.9991456670321749
  0.3993202443456353  0.7990249134726629  0.1999478006725230
  0.4005450822850630  0.8002590987134626  0.3996375168231615
  0.4006278010253145  0.8001178612284615  0.5995707854631421
  0.3991608150262052  0.7998140969374820  0.7993539587365196
  0.6000881498036151  0.9995723470386775  0.0006206801285204
  0.6010667371296735  0.9951093218468881  0.1987308301422800
  0.6004959387345872  0.0004449432537995  0.6006845214647328
  0.6001945848890634  0.0011556484857591  0.8008196970496770
  0.5992352284305446  0.1999513214767070  0.0060172448226476
  0.6010837770982210  0.1004628881264188  0.4027783904334637
  0.6011547140336624  0.1996957503679283  0.6020381877851679
  0.6005582251526748  0.1996222970345366  0.8003728357762414
  0.5988774704091112  0.3993610461572342  0.0012555426111973
  0.6005828141782964  0.4047054703455177  0.2002650530106287
  0.6003408944654446  0.4018410317412809  0.3999091728571098
  0.6002118232294513  0.3991734702067797  0.5986606141469142
  0.5990020066196976  0.3964943496819431  0.8002458510120630
  0.5980953224238996  0.5989633517220326  0.0011954487505792
  0.6001773687157673  0.6010275627055968  0.2001597949441611
  0.5996354445462444  0.5997717049354062  0.3995287840643847
  0.5987106435847741  0.5985377552814988  0.5987590599396435
  0.5902119222325674  0.5894297378908532  0.8000551037803290
  0.6008128998915017  0.7989996208048525  0.0039547361464881
  0.6013215724892373  0.7981135208413219  0.2010545387131587
  0.6008030428045549  0.7980543665136560  0.3993188291214228
  0.6012624774370054  0.7999469055886705  0.5952916032368203
  0.7995475246428908  0.0010880294963405  0.9996213092070009
  0.8007697285119999  0.0004940560671252  0.1997329594994230
  0.8016331521295886  0.0008907345978457  0.4004482790610787
  0.7997207572179168  0.0011029857855539  0.5989726439853935
  0.8016007995447706  0.0040105436285837  0.8002621578648589
  0.7993856754617562  0.1996938131147636  0.0008429740295447
  0.8068768091506001  0.2010162621204229  0.1996639801633637
  0.8039595432608333  0.2001137171219030  0.4009800298928929
  0.8002167144250760  0.2005489878714166  0.5994614087730757
  0.8011781472856125  0.2012742666485215  0.8003201594159027
  0.7949442624846017  0.4006745769495779  0.9992776943556856
  0.8003916421755261  0.4007614790821707  0.1997999649806874
  0.8005554657418057  0.4006349148421908  0.4005580176838862
  0.7998601268869374  0.4009375544723238  0.5997453250852088
  0.7996128705006819  0.3993440197541470  0.7993364058100749
  0.7986424966755827  0.6017697792573529  0.0039587351222182
  0.8008449950728269  0.6009879389719890  0.2003640410487890
  0.8006711523905664  0.6005396293895263  0.3986855366044370
  0.7996720144372462  0.6012082940258943  0.5955638444683983
  0.8017992684114126  0.8026381171378059  0.0015717952693675
  0.8018437124773202  0.8006054051898550  0.2003277610696618
  0.8008443024080982  0.8017420141365538  0.3988425928640087
  0.8019666568956555  0.8019299757615913  0.5980402374314198
  0.8109244432505258  0.8104884174503453  0.7996475415449579
  0.2006465600500031  0.9998235246699062  0.4000703838638421
  0.1933951109669486  0.1996924811292787  0.2000332311716260
