Zr Ti V  Cr W 
 1.0000000000000000
    15.4549315649027950   -0.0222495129286640   -0.0105509386160289
    -0.0223053274730288   15.4776580052303601    0.0156777599783081
    -0.0105831741986949    0.0157005871891177   15.5087905410777189
 Zr  Ti  V   Cr  W  
   8   6 107   1   2
Direct
  0.9984609746558427  0.9997392368624954  0.4081015859830113
  0.9977104018727748  0.6478921975793208  0.9642758542930533
  0.0099722875072418  0.8076121902136505  0.7999126368830483
  0.2482481696243750  0.1940045159513339  0.0120932796885610
  0.2189612999369416  0.5746668844444036  0.9972491719378671
  0.1893449099129374  0.7935056647310378  0.9910368993714933
  0.5529544896719456  0.1972748082984755  0.0086468085709971
  0.5961415481684222  0.1967077007004399  0.4080571442864935
  0.9995530881477468  0.9901795176853242  0.6198390206744548
  0.9884036408938982  0.4043287642646841  0.4222078451967036
  0.3984725873424736  0.2008743356773935  0.8285371325708436
  0.8065473177160576  0.4042635608286266  0.5884848280162194
  0.8006368885175449  0.5942219579748755  0.4062375261153537
  0.8141179135351549  0.6034703805029541  0.8021462555212542
  0.0002970538690845  0.0104782229701505  0.0032045624829014
  0.9986094458122146  0.0038781264766021  0.2001792915731855
  0.0004900132762381  0.0111298919601703  0.8102987220978528
  0.9994504165322469  0.2035344375800156  0.0004984436511288
  0.0014365250243893  0.2051212768901624  0.2035200616586377
  0.9984900891857570  0.2024800038069949  0.4042332618921977
  0.0005584797794934  0.2010804626370524  0.6026936556218627
  0.0017246799208950  0.2058055551135802  0.8019996258582025
  0.0042835362291820  0.3991117152738884  0.0015663223335505
  0.0042254172665122  0.3986702937219965  0.6096443696403194
  0.9991623164454813  0.5926211718590332  0.2061682230822297
  0.0025304436378000  0.6024882315051937  0.3987094916984487
  0.0033759571040237  0.5990989801632381  0.5936442029120161
  0.0072576627493854  0.5966411560787047  0.7803157795482618
  0.9871894328854055  0.8320350670890362  0.0101954204135493
  0.9984400276506155  0.7960299832058656  0.2004551629220798
  0.9968012315807261  0.7959983203166127  0.3980796198852031
  0.9998248739195028  0.7953425894973916  0.5939087898853260
  0.1995583955875168  0.9987821134148859  0.9975944580957971
  0.1984615638786982  0.9998669356748970  0.1967194282186227
  0.2032288969530074  0.9983259311745618  0.4007642397127695
  0.2032767121206975  0.9996798923358486  0.5995896846598945
  0.1982694016581965  0.0001857074458080  0.7971395792497309
  0.1995830134956653  0.1994427198252014  0.2094827765113524
  0.1971311011998406  0.1997331473878325  0.4023797454837249
  0.2006105910917102  0.1993554719559194  0.6010676324424986
  0.1965875682861721  0.2009884109774074  0.7979840647354676
  0.2017468992813487  0.3887317310829547  0.9985870078545788
  0.1946414638789596  0.3989760285993612  0.1999579599303590
  0.1992593664321428  0.3999881019571454  0.4019215062854252
  0.2028453703757778  0.3991373967786875  0.6005062944179650
  0.1997551880141440  0.4021701532080371  0.7998680612213107
  0.1985491196816479  0.5987402241570992  0.2015893506125943
  0.2017129203505605  0.5993458411971847  0.3992201098885826
  0.2023570968356985  0.5982244442776585  0.5957591839899856
  0.1997145148393474  0.6034613083546688  0.7931731343392299
  0.1976582138011896  0.7985611295720516  0.2019033207619781
  0.2003746486596563  0.7996885494412475  0.3977762789023780
  0.2004176471230247  0.7992258957693008  0.5930755027793145
  0.2104189994985742  0.8016881596910537  0.7863967214697322
  0.3988029059182868  0.9994927696411896  0.1978657821068621
  0.3987522568216005  0.9977638420575887  0.3971402075040049
  0.4006549773980394  0.0009959674042368  0.6011838623026020
  0.4006861747043320  0.9967993327125598  0.7980173829982334
  0.3983180798575751  0.9983958280560861  0.9968538826713672
  0.3992581050253699  0.2004604696370795  0.2055286056923715
  0.3937016656161192  0.1992224439625836  0.3991376817008250
  0.4014828471723281  0.1994887659730663  0.5912409031123641
  0.4020720315084530  0.3922580945607824  0.9989662685502532
  0.3992146651733042  0.3997132448689704  0.2001095718176143
  0.3976304486292465  0.4011272120346253  0.3975651661078997
  0.4018758861406291  0.3986083349739738  0.6007654683434542
  0.4001900071061194  0.4038651564132348  0.7974685434984615
  0.4111964699831113  0.6002681388915683  0.9984593458929093
  0.3984882019189410  0.5974784720463031  0.1968661529538720
  0.4000085242943412  0.5990764547975818  0.3992694084735977
  0.3999523141332979  0.5992737321720023  0.5991310572768203
  0.4008281776855614  0.6002553224701573  0.7998006988793591
  0.4000303980925776  0.7988664084547491  0.9991110203491527
  0.3966830313025498  0.7989248236721512  0.1964341345912766
  0.4030940861322828  0.7986432695519565  0.3982366610159034
  0.4015926114034901  0.7983878587734251  0.5979701413929855
  0.4022372749716133  0.7996022261920283  0.7986825048786048
  0.5981599787066226  0.9947956335743763  0.9989073902114500
  0.5994369033897070  0.0003222741725964  0.1972779123827436
  0.5967641981348757  0.9910053897769671  0.3999982549277726
  0.5998763175629166  0.9989842485097298  0.6018520881926444
  0.6011639814683293  0.9997692677206929  0.7992366614781483
  0.6002494884787695  0.2006741527439709  0.2053929179473808
  0.6002315637529735  0.2014208860465547  0.6080095181527891
  0.6052251773954964  0.2003567050276185  0.7993773683724563
  0.6016368820242951  0.4029886408104444  0.0002462103887930
  0.6008777481323690  0.4008022585288780  0.1987094472041953
  0.5979896477008275  0.4045099066480269  0.3994689763800991
  0.6008034311429634  0.4012497414000671  0.5996105268220868
  0.6031870432132593  0.4027210062535370  0.7991904643845740
  0.6027080297196196  0.6005114946290230  0.9982263530657887
  0.6001278614462719  0.5991573492435326  0.2003405584046314
  0.5981121968179782  0.6029691529411600  0.3996248851893510
  0.6014859433938646  0.5998458339338896  0.6013870287204177
  0.6009104623649711  0.6009879392385749  0.7985510549714095
  0.5984781550377074  0.7992044883577417  0.0001777242898846
  0.5998991168040493  0.7978022693951957  0.2031761832486131
  0.6005853033996841  0.7993848390007058  0.5945301578280764
  0.6023325095605768  0.7988565765118917  0.7972587704131484
  0.7941746637625781  0.0043053134013533  0.9996972870359012
  0.7994931669298406  0.0011781116746552  0.1987509878651854
  0.7941410306347053  0.9993981214571861  0.3999736495637767
  0.7978959224078871  0.0012473617996525  0.6017398697321555
  0.8029482555832310  0.0020457738719082  0.8009658025275300
  0.7940810192455747  0.2004335025811019  0.9999371616677404
  0.7989783791462649  0.2000506713024608  0.2002323978509108
  0.8007110338125265  0.1969437794991219  0.3994692020216565
  0.8024518658639684  0.1981386472954042  0.5995375638547227
  0.8013425180230878  0.2030104124761827  0.8001344500025849
  0.7999908038848220  0.4012835217783434  0.9985495128418493
  0.8030748373873812  0.3992915400195339  0.1974673538674000
  0.7935003885777866  0.3957570365698633  0.3937287506377375
  0.8037328761542035  0.4002449362723284  0.8023635793405327
  0.7975204477129494  0.6024815900336472  0.0036160957485099
  0.8009997290804359  0.5987790529489927  0.1984902056701755
  0.8025174832815043  0.6036289071122133  0.6015498692153842
  0.7959259276220700  0.8037194292338863  0.9999247651170045
  0.7997483114072769  0.7991030976359621  0.2010131290972041
  0.7954022462668277  0.8010838467708640  0.3997414219292302
  0.8011882400329572  0.8011712408549373  0.5996621953293265
  0.7986487655450631  0.8042744325811758  0.7986084319124490
  0.0017031861658385  0.4031886942090649  0.8033982695002977
  0.9985060881289222  0.3985668621818587  0.1950518950597251
  0.5994554399588610  0.7975876511480773  0.3990918202283972
