Zr Ti V  Cr
 1.0000000000000000
    15.3990340272275770   -0.0170018773457157   -0.0022529018582575
    -0.0170107766548915   15.3787801482628375    0.0165544931564424
    -0.0022517709109467    0.0165430754876648   15.4057927644380346
 Zr  Ti  V   Cr 
   3  13 107   1
Direct
  0.2204578899265650  0.2082140654647830  0.4166973970273191
  0.2041397335903302  0.6194406785946300  0.3955590731297804
  0.3871679768648784  0.7967349219601517  0.3922221162068545
  0.9992242297194781  0.0007387546046450  0.0009371284345498
  0.0028209973628643  0.2004361918422080  0.7927026470730001
  0.1494550437661474  0.1985266939095256  0.1933156223990441
  0.2012367373357820  0.5890796790734332  0.1866853449403687
  0.2096186002820897  0.7941857280037333  0.2182030724691775
  0.3979699555722551  0.2025089605592904  0.5947522710387700
  0.6069942350171000  0.0033692002759305  0.6015343209283800
  0.6185558459404386  0.2012062666829199  0.3981377216404292
  0.5897056570331475  0.2025326117389748  0.8041775143330331
  0.8430468269716014  0.1988761878744293  0.1970871249976483
  0.7896162974184099  0.1925424080867464  0.5899219871204193
  0.7996342928893970  0.1989363112711482  0.7983495080319419
  0.8034187010310927  0.8008558554045618  0.2024382283631229
  0.9993470566079555  0.9925455894395070  0.2011608903952152
  0.0004158120174890  0.0012633593445007  0.5983227210247657
  0.0004012481287237  0.9980064294862037  0.7971998548621932
  0.9977342921378249  0.2005363088856086  0.9930190998019184
  0.9989230944507150  0.0030561117136231  0.3985147699993152
  0.0059180533259424  0.2017798390323636  0.3982704179154883
  0.0027055210635538  0.2003862858525180  0.5935552255963442
  0.9990074664551318  0.3998234846367803  0.9984762598705564
  0.0000336998380176  0.4026572108272244  0.2002096976514723
  0.0011696768929316  0.4017747576385854  0.3988502466318897
  0.9989150640278893  0.3998823552484764  0.5981410173547229
  0.0004425503870595  0.4021132862636195  0.7980115910886365
  0.9994937447242063  0.5999897793140698  0.9995766814598886
  0.9986548488889795  0.5994743891541693  0.1983119573966630
  0.9959167689188239  0.6009232395803422  0.3989157783466829
  0.0007725379749898  0.6004055871043701  0.5983126914628593
  0.9992330505147583  0.6003810793410681  0.7998650203344375
  0.0012784899068974  0.7985723988257958  0.0022732865685036
  0.0025519685176905  0.7971851061124264  0.2024402840936520
  0.9942929664497292  0.8025221520994901  0.4013892462002625
  0.9998482946186890  0.8004478366255015  0.6006792989402774
  0.9998347224388214  0.7996146271157836  0.7998162994666271
  0.2020790218991048  0.9993360247158546  0.0021005244985242
  0.1980500215583048  0.0001745637193842  0.2024862102178444
  0.2001270473868609  0.0066016897585293  0.4013166038421050
  0.2012626819324118  0.0046465198495437  0.6008791103591873
  0.2002765603065161  0.0007781173337381  0.7997266460832968
  0.1955267364622134  0.1992806215846364  0.9983724294151859
  0.1974647872729912  0.2015954301617688  0.6114048170896680
  0.2026083137342402  0.1997015359262216  0.8028650309104073
  0.2006265936834573  0.3986491693005013  0.9992753926883305
  0.1981978640734826  0.3961724455565890  0.1994577648784198
  0.2000207123256964  0.4091173711022585  0.3984052247585235
  0.1993776220854967  0.4010566944267298  0.5990402794868487
  0.1994228808030980  0.3991518018549333  0.7995869119220617
  0.1994115295026596  0.5996509809271797  0.9941907321693700
  0.2000930076153697  0.6013257019720409  0.6030958156474229
  0.2003432085766809  0.5992783536873517  0.7986544432002225
  0.2001621978175015  0.7992419581065977  0.0000834189159713
  0.1866373179308472  0.8182285150298297  0.4134550314681493
  0.1993644883873775  0.8026328353196875  0.6055335138616684
  0.1999018151631083  0.8022010986048880  0.8023115823915075
  0.4001863689870860  0.9999731238703552  0.0019741997328372
  0.3969984492316364  0.9990234631718808  0.2004163691360424
  0.4014740509816810  0.0064910510661749  0.4010142518275997
  0.4006625939570250  0.0003811743238238  0.7995863378239083
  0.3958118381678254  0.1984410897930927  0.0038607395429882
  0.3985679295330225  0.1979544845890439  0.2025146804470337
  0.4154590932337403  0.1990977785543276  0.3974848701705612
  0.3970722643499109  0.1989683323493327  0.8039578711533389
  0.4001037477316069  0.3978975803096680  0.0009254050278211
  0.3979048833789964  0.3967599381460175  0.2005736624733009
  0.4016800541249127  0.3955099411910018  0.3994153944458575
  0.3993928708300782  0.4014527890481583  0.5996114584678192
  0.3995985209340063  0.3987837782923273  0.7992012805902123
  0.3999913200885779  0.5990009289744238  0.0002956233817233
  0.4039856194304718  0.5962931104439965  0.1989179407772409
  0.4087742852306724  0.5907745628366634  0.3989669317183039
  0.4004472385536777  0.5987134735260116  0.5987386557574684
  0.4001888204674998  0.5994469471769078  0.8006105325391135
  0.3993862253791547  0.7997918432423697  0.9985509409895570
  0.4047432216890668  0.7990252816331465  0.1924209890401181
  0.3997592879691263  0.8008441554986789  0.6024347058402109
  0.4001521809743413  0.7996393497083580  0.8002329599501961
  0.5992721834151782  0.9999069211201869  0.0006729418180547
  0.6007814527351726  0.0005943512096152  0.2014536666282555
  0.5985658419179899  0.9969924564300049  0.3992061535734297
  0.5997428356343795  0.9988934877026067  0.8019910220803297
  0.6013829163549481  0.1995895367572954  0.0041783874479402
  0.5971883222651164  0.1983637328213465  0.1986492293681027
  0.5963367122243554  0.2019237851188818  0.6016648272065455
  0.5997386930820601  0.3995167660029565  0.0003756536520081
  0.6016270464518240  0.3967993680683024  0.2011029298970561
  0.6021576466368160  0.4010743344803888  0.4003769075366946
  0.5990539806349441  0.4000903572536047  0.6004452131321355
  0.5995747876534357  0.4016454316487069  0.8000255032517631
  0.6002635447013958  0.5997079243559919  0.0006508313891448
  0.6015303691986322  0.5989811292452476  0.1998445245883432
  0.6023246962099004  0.5995147439363355  0.4001652081249822
  0.6000144854595963  0.6008687718648915  0.6001406486417293
  0.5999279706291214  0.5997696731376109  0.8000655879237345
  0.6007750143843124  0.7996537218087489  0.0011918829050106
  0.5991709928493754  0.7997480459966676  0.2009219006606009
  0.5988817758419727  0.8002994281303043  0.4004069625759077
  0.5989919232344773  0.7994186717164877  0.6000243355250130
  0.5998358340893597  0.8003941757484347  0.8007529833347651
  0.7962073513334486  0.0000108601157041  0.0005509394641432
  0.8011790786065920  0.0010308237667057  0.2002134005676866
  0.7977918322779304  0.0028425996132956  0.3996464776004033
  0.8041537986225208  0.9958603461464353  0.5993398709605264
  0.8003024180415378  0.9982376687655127  0.7989747311304845
  0.8011720532527409  0.1992999780875479  0.9971178405985219
  0.8111625593648032  0.1995820689096409  0.3955696555682839
  0.7983331501904001  0.3983595202955315  0.9999495874019663
  0.8025177931491618  0.3994332703997253  0.1992744417498920
  0.7997083305938776  0.3975149544629686  0.3994558938987443
  0.8000767754297482  0.3999220589382891  0.5987548143780650
  0.7999413026850544  0.3999996439980595  0.7979606052599394
  0.8002247114254916  0.5991481816763871  0.9990743009577189
  0.7995742530463849  0.5972263631201750  0.1994968627275888
  0.7994301399460267  0.6006832934802019  0.3992957157738558
  0.7992091774693936  0.5988063989029995  0.5998015129571592
  0.7996971245017561  0.5999658927862933  0.7995357702765272
  0.8006781091747129  0.7998098664625437  0.9979116909006361
  0.7980834221389924  0.8019572503084597  0.4034743622023611
  0.8005054506700651  0.7989184403896632  0.6011058189004240
  0.8000110341248439  0.7999717091694242  0.8003818907023891
  0.3987451971745266  0.9972918040367554  0.5999208166293373
