Zr Ti V  Cr W 
 1.0000000000000000
    15.4771126092992706   -0.0171409429028663   -0.0108832458615090
    -0.0171377985850307   15.4835452709138899    0.0089453070842751
    -0.0108770206815257    0.0089383803551370   15.5150560916889226
 Zr  Ti  V   Cr  W  
   9   1 107   6   1
Direct
  0.0004374955710954  0.0040078786189591  0.9952807076871337
  0.9901003867473662  0.3949414235882269  0.5925413605750672
  0.9940967913357077  0.7968486561253697  0.5942678069643206
  0.1708883570385416  0.9997079684535242  0.3736565020862883
  0.3949595997913037  0.9972235853270001  0.4014736762959383
  0.4030362918223209  0.2026626935615781  0.9985197010678979
  0.8068739358165146  0.4009294322907358  0.4129537445078566
  0.7778466166365572  0.3740499383383770  0.6254343439607178
  0.8056937366904185  0.6273565827950570  0.4120932042455503
  0.5968483171498110  0.8003712780582607  0.5984170522626332
  0.9841587798379734  0.9984856587826266  0.4029148010036734
  0.9992016012671928  0.0002369121204329  0.5987460807491104
  0.9993030101522400  0.9947333175636989  0.7945147773472757
  0.0011428451909720  0.2047295006333155  0.0034064169556319
  0.0013252245721722  0.2047193471821967  0.2015233392922354
  0.0035177016300240  0.1952722616004923  0.3988517910345817
  0.0020798571616178  0.1922328521377356  0.5958532270498186
  0.0021957007167408  0.4017725863256054  0.0040789897064479
  0.0112902653053961  0.3979162861641464  0.3878427074834335
  0.9998693201285009  0.4017237333742316  0.8041268657872278
  0.0010316949025976  0.6002548782704541  0.0000772062865049
  0.0015837511466968  0.5955526608359923  0.2010631033994006
  0.0074172817348928  0.5979579514253474  0.4002157630078663
  0.9989868180630150  0.5986276304722997  0.5990258775838716
  0.0012485137826724  0.5976192678941235  0.7981590652157916
  0.0006292152096496  0.7964518671399917  0.0020255206851065
  0.0001745926370897  0.7981173007465212  0.1992183933410812
  0.9977667938075596  0.7997302504855087  0.3935096306212760
  0.9989397841037407  0.7972247614514267  0.8006449233614563
  0.2050925264681359  0.9996864102800191  0.9929225330132233
  0.2054453361227275  0.9992764468091587  0.1826075717761664
  0.2007254287591834  0.0005586642436171  0.6051447356086954
  0.2002059217595823  0.9989957442090370  0.7982317242926318
  0.1976038482385470  0.2003244209500455  0.9967695700363779
  0.2024257256693660  0.1969268877313354  0.1990809526937139
  0.2035680943471403  0.2008981062607720  0.3992636751420657
  0.1996190083355948  0.1983632157669491  0.5980874811086373
  0.2012005149151533  0.4000922158639833  0.9975807203010802
  0.1988375967750481  0.3997133581298311  0.1970934277144346
  0.2040688194150824  0.4001305490809710  0.3987636675457253
  0.2004596843763851  0.3978746472719417  0.5992615969120757
  0.1973637922034650  0.3982378472544971  0.7982961122060067
  0.2019687634728837  0.6003888554079813  0.9979650248530731
  0.2020834691222776  0.6006329873156638  0.1988362607796144
  0.2019766010618418  0.6000615769132430  0.4003055469436812
  0.2005493873193615  0.5994928160948448  0.7985404235667153
  0.2006495344317751  0.7985179616088925  0.9982952188499696
  0.2005796750583268  0.8009907290248844  0.1987684015121747
  0.1982284310614203  0.7965922078883878  0.3991523613675008
  0.2010532402314623  0.8003040144287760  0.5980802390178543
  0.1993746408348403  0.7977074962974913  0.7990299544349553
  0.4034950437358721  0.9963981694052607  0.9971525633212786
  0.3996678794325932  0.9997597173538102  0.6047583099835036
  0.4012558814937696  0.9994687093453817  0.7999130257151176
  0.4017644805252282  0.2004581526025034  0.2030529094203517
  0.4011520451758604  0.2037137984939145  0.4011552717913590
  0.3999561860790810  0.2001008982057075  0.7954238866544562
  0.4004887056521629  0.4055549413085903  0.0002381241875264
  0.3997487049313918  0.4009807962395940  0.2002346844257171
  0.3995828405630087  0.4009922279371396  0.3989600142851228
  0.3961132553412932  0.4007621853775025  0.6008507467097879
  0.3991565746315796  0.3999752259579108  0.7999103586793602
  0.4016847755909967  0.6013023101425744  0.9997211200449513
  0.4006309511542263  0.5998250099140471  0.2005664872380775
  0.4000994959913693  0.5999845520064465  0.6006561578409970
  0.4004528605582204  0.5996701006173246  0.7986427203320715
  0.4008496999568843  0.7985994999654774  0.9999254463574319
  0.4008649918133826  0.7990357875585574  0.2000044012362507
  0.3998297432323090  0.7935424091157984  0.3995236279414369
  0.3978735383373707  0.7982646099098654  0.5994383851609386
  0.3997912700956766  0.7992689379421002  0.7993417177696993
  0.6012069985462278  0.9995616135151140  0.0011119794396567
  0.6009396500396056  0.0008304791502609  0.2003904188761786
  0.6003492933684131  0.0008347628358114  0.4014664579287220
  0.5984329255037959  0.0033998889776317  0.6013196340689896
  0.6003652618057675  0.0009947650014550  0.8010827456743462
  0.6062721751307737  0.2008423299823381  0.0015225207689553
  0.6022303038971152  0.2003026835151220  0.2022985400134707
  0.6003690174012036  0.2015262915883111  0.4022601400951895
  0.5994395082743600  0.2018110543241166  0.6005620104649975
  0.6015726273709368  0.2006168306956420  0.7997431774840309
  0.6016889338735680  0.4015712626317319  0.0026638337058565
  0.6025467174344309  0.4001152785256891  0.2020844079475122
  0.5976866364176819  0.4002533364058478  0.3994378080849341
  0.5862223902723416  0.3991806223886616  0.5987091034846607
  0.5989121927756078  0.3997231860936357  0.8028437133096780
  0.6009064001260053  0.5999217339532814  0.0011743765721466
  0.6014944077253246  0.5992653234092112  0.2022154093342886
  0.5993960501180061  0.5995840852899674  0.4016500456170663
  0.5999696966237168  0.5963298588017809  0.6005334285688642
  0.5999126715960331  0.5989534184518913  0.8010840219309039
  0.6005021359916829  0.7995508863083611  0.0018712562948204
  0.6006592113089269  0.8001581941166840  0.2003809572194730
  0.5993597852679042  0.7985883402222610  0.3975291032675114
  0.6001955751962914  0.7992145047130713  0.8031020331771395
  0.7977284500192210  0.9996783675611493  0.0034154957792540
  0.8012974936067772  0.0010274966593450  0.2014302772175335
  0.7953475336940943  0.0030773103467985  0.4024586702201807
  0.7979500636269311  0.0012106757578922  0.6038147204557439
  0.8000826415013804  0.0011769962121950  0.8009110129768623
  0.8024524819520540  0.1995791005847333  0.0001387542736549
  0.8017730093907683  0.2001068912102873  0.2032073562320713
  0.7999646148227001  0.1958728487730946  0.4014479513072905
  0.8347783309150245  0.1979685933668414  0.6369431105545533
  0.7999689727558509  0.2011723509886698  0.8018010684172656
  0.7999453099875358  0.4014445399111354  0.0041847997317196
  0.8051673329958756  0.4003687611183439  0.1993792254416664
  0.8036190591642656  0.3990314654513015  0.8157764589047531
  0.8004275252572374  0.6026395848266960  0.0008438958109542
  0.8014192937870722  0.6017604953244406  0.2023000058476607
  0.7978261243883611  0.6069438050652756  0.6113212020132789
  0.8007829428038682  0.6004365976798175  0.8027360463924043
  0.8000765311802649  0.8006783716203923  0.0015667405374400
  0.8009672786926921  0.8011561871670205  0.2015084451648397
  0.7962247033228123  0.8153257912229483  0.3989091192768345
  0.7913958811919364  0.8034339009874409  0.6024584213205593
  0.7989917876328869  0.8006026522660336  0.8032202319970507
  0.0009844181669341  0.0009136863236354  0.2027629267238243
  0.1975540875219360  0.1989865224995555  0.7976017202339681
  0.1998872775366969  0.5982265713103853  0.5994224395322453
  0.4021651435086799  0.9994814377951257  0.1952290787257607
  0.3990991264068474  0.2001175701947719  0.6000222836452994
  0.3999346581543016  0.5986765242047348  0.4009625408505191
  0.0017143016672412  0.3998303954018310  0.1978503686658444
