Ti V  Cr W 
 1.0000000000000000
    15.3947628529237015   -0.0004726939770559    0.0021267196503963
    -0.0004726263884090   15.4017912768726095   -0.0008921615345846
     0.0021270963932924   -0.0008941263393480   15.4191178141427301
 Ti  V   Cr  W  
  13 101   9   1
Direct
  0.9938239987358540  0.1905766804103206  0.3991412336863129
  0.9996972450821470  0.4034322653559275  0.4007276432996583
  0.2038549422088185  0.0064659239795760  0.3963365114898673
  0.1970499197679964  0.1981060291746098  0.0060903223331874
  0.1962290141487067  0.1982333428894319  0.7950036963062909
  0.3970760721271145  0.0043578488145059  0.2019594117296824
  0.3936948653615930  0.1963497952902654  0.3966527445418057
  0.4003039278392138  0.8013254350357495  0.3955061201065597
  0.6046394258325422  0.1963804412164168  0.3990708363593677
  0.8014369608445379  0.0080403719965485  0.9987258962564282
  0.8047675378304635  0.0045917949401812  0.3987453525512807
  0.7999785340204841  0.1917380191597898  0.8033258966441810
  0.7990880780849693  0.4024984738706219  0.8012649057151925
  0.0023416394449496  0.0014767882610436  0.9980995040898945
  0.0006347942254013  0.9001031825616661  0.2999030834639498
  0.0032768130737266  0.9985757089393474  0.4023533854496907
  0.0012593225754098  0.9994123373410453  0.6003203721065902
  0.0007144450781158  0.9995640958094287  0.8009365989969444
  0.9982149827189389  0.2004781228605625  0.0008988897164136
  0.0015852827824083  0.2016942411082749  0.1983514726797654
  0.0010414228200612  0.1992815358359639  0.6023553540729563
  0.9996994195180906  0.1993261955196250  0.8002448796292434
  0.0011713648285251  0.4000215235834452  0.9993571725450872
  0.0008138436418819  0.3992336193945824  0.1976262481230914
  0.0005678992860028  0.3980845708197732  0.6032942808099423
  0.0024911990637486  0.3988764011163354  0.8013893201300576
  0.0004014717420432  0.5989775537501667  0.9996188280155039
  0.0004048603937327  0.6021823467975714  0.2004949220370088
  0.0003430261490400  0.5989003860239601  0.4008769077037472
  0.0007701116426463  0.6000977373525630  0.6003117009243881
  0.0002331069105965  0.5997627005782415  0.8009956393924008
  0.0000244644342051  0.8010566775921304  0.0011181100455742
  0.9996103164216346  0.8020041084114348  0.1985438128305912
  0.0000106460640275  0.8007817414858479  0.6019013109802653
  0.0002328652914296  0.8002874433310045  0.8002684776502644
  0.2010978510729220  0.9990889544361586  0.0008153195006503
  0.1997762996498783  0.0024239037398444  0.1983616151455722
  0.2007212676654909  0.9981542684952430  0.7992167704493325
  0.1960666077438114  0.2038445770902030  0.4002150370213205
  0.2042918995146796  0.4005833344956239  0.0011819254106171
  0.2003223744319297  0.3995923585138554  0.2021993331899819
  0.2029275765134902  0.3998097439064778  0.4002110808592247
  0.2013788083512318  0.3985611904223240  0.5990866670530879
  0.2005177965626899  0.4005049392947812  0.7998324648622228
  0.1999740929447786  0.6005905853451188  0.0018362051620255
  0.1996966532691644  0.6004052639064851  0.2021700190416297
  0.2005080674984894  0.6007832055189444  0.4007750158035012
  0.2005732163288436  0.5989389616073046  0.5992663894795394
  0.2000980638470398  0.6004527226484149  0.7984240255034295
  0.2012343735103335  0.8000433177508377  0.0007223769363087
  0.1982698326074645  0.8021336051516753  0.2011914561511904
  0.2011829185830644  0.8001462952348317  0.4004356954317259
  0.2003428868056687  0.8003249889955251  0.5982929374770733
  0.2006363287168662  0.7999472166847805  0.8009202817247105
  0.4001361395556815  0.0014181397327625  0.9973201423531100
  0.4027803937373641  0.0004577333781028  0.4042628203854059
  0.4011618728763793  0.2029712482391429  0.9986995091000445
  0.3996814396658989  0.2025227562409306  0.1973918691914946
  0.3981899509283092  0.1994164090659576  0.6023499340316504
  0.4002225756211271  0.1986744182252212  0.7999477369914842
  0.4007136687914584  0.3997522737284626  0.1976587127568995
  0.4013657468504933  0.3993636458259673  0.4005011361690630
  0.4002912383168308  0.3977947459849722  0.6018868113817020
  0.3999811351947088  0.3990775328406286  0.8045496693511577
  0.4005093103954360  0.5956638286634555  0.0001301879740276
  0.3997954838880672  0.6001038738954385  0.2019263313093637
  0.4002336342918573  0.5987556483647108  0.6007241639189698
  0.4002552018243816  0.5994133640200091  0.8004056208646777
  0.4003170998427467  0.7991088330877305  0.0003700303498193
  0.4003342201150227  0.7990299229002037  0.1971136612710584
  0.4008019826162577  0.7987468307882218  0.8010541683356631
  0.5973443035661941  0.0007291407841266  0.9998501495162152
  0.6012831103025764  0.0004492927301978  0.2002729912671104
  0.5980766879041365  0.9974718054165385  0.4011255795058999
  0.5996657581655988  0.0003492349000001  0.6003882080644791
  0.6001387159206640  0.9984620384995332  0.7998396664705627
  0.6008807886258524  0.1999375250890933  0.0011041221936270
  0.6014735196077876  0.1991331472989678  0.1997222391185186
  0.5999400519336962  0.1991962296940169  0.6016654774513239
  0.5993246337804369  0.1981026841059112  0.8001469978862945
  0.5966241058059970  0.3993084180743093  0.0012665198396760
  0.6000331883638227  0.3994874377103864  0.2021261246460488
  0.5988360984636044  0.3985057871086581  0.6002585073450135
  0.5993481542100567  0.3985766322970884  0.8005368406939185
  0.6003863778166265  0.5994596861956221  0.0010546216147422
  0.6011760551936344  0.6012235800549454  0.2015872975380789
  0.5996570727113880  0.6000554510862194  0.4012769838696599
  0.6001939848331032  0.5997229587606759  0.5999146289137146
  0.6007206898985796  0.6005848870728395  0.7995622664743283
  0.6004502155660653  0.8004207831510322  0.0007047111717936
  0.6006445928005817  0.8012033264450817  0.1996163184365459
  0.6017280175405035  0.7998258371329072  0.3999575563315921
  0.6004533976402138  0.8005728696749497  0.6004033786997272
  0.6008716189479973  0.8003903773491229  0.8010654095786671
  0.7993476201565102  0.0022596502382851  0.1988483959488765
  0.8001012424851994  0.0014317221201885  0.6013511075795090
  0.8004269892036835  0.9963390689836016  0.7976923972344484
  0.7995473418161557  0.2052559142742394  0.0035452464782988
  0.8028629365732851  0.2012399317703176  0.2021876982958547
  0.7994924066012312  0.2054275633705799  0.4005513889414727
  0.8009368671327288  0.2004256249156464  0.5987161115936475
  0.7987497204564518  0.4009768637696724  0.0030728493545524
  0.8002538061234814  0.4003411644057722  0.2015392246489327
  0.7965380010803089  0.4025607304962142  0.4004797333687750
  0.8003586059669477  0.3986640403518761  0.5988398558001318
  0.8000219612951771  0.5999441154732651  0.0013983939536936
  0.8002837178993567  0.6001868369171705  0.2013158853215475
  0.8014864344822152  0.6022337030802337  0.4003690209341916
  0.8002848961406127  0.5995561898757638  0.5995349993180511
  0.8007010397638471  0.6013372701595416  0.7997348141864657
  0.8019739933497974  0.8029856586684200  0.2003621887825794
  0.7991361688970529  0.8003257974385237  0.3996525957565591
  0.8015215298407781  0.8012726810012679  0.5982346917986536
  0.8003099406031078  0.7992535078489275  0.8010105599261647
  0.2009996095189414  0.0002380891410887  0.6011490060148612
  0.1991208254615777  0.2007523818877547  0.2034955978537169
  0.1990628948152542  0.1991884029789270  0.5958903144832546
  0.3997262536555797  0.9992768439317361  0.6015447248419962
  0.4000909546140971  0.9990377966149473  0.7989154957887267
  0.4005051706688619  0.5981361268954599  0.4009129858381483
  0.4004533196927260  0.8001588184347418  0.6022632219105741
  0.5993337999450601  0.4016919343426072  0.4006769219478750
  0.7999911643763269  0.7990306664666131  0.0004666948848222
  0.4005272377827030  0.3996969937947238  0.0014407840845363
