Zr Ti V  Cr W 
 1.0000000000000000
    12.2882735461728885    0.0000000000000000   -4.3445607757035454
    -6.1441367710433559   10.6419570608175889   -4.3445607757035454
     0.0000000000000000    0.0000000000000000   13.0336823299999995
 Zr  Ti  V   Cr  W  
   3  14  93   2  12
Direct
  0.9781899391143528  0.1851518073844119  0.9837683248962845
  0.9952836950298081  0.6052322097172352  0.1990281525963770
  0.1954744319741387  0.3849181267145059  0.9894019600191676
  0.0016603676804082  0.9969059740376740  0.5946797605946849
  0.9927851161754329  0.9985823626159611  0.7981300060079596
  0.9942781351067927  0.3958340040069480  0.1974906266919677
  0.0025820211808022  0.4016874899436608  0.6065226397869853
  0.0033884554662517  0.6056827160175542  0.6050429292311155
  0.1940834787873515  0.9887316475702784  0.7894461157901581
  0.2033327848211297  0.1972111246758061  0.4034991241390118
  0.2121370550474575  0.4010270715909822  0.2121133381435105
  0.3984599483254468  0.1994031833234152  0.9969829876315911
  0.3966459853926274  0.7980804795920475  0.9962237017613728
  0.5937488439585898  0.0050474034679871  0.2004043622489583
  0.5989802412625808  0.3990224654719394  0.6017144416600696
  0.6017601418384004  0.7991101328544111  0.2024398983706418
  0.7966536173318648  0.6068027672668441  0.2078256530893624
  0.0007624904995715  0.9886794327082994  0.0023162272829239
  0.9987996887706208  0.9945413376390633  0.1978202037131930
  0.0028283826813088  0.9999370561957185  0.3977684029542827
  0.9993035037775515  0.2009091852587366  0.4051212631271615
  0.0027725906063161  0.1988763838964759  0.6000855440900624
  0.9775177462018110  0.1984294557901644  0.7752701220975987
  0.9855218960341011  0.4038393783654712  0.9755668734456296
  0.9998626812015640  0.4058268647848846  0.4037771169354576
  0.9965511954796482  0.6049158919707789  0.9916401476696850
  0.0014507447299621  0.6002846219916375  0.4057540623142178
  0.9979921532700324  0.6000075717804366  0.8003172722367622
  0.9995556088176005  0.7982009755343499  0.9985690730259535
  0.0017435128387592  0.8104962780631874  0.2016345686360339
  0.0075709620668612  0.8080545789839410  0.4083963265273103
  0.9931476733077070  0.7918883021407190  0.5916433730333664
  0.9989350851057544  0.7963464368417192  0.7981580563143343
  0.2003832354886132  0.9967830669061940  0.0019899085738647
  0.2024490220716611  0.0002609652531104  0.2026158173023867
  0.2039185926058960  0.9969775538069089  0.4023008863781767
  0.2067165661927261  0.0010036867145054  0.5953034587967490
  0.2047872611438508  0.1873745293501795  0.0104320593840483
  0.2037165029940677  0.1934642562119932  0.2000650142172231
  0.2010531982203128  0.1973604182595030  0.6028763460370737
  0.2018499330367637  0.1998414840656861  0.7984772715046754
  0.2056032137295960  0.4017870716146107  0.6033331171509027
  0.1997703737799012  0.3988581633924260  0.7906744387800193
  0.2067333593066896  0.6070781626544820  0.4076711345956530
  0.2074756511286915  0.6072822122038668  0.6046700335097751
  0.2023302474777563  0.6042181178651486  0.7978636215727068
  0.1979519988314535  0.8048215903768957  0.0003074257925030
  0.2045594651130718  0.8072358070835746  0.2036969138380659
  0.2101885948754682  0.8097734824382051  0.4088638903723860
  0.2021314771845577  0.8019672523309731  0.6007931262857735
  0.2073726105636307  0.8026010379508817  0.8064087932669173
  0.4031045335864952  0.0029298340197590  0.0025903369035338
  0.3959220458048059  0.0008061663607965  0.2030800303486817
  0.4023078538679311  0.0019960775909602  0.4031652017151097
  0.4034356854628123  0.0029715839215285  0.6002921856472260
  0.4008263861808834  0.0003738761026211  0.7985875082973205
  0.4022297956609696  0.1955088498624562  0.2021790064623790
  0.4003001901122392  0.1938558799080385  0.3981695023104210
  0.4013182531558429  0.1997718974963252  0.5999535640038887
  0.3965168631761767  0.1945819185335995  0.7911992230541854
  0.4066705834162073  0.4021752894491723  0.9954816064044968
  0.4078991312867715  0.3979415680273600  0.2032312799092917
  0.4016825537969350  0.3997444387317664  0.4037372769607754
  0.4015081540777773  0.4019366819840239  0.6061470031226096
  0.3973256593582573  0.3963724763436172  0.7959737647720716
  0.3997411024136886  0.5937317590123901  0.9935733436613255
  0.4101972099972957  0.6079803740001278  0.4116982462547109
  0.4046025537808034  0.6064137618422172  0.6055663228478294
  0.3995278688083667  0.6016516068913114  0.8006665029666015
  0.4030581348501785  0.8103385395453846  0.2099045583264216
  0.4048459740245161  0.8067585303499271  0.4057891700805473
  0.4019815953547863  0.8020469233679541  0.5995110890781004
  0.3978799024053716  0.8003136655287191  0.7956776588010415
  0.5946176920545333  0.9953427201552136  0.9954192980417985
  0.6001918060355300  0.0018691207357187  0.4068564905340078
  0.6047380659800108  0.0081711796639957  0.6013831152628285
  0.5989792267742905  0.1956310738799129  0.9999814827029879
  0.5987533233960229  0.1986645846199163  0.4002909739930679
  0.5963177361252094  0.1977140829317887  0.5952012483190819
  0.6014267809538117  0.2000510000464248  0.7952747058726818
  0.6035699361182422  0.3987759633713216  0.2036269268759107
  0.5997739235766428  0.3970210055894330  0.7999223103092530
  0.6006993987941525  0.6028228164600020  0.0006724057032841
  0.5979009587322283  0.5977426577481906  0.2017396192893549
  0.6033490296166389  0.6027296701316283  0.4049089231216936
  0.6016686099969375  0.6062117250749017  0.6021591035571915
  0.6012449028994840  0.8000333581570505  0.9956317398079918
  0.6047889044546177  0.8051950094008119  0.4086890572302302
  0.6058574815591741  0.8036056284805417  0.6037560619252538
  0.5988535436162131  0.7979919769681059  0.8001199025999147
  0.7934693752743750  0.9920168830773015  0.9966145477649364
  0.8032416681698856  0.0029604367692412  0.4042477852595353
  0.7958700000092976  0.9956928715473796  0.5942169482558023
  0.7840366685335262  0.1992201072628962  0.9994869412087438
  0.7932829585859280  0.1991755673349743  0.1997681998057560
  0.7984851579542979  0.2042502521141608  0.6030584839260514
  0.7912093094471525  0.3945113592882073  0.9926570499961224
  0.7958094128767149  0.3962535411441458  0.2039456552481459
  0.7971398954431183  0.3970815241453039  0.3984199229266199
  0.7991033215578370  0.4029141189315361  0.6026192713623422
  0.7978020239882678  0.3962936795554522  0.7943261278641013
  0.7985339015011033  0.6008150540148932  0.9944984240103166
  0.8039922849583716  0.6008866918896230  0.4070158317296774
  0.7975142404132810  0.5997384426564472  0.6031033323026810
  0.8036159139620511  0.6026961818763725  0.7998141740127206
  0.8004496935642684  0.7979794854709937  0.9984538809461928
  0.8043729777713662  0.8027179918709162  0.2008877955061032
  0.7982391086081494  0.7970132642635409  0.3956709057378016
  0.7980126337330080  0.7917014168455481  0.5938182523547267
  0.8019128469764643  0.8005282476046667  0.7992383337136029
  0.9978574122018652  0.4048412676014767  0.7966270065499844
  0.5955843784483170  0.2006715810925214  0.1967157447955441
  0.9990375396613963  0.1951722902502099  0.2045481861724122
  0.2032813996384968  0.4056455972596471  0.4087269587541260
  0.2006603608217600  0.6052380288493459  0.9968622014153196
  0.2050091843733131  0.6038206160259617  0.2024772831194371
  0.4083645119403518  0.6054101142975898  0.2063547435917826
  0.6001260420832336  0.9987439857962669  0.7994116930869523
  0.5980019532388093  0.3968210714063430  0.9966633454539408
  0.6000756916150841  0.4004488521361948  0.4004121939475251
  0.6008327263685503  0.5995498516221471  0.7999260795544750
  0.7967655803060794  0.9951504858894960  0.1990897222810962
  0.7993355036908986  0.2020253720686824  0.4033220890758252
  0.7906094933932207  0.0605515857457711  0.7882972277724136
