Zr Ti V  Cr W 
 1.0000000000000000
    14.6558308706966418    0.1485179020499669   -0.1665700556320537
     0.1481681686930753   14.7214694818457463    0.0108658799610169
    -0.1655421724575464    0.0111523599490718   14.7122947877052130
 Zr  Ti  V   Cr  W  
   2   3 100  12   7
Selective dynamics
Cartesian
  2.6159807014250784  5.5809528721170247  0.2308434849117056   F   F   F
  8.8623264043803971 15.3064137876235442 11.7195343294969625   F   F   F
 15.6778046348886555  3.0408814583412349  5.5936787580510492   F   F   F
 11.4269384304935837  5.9706529242643764 -0.4222436514622600   F   F   F
 11.7251527064203973  6.8274385588168363 10.6981385703194967   F   F   F
 15.5853767819086499 14.7840156688269424  0.2282538551796528   F   F   F
 14.4306470753506080 -0.8824415411401769  2.6085126771132376   F   F   F
 15.9696590624229007 14.4502641043861981  4.5275469252611451   F   F   F
 15.3025021624367685 14.0868682173020332  8.0245505696293602   F   F   F
 14.1673794267840769 15.5721713856485078 11.4425512285087798   F   F   F
 -0.5856343036146127  3.2919721454450892 -0.3029158227117480   F   F   F
 13.3892306629706894  1.8832020611695379  2.7746070882039269   F   F   F
 14.7868536691392318  2.0875511096092727  9.2674666474073888   F   F   F
 13.3912583829038265  3.4607743823520125 11.0679198017393361   F   F   F
 -1.2596740336294459  5.1572874351711491 15.9123022593707013   F   F   F
  0.3109029912325565  5.5596996319169740  3.0414886945632338   F   F   F
 14.0956215534505560  6.0924216085653411  5.7098781832272829   F   F   F
 14.9029833478018450  5.7694591370022357  8.3655288852927701   F   F   F
 14.5134196918625964  5.9813807983750777 12.2873450068539078   F   F   F
 14.8383041757989123  8.5860868594455475 14.8854106319744197   F   F   F
 -0.7404573855750745  7.8226024172408417  3.9598467225745284   F   F   F
  0.3419823276432566  9.1516527981922042  7.3530485050172558   F   F   F
  0.3735560611867920  8.3235715464161437  9.7927424757104902   F   F   F
 -0.8948311402462765  9.4334857320492969 12.2909266523404330   F   F   F
  0.0952775069398848 12.5933701925669634 -0.7369058692530560   F   F   F
 15.1327448048086008 10.2525622748887173  3.5150021909340623   F   F   F
  0.6403969902775679 11.7578283054053561 11.1278278605560033   F   F   F
  3.2409111740900638 14.6022479252844111 11.1085177118727803   F   F   F
  2.0633576811776515  2.5926547145740031 14.6737072528459063   F   F   F
  2.3244207539708253  2.5720523615122066  2.3083678462723194   F   F   F
  3.4757756630363668  2.4101221579754708  5.1318757232478482   F   F   F
  3.6656971235023348  3.0585823576157400  8.9837880149593161   F   F   F
  2.2528464764337781  3.0629554653890074 12.3739898372780228   F   F   F
  2.4964267451155822  5.7853008521912725  3.8896682306871222   F   F   F
  2.9605543454665071  5.4602353306059266  7.1885761541064239   F   F   F
  3.1707345421439648  6.1609580532366426 11.3278416363905698   F   F   F
  3.3027176933626392 10.5591743123012254  0.9384503586661952   F   F   F
  3.3114788412952310  8.3349283458338839  2.4818386366839298   F   F   F
  3.5771528047342813  8.8394381339083399  5.4662739888748364   F   F   F
  3.8677093066282389  8.8254025441097124  8.4997070381835851   F   F   F
  2.8800901142608031  8.3875347228120702 12.4478380344383961   F   F   F
  3.7804670056015528 11.7938668395842541  3.5948466793006988   F   F   F
  2.3736714602640840 12.0142298068738853  6.3796342390411374   F   F   F
  3.7870926129992890 11.7121344339660070  8.9674353794876343   F   F   F
  2.9344839778413099 10.9170402242592743 11.5958566094943922   F   F   F
  4.7645445588592379 14.3636525402329305  2.4897417054824604   F   F   F
  6.5979830553484637  0.2943857046463614  5.5402427668347576   F   F   F
  6.4078616346004686 15.1475585698718316  9.1831992958754807   F   F   F
  5.1295886166221702 15.2913060348701482 12.6687106571515606   F   F   F
  4.9686981388364471  2.5898626153232303 14.7704566843777023   F   F   F
  6.0239129594553038  2.7425744382931381  2.7801123953291946   F   F   F
  6.7044721774332778  2.6342437380836916  5.0441163977553307   F   F   F
  5.8228311208446222  3.0591844229244538  7.9005498365907831   F   F   F
  6.0027020715231192  3.2910638522844047 11.6233980030450201   F   F   F
  6.2787625816708799  5.1239636101820150 -0.0169300797253812   F   F   F
  5.6488739240235573  6.6477439231999842  2.1768736313314170   F   F   F
  5.5041415536141276  5.5445612722071989  5.4227801118898551   F   F   F
  5.1743694271510261  6.4382729998336217 12.7173766215886417   F   F   F
  5.4814731582389280  8.6307254929520454  0.1829864209228608   F   F   F
  6.1583996733022692  9.1102781083066517  2.5950047174014714   F   F   F
  5.0415166671406988  7.5601018584475446  5.8852575433079597   F   F   F
  6.2169604586556204  9.3790405308495046  8.0513230440010517   F   F   F
  5.8173636239699462  8.6333717379417241 11.8084322965366919   F   F   F
  5.7844126036989456 12.4336788865265220  0.6996261351844486   F   F   F
  6.0161540930671054 11.5154685301353883  5.6076588197176394   F   F   F
  4.0980829034896198 14.3388774285190124  7.5685817281813978   F   F   F
  6.2980296451440720 12.4178552222028582 11.5690719830520816   F   F   F
  8.9459058544067940 16.1446338531596396 15.4415008945584873   F   F   F
  8.4735550063461265 14.6279272671333533  2.3809682857689491   F   F   F
 10.1984369458071455 -0.0052844569966350  5.5410698360027482   F   F   F
  9.6480719692798917  0.8817538217267968  7.9186244262986438   F   F   F
  8.4944308534185868  3.3621109224821275 14.2983606424289604   F   F   F
  8.6342302596102183  3.4800489290243113  5.4511230233047536   F   F   F
  8.7106694590551292  3.1961982323650489  8.9786252976461327   F   F   F
  8.1104501373100444  3.6639242192111272 11.3111038996331263   F   F   F
  7.8097393386367600  6.9724312560379254 -0.0737711706577296   F   F   F
  7.8891066209630107  5.7248353375971845  2.4364231880806209   F   F   F
  8.0608387040242757  6.9517957749873736  6.0746645286192873   F   F   F
  8.6689976837706020  5.9588837435639626 11.7370097609003157   F   F   F
  9.5510703346245229  7.5586041727318625  3.8106459488669113   F   F   F
  8.5642224953011770  9.2438157927361750  5.5443828471984435   F   F   F
  8.6632442127582472  8.6298817282083515  9.2084535632822959   F   F   F
  9.5132743780097986  9.6298464773649304 12.0597199595338243   F   F   F
  9.1501129345975833 12.6787393758570381 -0.6202477612517077   F   F   F
  9.5341930498047773 11.0629192369681686  2.5620591494219345   F   F   F
  8.8270582321138935 12.8501258593882390  5.5563481612448387   F   F   F
  8.0619313984879568 11.8056142231104939 10.6372422853338033   F   F   F
 11.5751915716992499  0.5698886425373890 14.2732948687033865   F   F   F
 10.8821085596999971 15.3327734978551238  2.4636713780272164   F   F   F
 12.4150358522808482 14.3857285687481067  5.6430834044239742   F   F   F
 11.3519481362788639  0.5795888766260069  9.0721225529818490   F   F   F
 12.2477190730234682  2.8337520022121159  6.2229132566030030   F   F   F
 11.5369360618228747  4.0473278110029600  8.0748254750763895   F   F   F
 11.1693861060728423  3.2306685089674083 11.7103730603547493   F   F   F
 11.3237294142980396  5.0013348249398657  3.2856803541102093   F   F   F
 10.2972675292373381  6.0827931431618589  6.4999214985765752   F   F   F
 11.2599650957616362  9.7234357668089491 14.3632484439430019   F   F   F
 12.0795702629287991  8.4834681876781701  2.3701137126922478   F   F   F
 11.4678073864298238  8.3925736509679894  5.7302018308027707   F   F   F
 11.9099155126868421 10.1557297676782881  9.0085305852441095   F   F   F
 12.4674430602108632 11.5987326197222984 15.0757062046778483   F   F   F
 11.2802831281458165 12.2336416795078300  2.7065555073186092   F   F   F
 11.9527980053560619 10.6332330895632712  5.2536217234984779   F   F   F
 11.9956981274420773 11.8593503858311387  7.3505329037456741   F   F   F
 11.6868966952823978 12.6778637727664627 11.6390586415550388   F   F   F
 13.7768961729485699 12.4942198649356744  8.5673524074768093   F   F   F
  2.2626728229476871 -0.6470097317943384  2.4412677638933395   F   F   F
  2.4452456389003343  5.0632626800092417  9.4642836436775610   F   F   F
  3.5827262988006301 12.0131245799513593 13.8121922084482467   F   F   F
  6.3438090185122986 15.2501831165209101 14.5855283629399857   F   F   F
  6.2107950089881738  5.8999417918845634  9.0462957162499116   F   F   F
  8.9977635591484795  8.9098033079004431 14.2739538111225830   F   F   F
  9.1179058451419799 12.5737179827179357  9.0583826787943185   F   F   F
 11.4201326253689750 14.9554692278257857 12.0326072094933227   F   F   F
 11.4988906504000052  2.7305313478396069  3.5996642295599606   F   F   F
 11.5847537493787733  6.2400430123284769  8.4316638424287351   F   F   F
 11.7240754733635324  8.7002451576246482 11.6065393360400648   F   F   F
 -0.2295922327606829 12.0309957426379501  5.9837642969592357   F   F   F
  3.3682405728336624  0.0401241197753408 14.7658727447507960   F   F   F
  4.1619314411481270 13.7353673437024355  5.1224778674287315   F   F   F
  6.5944792443262044 12.6355477009394690  3.4621544819550980   F   F   F
  8.9704947763236991  2.9648054363356176  2.8999412241120015   F   F   F
  9.1945190862846591  5.6854046414294475  9.2259252318492013   F   F   F
 11.1693663782683323  3.2422019565195037 15.5559822329929407   F   F   F
