Zr Ti V  Cr
 1.0000000000000000
    15.4889002550493640   -0.0195313770937778   -0.0155534076795571
    -0.0195267745976093   15.5102089440028070    0.0059105293967036
    -0.0155475950656657    0.0058984254639578   15.5083315327291498
 Zr  Ti  V   Cr 
   5   5 111   3
Direct
  0.9979862619528624  0.9918611561984471  0.8020611192519839
  0.2090877672385035  0.8030616410748419  0.1939446175722605
  0.2159334852283045  0.8075502513666025  0.8029453662876320
  0.3925888050196755  0.9631245745378268  0.8359295077607394
  0.3853122005928511  0.7954656952095776  0.9982199992386898
  0.1977248833458173  0.3996661736038599  0.9667410439123396
  0.2100082609126458  0.8148296232575652  0.5923633526509160
  0.3997802774631528  0.0134026911351382  0.0255381512730366
  0.3902540824355272  0.9887514186173300  0.5966351611678210
  0.8026658880561713  0.8015083437288966  0.2001450577176438
  0.9956723641954631  0.0000322583026562  0.0055916376595463
  0.9984589403442244  0.0007501771173281  0.2018144397968709
  0.9986509357957190  0.9992430692869594  0.3989763891485222
  0.9974738271630452  0.0001915702715649  0.5957939155189843
  0.9977070098159212  0.2004093298618342  0.0013184754456617
  0.9988801683750164  0.2005057288621535  0.1996595213054000
  0.9990906684621511  0.2000570992737662  0.3990438606924332
  0.9986226775502722  0.2010064945962495  0.5999842830201024
  0.9985982525271166  0.2027282206111051  0.7997745310588191
  0.9971025514924634  0.4015834895644944  0.0002639331523935
  0.0004096395302084  0.3996039812801016  0.1990924797402869
  0.9988869037520209  0.4007536650578844  0.4000218685167788
  0.0015306009293941  0.4006165240365740  0.6000692721853847
  0.9984193302911738  0.6002061021900507  0.0015752951928529
  0.0010263820943936  0.5999525139311251  0.1998903386942215
  0.0006607522886405  0.6005547783304034  0.3996927800521048
  0.0024372374533954  0.6009864141195589  0.6001391172805415
  0.0035849876608651  0.5986498335188258  0.8003179498922010
  0.9942951408997059  0.7994506168143040  0.0002936784664104
  0.9999847103385774  0.7996120587097757  0.2017380387663272
  0.0002908568863471  0.7991866236762530  0.3999892831494828
  0.0020108329635327  0.8006420703364626  0.5999354024123356
  0.0021225378167053  0.7919397760301444  0.7984802798034615
  0.1946458654987458  0.0033244486756006  0.0005661638308355
  0.1991987384511244  0.0053737577765737  0.2001211423716084
  0.1977854514918450  0.0013604865840806  0.3988146788515571
  0.1940704881512032  0.0091483731922174  0.5982227945951512
  0.1964877416492983  0.0119140033852461  0.7993355240240405
  0.1984017857714977  0.2002486604111929  0.9983161571800755
  0.1993522515450075  0.2025463120985946  0.1988136824167163
  0.1999455616724705  0.1990365786495887  0.4003607028986982
  0.1989602654869747  0.2043109138752155  0.6003263185123130
  0.2000269996815017  0.2019004629461416  0.7992983467692309
  0.2003379155595416  0.4003187523224776  0.2032781410883223
  0.2000609294449046  0.3993616650535548  0.3994761185334147
  0.2006308642795664  0.4006050582571993  0.5971339090784072
  0.0315184198693447  0.4002830037537669  0.8000215615073405
  0.1982015489438549  0.6022321102370853  0.9984048470820114
  0.2004262955669177  0.5959340125715396  0.1992454759241556
  0.1997017386148923  0.6016959895244236  0.4005105183745467
  0.2016706414638532  0.5992602800643295  0.6019342224013572
  0.2011302630937827  0.5999530360377231  0.7993944069988076
  0.1854879395712841  0.8023514580652521  0.0020996634618620
  0.2001095603259899  0.8008939289939825  0.3981702867717704
  0.3988917670753827  0.9994929328712525  0.2096077583071336
  0.3985645168034685  0.9985483028657309  0.4000204363342480
  0.3981598599593455  0.2031192357412540  0.0000622938649775
  0.3994217133764412  0.2013070369256202  0.2011041355817090
  0.3996378504433977  0.1989100956757892  0.4005309967048312
  0.3993979774313024  0.1977720182032831  0.6013324871955497
  0.3990514122495802  0.2026699878682924  0.7987847576451793
  0.4011317772802523  0.3989014453017703  0.9994946126910277
  0.3990829535542157  0.3991814170477848  0.1995630466094390
  0.4011247589932582  0.3993484996617971  0.3999117951901318
  0.4004667760732475  0.3979949060560801  0.5997508336040688
  0.4050346090019987  0.3972812122639010  0.7986596566189633
  0.3985640073373504  0.5916002855289655  0.0019258716587411
  0.4001211950758653  0.5982279032437937  0.1997213431348629
  0.3996029068542966  0.5984540316240171  0.3989302504296057
  0.4003556296497673  0.5952761031961864  0.5975840905624993
  0.3998897612766650  0.5892954370015021  0.7995704394994523
  0.4087640942990882  0.7977008874367529  0.2061326797348665
  0.4017103652608338  0.7974356720574894  0.4015786009972513
  0.4078108103554404  0.7915378121432246  0.5957456478365064
  0.4168384895898478  0.7742928050742458  0.7897457396510835
  0.5971084125062688  0.9992498145694710  0.9995179189789167
  0.5984833453399651  0.9998364551833216  0.1989829312790370
  0.5992316508853509  0.9994171969396993  0.3994304032894863
  0.5992688932699450  0.9985668187855181  0.5994477728190961
  0.5980745947500649  0.9991074355566207  0.7987479858580154
  0.5983332513745062  0.1985821469982954  0.9981766494030603
  0.5988809276735302  0.1996270998856050  0.1998252983399746
  0.5991093665723063  0.1979914117077514  0.3995961248613379
  0.5994922014104588  0.1979089462508376  0.5994862164508888
  0.6003169564557896  0.3988253273710958  0.9993480740396027
  0.5998324030183425  0.3988396033005002  0.1988906322266837
  0.6002550343102956  0.3992535566747855  0.3988743781669348
  0.6009558574047146  0.3983681499289268  0.5985795301567159
  0.6021413296241829  0.3985037692895179  0.7993663616543187
  0.5985727311100987  0.6008126420678978  0.9988468088450380
  0.5994587846692125  0.5999126241056545  0.1987928869477954
  0.6005613477637608  0.6003866677653532  0.3988978395538685
  0.6016141386747526  0.5986730875389056  0.5996141269885877
  0.6028053318508194  0.5976993370760522  0.8001141667365301
  0.6001109904670112  0.7996166024253321  0.9983986313108151
  0.5995805076810988  0.8005689084841386  0.1975531659499297
  0.6012078920848806  0.8001944533380837  0.3994464671489462
  0.6043020314666787  0.7994570837721994  0.5989156558382802
  0.6045348416906460  0.7986781415652953  0.7988084962269293
  0.7970319841525455  0.0013688706140274  0.0009535494200767
  0.7976383873328738  0.0033589263624199  0.2000803833945715
  0.7990181108857062  0.9999625788634282  0.3994282280350046
  0.7987494582127550  0.0007054650774805  0.5995564809295945
  0.7943166190753260  0.0007035300170877  0.8004045608841467
  0.7985186722970162  0.2005154878118028  0.1996145368769657
  0.7995239722245621  0.1995359424239446  0.5998333949765255
  0.7988113534584262  0.2000983812257718  0.8004054333309339
  0.7984692297965998  0.3993578197691257  0.9996933292988702
  0.7994630295196501  0.3995328196012071  0.2000432888708131
  0.8000073214228248  0.3996101561089089  0.3992005384351774
  0.8003737603987240  0.3992166260082829  0.5991978887531155
  0.8002267630312007  0.4000578440148712  0.7995229156282339
  0.7994215641100108  0.6002936280362381  0.9995868329199741
  0.7994930858477045  0.5976122793626432  0.1996232475341846
  0.8005517864592386  0.6001989745098885  0.3996455431000343
  0.8018660878584510  0.5998043083753978  0.5998705813607904
  0.8014672964524119  0.5993134189960375  0.7999209102403541
  0.7980101295692431  0.8006790970652865  0.9970436064669640
  0.7998109360810705  0.8001292221994269  0.4020385355723783
  0.8020626638891414  0.7999843357284060  0.5996576284121128
  0.8015091643080842  0.7991603792176617  0.7989141343557459
  0.5991621484119001  0.1982934595699813  0.7994275077432104
  0.7976659056234242  0.2004489492409419  0.9997182815035468
  0.7989867462071488  0.1999105915141607  0.3998997635983878
