Zr Ti V  Cr W 
 1.0000000000000000
    15.4587842636866384   -0.0032293511975409    0.0082388701308688
    -0.0032271162884385   15.4523236864820461   -0.0077372164595043
     0.0082378582767830   -0.0077376883952526   15.4599035016914126
 Zr  Ti  V   Cr  W  
   1   2 108   6   7
Direct
  0.2001936643321927  0.8016354357736235  0.4020635971987403
  0.3996465276326621  0.8014180916224084  0.7948381370848260
  0.6174447613028069  0.1987340058012108  0.1991170024341506
  0.9999874534329298  0.9984001333643995  0.9994582991886427
  0.9995229036976758  0.0026557723713012  0.1998826808685661
  0.9993282664119839  0.0004429710595679  0.3988359461277554
  0.9999350347974092  0.9964575160323814  0.5988717461439347
  0.9986157861982861  0.0008019451181562  0.8005104295681685
  0.9994770623675628  0.1994090310813112  0.0030055385074403
  0.0000707140660772  0.1989089932765560  0.3976947838540754
  0.9996425141994841  0.1992096805707247  0.5985310724379056
  0.9991200936300201  0.1999628057361311  0.7999109953231288
  0.9993494956809694  0.4009989808926528  0.9987497873034599
  0.9971215562622165  0.3981107342510434  0.2006798950976548
  0.9994783008533363  0.4008704637369451  0.4014410680031967
  0.9990387991256595  0.4014137487596460  0.5993067515585466
  0.9987946760505361  0.4002262331587684  0.7997302989676937
  0.0014773651302789  0.6025345114000483  0.9997199301374864
  0.0005895553601667  0.6012985043698896  0.1998851979015761
  0.9995968981679868  0.6002120102745189  0.3992674396490761
  0.0005872192306433  0.6048671850337771  0.5995675849584178
  0.9995133519317503  0.6005551346075650  0.8007028718003454
  0.0000473803864764  0.8011425206122834  0.2005276582312809
  0.9928110299098167  0.8013123228015422  0.4038887383922988
  0.9980969039192689  0.8010655630077413  0.7961868932810501
  0.1995692652892080  0.0010776696349848  0.9977808415631662
  0.2042465466762055  0.0057720389596916  0.4011379580557410
  0.1994621047023549  0.0014625364513686  0.6021097934126726
  0.1997704606537317  0.0011227367959200  0.8012093800389846
  0.1994000042073811  0.1996622049053648  0.9982988161481164
  0.1959233435503835  0.2018017413026432  0.1991205342999241
  0.1987034356356452  0.2018530991914425  0.4012459435783284
  0.1990551555059904  0.2009373900806981  0.6007484124145333
  0.1995219446684109  0.2013562383964553  0.8002883644442786
  0.2006658655271381  0.4009820731358046  0.9995774453577214
  0.1983273549359058  0.4009969937366208  0.1997991411042083
  0.2011393792107782  0.4000915421195878  0.4007732560767765
  0.1993307352694839  0.4008373357682343  0.6008001056709077
  0.1996800521991720  0.3999615861415123  0.7994706043242658
  0.2001224058802850  0.5981756420470634  0.0000437283449007
  0.2015296475325141  0.5960971919969492  0.4006268594519277
  0.2004771605170647  0.5993656583571624  0.6013832649013388
  0.2003447576913665  0.5999032917605168  0.8019001732408162
  0.0655800921141554  0.8006570713915452  0.9992723252621947
  0.1974424478579443  0.7993693994021391  0.1992095576660098
  0.1943844161896529  0.7996173939049317  0.6067874368606503
  0.1973336193168087  0.8006062789879084  0.8010733194076152
  0.3988093910267366  0.9967234561529966  0.0001215484026723
  0.3990449007969151  0.0042462900202123  0.2038742868836046
  0.3980839327644931  0.0012913702594894  0.5963166888611267
  0.4002236533632406  0.1994682199469912  0.0042289959038199
  0.4006842254466312  0.1965637708376894  0.3960635175923722
  0.3997400731889993  0.2011315412982234  0.5997444888511932
  0.3999841416364401  0.2007420873893415  0.8003968413401183
  0.4013724595472744  0.4004896942226813  0.0006548215125590
  0.4013312883557320  0.3964584446589141  0.2004194876429782
  0.4015650486163354  0.3996803638431579  0.3997492986010691
  0.4003467920292432  0.3994594900672934  0.5991454876213187
  0.4002886403352847  0.3995041461029396  0.8006263321375967
  0.3993788141250421  0.6033465764749038  0.0007153501299755
  0.3998615716451165  0.5992289859201946  0.3998847933603487
  0.3996863785678493  0.5976940550046097  0.7999392600727565
  0.3977066635027396  0.8001710145307043  0.1989050058487819
  0.4066522872432674  0.8041402950886940  0.3998382290768735
  0.3983486769164593  0.7995158207104788  0.6008577704168441
  0.5974946164188365  0.9995702374805240  0.9992072580191246
  0.6006942227211076  0.9988802014323287  0.1990432803402630
  0.5946881284748953  0.9956129268616473  0.4013856334306523
  0.5997297202407819  0.9998179748381512  0.6018266289119112
  0.5989285799213694  0.0008251504590692  0.7991060194236246
  0.5987595387167657  0.1992512092065880  0.9973278725541548
  0.6002425059486299  0.1991091522180246  0.4023774552442581
  0.5998351081604739  0.2002581689934430  0.6008092392318862
  0.5994052623291751  0.2005175165816245  0.7997421312585399
  0.5983425855077990  0.4014299089913207  0.9995477135038054
  0.6047229537847172  0.4021614826001160  0.2008344896416340
  0.5981255488233156  0.4012034727465453  0.4013928196779429
  0.6006426594420832  0.4006596209404334  0.6000685841397482
  0.5988014531100558  0.6007656176271740  0.9996852104081039
  0.5997536800518627  0.5993673396374630  0.2002537673083616
  0.5981757300619882  0.6040734595090851  0.4014456733224218
  0.5996217433779006  0.5996970047630261  0.6011254248096664
  0.5996068539093491  0.5996384489400520  0.7997483748182355
  0.5952234349063088  0.7999918438758571  0.0005585864828587
  0.6014686438000845  0.7988537926578116  0.2046591115399015
  0.6018441015233956  0.7993476988814553  0.5978538763051628
  0.6009662776414814  0.8007127632655847  0.7982860204047334
  0.7978392554016466  0.9994871003326616  0.0002510590657556
  0.7993526381251733  0.0014803428423935  0.1998444986926461
  0.7968129681998563  0.0014304375663280  0.3991591940833078
  0.7991101903172562  0.0015679960260644  0.5998595582258335
  0.7985965679222589  0.0017734001911469  0.8007152453629568
  0.7984629068410966  0.2000686255371213  0.9993936004777970
  0.8091585809240873  0.2047839381652351  0.1999365724125963
  0.7982562796242446  0.1995615331154627  0.4010583282972041
  0.8007612030170062  0.2009576888160930  0.5998451904920052
  0.7996834286173651  0.2012417810605231  0.8006380631357285
  0.7982352810293745  0.4008679526688760  0.0034187633176666
  0.7978043170188952  0.4001099103518268  0.3968560014425477
  0.7999082200077408  0.4003638005357774  0.5991761112186486
  0.7994114295677599  0.3998283341983053  0.8013957548594761
  0.7987044242937753  0.6017003659595929  0.0000123931548893
  0.8016690757628545  0.5960687375177915  0.1998698874933522
  0.7986737985892147  0.5995470442546899  0.3997235185637094
  0.7999596694005676  0.5986154369456819  0.6004081837614664
  0.7992192927750033  0.5989289750111875  0.8008399351178201
  0.7964032479239348  0.8004517913098889  0.0004814562145035
  0.8010216552895225  0.7994494865045608  0.1988636382203009
  0.7943321302356112  0.8006126975001473  0.3988942522504738
  0.8030524614952121  0.7999144197950062  0.6000921816601239
  0.7980035752362951  0.8005403143723004  0.8009592780204345
  0.1985565443450075  0.0004458189073822  0.1977671368214166
  0.2003476663631694  0.5985259505477043  0.1995847325322566
  0.3992890927457522  0.0033156095124850  0.7988211418915622
  0.3994142247360462  0.5983649408152146  0.2009159042035642
  0.3994960737583778  0.5991107421830545  0.5999888606435499
  0.6000327395806071  0.3999138792844715  0.7996913111066023
  0.0013297871916556  0.2008236581453148  0.2005388617317835
  0.9978541467887763  0.8005222006540501  0.5994635033588186
  0.3994561649109532  0.9993487928005054  0.4001399568094595
  0.3912899138524996  0.2000555639781086  0.2004278171697808
  0.4030218632884815  0.8012947563829924  0.0056080031374806
  0.5997734291311388  0.7987616501762280  0.4012756955348639
  0.8007550821105994  0.4009901814255447  0.2003291512603026
