Zr Ti V  Cr W 
 1.0000000000000000
    15.5050440400828347    0.0206650371517037    0.0304858292680132
     0.0207229526236000   15.4632172535306704   -0.0191964718441436
     0.0305150008632079   -0.0191743023753052   15.4329039499575007
 Zr  Ti  V   Cr  W  
   8   6 107   1   2
Direct
  0.0561885702953061  0.5712244135394478  0.9952764940594629
  0.1972394486864249  0.2086421335992836  0.8077551607917164
  0.2011971670269394  0.6015181949620712  0.3794537156511902
  0.1955909332543436  0.6067706559090358  0.8099498452318256
  0.1798352816183889  0.7540422292108244  0.1930891056842984
  0.6014820519529231  0.0020612903970490  0.5997417713382153
  0.5917307632211718  0.7923199682847955  0.1998438314220770
  0.8057703714654606  0.4219663165044975  0.1770059193816403
  0.0068292350872419  0.4038047388195013  0.6008427423146645
  0.1987862852845337  0.3841300803964053  0.9804895306033391
  0.3723616321999736  0.6138822934023931  0.2103318205693576
  0.7966443792573535  0.3997345852784568  0.5979246836370514
  0.8302102995635732  0.5987555638160503  0.0062075781798572
  0.7946890923805467  0.7995532444758212  0.8023679582045149
  0.0001368497115940  0.9962504328546863  0.0014677543381418
  0.0020113723956285  0.9968535334049077  0.2004361840036550
  0.0001990153185404  0.9940208685285804  0.3992327108426564
  0.0013515389404641  0.9994688769428317  0.6013507778911742
  0.9996380788816867  0.9986709179405290  0.8009680646218805
  0.0001054272564493  0.1931977608136987  0.0009930175338426
  0.0000901978450363  0.1974028821527457  0.2018818293373846
  0.9990002528671003  0.1985768491035283  0.4013719929445014
  0.9999515091551497  0.1997945134312650  0.6004002452556110
  0.9932068836630439  0.1994162791844635  0.8000344150503936
  0.9883571979118381  0.3861657821585507  0.0020947349141662
  0.0045749090309891  0.3935472069926459  0.2004497791582886
  0.0010576414830938  0.4021387190348935  0.3972467690072961
  0.9974986703326626  0.4009840611923367  0.8033734165674506
  0.9935411354806891  0.5933701181172260  0.2023561233781554
  0.9928073539812931  0.6039030988120516  0.4006762206975571
  0.0001224153580026  0.6021115715072912  0.5996053427211158
  0.9880463187739885  0.6015680653678053  0.7986061587588598
  0.0002634746326776  0.7995257358463157  0.0052346058088344
  0.9884937617165143  0.7992727925804785  0.2053425884072934
  0.9996227829135872  0.7998465612259456  0.5960558343975620
  0.0001713388960105  0.7983030221273796  0.8001260565028265
  0.2006059990069601  0.9973699424455695  0.0021982887938570
  0.2007872922672086  0.9951304830758410  0.2003091171074391
  0.2002949953868087  0.0009764723088652  0.3997923630249153
  0.1986531552894045  0.0046954936093331  0.6016126806195550
  0.1986131164006710  0.0019537597585681  0.8009262256601486
  0.1978798080014446  0.1913408414652898  0.0091865853407314
  0.1985178454653886  0.1936834673399326  0.2029836761859430
  0.1984478362275358  0.1999732602504998  0.4018303298939379
  0.1990507668395390  0.2021963455025641  0.5985182029844988
  0.1997769878696870  0.3864112128281669  0.1967432512305466
  0.2002946885426129  0.3966405834667588  0.3974209531415667
  0.2022679328842551  0.4033824321775420  0.5966038183168761
  0.1981349744821326  0.4047779366771854  0.7920017563973186
  0.2350465517123896  0.6173313017741839  0.0223584910779366
  0.1803657881007045  0.5636366532563147  0.1719279469483105
  0.1987006103930621  0.6006237385439290  0.5973289112770476
  0.1989845542639954  0.8027203706374151  0.9922908583041419
  0.1927620197698513  0.8083953051384726  0.4065998608802671
  0.1985266886682232  0.7993208954805133  0.6007929593166503
  0.2011257980639198  0.8086787593832219  0.7974193238183591
  0.4011801574802448  0.0025310772439335  0.0005366615328468
  0.3994939709804151  0.0039283135092796  0.2002514389165777
  0.3996028910932203  0.0014438860284705  0.4002125411924732
  0.3957820688363430  0.0014589703571619  0.5993657315231374
  0.3989221483061612  0.9971012414873907  0.8013730705239575
  0.4011499920400683  0.2002293432062550  0.0019192547479060
  0.3951736586347685  0.2021904359519275  0.2005052779006042
  0.4016903211801237  0.2006006395189407  0.3994701499730315
  0.3982049924519342  0.2029095203620640  0.6017279678859504
  0.4028990932915407  0.1997689984428002  0.7999165351531246
  0.4014062544950702  0.4013716727094464  0.9991169899586888
  0.3982776048503052  0.3991446878847233  0.1995414926927528
  0.4006206482631815  0.4019631280764095  0.4001924933682708
  0.3986812085054699  0.4021423361379446  0.5999325353212589
  0.3966303613109500  0.4049299729618075  0.8004048702439434
  0.4048147157308955  0.6013527254837293  0.9997900887173384
  0.4062296602113639  0.6018783250694153  0.4044810992482479
  0.3976330064699178  0.6018207139685505  0.6007080335137533
  0.4020531952371611  0.6051119115580761  0.8000924570550675
  0.4017854383044729  0.8076184111319451  0.9919477837226035
  0.3925715787934934  0.8092636717611426  0.1990296638806059
  0.3984000618178402  0.8018542683168378  0.4015762494805075
  0.3974358716245710  0.8011990286311386  0.6049578814524751
  0.6008399249279662  0.0026220939233792  0.0017066240986464
  0.6006172331177998  0.0014977816284121  0.3943788649337891
  0.5999898249757279  0.0003379770598979  0.8038212047477409
  0.6000659362467623  0.2011683126891242  0.9985558304616294
  0.5991337286420256  0.9994703411576872  0.1985355931967425
  0.6010868010900507  0.2014118075550715  0.4025616461568838
  0.5996243047783345  0.2064791453699813  0.6001345977915162
  0.5992880934255013  0.2027405258376704  0.8007779662786654
  0.5997906919114713  0.3991617311943532  0.9986193897922273
  0.5949731628763597  0.4008212726218569  0.1986351460885359
  0.5997106288623832  0.3989036129769866  0.3970661132131951
  0.5952946942404490  0.4034240010848336  0.6002635121178040
  0.5974369647396830  0.4027406006285323  0.7992939186841190
  0.5938128132145719  0.6001266083415152  0.0027191807228462
  0.6117241417803377  0.5908137193144920  0.1997870086065947
  0.6019066712780274  0.5989005081666896  0.4009391263441685
  0.6011481224408273  0.5999709868229605  0.8014345052026007
  0.6030223708899397  0.7977520032843625  0.9958171469340974
  0.6004648379893224  0.7990043921320591  0.4044734131322176
  0.5991451706023928  0.7965732314935864  0.6006795961894280
  0.5924486204244053  0.7990800016180382  0.7997541749036656
  0.8008072795416959  0.0004938163648565  0.9995709161765715
  0.7975038443515207  0.0039882642443674  0.1997234510649172
  0.8005455359140490  0.0014160960692644  0.4001262881204988
  0.8050167564802965  0.0011989067969485  0.6006557129537677
  0.8004426264811068  0.0015147143414845  0.8008885733338450
  0.7970420487725061  0.1979897495203495  0.0019032395962741
  0.8050628753443995  0.2025436146133748  0.2002963496242899
  0.7997162659506392  0.2012893353790084  0.3979560554493111
  0.8004235738280893  0.1999683272911202  0.5996052861243572
  0.7989465709566875  0.1997563589344875  0.7985631946806674
  0.7967976627922515  0.3932892668262312  0.9846924174081870
  0.8007992950366555  0.4009952216899871  0.3966451503843463
  0.7969823537537671  0.4003222287378289  0.7960837140044014
  0.8029464566070762  0.6131056546191958  0.2055980824505165
  0.7982142227420398  0.6004247693209723  0.4027397126053924
  0.7980383014352466  0.6025793344715917  0.6008021701161199
  0.7964901948353904  0.5983694548511946  0.7977821843586295
  0.8015825738233611  0.8019941319495029  0.0017369478394611
  0.7975664690243400  0.8049788838144358  0.2011834043452905
  0.8049429410242855  0.8016141265071364  0.4020732577841331
  0.7994719719300313  0.8009543308784368  0.6001587146687146
  0.5988757265194619  0.6005076116385722  0.6006451924029467
  0.0022961791860261  0.7970918970421333  0.3979008952122908
  0.3968157100324257  0.7989108721901825  0.7985095081477551
