Zr Ti V  Cr W 
 1.0000000000000000
    15.4149939690695010   -0.0041197707411214    0.0051244012526811
    -0.0041210926464625   15.4234402589122102   -0.0060663359120509
     0.0051270839828618   -0.0060686626181498   15.4040961855710652
 Zr  Ti  V   Cr  W  
   3  13 106   1   1
Direct
  0.9891387513453422  0.7848770511940678  0.7972423964589620
  0.2052235132769090  0.4394625039003595  0.7990471024274302
  0.8124577337599157  0.6061578694592435  0.7939484040540790
  0.9979451828178709  0.3998562103645834  0.4091041878132455
  0.9942486701206227  0.5999735129069546  0.4049949563531608
  0.9881299626259731  0.6099067813396974  0.6232814619952282
  0.9952482334557124  0.8044089938983316  0.4014174849644803
  0.1992437401450567  0.9874571927545198  0.7976577243620135
  0.1971471911343425  0.2032227787899218  0.7976918403768147
  0.2056954550283093  0.6016065172937092  0.4101072697588812
  0.3944742997194147  0.8206532667166521  0.1987742062750944
  0.3990256820855912  0.8068138069381884  0.8032336916499573
  0.5990253664231610  0.7964460477833809  0.9896759447445942
  0.6071796888339569  0.7983995630626237  0.2000797157933351
  0.5997055607817438  0.7925640562620232  0.6000315308844811
  0.8004733727547065  0.9937888639428953  0.9968223623721432
  0.0028167096520642  0.9972073599949002  0.9979080935980529
  0.9987085397283689  0.9995437154749283  0.1994538881802188
  0.9989038426720352  0.0025590788319105  0.3996806402031852
  0.0006207120404620  0.9997588052098677  0.6011446961095327
  0.9965401662037763  0.9975398157521443  0.7997320388796114
  0.0004540290464339  0.1971645218628502  0.9999863070063801
  0.9995084470690455  0.1996028734864641  0.2001684742845698
  0.9993816310073126  0.1977644603522508  0.4008975556029173
  0.0001962808990339  0.1993228231770598  0.6010431129715930
  0.9987229388485185  0.1956932367874682  0.8007055147909015
  0.0011147356614454  0.3963978043455043  0.0019555096850248
  0.0000476764164188  0.3995645693415297  0.2001082860759103
  0.0019214154255938  0.3981291514721721  0.6057900245447976
  0.0014387732258356  0.3923199771427528  0.8030108085027338
  0.0018421226186442  0.5980970338592155  0.0064865874328926
  0.0012674851266794  0.5990465314032423  0.2028529911088942
  0.0194479622572980  0.5826693894464910  0.8166101672471152
  0.0005254632930080  0.7980009848217675  0.0037208106671833
  0.9985938046146930  0.7994113629313072  0.1993688754612702
  0.0008591175748145  0.8042571379521291  0.5927135694212253
  0.2012889190324821  0.9982823328068167  0.0024630587966583
  0.1974663009356870  0.9993761161557445  0.2004969988096293
  0.2003661009890160  0.9989543566542318  0.3995844256862322
  0.1996555666017535  0.9988110809149950  0.5973257670356611
  0.2014218217361970  0.1984690759908488  0.0028026514082573
  0.1984055224313243  0.1987273174696410  0.2016677195813520
  0.2003987332563102  0.1997216264833399  0.3990689871971169
  0.1994702493792228  0.1991759345334954  0.5979818043778214
  0.2019152770657172  0.3998794396850603  0.0051038199567484
  0.1993601046233649  0.4008961130363818  0.2029241308689486
  0.2017010455229691  0.4000434540605674  0.4008964482878610
  0.1998278956352436  0.4023859462613619  0.5952197076235701
  0.2029576467838505  0.5998143861300695  0.0005477972955137
  0.2010025708426931  0.6018455197808181  0.2015665041032820
  0.2023722439836648  0.6014445444950031  0.6056981100537550
  0.2080221450117316  0.6280196514532059  0.8017413354401567
  0.1978149566138880  0.7980956020066577  0.0000716680829281
  0.1945422195854236  0.7993816369250746  0.2025327240093641
  0.1989394189596184  0.7993993699745487  0.4024993306901382
  0.1986646129070054  0.8014401563277008  0.7980833896563549
  0.3997230129894584  0.0002521022026534  0.9971148061133469
  0.3995403230410425  0.1001030499151509  0.1992272664898812
  0.4001363021733202  0.0006226131862783  0.4000566832141473
  0.3993811506499979  0.9998913411672357  0.6005707860535935
  0.4026620768610190  0.0045105626542483  0.7991614506549116
  0.3998388205119981  0.1981615906152201  0.9990933918873960
  0.4001593777870331  0.1982139080667765  0.4011064968534531
  0.3989254093061265  0.2013264986482086  0.6004204184915254
  0.4015998627652133  0.2011602406056496  0.7997494918674986
  0.4009077648251280  0.3971903629032036  0.0006277160759791
  0.4001626550959158  0.4015809252005912  0.2005038669332026
  0.4005795520837674  0.3981089352039203  0.3997176154239893
  0.3987703144628972  0.3998441132876479  0.6015318436366861
  0.4064617254358362  0.4002991729721360  0.8009055460929987
  0.4022240236526253  0.6008511153338189  0.0011481730933601
  0.4006550180016210  0.5981822507427335  0.2001128769768172
  0.4021829779239111  0.6014242404698183  0.4005732401866988
  0.4035854377862897  0.6022822337439966  0.6016226916154560
  0.4018429232208275  0.5993540932064600  0.8018528289560557
  0.3969169644669829  0.8005381251168424  0.0029627818271381
  0.3994184204995372  0.8024938808289439  0.4007158008691310
  0.3956790370965685  0.8004048615551425  0.5983645981649214
  0.5970030100688194  0.0007238881554801  0.9987784565102069
  0.6008303474502990  0.0011859481055399  0.1973314456905132
  0.5979532636814484  0.0000208095693196  0.3989525817415217
  0.6000162075540152  0.0000531489680725  0.5983992964229886
  0.6001033215333840  0.0015982840918414  0.7976370219451770
  0.6002227769908274  0.1997728826292217  0.9992833026417813
  0.6014780061029494  0.1993928253574268  0.1988233827068216
  0.5990982066514431  0.1999851168444624  0.3987393968080246
  0.6007770781922347  0.2016334074723859  0.5996729206700483
  0.6013727330437352  0.2011334090011807  0.7989208818498876
  0.6013435321616987  0.4006167311823937  0.9990727819038480
  0.6006176023490390  0.3998042558668595  0.1994088502270953
  0.5996761936620491  0.3995776714608554  0.3994616982388943
  0.6006030641192374  0.4029430516102919  0.5997993502066231
  0.6045415781040239  0.4014040489129700  0.7995903782092891
  0.6011228383737413  0.5979511444914706  0.9968614425364896
  0.5997101899822248  0.5993816539230810  0.2001537723727655
  0.5972526618420028  0.6004500174045257  0.4039914823674380
  0.5994793818987404  0.6016501496585446  0.7949842328045629
  0.5988186722979810  0.7996818102249821  0.3982485422848388
  0.5983981112302155  0.8004422673587329  0.7962956750508445
  0.8002563093424678  0.9984127281081316  0.2001521676027003
  0.7981235143860514  0.9987921334989683  0.3994875044928975
  0.7995921918343383  0.9991201235954693  0.5974749059920839
  0.7988145433571847  0.0018562468205199  0.7950546736779820
  0.8010105934450809  0.2005389690693679  0.9991533565833693
  0.8006477373716682  0.2001219159138366  0.1994408922258545
  0.7991953264872526  0.1995502818504652  0.3995720033519976
  0.8010417599619297  0.2004043474327600  0.5984099538907451
  0.7994087771378837  0.1993730520502225  0.7985676169526904
  0.8013939348672185  0.4007799721745131  0.9986070106799160
  0.8011534521533457  0.4014392366876508  0.2003794027225862
  0.7979158725493051  0.4002425871700916  0.3993594592400449
  0.8029088499223671  0.4021383108852735  0.5982573267456678
  0.8028317030088168  0.3978481312732793  0.7990048635557450
  0.8011325303213860  0.5991879940422170  0.0025530955211744
  0.7994744140697810  0.6006351238124467  0.1997591201546651
  0.7957569178978467  0.6015085477564800  0.3973059736740690
  0.7908447452835274  0.6013658597156371  0.5910920244704658
  0.8038648205059648  0.7958205472068129  0.9952233373668076
  0.8029485570453341  0.7990740503757410  0.1983530781431488
  0.7962742807855495  0.8011326182589970  0.3986813270467242
  0.8037157492678454  0.7991689719544537  0.5973719821527803
  0.7877089576037094  0.8114427485862673  0.7977426712340517
  0.1981918653599163  0.8005657879997100  0.5992293311138549
  0.5995195267140381  0.5951394211625081  0.6008518541136387
