Zr Ti V  Cr W 
 1.0000000000000000
    15.5633147981762434   -0.0105082892338306    0.0011052113616143
    -0.0105224976463168   15.5390273600018674    0.0056805954645976
     0.0011054290159095    0.0056800010957864   15.5617863503600393
 Zr  Ti  V   Cr  W  
  10   1 106   6   1
Direct
  0.0089148376470520  0.1872928884934501  0.7960204648077596
  0.9979042772684928  0.5989121071784368  0.7993487353721307
  0.1923630243515974  0.0053243906351000  0.8022865167510108
  0.1969772697708996  0.8008096584194476  0.3977882352261957
  0.3972228881421612  0.9986665607547524  0.9974723184794281
  0.3977804703722690  0.7736919514388126  0.0018622798600483
  0.5985693750688302  0.2020435133416052  0.2030783966665908
  0.6103387060400844  0.4098097349073474  0.3989230062039622
  0.6028706913058917  0.8010954172714172  0.6036728471463928
  0.7937120132328559  0.5917686215931135  0.4002298073614443
  0.9994906563021482  0.9946049003689011  0.2022697783569414
  0.9964987199273331  0.9993763020103072  0.0004298149608433
  0.9986037949324937  0.9993273639942670  0.4013323574109336
  0.9990867267935771  0.9979892648338785  0.5979303070113866
  0.9872245153924502  0.9872385915798016  0.7989029647576612
  0.0010191042251322  0.1996346964888190  0.0036444157991609
  0.0018531843297298  0.2015948040949045  0.2009059905683916
  0.0028225983635068  0.1980473478994680  0.3989783175706788
  0.0026528786167468  0.1986966316565748  0.5939352601275185
  0.0013622985178723  0.3987920775564259  0.9999927553748114
  0.0011850948545618  0.4004128166849131  0.2002804305217197
  0.0040655131520988  0.3986658807936241  0.3989446456382311
  0.0021551822811277  0.3989999793992030  0.5994658784759948
  0.0002817229509764  0.3952009592768844  0.7995800766582796
  0.9999170809343255  0.5992719168523458  0.0037678736385005
  0.0006997983167125  0.5994980567487158  0.2005665895998256
  0.0018582269263712  0.5990211400528896  0.3992331464266472
  0.0010019937427295  0.5990869993231369  0.5950406600348956
  0.9990229307542534  0.7979182290581344  0.9997900265548806
  0.9981490465331356  0.7971036581689317  0.1994031426025976
  0.9947661407704019  0.7982322433627604  0.3999443481017729
  0.0004191285385249  0.7986327937116340  0.6000693069676472
  0.0004800382774221  0.7995032055861698  0.8000793092224258
  0.1914654470991466  0.0027723156341457  0.0064588393100111
  0.2014163278028536  0.0021609100171391  0.1992402025134744
  0.1990251033270422  0.0045729658930595  0.3981817802674457
  0.1988127726118943  0.0004827530565013  0.5963223847814568
  0.2009616068892131  0.2019770563255835  0.2007310762222151
  0.2006500223377621  0.2011173612194112  0.3986315290916920
  0.2072093466312816  0.2021428295357320  0.5975184991088341
  0.2097529936278104  0.2087244213615040  0.8009947756684697
  0.1997127858021515  0.4009439243420053  0.9999045249533131
  0.2010615803064447  0.4018619674685317  0.1981936431493282
  0.2005387455811828  0.3998791157214290  0.3988476804557972
  0.1997204186623170  0.4004192515431810  0.5999666895300358
  0.2018977332437928  0.4023045966014442  0.8015815867021385
  0.2005314748034364  0.5994065536067014  0.0005678102438438
  0.2008018111524316  0.5997081318524321  0.1993128948177102
  0.2007261688390678  0.5970622129550137  0.3993779747353461
  0.2020905144403153  0.5990521832196775  0.6001285563232570
  0.1938783270499477  0.8012887770921148  0.9990436610313668
  0.2001260808606867  0.8000574322948031  0.1950478481826572
  0.1985116254579915  0.8011651002671509  0.6035123489728805
  0.2010468380530192  0.7982476471906660  0.8011680829735397
  0.3997306603940456  0.0011769992317257  0.2049231808563440
  0.4003124439083890  0.0009687051769476  0.4010970765595687
  0.3982947393636747  0.0049493136228452  0.5973684400291097
  0.4018705617957294  0.0009261189763898  0.7928799842385715
  0.3999098496254466  0.2047290927439813  0.9993357342968174
  0.3959729755981923  0.2017313594167860  0.2012068794370316
  0.4004233708699723  0.2017802514517436  0.4045612206159297
  0.4026403297423548  0.2013301600060978  0.7955325892178287
  0.3999679211151491  0.4006728972674472  0.9984206190627911
  0.4007160589597598  0.4015777320451924  0.2004813160354621
  0.4002637277406935  0.4010326700120286  0.3994762893084627
  0.4008199323839846  0.3971462194000405  0.5999650279627203
  0.4018421083946341  0.4013882654350925  0.7991782403384524
  0.3994281875675279  0.6009264381586814  0.2007419535111381
  0.3976565287552886  0.6004121821083332  0.4009305382590105
  0.3987053438746614  0.5986719220926118  0.5995012233703929
  0.4011178449058821  0.5993635561872074  0.7986322201524155
  0.3999039841867665  0.8012345301331903  0.2057504379101140
  0.4014084140487177  0.8017307277195932  0.4019985521287032
  0.3988496613053358  0.8010168625914774  0.7962664966209273
  0.6050233043591128  0.9999309562188473  0.0002733378137525
  0.5996584106647136  0.9970095486804926  0.1992066119416385
  0.6005302251319286  0.0006943070014818  0.3996664992421797
  0.6002305402830659  0.0040367646507107  0.5998413614269663
  0.5998494329136287  0.9987904483304664  0.8003038177505849
  0.5995971698321033  0.1995119212722587  0.9965725022731873
  0.6017800087522813  0.1991735246453523  0.4053714957491550
  0.5968356970306563  0.2017020112693005  0.6012204669621921
  0.6007126667400927  0.2001823417839047  0.8003863385795448
  0.6018821975425420  0.3995277827709294  0.9984771026042359
  0.6021692670318677  0.4004503989387935  0.6037995754136527
  0.6004577972195738  0.4011380305490239  0.8013850995319026
  0.6004776197601647  0.6003483902627625  0.9992120753943868
  0.5985615613127796  0.6025626943858386  0.1980135097124158
  0.5903097801650870  0.6112332313061417  0.3996187028110924
  0.5970293106621207  0.5972532399488707  0.6018049088065212
  0.5987613707704236  0.6005453467077045  0.8009049750173635
  0.6048767654787044  0.8004270574648463  0.0010195647455769
  0.6002535619350376  0.8005788625246006  0.1987926051470393
  0.5998233646294077  0.8041477086918344  0.3971149878453352
  0.5976945416577694  0.7999157811906669  0.8063634561203147
  0.8009342793657450  0.0014934295242015  0.9998443167761683
  0.7986956850327819  0.9998313685517394  0.1999001319794765
  0.7996610877995002  0.0002570406379905  0.4000510491411112
  0.7997411486880951  0.0008291757466059  0.6000297046874747
  0.7954476426202708  0.0001036132484247  0.8001935827243462
  0.8014986730715943  0.2002888805007581  0.9999462452775635
  0.8018900237737414  0.1966245367386058  0.4001944913044301
  0.8011367310408840  0.1994831378962385  0.6000832555866396
  0.7986955415283354  0.1988739461035381  0.7985901060088125
  0.8017223962296678  0.3981789730015841  0.9990880942562148
  0.8029934190879051  0.3994864635856983  0.1972217162621682
  0.8121283819941276  0.3891521450501594  0.4001487758565989
  0.8024053057467844  0.3967285410210342  0.6016102018401296
  0.8001489982588548  0.3971379179869157  0.8000116815931776
  0.7992710239010604  0.5971322873219024  0.9992151074985532
  0.7992420004089847  0.6009214124649753  0.1952553693209316
  0.7999374065989900  0.5979501787359900  0.6041328359647865
  0.7948155748571236  0.5979142860777653  0.8009650650591310
  0.7997243300211433  0.7994991592007197  0.2017253633843876
  0.7996716956077216  0.8009911772647021  0.3992817744397303
  0.8046616748337583  0.7987808862867639  0.5977587720851247
  0.8002210216439908  0.7990178126228009  0.8990933763941881
  0.2008346455007552  0.2030161641392951  0.0020454092155757
  0.2042651723962194  0.6003168250622459  0.7998095495816400
  0.4011363475642986  0.5906408748568798  0.0005563689350989
  0.3957057619018066  0.8004231653168544  0.5994517279882694
  0.6008664418392478  0.4057579008070189  0.1936302517116552
  0.8040110681046200  0.1996638982561181  0.2001080974053931
  0.4011753462017129  0.2014982105035718  0.5992198227145151
