Zr Ti V  Cr W 
 1.0000000000000000
    14.9353007986217037   -0.0031793457938788   -0.0424742289646970
    -0.0032631641710132   14.8992612116803969    0.0054805737142452
    -0.0425449749007700    0.0053690684432182   15.0486633952041249
 Zr  Ti  V   Cr  W  
   9  17  87   2   9
Selective dynamics
Cartesian
  0.2374667715732326  2.0793220238387242  2.5236607929151789   F   F   F
  2.5304717870578042  0.0157627072087213  9.2354292718945281   F   F   F
  3.1226539389986967  5.7462364945608018 12.7330867983874398   F   F   F
  5.7980875631303714  3.1331430042847184  6.8038900597976308   F   F   F
  5.7376740275120266  5.8228382481956942 14.9864478390313440   F   F   F
  8.8388644652206381 15.0188801313856235 -0.1034322721494775   F   F   F
  8.9934231107226719 15.7424193819172604  3.5832972045267248   F   F   F
  9.3200442878607070  8.6457784156658164 12.1854769137070420   F   F   F
 12.0493425307396773  8.8845549400742776 -0.3769102897127581   F   F   F
 -1.2289610460953933  2.6802216639969001  6.0701095478928169   F   F   F
  0.0229440220894204  5.2342258179067818  4.0199478815688954   F   F   F
 14.5292435971807326  8.3119219777569704  5.3630604844540128   F   F   F
  0.2388670876680444  9.3264547503883399  8.7492558375937701   F   F   F
 -0.6459333669731399 12.0086166261577425  6.4984904501881910   F   F   F
 15.5271778167362733 11.0678839439107417 11.9720031538389922   F   F   F
  3.1382631796926392  3.6127932990940943  3.7493917909808374   F   F   F
  2.2184530427363098  2.8992454706255852  6.7055565130876875   F   F   F
  2.7670004567667066  6.4878923305790321  5.6778518823027362   F   F   F
  3.3707465688266898  8.6543185365849133 14.6374092970064886   F   F   F
  5.1281810791139355 14.9427282033488229  0.0517639635685109   F   F   F
  8.8171382445861486  6.5987147304317961  3.6460750433501978   F   F   F
 10.3304437716482571  9.9387091758466877  2.8096559557815133   F   F   F
  9.5984083586410716  8.5752958615803809  8.7730187455163673   F   F   F
  8.3005572298259658 12.0940184742562309  8.9269901792080120   F   F   F
 11.7782922576943534 -0.2946201233597395  5.8459471342988598   F   F   F
 11.7417525428121756  3.4037134743869220  3.1594804107090684   F   F   F
 15.0907021834008539 13.1950829047262506  2.9306788976994134   F   F   F
 15.0017588705030285 -0.2459799397227347 11.8547860114537951   F   F   F
 14.7710657282156053  2.7616492895835392 -1.0817675319649476   F   F   F
 -0.0955231197223042  2.3574660054476273  9.2852712680250029   F   F   F
 15.1217818795448284  3.7531356857112588 11.1466904473180612   F   F   F
 14.9168202953563682  6.6392699435885065 -0.3424473091029985   F   F   F
  0.0443181330470611  5.7268708664274977  7.7927643313224291   F   F   F
  0.7463537425074158  6.0806845789144148  9.6993119339754319   F   F   F
 -1.7259088927735471  5.4674472930998128 10.9045954420105211   F   F   F
 15.3460248491079181 10.2697590352290771 15.6173474940145098   F   F   F
  0.3174848046866738  8.5411595701367151  1.8391408896051149   F   F   F
 14.9910071235499753  7.7716016808963646 12.9695642717345017   F   F   F
  1.0491514367469452 12.3759448234850691 14.5431403052133934   F   F   F
 15.6799249865226091 10.9639884579831914  3.5637348662419202   F   F   F
 -0.2134299320239447 12.0774043480474553  9.3432005512164444   F   F   F
  2.1907060205703153  0.2249601631471244 -0.2035141183783565   F   F   F
  3.2081489594732822  0.1137137842113313  3.3156186387557143   F   F   F
  3.6225045358748433 -0.0285018258888321  6.7334374259545013   F   F   F
  3.9697867772199054 -0.2239210547725030 12.5219238843791878   F   F   F
  3.1372024947852233  3.0384322487023980 15.2508914693136735   F   F   F
  2.7148691733197770  4.5541239950100794 10.1753358729118482   F   F   F
  2.6151474968340871  2.3830009276624491 11.7418114572131831   F   F   F
  1.9929563687537657  5.1835669231413446 15.8498069989684129   F   F   F
  3.4767259518277660  6.4748694520461321  2.7192303704658181   F   F   F
  3.8626260007043736  6.0263280136311232  8.1660731522926344   F   F   F
  2.5349679572644916  8.9208800938283233  3.3032949016122175   F   F   F
  4.2870652292102092  9.2493920885594090  5.5556393922275724   F   F   F
  3.0090719809124589  8.7445497328996566 10.7771353772210432   F   F   F
  3.3161025732810003 12.4451445100553784 -0.8296422024786164   F   F   F
  3.3573294265875178 11.2589437624628737  2.6679423880504589   F   F   F
  2.9676251808461416 11.9481170079212866  5.0989701348183276   F   F   F
  3.1169067138685178 11.4595373640746736  8.3313809303912691   F   F   F
  3.2537318914916895 12.3800756640354752 10.4713998095431009   F   F   F
  6.1164857038169647 14.6385658084719061  5.4842863613110149   F   F   F
  5.9552433558273714 15.6262110377211911  9.6371449414775263   F   F   F
  5.9242971304243852  2.4584046739174812 14.2006596854248297   F   F   F
  5.7526267745629545  2.7358040976257798  3.0958313088755518   F   F   F
  5.5268453136989377  3.0527211246888912 12.3331618323871979   F   F   F
  6.0409751073056501  5.5709392892762430  3.9233192403843646   F   F   F
  6.1358694618071272  6.7617085008311921  6.1553438184693920   F   F   F
  5.4592888147069791  5.7673369069877163  9.6421489875454096   F   F   F
  6.5407225518092789  6.5225862473267044 11.1745447328126577   F   F   F
  5.7812845901305590  9.7295050620524854  0.0958110739718537   F   F   F
  5.4394888562109198  8.1357657675279746  2.7977260981300134   F   F   F
  6.0964447061153901  9.3224686092631792  8.8653892998877790   F   F   F
  5.6730638786465679  8.4869697728275302 12.4465993703947326   F   F   F
  5.7305011755683850 12.3690439133200059 -1.4675281322805827   F   F   F
  6.8894583676273236 12.8443424001783182  2.2981884942806565   F   F   F
  5.8620089056809555 11.6785563118823355  6.0241718128607511   F   F   F
  5.8958193703724513 12.4584907877136359 10.8238130727077788   F   F   F
  8.0769341266744750 14.8744069961383971  6.9224467432953363   F   F   F
  9.6068191250910751  0.0602027447405181  8.7743908624326341   F   F   F
  8.6198062699509048 14.6144753746206426 11.0493149605793430   F   F   F
  8.6349577037687109  3.6396495245140330 16.3532830365684170   F   F   F
  8.1205853384553386  4.0692789020678379  4.2734578952867359   F   F   F
  9.7339521071170338  2.7070493961595736  6.4389382436660458   F   F   F
  7.8741389752016939  3.1193557458984613  9.5486387770812158   F   F   F
  9.3570893981987791  2.9311920461848868 12.7870286749723316   F   F   F
  9.7524266511018070  6.1048100050378773 -0.0333820791603940   F   F   F
  8.1117811896220413  5.8993380196116352  7.1356240048601789   F   F   F
  9.4097324045293931  4.8679245400714910  9.6236751406480625   F   F   F
  8.6658817432625774  4.9194787006747660 12.7759809782352090   F   F   F
  8.3733549629995423  8.3454046484885378  0.4055344327067334   F   F   F
  8.5978895925554202  9.4532720752408608  6.1452496553203035   F   F   F
  9.0662933948233704 11.2134005885052623 -0.3760978135858998   F   F   F
  9.7474288793001325 12.7129218525680443  2.1739728779942942   F   F   F
  9.1578013140091645 12.3172556327781706  5.2427598892892817   F   F   F
  7.9101313256629480 12.1667800149969487 12.4326105175196098   F   F   F
 12.2249370770707593 14.1363988195115766 14.2931412541181757   F   F   F
 12.0033071254305241 14.8495284395319977  2.0714633686516057   F   F   F
 12.0729603931486178 15.0275615127752822  9.7117294209133274   F   F   F
 11.3037014883479952 15.4199582800581876 12.1176447039690789   F   F   F
 12.3469607582723864  1.7420158870165696 14.8362791142977848   F   F   F
 11.4534883201289865  3.8188007580077170  7.6285118569643346   F   F   F
 11.4787074333488768  3.2042427266139115  9.9318793904189846   F   F   F
 11.7428149997333584  4.9073548328963996 14.7422228207843524   F   F   F
 12.2099063587047851  6.9925114926694505  2.6546805379726957   F   F   F
 11.7338483016923139  5.6475948411123404  6.0161590674098324   F   F   F
 11.5000086491137061  6.0980365233295499  9.0229181253802864   F   F   F
 11.7058423531576636  5.7979281865676375 12.6066104751550014   F   F   F
 10.8324788450497156  8.5162346320636093  6.1983499604219778   F   F   F
 12.5055337356392418  8.3241678587144161  8.1748575666837731   F   F   F
 12.4419203637770845  9.2941331013478390 10.8860999990259160   F   F   F
 12.3844971582884877 12.2205220266402588  0.7833388949278646   F   F   F
 11.1474370912751688 10.8967840844775079  5.2578330223392893   F   F   F
 11.1400251632376239 11.7388787051223247  8.3335415383158669   F   F   F
 11.8103262187332838 11.5374481054410420 11.9609663684941872   F   F   F
  5.4713039812256357 -0.1580736515334201  3.1369882012458237   F   F   F
  6.4959128734566765  9.5002401893189674  4.8301909515629546   F   F   F
 14.4738643485292631 14.5037501328435869  0.4208315270344408   F   F   F
 14.2566879036536935 14.4396777921827386  8.2725181448523699   F   F   F
  2.6785250295625267  8.4133962799590787  7.7345478761335720   F   F   F
  6.6080506216880712 15.0777411772991616 12.5430508852069931   F   F   F
  4.4773341371661060  2.7705735474732509  9.2471262862128398   F   F   F
  5.3304082927913239 13.0234988261031219  8.3218397362741161   F   F   F
 12.7295799240845628  2.7944977006217191 12.1667810808098675   F   F   F
 13.1822357845680802 10.3173385732863565  3.0198958312819979   F   F   F
 12.1923839334293707 12.7516734727902499  3.8101805351139331   F   F   F
