Zr Ti V  W 
 1.0000000000000000
    15.4529206753737594   -0.0089219929548298    0.0139355642811389
    -0.0089343212131673   15.4627799901828133    0.0191221628419376
     0.0139437596884260    0.0191164033920139   15.4587375740632638
 Zr  Ti  V   W  
   8   6 108   2
Direct
  0.9910213874078000  0.3875519509804353  0.3663552938419496
  0.9978125674126612  0.3866801818368413  0.8096197863084362
  0.0319579350858765  0.5964486455243072  0.0031265886971470
  0.2439059572920098  0.5991107757495249  0.0014474734621572
  0.1990176797109658  0.7977161070523323  0.6034463746606296
  0.3996968603075178  0.2017253893726726  0.4020231232958814
  0.8156170383710916  0.0204921520062182  0.0141849887160584
  0.8073196637821571  0.3987986534437588  0.5961299647590156
  0.9844347330344956  0.1980841103801938  0.9761960296490234
  0.0063816987709126  0.2126426813829929  0.1918099549878847
  0.9986596545499914  0.1806178944912304  0.7844865094930418
  0.1917573254783258  0.1975898396229002  0.0068625612223747
  0.5904447555013670  0.4000848904807379  0.6008368099925633
  0.6121916227784526  0.5993425567258970  0.0021804542105812
  0.0131091897693210  0.9978755202945860  0.9975096347453840
  0.9975380078239586  0.9996001823627302  0.1963348672963258
  0.9995988606091800  0.9973095361373295  0.3985565511127645
  0.0021747703232481  0.9985810690054715  0.5984304001650368
  0.9994533385620089  0.9901371362753575  0.7981965118086793
  0.9983170549612413  0.1910639836244172  0.3973841603757918
  0.9993298873949702  0.1988535358705006  0.5918200903437338
  0.9978637654110116  0.3937958147224450  0.0062274437320422
  0.9978850309070136  0.4116042470203987  0.1728003635399065
  0.0094595641177100  0.3978290130938249  0.5999173871421695
  0.9979943541255563  0.6034894440680929  0.2077020254300453
  0.9979615118680354  0.5999424299592819  0.4024230108461112
  0.9990268073763465  0.5959462805452772  0.5992067290582428
  0.9961981673719059  0.5992272681013746  0.7974573969922362
  0.9986234018240918  0.8024421672967340  0.0009340136807645
  0.9983498477820096  0.8000363882600360  0.1988768245010564
  0.9998817955063035  0.7988365516670367  0.3993375888983834
  0.9931562320308719  0.8004024904600053  0.5994855105209479
  0.9971625534637045  0.7960146275281770  0.8013763536238238
  0.2029468809058650  0.9990192034683555  0.0024876250902821
  0.1991091837902097  0.0005639397004185  0.2010316785020188
  0.1988497346479996  0.0003193783314294  0.3989227673652010
  0.1997389275573770  0.0032954174810787  0.5999952222851661
  0.1985071994628253  0.9998449773304393  0.8029737535484430
  0.2013196471502249  0.1983210030452472  0.2031229014604571
  0.1944120796560886  0.1998890383230076  0.4021834937547309
  0.1990270509787179  0.2000570920001961  0.6010277914190466
  0.1983143678117875  0.1978948469235213  0.7982645335528710
  0.1996385265558692  0.3978268794158694  0.0017939865052927
  0.1949245790732259  0.3990906335766628  0.2043490883452051
  0.1999520459844095  0.3986258323984736  0.4016714782403398
  0.2012154856784897  0.3974368992806687  0.6025683941161367
  0.2021840373899215  0.3966461902659758  0.8034373214717966
  0.1968760649444584  0.6008319053984965  0.2036492193665757
  0.1989273785326167  0.5974146159919548  0.4030225988852079
  0.2000884323135537  0.5935146675425753  0.6016623045137257
  0.1931110205041034  0.5965083259158865  0.8010161427360348
  0.1969019887082197  0.7989367827627660  0.0028974274954050
  0.1990800955073980  0.8006732586785036  0.2011008516329607
  0.1991879047493135  0.7995156004046367  0.3972500482038984
  0.1987070778885590  0.7984971716993791  0.8069490350549609
  0.3990621760236090  0.0008472679115255  0.0009554529444689
  0.4004621775294678  0.9998816963516802  0.1994535630181338
  0.3987427564658732  0.9966805473425150  0.4001480673032579
  0.3991753882953783  0.9996686069871193  0.6029159682419214
  0.3978109228447400  0.9987454010360416  0.8031988535023052
  0.3980725659135729  0.2047833197621536  0.0001304109159150
  0.3993803407745504  0.2005923464597631  0.1965409518676804
  0.3989811922079415  0.2008875672380399  0.6063418945471205
  0.3987604825510890  0.1987529743029190  0.8028691650443968
  0.3953970621415704  0.4013215648096825  0.1955059764769391
  0.3969390690192542  0.4053210423918644  0.3968817352781344
  0.3964161974611807  0.4003483453264586  0.6051973999734480
  0.3970161862379553  0.3999975062958501  0.8076272937029978
  0.4303028247753575  0.5945595831567246  0.0013193524880692
  0.3993202586883607  0.6008373900898005  0.2017786810225478
  0.3989514488543530  0.6003423563468845  0.4022481489345154
  0.3995013340895336  0.5983023961840711  0.6026896212747089
  0.3991106886708797  0.5996543512082573  0.8022687330184678
  0.3991414564301726  0.7964267138177649  0.0019876596085035
  0.3993236793282097  0.8005102745739091  0.1997723875849781
  0.3998638939305664  0.7982793050533979  0.4003511680859965
  0.4035223236885129  0.7985165621565710  0.6030030066486535
  0.3986062419791123  0.7987615935891645  0.8032162618547664
  0.5986614203486972  0.0020318266798731  0.0009165778040080
  0.6032697531063632  0.0018616686370214  0.2003021851575390
  0.6008124702603458  0.9995911043480312  0.4021576506216517
  0.5978445342547443  0.9997658851033068  0.6010521773435858
  0.6005335350713832  0.0000547710784990  0.8011051876043312
  0.5963852533163791  0.2000466890604767  0.9987262360254053
  0.5987949000478231  0.2014837503638900  0.2012412010133111
  0.6040528649536473  0.2009080921092302  0.4004465628782268
  0.6012246342499662  0.1971984577436400  0.6010544582583962
  0.5983593931237883  0.1988010444803414  0.7990331341652320
  0.5933763384015120  0.3967181878712666  0.0022261633766065
  0.5972547012217809  0.4013667564207794  0.1992438845350227
  0.5949649470241628  0.4003360750831832  0.3970210066545964
  0.5956428763309556  0.3998980573738826  0.8039888933948117
  0.6010362849461842  0.6022445141787501  0.2055536113361002
  0.5998270146969031  0.6015026352536567  0.4022213173883835
  0.5996155163716542  0.6019958291373931  0.6004951413053458
  0.5998470539723292  0.6008030779119830  0.7969701100047116
  0.5995848786098440  0.8044420239462249  0.0006687601523112
  0.5990918873376039  0.8014084582445231  0.2007041644010454
  0.5984076619029541  0.8004461980717176  0.4008812035269771
  0.6006330815298847  0.8019671281665149  0.6004853449477512
  0.5981711601583062  0.8001154721940539  0.8024172103179558
  0.8011349707010148  0.0041240832995474  0.3996266166600084
  0.7991579194018259  0.9007263605099894  0.5004071643870355
  0.8003293602542974  0.0009052805480159  0.8025637368487796
  0.7897933474510410  0.2149086054340435  0.9967255255263161
  0.7969565667504142  0.1989719000005935  0.1943182376613445
  0.8024908601493437  0.2037325619085509  0.3980618485975211
  0.8006372795102926  0.1974444255031463  0.5984548717490252
  0.7950156061490985  0.2003393763164729  0.7976896203813622
  0.7956041658740373  0.4063811029658898  0.0011302066891331
  0.7986566862924531  0.4024041322704596  0.1972563074127602
  0.7889497597619575  0.4007312353220467  0.3919857725208478
  0.7910180583952483  0.4019492483069748  0.8036349608252991
  0.8080907533249906  0.6027666760477388  0.0006446342665982
  0.7991909664018100  0.6056138206787498  0.2018227379003543
  0.7990798144084068  0.5970644935003896  0.4016658466840175
  0.7996475599491639  0.6044160019025979  0.5998765580206701
  0.7988712735066914  0.5998101510954486  0.8001660398448689
  0.8001110825029857  0.8025024966315690  0.9995782325206202
  0.7986841442851614  0.8064495401344189  0.1974025799686230
  0.7982582162891156  0.8002868419600038  0.6023011583719545
  0.7970757464777142  0.8023078970357096  0.8017997568482655
  0.3950253629729065  0.4017803111919785  0.0023677903698505
  0.8007024255151873  0.0025555313835848  0.2122953270168313
