Zr Ti V  Cr W 
 1.0000000000000000
    15.0562584528348076   -0.1058937914584782    0.0764934783369961
    -0.1050803845184112   15.1638048824132916    0.0760934472633670
     0.0760280099124123    0.0773610043635111   15.4874322029430171
 Zr  Ti  V   Cr  W  
  11  17  74  14   8
Selective dynamics
Cartesian
 -0.3379931356397568  3.2021550493639581 11.5538518206452210   F   F   F
  2.4677254166385842  8.7769399328598467 12.2505056164224495   F   F   F
  5.9647797828611768  5.3126205157644382 14.5556906884984105   F   F   F
  5.6714666131481373 12.2851545440725634  9.0038804573855575   F   F   F
  6.2410510525073128 10.9097993843464298 12.1687946534438360   F   F   F
  9.4676517188478027 15.2474799178213622 12.5359295001275122   F   F   F
  9.2823954075855948 11.9140787478313541 15.1983356281548456   F   F   F
 12.1113983401477796 14.9176085636403659  6.7659430419133635   F   F   F
 12.6908226052054633  5.5649552061371761  6.8289839221757456   F   F   F
 11.6777660197966178  8.8645562900876431  7.5599013400664221   F   F   F
 12.9385495478068755 11.5398216782105436  5.5002829510161737   F   F   F
 14.9466839085832355 -0.7841818583152467 13.2803706254535179   F   F   F
 15.1771096698537598  3.0111353254738931  2.9861241919913724   F   F   F
  0.3273733604722948  5.7748906194558849 15.6666749928276516   F   F   F
  0.7069345919641044 12.6402613258135048  9.9268638525235993   F   F   F
  3.0393253859949669  3.4803309689662427 15.9879037197592311   F   F   F
  5.5687781627165647 16.2417337007959937  8.9086984016476496   F   F   F
  5.7878919838994571 14.6710671099105010 12.5292959854862804   F   F   F
  5.5595683215596914  4.0827395970412272  2.6898814910352700   F   F   F
  5.4538708894620198  3.2647932303243525 11.5716995693175217   F   F   F
  6.9218010117118389  9.0943209440581256 15.2695134924742053   F   F   F
  5.5869666084948690 12.3009605325231188 15.3225925321940881   F   F   F
  8.4838106527070600  3.3560935221095929 16.2785295837728121   F   F   F
  8.8079847306472114  3.9246069273935040 12.5618991084378457   F   F   F
  9.0333376912091481  6.3502624013425697  6.5854596192621235   F   F   F
  9.7343491288486508 11.9992134683783469  6.7205825893493438   F   F   F
 10.6920047296814484  2.9628776220505331  6.6830722707731773   F   F   F
 12.9906555348686847 12.4223210070100869 15.6956345308721055   F   F   F
 15.1990183590532197  0.2959177019145714  8.8514472384304064   F   F   F
 15.8777639507899124  2.4608395865716362 14.7787991576423128   F   F   F
  0.4111184858114281  6.7991158456073961  3.8493115811890588   F   F   F
 15.7969105749272778  7.5503890165364522  6.9745041895972797   F   F   F
 -0.2080880211848862  5.4562867760498266  9.4642792133842502   F   F   F
  0.1665816375355889  6.7649818353240967 12.3235025019351632   F   F   F
 15.2112625558545727  9.4203091155243968 15.1436754766557709   F   F   F
 15.2202343023461033  9.4212251758548877  3.4025705875673333   F   F   F
  0.3584924557253529 10.5908774641827055  7.5031129483150867   F   F   F
 14.6172417627279749  9.2062707171255749 10.0330549988207878   F   F   F
 -1.2466847069363229  9.5206410933392061 11.7098122819414225   F   F   F
 -0.2420494033858671 12.2251846341692989  2.2703699100791916   F   F   F
 16.5392165049813826 11.2016369922591661  5.3838267585634076   F   F   F
 -0.8835909841962204 12.0217837222332022 12.5148472287674526   F   F   F
  2.9071804029572914 14.8237667266257578 -0.2797736570168312   F   F   F
  3.3230846060596213  1.0250692854964056  3.0386170980524967   F   F   F
  2.5913508072679390  0.7388119997051672  6.6628691446406805   F   F   F
  2.6216379775332861 14.4530118976226145  8.7781662507774296   F   F   F
  3.0075647555039491 -0.1502399023479722 11.1601084731169937   F   F   F
  3.4047308179889049  4.5448967348299165  4.2664565299410029   F   F   F
  2.5882370592901980  3.1237207550736832  9.5000370999908021   F   F   F
  2.5637781376990949  1.5194793032131015 12.8509003710409306   F   F   F
  2.8866846271938837  7.2302843433908617 15.8130958610288488   F   F   F
  2.8287763506520105  5.7620570548728978  6.9069436787415652   F   F   F
  2.3905059369587427  6.8017969323623184  9.2608154537848311   F   F   F
  2.7058615940896193  5.2241843241511017 12.6068168138203607   F   F   F
  2.4023887029436732 10.0442755154687546  0.2782660100612185   F   F   F
  2.9418348861557604  8.4383076496390927  4.0656053102634333   F   F   F
  3.1292435197456490 12.6084930607737569  2.7767651706047252   F   F   F
  2.3801703438712072 12.0121982502289129  7.7158678531415257   F   F   F
  2.8290365579520103 12.2866881600335898 12.7303930602547446   F   F   F
  6.8264101024327184 14.8268940065153298 -0.5274558550344607   F   F   F
  6.5236989195315456 -0.8567112012834568  3.6390688792094759   F   F   F
  6.2703312295719522 -0.1822905856866613  6.1634756200946814   F   F   F
  5.1546293255991023  1.7482015540528300 -0.2274379585670258   F   F   F
  6.7835228174318916  7.5157854241087199  3.5350448945519544   F   F   F
  5.2088074686625516  7.0338240076434797  6.9954992693551601   F   F   F
  6.7503186371225894  6.1493910677363113  9.6140151086733585   F   F   F
  6.7099024372153133  9.7873885217138277  4.4574940425229501   F   F   F
  5.6720338331189160  9.2824524243402067  6.8506013830645571   F   F   F
  5.0516891213108552  8.5954575528314070  9.6580402669421730   F   F   F
  6.2819638410817298  7.9958853440637547 11.7453865615857040   F   F   F
  6.8113370984846746 11.6610205300938574  2.4694593560382438   F   F   F
  4.4256042104815485 11.5067943804580874  5.5490475621373525   F   F   F
  9.3908301003165118 -0.2141335690726957 16.3466376304096492   F   F   F
  9.0020177977342346  0.1087445489421175  4.9925697149402932   F   F   F
  9.3368512621469044  0.0975159108067846  8.7913781103108999   F   F   F
  9.3062010129604094  4.3280886109964838  3.4376881178610508   F   F   F
  7.0508006801657013  2.4940568679419588  5.8115968629608910   F   F   F
  8.7350596857846057  2.7697344564048776  9.8941486271687396   F   F   F
  9.7467155749892260  5.7221889922228462 -0.8285735221773282   F   F   F
  8.5833315081937798  6.1542845516271036  1.6622244216437305   F   F   F
 10.2860516050053352  8.3892509471706163 15.2105311018488063   F   F   F
  9.1228733691692288  8.4702230676947039  3.3841925768543240   F   F   F
  8.5332745518448601  9.9557195381810022  9.2783519030340038   F   F   F
  9.5836483816802254  9.0819516667731754 12.7311167432643870   F   F   F
  9.4893340160102415 11.0043797247554771  4.0870809383403728   F   F   F
  8.9176072668760629 12.8221845651302644  9.9091393268071943   F   F   F
  9.8493377431153935 11.5103316737530204 11.6501039828445165   F   F   F
 11.7403020255889832 -0.2317816615886132 -0.2202279748496345   F   F   F
 11.7451667908770165 13.7954467579638642  3.2029227182795954   F   F   F
 12.5092986292398081 15.3927644607095235 10.5586624063289474   F   F   F
 12.4422116005077239  0.8170868485496418 12.9030443989443864   F   F   F
 13.5276989257186262  2.3261412227842535 15.1596065481682114   F   F   F
 11.4215302470931626  2.3579797653829973  2.9769178651109494   F   F   F
 12.3991959496402426  3.8556200945010017  9.9044118623875868   F   F   F
 11.5872828186255070  3.2540376215350881 12.1906565417986368   F   F   F
 12.3476768808171933  6.8956666062137071 14.4299215963206198   F   F   F
 13.0169737162406864  4.5620514945076627  3.1702413427748302   F   F   F
 10.6938007344028900  6.0396262142674511  9.7591768888826991   F   F   F
 12.2416305691010034  7.4767972985997311  1.4471957029101901   F   F   F
 11.4658175661236079  9.9558987133143901  2.1041061562286743   F   F   F
 12.4267875473744951 12.0431725927979709  9.0613914202521162   F   F   F
 11.8152897124096441 12.4317357551951666 12.4904426920469209   F   F   F
  0.0703552250690572 14.7130506935899312  4.4876276770265058   F   F   F
  0.5224108899005746  1.4950417265388956  6.4340144357913926   F   F   F
  2.4674272194376381  3.2647098891614710  5.8072908526306533   F   F   F
  2.5278717941455189  6.4078239263154115  2.7626526862115837   F   F   F
  3.0442145831882619 12.6323746604408065  0.3692987509148663   F   F   F
  3.4554207317009697 12.7147637105766549 10.3936507315758160   F   F   F
  4.8253581592036570  4.1557972238952097  6.6921663706753645   F   F   F
  6.8234989168629863  3.5507322236376639  8.0310029171818105   F   F   F
  4.5971529386216385  5.9140433064622515 10.9062332259328034   F   F   F
  8.7341521993600999 -1.8168744643893004  3.0964151405973670   F   F   F
  9.1017565354927363  7.7133289522501531  9.0623272375890291   F   F   F
 10.5007862034249175  7.0410168382662421 12.5765621218486352   F   F   F
 12.2987769485197536  9.6857130112336094 15.3361924001382466   F   F   F
 12.1475480726996334  8.7650245080440961 13.0609901639110237   F   F   F
  0.2913878129480645 13.6286924631308555  6.9562048290774712   F   F   F
 -1.0277891470127767  2.7844097923533728  8.2756219095398844   F   F   F
 15.8255336744022674 12.4719052513340074 15.0646247363708738   F   F   F
  2.9665831348851222  9.1174852651155494  7.1428107245682844   F   F   F
  2.5861274992019174 10.3966286044219789  9.7347931120779467   F   F   F
  8.5770257243427466  9.0918479953665461  6.2901194070507449   F   F   F
 12.7912273310449827  6.4826943380729016 11.4754067651202227   F   F   F
 11.1443297571831330  8.9624721969695305 10.6591570869813932   F   F   F
