Zr Ti V  Cr W 
 1.0000000000000000
    15.4759761583231921   -0.0117366079554953    0.0050420112375745
    -0.0117382705328058   15.4638317269542895   -0.0006798090525287
     0.0050607535930454   -0.0006880630623193   15.4980063975636977
 Zr  Ti  V   Cr  W  
   5   8 107   3   1
Direct
  0.9994935765134140  0.2022347354838716  0.6021737498473216
  0.9949771250880118  0.4035080556326136  0.1992363799585045
  0.9999100659767755  0.6252926353164958  0.1995829669570758
  0.6026509980567796  0.3713803221733350  0.0106040704267629
  0.7899241100085587  0.0181632425985695  0.1959961494940577
  0.1983140821327785  0.7931796485671659  0.8011462486633109
  0.4027323167459469  0.7997832932826500  0.2005801989874670
  0.5857389321278684  0.9888481776018481  0.1940172392027566
  0.6204071407737356  0.1956446666275508  0.1725642655992734
  0.6012141847511575  0.2070186891660616  0.6076676600457778
  0.5991190864244891  0.3898220766391182  0.7883165030068161
  0.8336277499339226  0.2252735506279398  0.2050243529856163
  0.7634591133190085  0.4016161340239877  0.1814874971504270
  0.0011133992581553  0.0007729482341659  0.0004684884952970
  0.0018585754193846  0.0028180529084875  0.1996246904648065
  0.9989101088725193  0.0007419034030696  0.4000698059088871
  0.0012044696258566  0.9972982576710421  0.6000754699327984
  0.0009289592501605  0.9988028264940172  0.8015270191774211
  0.0019670103253794  0.1989257308977651  0.0020096790002546
  0.0138008360656009  0.1962733408484863  0.2003995167765150
  0.0004000148998651  0.1993413983883694  0.3974921857629278
  0.0011930516593341  0.1994655781405853  0.8063524640941903
  0.0036016502905800  0.3993374725116646  0.9931706881618143
  0.9987009295227466  0.4002674186437951  0.4050890331595007
  0.0017641853985557  0.4053389855928434  0.6001382926906484
  0.0021456718887405  0.3986706092467434  0.7973081987694411
  0.9995304126658016  0.5987732159756948  0.9973458796673109
  0.9982833180499049  0.5992973859140147  0.4028343502909201
  0.9998620132062072  0.6025381605226944  0.6002487380579550
  0.9952331117160265  0.6003530017737524  0.7993874291516987
  0.9991152850946977  0.8017893649978757  0.0013989805093557
  0.9971253374117356  0.8155466662468971  0.2009646323383915
  0.9986612817412450  0.7999463310827682  0.3987592844154811
  0.0004694476887416  0.8012439594997962  0.5989017155664611
  0.9987689114992553  0.8003415665940687  0.8005547560617362
  0.2014993432962728  0.9998383777846274  0.0003989914544900
  0.2009973590972836  0.9978145696260311  0.2009998278286881
  0.2008077183373971  0.9992586426845194  0.6009305323324124
  0.2032623668608114  0.1991813319615130  0.0010878431507182
  0.2050343030669754  0.1996116394727012  0.2003792022567088
  0.2006777821238661  0.1991259744512072  0.4012089077748253
  0.2051861676912348  0.1997637343524611  0.6004883012700916
  0.2019080699036684  0.1991656418684177  0.8026033777727789
  0.2001390230232173  0.3984584733252329  0.0008810532056702
  0.2034925749766843  0.3985606804826201  0.2011261695490514
  0.1994694316028190  0.3986135375360415  0.3999397633912583
  0.2004579590338351  0.4006891402565124  0.5996028661078842
  0.2000081228031886  0.3991822504477406  0.7989446683896373
  0.1993874395695266  0.5987253356077519  0.0002760649503477
  0.2039088245280253  0.5983751447961771  0.2002868042581958
  0.1995762387275043  0.5984068514141747  0.3997221364616382
  0.2005064265273182  0.6001303470559343  0.5998063138895303
  0.1991471638215144  0.5966168952880085  0.8003493647814492
  0.1999895702697684  0.7991949827752450  0.0023917276650742
  0.1972114171924581  0.7991205025374762  0.2007053652553053
  0.1995555108258851  0.7995751501975747  0.3995643608366634
  0.1999141047986656  0.7996705407233521  0.5979881961483513
  0.4007128119106130  0.0007998220464848  0.9991268258543559
  0.3952870396217554  0.0026718177914001  0.2013259954175755
  0.4001225800953640  0.0008035490744229  0.4023553487457294
  0.3997345247225922  0.0000813011574996  0.6011633963487923
  0.3999798501532754  0.0001746823098126  0.8000038237524950
  0.4062499607821246  0.2010944916661924  0.0023084347791145
  0.4000881576856237  0.1976306532578981  0.2014182222664331
  0.4040262773870363  0.1994577687090344  0.3992580412714339
  0.4003246666881902  0.1996399773244687  0.6028802316805192
  0.4019144906907491  0.1989320286283008  0.8032826411877657
  0.3966037886489650  0.4009937495136252  0.9997850710579669
  0.3990562666221863  0.3982613006228208  0.2012200104024268
  0.3990897967293223  0.3984235093536759  0.4021339462994218
  0.3988363565899669  0.4009882318341377  0.5996300513390632
  0.3978661036901149  0.3988551419702153  0.8001595235626524
  0.4006347756583183  0.5984137617657648  0.9991762080632690
  0.4000845897335719  0.5987798596451629  0.1990366314008205
  0.4002602765558890  0.5990814773361083  0.4001522938530886
  0.4004643219640024  0.6003806148088602  0.6013997372867397
  0.4022042246191428  0.5980954464718585  0.8003626668283386
  0.3985451214585767  0.8003055540470483  0.9982075863306795
  0.3996740061763689  0.8002635602218763  0.4017999249402351
  0.3993854643503696  0.8000202967698073  0.6003098218624161
  0.4022081675356828  0.7989728977290670  0.8005949324167700
  0.5992296276839583  0.9957858160865903  0.9974064206632272
  0.5993308121660040  0.0012833168091955  0.4018245269368296
  0.5988221591793920  0.9983441906769561  0.6019619782941282
  0.6010087016388066  0.9971666393351190  0.8003920184253983
  0.7353466320026659  0.0619928049177493  0.9953335245327610
  0.6021306648484258  0.1999723804288073  0.4021694064674151
  0.6019958089213341  0.1950982393796158  0.8188120734949935
  0.5859080630555071  0.4013676387063541  0.2076408822242357
  0.5993275813976875  0.3979359129379216  0.3998496867871825
  0.5980537263485478  0.4038238608645668  0.5961489823433604
  0.5981585935781578  0.5992833835044955  0.9989137466578880
  0.5979596735510578  0.5976458701116447  0.1987762643012803
  0.6004741638307062  0.5993710520145491  0.3986334790619234
  0.5989610844413135  0.6012757768081691  0.5979442856973832
  0.6033417618457186  0.5984786468975781  0.8006744234469092
  0.6009804610048520  0.7991489296954336  0.0012837906784415
  0.6027111018317793  0.7958401525885315  0.2009849017533314
  0.6008098470533509  0.7989535903743726  0.3997189163815132
  0.5995209127615637  0.8001154830434872  0.5991894589760302
  0.5999965297423080  0.7990471807141265  0.7993586875771870
  0.7994018635121212  0.0008088228327340  0.4037917533555269
  0.7992522407764929  0.9996541319241089  0.6018558475853237
  0.7999721798250111  0.9996360207768630  0.7984659667555274
  0.8045167724246041  0.2035771960344804  0.9980443966724366
  0.7993374487192377  0.1998862983773800  0.4048857580895117
  0.7965699827454932  0.2015578313287853  0.6047112563035284
  0.8020688031153036  0.1988822208846866  0.8025177751637198
  0.8056612523441338  0.4033687195296035  0.9908874250131385
  0.7984507977437856  0.3996314308474856  0.4044198275161550
  0.7996513794152210  0.4026164770440160  0.5995611256545853
  0.8027259440792912  0.4038936670992747  0.7962718022177818
  0.7981311488354905  0.5995306300850384  0.9944607170961177
  0.7985368853349609  0.5985630525571208  0.3998951102672454
  0.7989947023058459  0.6016021337298871  0.6041380915563813
  0.8002897418196206  0.8015928438268011  0.0011739320196007
  0.8000162336580845  0.8005712283498209  0.1995963357745309
  0.7996126124439564  0.8016406743835467  0.3992918076123165
  0.7996405216762325  0.7999009419862178  0.5982561938278550
  0.7999989827581760  0.7965420461999319  0.8010962008967064
  0.2002997812897740  0.9997793688667980  0.4004382358895760
  0.2011263371310883  0.0006610419041804  0.8008710640357520
  0.7928406834420375  0.6019844329915640  0.1973295378211373
  0.7993113632017937  0.5998581037835273  0.7987652462869459
