Zr Ti V  Cr W 
 1.0000000000000000
    12.4323594838933573    0.0028198881221341   -4.4082088542398692
    -6.2047882130921810   10.7765871797057606   -4.3829042311317892
    -0.0117614519554904    0.0105487829037310   13.1913038418922532
 Zr  Ti  V   Cr  W  
   3  15  74  16  16
Direct
  0.9917680193814509  0.9990448161287910  0.9958951955376025
  0.4000326265692921  0.9928263305541440  0.9922901338744208
  0.8006123209149868  0.9995473692485293  0.5924306881273707
  0.9920100628448169  0.2105672459618926  0.9935002407406213
  0.0027875849076603  0.5964557405891995  0.2049078351107596
  0.2024325707895242  0.1979947512968967  0.5958649036717919
  0.1921515536710206  0.3990479664942014  0.1923254291328101
  0.1968613668782423  0.3988307448234787  0.4025627030818177
  0.1950154328461961  0.4065256999043875  0.6118011581814319
  0.4049282374092101  0.3993468511179024  0.6028973010132727
  0.3955745120276711  0.6003449542175833  0.3981991578960277
  0.5989172678017293  0.0007346395198254  0.1977866179232370
  0.5989166279997782  0.2017780953995197  0.3931087492909875
  0.5982700258649566  0.2012554876340064  0.8009291093929649
  0.6020814720680088  0.5975991816153192  0.1992705579947314
  0.5985104400525127  0.7975912876813239  0.5986409652020970
  0.7938957496039467  0.0009435329781659  0.8036177917667179
  0.7918913862681127  0.1986569470159193  0.2002806874517035
  0.9966917541217943  0.9968307477226632  0.2061138628432622
  0.9966897156861847  0.9990781820513721  0.4009738501650010
  0.9992279270135379  0.2043061007961230  0.2036510347297290
  0.0003405080665948  0.1997325392091823  0.3993126722215710
  0.0018319283220401  0.2071365428484384  0.5996045084920497
  0.0047578990165450  0.4099448181935660  0.9992489846105843
  0.9955026561107189  0.4038795996349683  0.4025303667565078
  0.9996227709160166  0.5957070600861074  0.9943515711141026
  0.9967817329464079  0.5950964777966333  0.5980354124092246
  0.0019360235895370  0.5961032675714623  0.8008711219104920
  0.0032225551257474  0.7971367075904662  0.5987098696263445
  0.0074324761996383  0.7964688600102924  0.7980204446495008
  0.2001316543984065  0.9980038374113137  0.9984461814983713
  0.1991276579788872  0.9994582479127828  0.1979143389620194
  0.1997201113531449  0.9993896502080108  0.4044977344747559
  0.1930416999652555  0.1866781340457488  0.3838168911453932
  0.1987209544101621  0.1985704944548906  0.7953078127721652
  0.2006810262961307  0.4065201556987335  0.8092022994368299
  0.1983750583863619  0.5972280915817224  0.9972820576046209
  0.2079608263377385  0.6094988134374505  0.2036944421003821
  0.1838487906789432  0.5939567477329282  0.3890838059856516
  0.2000782309301122  0.6014499843570710  0.8007345761564685
  0.1984863596261154  0.7948303535184048  0.9978456470749559
  0.1993765567200968  0.7961375001282602  0.1997031704683651
  0.2035663209018052  0.8004128114510415  0.4121577554431597
  0.3856420470725425  0.9921128123182874  0.1980303307252333
  0.3950596674517745  0.9996065970212754  0.6043310316092266
  0.4027454803959704  0.2063118279465994  0.9965186913301921
  0.4001161692701685  0.1964199992372857  0.1973992988089792
  0.3980411231303844  0.1978306130872634  0.4000890871513879
  0.4081202091820691  0.1987508027059834  0.6058318329005526
  0.3969819610287684  0.1992195511093187  0.7978392662334608
  0.3961162613204428  0.3991574201202415  0.9938200980613581
  0.4001684156523854  0.6010836637240403  0.9978689683145708
  0.3929921510782934  0.5974018661717855  0.1912127208802104
  0.3970543572447917  0.7849321809685738  0.9989668706635325
  0.3962197337679875  0.7960413765172394  0.1957264356245005
  0.3965322840529369  0.8015427791094271  0.4016701425603147
  0.3910938414110020  0.8000347515753037  0.6022346581902789
  0.4073679484071729  0.7996396114303952  0.8060279266147456
  0.5950391783901879  0.0066385409827371  0.6063380271978387
  0.5904567812589426  0.9960086519342998  0.8038059031382832
  0.6004516972007526  0.2025751623440803  0.0046194099692666
  0.6061876891155515  0.2092016267191990  0.6047953362974471
  0.6014050663034807  0.4015793958103253  0.0028680964500131
  0.6041234259466344  0.4046344482594248  0.3998793131592489
  0.6063684355983811  0.3973272726814736  0.5988090306803909
  0.6047147101011575  0.4073176496623777  0.8000269997768412
  0.6044054806102136  0.6001903644269607  0.9966889612799823
  0.6073422682011955  0.6007939631069987  0.4045505395241751
  0.6024146836342955  0.5943118178003217  0.6046625170246978
  0.5964221196016768  0.7942070722375782  0.9972622378041368
  0.5975541132894497  0.7958926052290300  0.1937361138379508
  0.5910434439411341  0.7861967718460514  0.3835388422988882
  0.6031568575124053  0.7950967997516548  0.8041621740526619
  0.7821002621786397  0.0009805138213347  0.0070595644774189
  0.8025135348739122  0.9932612998906039  0.2011799693899166
  0.7994280769648558  0.0008782565261934  0.3873160647778158
  0.7957218510391787  0.2065703289698272  0.0002362385880528
  0.8151197687436837  0.2123134429871790  0.4169511417705881
  0.8014326505049029  0.2123502554679038  0.6007493611129981
  0.8053674869924312  0.2122025473461222  0.7984572162603072
  0.8035984495036490  0.4058572074459028  0.2031302205968148
  0.7968026335415842  0.3968656262910970  0.3968063934211699
  0.8065485374674571  0.4036697893125095  0.6034318402967059
  0.8003277035239856  0.5971240675146949  0.0009467029985948
  0.7991449840433164  0.5977570633106899  0.2001892674426568
  0.8019717915045739  0.5942636725002076  0.3959836840835175
  0.8043286147945922  0.5967648796451108  0.5996172402014929
  0.7988262252254292  0.5927310013520904  0.7976536067776252
  0.7925393924321377  0.7884467569222339  0.9943029237780520
  0.7967580743047531  0.7938269085017610  0.1977455213692564
  0.8061084492467462  0.8001950332306583  0.4023097951697141
  0.7918083108306246  0.7840734912963643  0.7889289526724003
  0.0126322008569351  0.0025706505861903  0.6014795746095210
  0.0047724679278396  0.9988159487550009  0.7909407363562907
  0.9934923327796932  0.3943526045556644  0.2027816701766941
  0.9991148662143086  0.4052652460224241  0.6056888988287862
  0.0003282572922432  0.4070084465010910  0.7975366894731184
  0.9944590757548654  0.5957618060204550  0.4005221980038017
  0.1973852904247610  0.9983481670534425  0.5982808475971665
  0.2030009427564953  0.2005129621170283  0.2031128612409450
  0.1997212747901072  0.4029440453614159  0.9932635294781015
  0.4080482957508254  0.0060311799571244  0.7970721974501316
  0.4059056437869768  0.6038930990156663  0.8064572054265370
  0.6022675485081049  0.9938655816305966  0.9916201120826119
  0.6015709100321663  0.2206607511227174  0.2001759549721742
  0.6016461300010083  0.3960316176814697  0.1986959924254787
  0.6067250688184915  0.6007598024991939  0.8056491730527379
  0.8033294681300527  0.4030856248567670  0.7998530104910858
  0.0059690051691343  0.2106030214023319  0.7997761607697567
  0.9990470621833762  0.7913593287819120  0.9950937894308922
  0.0003355611530877  0.7997022062242586  0.2013659383958390
  0.0002891651979745  0.7963910987758626  0.4021869718959534
  0.2025185908036920  0.0002470421662646  0.7958606228804403
  0.2008680891711404  0.2003692099941109  0.9977953547790843
  0.1979333493489628  0.6066878924087789  0.5981256918339360
  0.1994593469437407  0.7958630680418217  0.7280539788672624
  0.3969065541966971  0.9993074325703741  0.4009641675324569
  0.4054541591155793  0.4020149036670219  0.1985233182223129
  0.4002316989439776  0.3938879061575291  0.3955360096949734
  0.4036423239090600  0.4058117356210592  0.8051861051282977
  0.4030914896651119  0.6061391923250479  0.6099970104297475
  0.5982784497146377  0.9977852943467409  0.3987349802832736
  0.8000746834431730  0.4021294277354502  0.9979467475114709
  0.8075666240224557  0.7950438842612692  0.6022510856267981
