ALGO = Fast
EDIFF = 1e-06
EDIFFG = -0.01
ENCUT = 360
IBRION = 3
ISIF = 3
ISMEAR = 1
LCHARG = .FALSE.
LORBIT = 11
LREAL = .FALSE.
LWAVE = .FALSE.
NELM = 100
NELMIN = 5
NSW = 200
POTIM = 0.25
PREC = Accurate
SIGMA = 0.2
SMASS = 1.85
