Zr Ti V  Cr W 
 1.0000000000000000
    15.4774007178547244   -0.0057270445464663    0.0060485456842571
    -0.0057275938548885   15.4869400142696509   -0.0016006725836938
     0.0060484205712483   -0.0016004018593464   15.4828342852602923
 Zr  Ti  V   Cr  W  
   2   1 107  10   4
Direct
  0.0022901642282749  0.3983575412849502  0.0010533657322216
  0.4014280303691846  0.5967131775416035  0.8023034481788169
  0.7985071394532581  0.1929691144371273  0.5993506328406700
  0.9995458844423885  0.9995102479036734  0.2006480072643860
  0.9997236137758707  0.0007851842939943  0.3994574643289657
  0.9967973032880484  0.0000423113631822  0.5989859716703451
  0.0004902184419924  0.9991363970352206  0.7996492407990844
  0.0010262844055490  0.1925138603933978  0.0011006071759465
  0.0000539392009333  0.1993914631010322  0.2003207352299183
  0.0000871926713722  0.2001896468229089  0.3995719372884149
  0.0035459178960295  0.1998843163408826  0.5989499003769475
  0.0018616093268251  0.1988710042526241  0.7998527048766639
  0.9994707992731943  0.3993341609813702  0.2051469679710148
  0.9998264955185601  0.3995918750507061  0.4018481580159949
  0.0013089894204328  0.4002228154706344  0.5984513280414158
  0.9950531711365234  0.4001056499865117  0.7945252759144522
  0.0003346221421976  0.6050372715226435  0.0004164767532175
  0.9999413673298730  0.6010087258383218  0.2003372801476838
  0.9992207722469842  0.5996264247665213  0.4000852023008200
  0.0003615114654110  0.6005759686100370  0.5985268538107003
  0.0004338125611068  0.6016869550399292  0.7992348053004873
  0.0000732693968444  0.8008042602422877  0.2015089800062133
  0.0003378866676787  0.8006340956411033  0.3999188100306031
  0.0013726029733847  0.7990566686794716  0.5996940797516775
  0.9998294923242379  0.8004788501346561  0.7973569588293411
  0.2003242708037431  0.9987640751070966  0.9993598262208035
  0.1998005600072212  0.0001356230734972  0.1996972230764217
  0.1996813203729046  0.0002591534146901  0.4007669613782094
  0.1994218000811086  0.0002563323318951  0.7990548406546203
  0.2019166972338785  0.1995734182200366  0.0002837179838253
  0.2009490227304721  0.2007917751936522  0.2002243231456755
  0.2002324845715977  0.1997668479444871  0.3996815115482409
  0.2001240012504732  0.1986827904649482  0.6001214992230538
  0.1999663681018765  0.2001529981274647  0.8004152861690684
  0.2058652697859196  0.4004718437180116  0.9993189428069279
  0.2019382949113342  0.4006232698203278  0.2018747386693957
  0.2000320636154443  0.4003371876018983  0.4011370041548899
  0.2048137136118635  0.4004977610513773  0.6006425299423457
  0.1980905654894412  0.3996050520320542  0.7992093590808388
  0.1999820125167499  0.6022536041421872  0.0005161442768002
  0.1997966947449819  0.5993937293425385  0.2001971276565634
  0.1990545989808122  0.6005263257368733  0.3993549818582232
  0.1959777194601975  0.6002257707870288  0.8002779290376540
  0.2032413517151744  0.8008540757631306  0.9992846960060547
  0.2000735067324674  0.8000228755092861  0.1991537209672708
  0.2007325971862566  0.8004156783416542  0.4006867996759514
  0.2005609426481183  0.8004121827818488  0.5995378903307470
  0.4010990656152997  0.0014310919524463  0.0001256129770590
  0.4002375729958209  0.0004841443601751  0.2005691915652218
  0.4005512757827535  0.0009036112621624  0.4011730240351832
  0.4005209258696679  0.0007051370330645  0.5998573772519130
  0.4002261467076216  0.0007307168176793  0.7984668512357377
  0.4007437543839189  0.2003878805604228  0.0004901430545089
  0.4007802427100220  0.2005496888275131  0.2003549211613021
  0.4000273013662973  0.1998622429377550  0.3993740754576623
  0.4000841294012993  0.2026465563656097  0.5994253578021774
  0.4001219982636358  0.1984671246412220  0.8006150297793588
  0.4018633555989445  0.3984157140703426  0.0000809502352515
  0.4008160010207536  0.3997818843709522  0.4041717239208210
  0.4023136999994107  0.3937311836444689  0.7951506359944276
  0.4005911814762331  0.6001635026874395  0.0054542472181551
  0.3999423815750208  0.5995603335636788  0.2020069960107211
  0.3996914966493249  0.6005820379055946  0.3996047047153276
  0.3997034629418350  0.5968169614229828  0.5963937804581715
  0.4004071019019452  0.8019239066694530  0.0010095936108671
  0.4005177958191595  0.8006757595040049  0.2009583808636424
  0.3998029837436973  0.8005061797195803  0.4002137561498317
  0.6008129715167213  0.0002388630106159  0.9995253136053114
  0.6012802406679997  0.0009092967560046  0.2001768669441887
  0.6003403760981423  0.0005531426485252  0.3994398924155130
  0.6029758993657224  0.9994758292613758  0.5997290087043489
  0.6002976933997288  0.0006628137968006  0.8002209056403344
  0.6003353123121563  0.2002520373707250  0.1994043902598734
  0.6007961166656556  0.2003878873911967  0.3982300499467514
  0.5982816861782212  0.1987938620384377  0.5987948972114089
  0.5995811154917182  0.1988673968713203  0.8008878504342422
  0.5982925197310142  0.4007728206306959  0.9999398911060942
  0.6004750864239851  0.3995276224478766  0.2002671959725191
  0.6011166348918275  0.3996799255938692  0.3998584803069204
  0.5961938571223133  0.4006678938681141  0.5996603917071501
  0.6060206126840390  0.3987559372324055  0.8000790227298661
  0.6001813807773413  0.6008675577589150  0.0014592376253370
  0.6005663154135861  0.5995761560721881  0.2002867386513620
  0.6009841865383010  0.6000897061887119  0.3992471884468983
  0.6003940080824106  0.6021550219548794  0.5988519036513477
  0.6049705782187688  0.6013646043574553  0.7999659272950052
  0.5996215720541042  0.8004128204328754  0.9996221126292503
  0.5996626669554638  0.8005270607054519  0.2000564604580973
  0.5994214099959210  0.8006980362778569  0.3999179598770550
  0.5985402833073716  0.7990188583941219  0.6006637774176383
  0.6010219663874649  0.8010581611697291  0.7998808419927813
  0.8002847193544632  0.9997255930042548  0.9988586260722068
  0.8001637206016173  0.0007693327570412  0.4028276848197830
  0.8007864277779727  0.0021577140126747  0.7965635991748471
  0.7997146659363269  0.1974295257103618  0.0010787128295737
  0.7999734149454263  0.2007759987472579  0.1991363198927059
  0.8003614554476123  0.2033469728291611  0.8023124063428049
  0.7952470141041175  0.4000245443865629  0.9948324579677772
  0.7995557982868635  0.4001195039823937  0.1989540178613393
  0.7996376763752580  0.3990212211529934  0.4020447823663018
  0.7986235972042246  0.4010587746107707  0.6036637894495362
  0.8005988315377000  0.6014472020497323  0.0004703309858489
  0.8003468728000076  0.5990236312578662  0.2000729217487634
  0.8002905517219905  0.5997090594249173  0.3999736721022496
  0.7999010247577908  0.6008142314907210  0.5987802912186019
  0.7981577378289765  0.8012807183536916  0.9994795594990630
  0.8005559645535503  0.8000913925848580  0.1997344153268042
  0.7993552087008243  0.7996245239853270  0.3993326197412725
  0.7995673853517712  0.8016461294782963  0.6001286817835161
  0.8012859705051020  0.8001876953572215  0.8012127572719665
  0.2000561187451974  0.9995023421495871  0.6001440507020144
  0.1996247160023804  0.6008987354260337  0.5997896545145146
  0.2003691556380398  0.8005384959239509  0.7991559706069399
  0.4012004801539266  0.3998735834449670  0.2018714208960691
  0.3995929175841093  0.7999376776482217  0.5999490926288608
  0.4000577346275477  0.8030290214417192  0.7995147841545432
  0.5996449529427467  0.1999732345086220  0.0005670174420935
  0.8001958625253749  0.0000888979803054  0.2001431468673981
  0.8002880376148089  0.2001565459957532  0.3972022890490828
  0.8014134514743769  0.6003661060855978  0.7993994602799713
  0.0001985173546810  0.9338256420983262  0.9988280592206470
  0.4008847040551450  0.3992161264930781  0.6004069306289701
  0.7999802415660708  0.9959734137842541  0.6007856927037190
  0.8002198461013095  0.3965674202118668  0.7994645937506909
