Zr V  Cr
 1.0000000000000000
    15.5277836321495606   -0.0011014415353407   -0.0036444284316418
    -0.0011015311309700   15.5268057001839015    0.0012045176117796
    -0.0036459540422085    0.0012051907892001   15.5242636607114743
 Zr  V   Cr 
   5 117   2
Direct
  0.9992397007499546  0.1994476408594867  0.3995876978008107
  0.9904056530786303  0.3997087065896460  0.9936264012683317
  0.5997186807699733  0.0003109710624354  0.9998279397305326
  0.6005508229366157  0.0004643602802378  0.7750239933251895
  0.8067140351675671  0.3987867391096443  0.8094831525629570
  0.0009998238045783  0.9975554657632064  0.9987099686816656
  0.9999649845490250  0.9990289672576752  0.2002048731577742
  0.9997866022552880  0.9952310686750958  0.3995975762938495
  0.9998922418056598  0.9975018179636796  0.6005720279455982
  0.0018390909656889  0.0005712021701934  0.7989802454972522
  0.9990261463300122  0.1947613561387054  0.9989263244030983
  0.9992239947327040  0.1997209294631578  0.1956042062808193
  0.9990690411903225  0.1981536837136523  0.6026210382586353
  0.0024988082131104  0.1980579520303993  0.7988742350641327
  0.9995659613904095  0.3997013655988049  0.2016018053677006
  0.9997826557026058  0.4037244339106909  0.3998429865233033
  0.0008456884287509  0.3997967117807755  0.5978389468338301
  0.9987373211109519  0.6053609067055137  0.9996698159918771
  0.9993250387258957  0.5993845529477675  0.2003057196745439
  0.9993663953453099  0.6002648920265513  0.4001874558838061
  0.9995958032353202  0.6010243357997584  0.5995852719684167
  0.0018623613555406  0.6327906184851455  0.7983700251497787
  0.9990088860589553  0.7999506976986536  0.0018297072621298
  0.9994207668068908  0.7996972160188771  0.2006257556806075
  0.9997526757202747  0.7984479962749668  0.3997502773004555
  0.9991559929685143  0.7993342113690879  0.5986436385110514
  0.1981478671732265  0.9991661494994653  0.0006170464246598
  0.1989503372247484  0.9998785001149547  0.2004555360108061
  0.2005540024334602  0.9987919627742419  0.4003458009732831
  0.1995834696801285  0.9995591999106742  0.5989165158134435
  0.1983841989487221  0.9983645240663056  0.7991225632650749
  0.1991487151487996  0.1999172479468105  0.9997454650926941
  0.2002386953417334  0.1995863979724073  0.1992922932723597
  0.2041370871277833  0.1996490223407688  0.3995598393454698
  0.2010367707529236  0.1992837969392182  0.6009503241980357
  0.2019040244853820  0.1988335819412697  0.8007325812010829
  0.2008214294873698  0.3994653871552051  0.0008451690381503
  0.1988839079552630  0.3991604792926882  0.2003601141046673
  0.2009423878920871  0.4000988317364003  0.4000186051725733
  0.2010400470666950  0.3990296743583008  0.5987112684110083
  0.2029002662391504  0.3991525598492978  0.7989885936618581
  0.1985663832903352  0.5989390919313627  0.9999502621769659
  0.1992173719404501  0.5992727201719416  0.2003362052406527
  0.2001569123055746  0.5997742996827515  0.4002128537164205
  0.1994609945503395  0.5987475173930842  0.6005161024086473
  0.2008427555611882  0.6005956896619837  0.8002595333499013
  0.1985205690916325  0.7992609665452993  0.9994864242507974
  0.1999474146166373  0.7994213916847470  0.2003939170300517
  0.2004609130892484  0.7987580508424739  0.4000752653515933
  0.1993568612436084  0.7998774116240382  0.6012069574713210
  0.2020683029623146  0.7990116757867636  0.8004468789832995
  0.3941034984799613  0.9994620997426200  0.0010876332222531
  0.3986163112929242  0.9997782083300707  0.2007614729571202
  0.3990198734159038  0.9992466538503174  0.3996503557558085
  0.3997145107258692  0.9996830334126631  0.5995636091337851
  0.3956271857452631  0.9997885689472437  0.7999320397879293
  0.3997607164883109  0.1994490163898689  0.0003001951791965
  0.3996417771762521  0.1993762989632794  0.1995078876339451
  0.4009746521675258  0.1991735881756881  0.4004867932727233
  0.4008603612727348  0.1993251918682081  0.6007525954516028
  0.4001885770367204  0.1994810589338122  0.8014580757585309
  0.3983367056389204  0.3996653513473181  0.0009232475062477
  0.3992514469139443  0.3993820897656044  0.2014045123197362
  0.3999515726607632  0.4000393768077000  0.4004142741234066
  0.4006334768155566  0.3989677165922643  0.5997468064361070
  0.3999355386583824  0.3994859164338253  0.8001362193344617
  0.3992338077744633  0.5997886433702296  0.0007447436392195
  0.3991945959481613  0.5995121023770448  0.2006279660888025
  0.3997316417828453  0.5996239378540059  0.4004480461949406
  0.4005864632520270  0.5998803108548578  0.6003218617734853
  0.3999582228724895  0.5991538099286015  0.8006325762610140
  0.3992637218365245  0.7994637014930305  0.0008520034307677
  0.3998408596666089  0.7996445636582168  0.2002547226714048
  0.4002889868580669  0.7995328057878671  0.4004919834419982
  0.4002701893048247  0.7993809909792094  0.5999678918489315
  0.4002319193270658  0.7997700916501054  0.8010702718733167
  0.5994640056811078  0.9999033460392451  0.2041866608487971
  0.5991661822489736  0.9993426458204795  0.3972830995871547
  0.6001966952680063  0.9995594108420913  0.5846220711384575
  0.5988575842337902  0.2050891811122461  0.0007901080081910
  0.5991377509160266  0.2006363110716599  0.2006446111697167
  0.5986410868793743  0.2007707556444108  0.4003453918005643
  0.5998464837545551  0.1992943894859541  0.6005679868472185
  0.6002410949931375  0.2050383679290580  0.8004980086362331
  0.5951915437277501  0.4015373984231595  0.0017965302887057
  0.5982417041916888  0.3999341815217557  0.2023661834659307
  0.5987267965908645  0.3999904602394396  0.4009443660294922
  0.6001084012404413  0.3998080819689437  0.5999981673493421
  0.5981175025897322  0.4009692347001798  0.7994778971293345
  0.5987794626152134  0.5985740210934224  0.0006986152611755
  0.5991804665807734  0.5989910686206297  0.2013222171174045
  0.6001525843755118  0.5991346454017813  0.5999651000960247
  0.5997695249255358  0.5981221556662742  0.7997902537590252
  0.5990949263233898  0.7945325414363106  0.0014546562619278
  0.5993998683032272  0.7987250250317446  0.2009674407141833
  0.5993497025197869  0.7981868415420461  0.3998193299822829
  0.5997108209537170  0.7991367499854092  0.5992115845292716
  0.5990488091254812  0.7953393756812090  0.8000842753903404
  0.8048836367643665  0.9985342798648115  0.0016709898913170
  0.8005361779688435  0.9998040453950833  0.2008603276396754
  0.7998242145429605  0.9986912622982955  0.4002969877597465
  0.7995823874458464  0.9992883940169068  0.5998688452471613
  0.8069279377913225  0.9973802495424747  0.8005109005973746
  0.7980435857743011  0.1978351726143243  0.0013828948784462
  0.7987880897228680  0.1990397057890048  0.2000591483357058
  0.7945694649703255  0.1987755697058461  0.4002740929719686
  0.7992428165402023  0.1994444103927345  0.6018212410877621
  0.7996750208949907  0.1943020907648069  0.8021505174587992
  0.7881512911783530  0.3995013614959021  0.0122069125722872
  0.7985004871138873  0.3991625117631861  0.2049866465501473
  0.7984521022357360  0.4003849951806448  0.4014415815272029
  0.7991872768262600  0.3988971016029934  0.5990429464840982
  0.7982075902784102  0.6008289064505657  0.0018834847733373
  0.7994166482845584  0.5998054407624465  0.2015697426540952
  0.7989967660374911  0.6000620678210768  0.4006271435455219
  0.7998686613538152  0.5993251679255284  0.6015210874009455
  0.8005437555458127  0.6051486889502907  0.8013841621385766
  0.7997404206658115  0.7996545628418379  0.0006363965691283
  0.7988007311753170  0.7997017080303008  0.2010378038421875
  0.7982599250788309  0.7993563832524548  0.4005968337552563
  0.8002048662820466  0.7995601951289745  0.6010476210180666
  0.7974814203046140  0.8002921963288403  0.8016572085720658
  0.0086215291078280  0.3987872035182826  0.7919302936870366
  0.5993834601636874  0.5994390615055544  0.4009809424376405
