Zr Ti V  Cr W 
 1.0000000000000000
    15.4149939690695010   -0.0041197707411214    0.0051244012526811
    -0.0041210926464625   15.4234402589122102   -0.0060663359120509
     0.0051270839828618   -0.0060686626181498   15.4040961855710652
 Zr  Ti  V   Cr  W  
   3  12 107   1   1
Direct
  0.9886762978210930  0.7833921875127909  0.7941951631354925
  0.2057727871333984  0.4395161813877815  0.7991826047243985
  0.8094318840817577  0.6065286108975196  0.7965046613477663
  0.0043294998081445  0.4096135437611843  0.4057142397292450
  0.9943928291851044  0.6136435076000327  0.4031244655785912
  0.9792913514291774  0.6071922036275452  0.6244415497670545
  0.2019097029338271  0.9876938711355955  0.7991977243311890
  0.1985955328473581  0.2032421788299644  0.7992488047878402
  0.2048958655077560  0.5961615334000567  0.4060676535117135
  0.3912140227317293  0.7998881807231801  0.1984730592408588
  0.3985924487939265  0.8062384738556142  0.8036014094758906
  0.5976429978145997  0.7973443754266841  0.9897884526337781
  0.6032508360532266  0.7979403870982330  0.2001558368750339
  0.5981965725242876  0.7937044919937863  0.5996441352687432
  0.7982736903161574  0.9959756384890633  0.9976565155061778
  0.0021347279678345  0.9975769479263525  0.9983624431147942
  0.9988656271148912  0.9979858085165961  0.2016501860426680
  0.0012086792694694  0.0030057192030053  0.4000601514978143
  0.0006256075399231  0.0007721231577267  0.5997833127891565
  0.9974902372138996  0.9969540701651286  0.7986848152345166
  0.0002100273999843  0.1970813044138891  0.0005877855634911
  0.9999203481138939  0.1995026953031309  0.2003937649515345
  0.0002256886903633  0.1989087650571126  0.4002505638057093
  0.0004272191878922  0.2008712700357490  0.6005887699451279
  0.9992659033780302  0.1961673156142278  0.8006752824329362
  0.0014007340876339  0.3961240801559233  0.0024789428277552
  0.0005209022647075  0.4000318043413953  0.2002111293583966
  0.0030971787601586  0.3994904525728328  0.6048710126871043
  0.0019508809107800  0.3928723327144783  0.8028264280854188
  0.0013219877664534  0.5976012641123024  0.0083704868283308
  0.9999966384341752  0.6000999715739467  0.2046989807156860
  0.0179324690364962  0.5816741132890635  0.8186391887304940
  0.0002013161975195  0.7976378381138827  0.0035995796439595
  0.9979006584431133  0.7990165464804719  0.1995651222865706
  0.0008329525409083  0.8052034130945765  0.5731839800881933
  0.2002335651694067  0.9979230383730343  0.0021343791810153
  0.1995224372982963  0.9985857581965520  0.2002864209705947
  0.2001845267795959  0.9974546630438689  0.3999078084051911
  0.2006999011587748  0.9999988682497712  0.5985708021096726
  0.2003614038342257  0.1985070739136839  0.0017037383407386
  0.1992341560918759  0.1995809425677427  0.2013099596969963
  0.2005797413874043  0.1998207568779846  0.3998873634959053
  0.2004397179599075  0.1999934394141207  0.5985388681439833
  0.2017553741927689  0.3997836025683663  0.0045949808151842
  0.1998365474674549  0.4001248830488424  0.2019954646454597
  0.2029737656767334  0.3997733813092446  0.4009569481998490
  0.2013092453567911  0.4020805271518588  0.5957535528222060
  0.2028897577601469  0.5998434075911002  0.0010811683438123
  0.2005299355251554  0.5994272071931417  0.2001999153149001
  0.2077843625861478  0.6009902886994253  0.6065620811488983
  0.2067441834330545  0.6280792275522425  0.8028140418454267
  0.1976104327775655  0.7986221915478926  0.0007104546912481
  0.1932354677383998  0.7980928089682119  0.2040407592754638
  0.2001832386100577  0.7983711610823266  0.4023862923497885
  0.1978111154740133  0.8005306358006010  0.7981248864056361
  0.3993511350804263  0.0000408988149926  0.9993923308111493
  0.3992388514581776  0.0011838062648099  0.1994309771404144
  0.4011225841540771  0.9999515141777972  0.3994024180106731
  0.4002157487348600  0.0012448326570260  0.6007282089347636
  0.4027605903240830  0.0043944832202356  0.8002589152887030
  0.3995651052130712  0.1993317367812225  0.9997575834898551
  0.3997275724428462  0.2000605639694830  0.1995346936608539
  0.4006820025317511  0.1995711528130156  0.4001130382621336
  0.3998161447501605  0.2015841285361709  0.6000724837538729
  0.4019696099687911  0.2011413011075573  0.8002311102833055
  0.4002693260180200  0.3981491817468801  0.9999637333171941
  0.4002119983285245  0.3997181475808194  0.2003589367081907
  0.4014565152292398  0.3998554210277054  0.4000718308525508
  0.3998457084753360  0.3992554674681782  0.6014436686748804
  0.4067923453587897  0.4001557464868699  0.8006976447565046
  0.4020614186337926  0.6000413649528794  0.0006816192952847
  0.4001078821532670  0.5980416449579887  0.1999032654632843
  0.4030066088523945  0.6006526447838559  0.4004075559969413
  0.4049139774034936  0.6027429680285564  0.6021878472317831
  0.4011407782810577  0.5992284243453778  0.8024340625370687
  0.3959543648895260  0.7998871197761762  0.0025814153229509
  0.3990635669086752  0.8009815261094799  0.4011732738125685
  0.3966779730858507  0.8011474431850334  0.5982891616670286
  0.5967662398419102  0.0005137659365419  0.9986147290167173
  0.5997229443820243  0.0005832136351111  0.1981930434540761
  0.5990184981272036  0.9995873997013801  0.3997787906511828
  0.5999541773385668  0.0015040274234327  0.5984637096978178
  0.5993666770353574  0.0014558023037248  0.7984585915034202
  0.6002201336104490  0.2000466147475463  0.9989414026458582
  0.6004017991001667  0.1998650394279832  0.1989937577735102
  0.6010905200020330  0.1997514995544186  0.3992212377122299
  0.6009768863086637  0.2023231746187804  0.5999342671926362
  0.6012029643830850  0.2009466019044650  0.7992940268760418
  0.6009880008645146  0.4004599646821210  0.9991653725845298
  0.6005858901540158  0.3997593616865160  0.1996062844238407
  0.6006610281187139  0.3995556279295929  0.3994797674464379
  0.6010817572305253  0.4023764962575692  0.5999179660074421
  0.6045976583337360  0.4012554518149535  0.7998292097625922
  0.6003147209812251  0.5978768274246329  0.9969524222212225
  0.5989363842625265  0.5982444384979804  0.1995912724029364
  0.5972698972782912  0.6009715481645918  0.4033677493267512
  0.5979072375993377  0.6014166783279729  0.7954315686094032
  0.6006300856361743  0.8004879255007425  0.3977916767631358
  0.5975471534182439  0.8004443491228076  0.7965614992353783
  0.7994363259088457  0.9985927726651989  0.2002305583077258
  0.8663405611907785  0.9327352837175220  0.3993977410909676
  0.7991638922574908  0.0009311904170159  0.5985813671697092
  0.7987047603680950  0.0019555850634547  0.7957834486829828
  0.8004747588819957  0.2007463439844487  0.9996266768501423
  0.8003144043143237  0.1994424519624441  0.2000136525851446
  0.8009547561069235  0.2023636837434448  0.3998360218694674
  0.8010907356776675  0.2017716170321982  0.5983178969010212
  0.7997921816101812  0.1994352699657909  0.7990546830930340
  0.8014087152979384  0.4001965041651172  0.9992292994695932
  0.8011541851836359  0.4002788666634438  0.2003747521356856
  0.8002344186710371  0.4024347720993871  0.3997709503434476
  0.8040766926258807  0.4033429851215400  0.5991886565017104
  0.8025466665015032  0.3973172890473900  0.8000956230246880
  0.8002593641111029  0.5986072929077599  0.0036400064198931
  0.7977302900749949  0.5995328281795693  0.1996204004123181
  0.7946138496054505  0.6019931890436698  0.3970834714426904
  0.7875046204097036  0.6013659651367151  0.5919424826610410
  0.8028939709204402  0.7958263319578296  0.9957988148318901
  0.8018901646248762  0.7995184865747446  0.1991722256835257
  0.8007766363430803  0.7993732335683801  0.3988250204159067
  0.8019781623827691  0.8012274670723208  0.5972602843612095
  0.7872307262268541  0.8116325993425180  0.7984972878244770
  0.1988408104526562  0.8007656357185335  0.5991146392550074
  0.5986818110422705  0.5949587834575956  0.6009043674330062
