Zr Ti V  Cr W 
 1.0000000000000000
    15.4771126092992706   -0.0171409429028663   -0.0108832458615090
    -0.0171377985850307   15.4835452709138899    0.0089453070842751
    -0.0108770206815257    0.0089383803551370   15.5150560916889226
 Zr  Ti  V   Cr  W  
   9   1 107   6   1
Direct
  0.0000513907660123  0.0010214289159219  0.9989591593136541
  0.9802547998803978  0.3976710385125228  0.5962775296674448
  0.9992636336325629  0.8045938013653140  0.6001471150338977
  0.1699851362467305  0.0011639963601655  0.3746472255072381
  0.3941474516365746  0.9976583986427320  0.4018223109961255
  0.4024961249482094  0.2027676743842861  0.9985485841897896
  0.8011109198856415  0.3985318769800648  0.4259236753458996
  0.7973488296376778  0.2585611163998181  0.6065615779356130
  0.7996482955508455  0.6218013043583506  0.4002218107546603
  0.5982207278806284  0.8020682472495327  0.5977138253316054
  0.9834018064060980  0.9997345757138920  0.4044528063616941
  0.9984361812456909  0.0054772088635893  0.5999435459716753
  0.9997675526535371  0.9996803902314728  0.7970839561442785
  0.0017328008630908  0.2043178145531206  0.0010786515952626
  0.0013081855636523  0.2051422975082532  0.2005861623713468
  0.0050245208961654  0.1940126747193858  0.3978350082335761
  0.0063542839545771  0.1947529711994537  0.5989797224145810
  0.0010614529373254  0.4021169357290911  0.0045065080639421
  0.0063647127041925  0.4025379456136163  0.3897311054232622
  0.0006279743456588  0.4014438688563564  0.8054460235326767
  0.0009381021781540  0.6006267449162691  0.9993920104436356
  0.0010448170859923  0.5969054722798942  0.2002526658180029
  0.0045474475593208  0.6026517246758677  0.4002820753318889
  0.0000173619475475  0.6022403624580409  0.5995356864330824
  0.0016319728365865  0.5985628548303873  0.7978593350340318
  0.0010435443977241  0.7962194015050857  0.0033616845471915
  0.0001561751810080  0.7988667735422652  0.2005036892486819
  0.9996181259337220  0.8029228758057568  0.3965632367843539
  0.0002747558757171  0.7995738941188323  0.8040863534363756
  0.2048936680528061  0.0004779056183044  0.9935957276847555
  0.2047197110885832  0.0001216370485653  0.1835564607142373
  0.2007185821818335  0.0029699646723829  0.6047218603403890
  0.2009586211999409  0.0003136120872420  0.7983397431854751
  0.1982183637939809  0.2008894348614562  0.9981271373734053
  0.2017353133162541  0.1977344112348736  0.1993864893418756
  0.2028684383378432  0.2026134082102204  0.3996535777458761
  0.2003240817419700  0.2018297981445454  0.5986054238119842
  0.2005954056815644  0.4009859938155196  0.9988388094830652
  0.1976144655463127  0.4002209224609391  0.1981114110708523
  0.2000901393859605  0.4015340381678009  0.4009010425992158
  0.1967699650334611  0.4003638854548878  0.6000623099448246
  0.1982869520827904  0.4005827531560031  0.7991368129838184
  0.2015599459010212  0.6009530746972390  0.9980577724793614
  0.2014062119308363  0.6010360583958243  0.1991527273039654
  0.2010924311364627  0.6016440518057427  0.4003973009788953
  0.2008462961284264  0.6007867353054159  0.7987803772785507
  0.2011839042575063  0.7993357875689219  0.9990737192358343
  0.2005350876565509  0.8016692760798597  0.1991584254789865
  0.1996116090197736  0.7983461079183974  0.3994097830043425
  0.2037878578969761  0.8024260972953466  0.5991090487563291
  0.2006218290818096  0.7993800878390842  0.8002302207117045
  0.4034706094899259  0.9966354435128943  0.9975333993207414
  0.3993821416406719  0.0015415327196843  0.6050793070203264
  0.4018105688249419  0.0009266232277393  0.8001544998224599
  0.4009486772419685  0.2007941688349091  0.2029954665238291
  0.3995380675620179  0.2046211931110785  0.4008423021107280
  0.4007820514125664  0.2014556913931079  0.7957838449828465
  0.4006073612134253  0.4060899129220940  0.0003962044059511
  0.3986269702777532  0.4013445721695228  0.2005610998395503
  0.3972938046619727  0.4017791745569321  0.3994814768214338
  0.3961832522049748  0.4026942202495785  0.6006739291946043
  0.3997801479822743  0.4008354838532553  0.8001575103305183
  0.4013910645274896  0.6017780970630954  0.9994304135942120
  0.4000338676079886  0.6001415958235635  0.2001919819016407
  0.3996779352844632  0.6011623858912650  0.6003775903654957
  0.4007107475145122  0.6008640007891585  0.7988978302641127
  0.4010872344079531  0.7992783120596181  0.0003105175842564
  0.4008066420309569  0.7994433431002060  0.2000819741234696
  0.4001720658137922  0.7940528639246447  0.3995657836949011
  0.3994000711398384  0.8002179788958147  0.5999252295458370
  0.4007814262527083  0.8003112237715464  0.7998022272188621
  0.6012542278274629  0.0001343684965234  0.0007470023123848
  0.6007063458261347  0.0010079274521095  0.2003736603521225
  0.5997807268537619  0.0006640893402572  0.4013310650919878
  0.5995333499054400  0.0056772080759693  0.6013370853914269
  0.6009928626484002  0.0013987200678338  0.8009352051324065
  0.6055977334705832  0.2013318143966722  0.0009754264428090
  0.6008882009676738  0.2008867853506012  0.2011944749945121
  0.5980166264113901  0.2008917511522970  0.4009993137033699
  0.5960339038744442  0.2022451503594676  0.6005966419959367
  0.6031959428973021  0.2009574206271243  0.7984464436405568
  0.6015915439449093  0.4018209271428553  0.0013334610270075
  0.6023675723198173  0.4005028422061253  0.2022272149649760
  0.5946383970470106  0.4005622265282442  0.3998377644868254
  0.5916341401854239  0.4001416863355971  0.5992689173179865
  0.6016376140136178  0.4004079476366527  0.7996711735759531
  0.6007028915520020  0.6004524109665883  0.0000757714109442
  0.6003937577818794  0.5993244941089749  0.2002006796844228
  0.5963618358157811  0.5992973537304324  0.4002948890220456
  0.6008280560580351  0.5966549811558041  0.6003329604102833
  0.6009226944580343  0.5997609618784849  0.7995196996211963
  0.6009474290827589  0.7998918741947629  0.0015845142676932
  0.6007556020585898  0.8002174696834607  0.2001585437740736
  0.5992099498210540  0.7996315058217586  0.3975067548668171
  0.6008264767828067  0.8006354532854189  0.8030382224448722
  0.7976179415033129  0.0000998484018047  0.0042320545002692
  0.8006006750152259  0.0011930131104816  0.2020622371164039
  0.7947695662617035  0.0038155728841101  0.4031904465730062
  0.7989384360965308  0.0061886533054494  0.6032667609462500
  0.7999095700662566  0.0022026807181514  0.8004337165492300
  0.8021708896728142  0.2002976544238450  0.0019909113329373
  0.8013028497567255  0.2009913757788195  0.2019743286378836
  0.7984834840250489  0.1948875470678104  0.3969747339582002
  0.9680707065083698  0.2006776619490757  0.7676625904014923
  0.8014223048353001  0.2009646594434868  0.8056617912187045
  0.7996518911581516  0.4019355923434876  0.0027970772514209
  0.8051501406798052  0.4006259105191148  0.2021580535640929
  0.8019937796323864  0.4003135191953400  0.8090709136445194
  0.8005994967266731  0.6030792479083723  0.9985067734878911
  0.8006654463436528  0.6011489643723661  0.1970065697090978
  0.7995238065848854  0.6073984370841161  0.6048891354708559
  0.8010223356624387  0.6000734044600423  0.7995410739567240
  0.8004044241074618  0.8011328180297741  0.0015977584460050
  0.8009791710134212  0.8020238147340030  0.2012230408166160
  0.7978746716378587  0.8131609635707066  0.3999989881359894
  0.7948897622937244  0.8047191876393055  0.6022951801482954
  0.8002073937900013  0.8017408202271780  0.8032004510907520
  0.0000247151297366  0.0015967377586192  0.2044554770777920
  0.2000886141703673  0.2011236687785435  0.7984137539777791
  0.1995877741638326  0.6002124795374718  0.5996309760721865
  0.4017427444682293  0.9998951666674867  0.1956110201524443
  0.3981752409982551  0.2022052205693823  0.6000464406268112
  0.3986890950333130  0.5994580582502225  0.4006246044597438
  0.0004344068495263  0.4001689197564354  0.1991022774777133
