Zr V  Cr W 
 1.0000000000000000
    15.4863295998759050    0.0024137293282322    0.0105674120120943
     0.0024156779473548   15.5040449564505511   -0.0174543962439357
     0.0105707746262879   -0.0174578174046017   15.4782021514271442
 Zr  V   Cr  W  
  10 107   6   1
Direct
  0.0005531202120532  0.9677991755269310  0.7572313989684117
  0.9989100372308621  0.1980878820726633  0.6081223340249502
  0.0005120741187503  0.4347072270857283  0.0405910577950553
  0.0052693072928282  0.5785317856634659  0.2231174677332793
  0.9613724664783709  0.7920194600402135  0.1934434428240099
  0.0030429815369692  0.7918465911339797  0.6011968258229731
  0.1882059400423178  0.5894655344342072  0.6009278157053802
  0.3587602819895680  0.8040820762725773  0.1993652226353501
  0.8333664100487969  0.4310708291977655  0.3972477595877484
  0.7507508917349583  0.7918269221805946  0.1980691476562332
  0.0010698526803739  0.0071308176125029  0.9985440337759066
  0.0034951759583879  0.9984131362928613  0.3936912744395569
  0.0011189651309197  0.9987006031877406  0.5703085774583609
  0.0009353254946145  0.1997373748154960  0.2021552366498011
  0.0008797385413091  0.1999031261628989  0.4002721950088627
  0.0007514309641952  0.2044634615612872  0.8092794460278776
  0.9999778192196546  0.3869869166056243  0.2318777422794012
  0.0210118741103392  0.3984385853633746  0.4096410741072207
  0.9951788455339642  0.4036547392233140  0.5999949309964466
  0.0016222281997547  0.3977330236260428  0.7997850133863018
  0.0013896474861412  0.6236549942106612  0.0145662745526833
  0.0046613301401917  0.6056027641117839  0.4245451509518480
  0.0646826188696921  0.5303202660686048  0.6067387285790810
  0.9997860340935357  0.5921280191753756  0.8142500344169095
  0.0015973175687285  0.8130045370668223  0.9925634375002519
  0.0018963620585928  0.8003037880618444  0.3954997101221416
  0.0000683891266415  0.7814321665099445  0.8053278462840080
  0.1997470968566108  0.0028116699310163  0.9970499738134725
  0.2001171165196960  0.0023040057816345  0.1984472601053946
  0.2020050964764517  0.9996494354089314  0.3969918561973258
  0.2011733633356822  0.9986965907840234  0.5974183382902772
  0.2031978162128615  0.0004693132279040  0.7990116391833879
  0.2017761593767919  0.2013678012804371  0.0006449535382787
  0.2012086896589179  0.2006032104051497  0.1990238660055517
  0.2028661351035641  0.1995459276708162  0.3997792869636653
  0.2015678159703959  0.2000362286948904  0.8008239728195470
  0.2035615336679255  0.4008537263966838  0.0002095550683365
  0.1989021511209737  0.3995135370972253  0.1991920318911083
  0.2069314964581223  0.4027964094440772  0.3987372019498725
  0.2001369338246883  0.4004426276471597  0.8030287857373430
  0.2018452611904391  0.6024624809737258  0.0022059652512188
  0.2080262308121115  0.6009692261410496  0.1988702852958921
  0.2009874945879404  0.6009854272004683  0.3935932009652855
  0.2004485843140880  0.5997965098110988  0.8066780041564546
  0.1996840166377125  0.8030244226056835  0.9998124279235543
  0.1717531861140485  0.7973111044761232  0.1970792430486557
  0.1996027495943179  0.8001011118979313  0.3970514148224280
  0.2073522233910964  0.7975112358084399  0.5984692827477662
  0.1994572515193767  0.7998056041070007  0.7989582272434060
  0.4015181996981447  0.0009528983471170  0.9982833919763624
  0.4020419885172108  0.0045596695444003  0.1981103216985165
  0.4003267287035659  0.9992288121299244  0.3987110946949445
  0.4021401239868733  0.0003983756053598  0.5982157928310764
  0.4004421943427455  0.9994320956080638  0.7968252840143085
  0.4014623493936438  0.2005276787764408  0.9986493196448434
  0.4009468566612071  0.2010912737380310  0.1997506003960604
  0.4006114113632466  0.1990390245598451  0.3997389364128933
  0.4023254971796613  0.2002032308998261  0.5989710474786856
  0.4009147468851110  0.4006191738240127  0.9995696396152581
  0.4002151783327840  0.3982914720395146  0.1994054469716227
  0.4012503172932376  0.3989567062657707  0.4009610245297890
  0.4020243941780142  0.4005349708518610  0.6004246459921111
  0.4003063604718963  0.4000213453138438  0.7984023369766936
  0.4029362667058922  0.6013107867026608  0.9997739720554557
  0.4046849052393486  0.5944600980127404  0.2004576743913513
  0.4009930681443152  0.6014212599829259  0.4007781261805590
  0.4039199664193701  0.5995523865696714  0.5993351282652567
  0.4008123000862542  0.6006568924095084  0.8003092415993667
  0.3996460061470862  0.8013728189699398  0.9947640455309896
  0.4006890577898015  0.8001492946560449  0.4026057752251826
  0.4009975228630921  0.7998743409047210  0.6001828328927776
  0.4004665889597571  0.7991667767225203  0.7988010961026999
  0.6007489664650457  0.9996981649292332  0.9984442222413197
  0.6008576386859974  0.9968510895331526  0.1985103401273844
  0.6005996901533698  0.9979975308024484  0.3976084458091363
  0.6007500538511181  0.9991858020069401  0.5968941059585150
  0.6007742795160157  0.9980377747821305  0.7975841227391971
  0.5996231083004873  0.1989563266894126  0.9996905125088332
  0.6014169768611836  0.2007832412338611  0.1986819717121668
  0.6005221200976191  0.1988288840086073  0.5991252253672630
  0.6005663531749473  0.1998418726949746  0.7997798680586254
  0.6008617862021418  0.3993693303871431  0.9987310367752451
  0.6022316850084634  0.4006846324357046  0.1994246499634280
  0.6005151156850924  0.3986561054678562  0.3980095275424820
  0.6015231009896760  0.3996763159942994  0.5978250766322070
  0.6000801207676535  0.4002916558891212  0.7993676772389010
  0.6028200165913028  0.6003603007725776  0.0035151303127274
  0.6045492471722861  0.5992897458996561  0.3954011219746539
  0.6020011419926166  0.5998096218035613  0.5969787656746087
  0.6028454115531749  0.5998420258870569  0.8016971822357576
  0.6012511931562738  0.8009532317568913  0.9978910117447457
  0.5647995474986630  0.7909217451391600  0.1985947662252004
  0.5994621088209514  0.7998951054640936  0.3982527176864274
  0.6011138904230536  0.7993376834607436  0.5984621795912558
  0.6000741166834513  0.7981816406269222  0.7984857368714992
  0.8017252899615983  0.0017085764814853  0.9966994483939681
  0.8012718137136130  0.9981314806304226  0.1978432101060746
  0.7997858132289524  0.0009527693774329  0.3977409176012057
  0.8024581568284938  0.9997280494065359  0.5986624184417844
  0.7982065674941439  0.0001250276367746  0.7984527312629258
  0.7997040686961631  0.2007673017965541  0.9993342977323854
  0.7993758301326074  0.1998588234172924  0.1986588275384637
  0.7993763305401050  0.1967904313066112  0.3984728836235480
  0.7949069695280151  0.2015947604468587  0.5991996475103426
  0.8003922506020704  0.1992831572703250  0.8011403442320376
  0.8038877961800552  0.3981386110785729  0.1940738461198352
  0.7986374587252620  0.4011037559279242  0.6007199305678859
  0.8001258737149257  0.4004133142973424  0.8000480495922482
  0.8037683498482153  0.6013331091822374  0.9999983740232012
  0.7943871401161815  0.5946369213460151  0.2077926437632514
  0.8029848025434803  0.6184243980827402  0.4031868041140626
  0.7993615720821970  0.6006189009576151  0.5994971813927784
  0.8022535830838917  0.5992438267440738  0.8012783179941859
  0.8024207893992382  0.8027947980060106  0.9968393983905293
  0.8058478363232872  0.8066184737630927  0.4009443027581756
  0.7957507523159811  0.8002141831447890  0.6004599521913460
  0.8011204085914828  0.7990493478751974  0.7982768971262141
  0.0000533461321514  0.0035130996397268  0.1970558372902039
  0.0007966268109817  0.2018143063143155  0.0036190535996656
  0.2052917638117829  0.2030236906897696  0.6001668312196253
  0.4014752435684383  0.2000272487381477  0.7991224192215205
  0.5998433186382958  0.1987108522973469  0.3981885310225052
  0.7982387628702439  0.4000678128504717  0.9978686227894425
  0.6018749033725344  0.5981685374195189  0.1986994676915213
