Zr Ti V  Cr W 
 1.0000000000000000
    15.5156790444203825   -0.0894881118897371    0.0217838379805832
    -0.0896445880511617   15.5356651551125911   -0.0233108486568690
     0.0218567542863321   -0.0234613794087359   15.5047409555449658
 Zr  Ti  V   Cr  W  
  13   4 102   4   1
Direct
  0.0029794888500064  0.9842981130117359  0.4192171277753627
  0.0047350040992649  0.4028413734596725  0.7919795857451494
  0.9778191305706873  0.8274605718450438  0.8163716695655764
  0.1707801462639252  0.4356276489916362  0.6260038228618577
  0.1742551675923303  0.5861393959557888  0.4474449176109790
  0.1951153997544272  0.7632484297120826  0.7941920298257021
  0.3977906983006638  0.0319180561896637  0.1971881142308551
  0.3972761657469497  0.0016485098668253  0.4170307437262197
  0.4001660778178691  0.8029294189993464  0.2058688678991875
  0.6261306069419939  0.1927964337478487  0.9595509445820590
  0.5943641152316240  0.1949330938560170  0.1909737336443035
  0.0455908078916279  0.7464201614137471  0.6068324874152117
  0.7964663162055955  0.2001902250413569  0.7981014088228983
  0.1837949797952992  0.0122090702337976  0.1990605140255318
  0.2288210917426062  0.6355221692478158  0.2262958823894876
  0.3864270273297937  0.1874384915582798  0.5869895874613134
  0.6002914653602491  0.6032303374157573  0.3955592652815416
  0.0000754518572655  0.9970975400856923  0.0033788130157166
  0.9924404635967704  0.0026220108313775  0.2016317501870160
  0.9875764688855144  0.9710501194413727  0.6182296707159870
  0.9928430899295126  0.0212266880942447  0.8063070141343989
  0.0056482759702661  0.2029364367843428  0.9988235478621821
  0.9999417257297976  0.2029082123497704  0.2019436251998653
  0.9975484803928971  0.2026075158846299  0.3994775427485946
  0.9966695424654283  0.2137601368002549  0.6008889524705081
  0.0014044427632016  0.1971813116107934  0.7984718555682121
  0.0021661079803990  0.4039565064680292  0.0001620284041706
  0.0016766373497891  0.4049477519788912  0.1963201475607816
  0.0023830979551865  0.4008637661370155  0.3912955356312127
  0.9817097046162020  0.3999330030127273  0.5866197506944656
  0.0029374628490768  0.6020477605244023  0.9969917608660401
  0.9967711697120942  0.5998691655406183  0.1957771704722810
  0.9892364423160779  0.5981071521283982  0.3949626137242278
  0.9802939293300643  0.5692238654927142  0.6016309920176529
  0.0018245845153964  0.6115479826756678  0.7959712662376499
  0.0051996972120030  0.7976201494409088  0.0136609729692010
  0.0007312729839368  0.7982915986588528  0.2063771668957716
  0.0078844701953259  0.7871576263947953  0.4014488682515679
  0.1978638659749711  0.9982763241921657  0.9967284080620945
  0.1901064696373210  0.9966486219168762  0.6041121892148403
  0.1918388976515338  0.0012439906414317  0.8009778411435065
  0.1969561819718501  0.1986286272569135  0.9998718485720929
  0.1952123731958629  0.2059192635941328  0.1985255142091291
  0.1964274726463072  0.1993755178849053  0.4013511930174952
  0.1933060178483338  0.1974111412460565  0.5996600809693302
  0.2013957427209497  0.1970158267014847  0.7970623284140393
  0.2017717580439529  0.4026316044127442  0.0052149815063112
  0.2018987925171219  0.4007141674078007  0.1986679378989618
  0.2042737621784228  0.3942399444799273  0.3927939266213444
  0.2126195180750168  0.3867403407997319  0.8153342286206129
  0.2006721732183821  0.6023401450038061  0.9898338146719490
  0.2319130851919650  0.6440574573472334  0.6228164696652994
  0.2034014184107026  0.5681150673534922  0.8007532408852549
  0.2023505121605336  0.8010529099461065  0.0066532220694605
  0.1966299205860831  0.8184205032540731  0.2023996836215545
  0.2100743075577969  0.8216363168716343  0.3963036504591771
  0.2190670569472837  0.8051494872318773  0.5907610254982897
  0.3962357916684575  0.9956740420928929  0.9951785279742249
  0.3974232633190360  0.9872204269595818  0.6157386278946168
  0.3925065851141735  0.9922245772983354  0.8017324408292255
  0.3894242683647304  0.1972390349754979  0.9997833630949625
  0.3980973250231289  0.2071500162648907  0.3900882607687228
  0.3979983800348404  0.1940172057459110  0.8000988154241143
  0.4021922289207893  0.3980624019343492  0.9996377130393880
  0.4022113365751935  0.4018758208922302  0.1969631076764425
  0.4024300106629369  0.3945918909120570  0.5941101356353926
  0.4043837400946088  0.3910478215810364  0.7968991815782542
  0.4006544510453620  0.5958227778358111  0.9984463264250941
  0.4153972880293535  0.5936908588248270  0.1965833741733756
  0.4017110383804790  0.5988415642395546  0.3977799806520220
  0.4080214900843758  0.5891491453275094  0.5968410211493617
  0.4039794108778711  0.5908105592418762  0.7998325088116870
  0.3994196541625815  0.7954143900882422  0.9984203437675970
  0.4058996819251226  0.7936323171856993  0.4074344179106206
  0.4015070485904653  0.7916929877479464  0.8030099326137080
  0.5962222804579648  0.9911203525083132  0.9997186872250977
  0.6035912564637071  0.9870633319641031  0.1995160064273852
  0.6041297845942134  0.9989120464451385  0.4004149261844462
  0.5891401830985464  0.9953035895393567  0.5993987163980379
  0.5960978806167264  0.9989139843356650  0.7989720167361665
  0.5987406898652261  0.1995584077763952  0.3991545696772898
  0.6001974017642960  0.1950063267375365  0.5937937728035547
  0.5883337979990116  0.1972649829932147  0.7692195571390230
  0.6001477444079185  0.3999227966936969  0.9984541129309158
  0.6033046843043077  0.4040417507597084  0.1970517368842994
  0.5990815431807467  0.3968610765860800  0.3942536787944474
  0.5964903753320094  0.3978282334376532  0.5956736439686046
  0.6001350172940263  0.3963841962166940  0.7986926340804950
  0.6033256137352876  0.5999721961718931  0.9952750533764847
  0.6074501806618616  0.5999550809674504  0.1942755710509289
  0.6015249039555249  0.5984381394991296  0.6015804723711856
  0.6002576822713880  0.5967026814276448  0.7983699639654681
  0.5993870657332750  0.7971709429590373  0.0014279208167423
  0.6081566857666475  0.7942975455936971  0.2025560599492250
  0.5994144798197768  0.8032969892129361  0.4011975716247574
  0.5994387283728326  0.7999293529407018  0.5993669617595079
  0.5957622805533265  0.7980990849259862  0.7993336416022895
  0.7978796681953174  0.0012160631873763  0.0029201201340763
  0.7991326779947932  0.0011704754131336  0.2006636463278637
  0.7994233682303656  0.0046646514369317  0.3991797685121776
  0.7941927253978507  0.9947860014242101  0.8080793348731652
  0.8169624821685180  0.2030672830935211  0.0098674450968505
  0.8039580651263306  0.2032901231263576  0.2013218898884254
  0.7992805004866808  0.2020557636686500  0.3951364535099601
  0.7971212888302840  0.1993846406805001  0.5917435652672550
  0.8031471438672345  0.4022437531096364  0.9970757738135223
  0.7969665224894593  0.4032717218835290  0.3971987926825611
  0.7895169446050738  0.3984750542676570  0.5960385855982169
  0.7966897296421569  0.4084893776098917  0.7969080606945970
  0.8024145123249417  0.6014788445462917  0.9974396671931243
  0.8019732599814717  0.6015850000562205  0.1980103085330536
  0.7998888541068510  0.6034905648458295  0.4008516875357936
  0.7949495335719388  0.6093994481962679  0.5996140429084571
  0.8019994470894357  0.6045088646417593  0.7986613262202162
  0.8029940441978423  0.7994605677372167  0.0029102193027084
  0.8034158535074690  0.8016408225943674  0.2030192779457179
  0.8050816239283026  0.8055856806436873  0.4049804332191044
  0.7926996056616256  0.8073381041953139  0.6008384709081299
  0.7863376788287635  0.8003074576689729  0.7987435861476352
  0.3922278935958280  0.2131360396516954  0.1958154534915387
  0.4002709024363306  0.4013599487279554  0.3959886281566132
  0.4013133140629281  0.7897201488447061  0.6030043451267966
  0.8007810673780908  0.4019125267546063  0.1981022196783991
  0.1987187499605604  0.0102482515346660  0.4087600864489870
