Zr V  Cr W 
 1.0000000000000000
    15.4863295998759050    0.0024137293282322    0.0105674120120943
     0.0024156779473548   15.5040449564505511   -0.0174543962439357
     0.0105707746262879   -0.0174578174046017   15.4782021514271442
 Zr  V   Cr  W  
  10 107   6   1
Direct
  0.0005526106186735  0.9671147686548658  0.7567268510816472
  0.9992481035830370  0.1967002134193709  0.6078601494281097
  0.0006319110386737  0.4353686469025506  0.0406613376816416
  0.0058229590288471  0.5784093956937147  0.2243793891225309
  0.9614475017877907  0.7919671221749316  0.1933809389234264
  0.0026008517314613  0.7890654242001950  0.6025992970472750
  0.1826501926265144  0.5925296819209455  0.6018387537520906
  0.3588036224983114  0.8043861045843500  0.1992946553193064
  0.8329897796764020  0.4311952074856676  0.3969964634590008
  0.7508015340949354  0.7920128225306995  0.1980861310110832
  0.0010584148632972  0.0073755903556505  0.9984336902477166
  0.0034215676448663  0.9981087079703302  0.3937590819717509
  0.0011274680514006  0.9966670655773098  0.5700218441624222
  0.0008943993893900  0.1998102214900122  0.2020746973340204
  0.0009110159355191  0.1998186601575576  0.4000898894619293
  0.0008154460451943  0.2043260011094407  0.8091001829879332
  0.9999846525064152  0.3870656122987565  0.2317043399849671
  0.0204335013428073  0.3983576376554785  0.4089565009359426
  0.9968618251849282  0.4035715480956139  0.5999166224104604
  0.0016135180142436  0.3978906151710804  0.7998320325877200
  0.0014727705770432  0.6239790131085798  0.0156678952716953
  0.0037826385478175  0.6049623643171431  0.4277177225193920
  0.0995592138291092  0.4968118963993906  0.6054791589794117
  0.0000840607803227  0.5917728007793561  0.8166431291977390
  0.0016391509421951  0.8133058577012767  0.9924827942862089
  0.0016008808936241  0.8001161801469060  0.3958251991510958
  0.9999829688269717  0.7809107712968513  0.8057899968181385
  0.1997357169526208  0.0029601913940946  0.9969514859028088
  0.2000411996137917  0.0024424747085243  0.1982964968588959
  0.2019391589276160  0.9996574461583089  0.3968228269332700
  0.2011009014295806  0.9988832660445546  0.5973709959795149
  0.2032401258152704  0.0003548928326124  0.7990668680794321
  0.2018021950543282  0.2015640170766719  0.0005436699930105
  0.2012121588509806  0.2007692709849455  0.1989978325970050
  0.2028270072463014  0.1991645223084788  0.3995292907151156
  0.2016267389168579  0.1997246838834681  0.8009307242938641
  0.2036721263488800  0.4007669809254393  0.9999626034345489
  0.1988993396195438  0.3994974106582421  0.1989909245247045
  0.2071342630156293  0.4024480899918638  0.3993041909047053
  0.2005869621965347  0.4002925951502469  0.8023747228193044
  0.2019924822826121  0.6024809694825156  0.0023834103807664
  0.2084165813785968  0.6009715124079603  0.1988565149634621
  0.2007729466209578  0.6004701963337894  0.3935923025860467
  0.2004113807778219  0.5995968796631210  0.8070881749154062
  0.1997025512336669  0.8031090118733126  0.9998211790651822
  0.1718017139862553  0.7973843910596086  0.1970878098828946
  0.1996494853543746  0.8001214928869873  0.3968413644361752
  0.2073113788209111  0.7988957066191801  0.5984850454288612
  0.1993810445700885  0.7998077140299861  0.7989623598503373
  0.4014972595324627  0.0010301114782216  0.9981994682399715
  0.4019797290302414  0.0047206882056392  0.1980439311496570
  0.4003034142671892  0.9991836814436572  0.3986633526853831
  0.4021872548052952  0.0003320759763263  0.5981504099641902
  0.4004833807101538  0.9993813996716623  0.7967089845646034
  0.4014739862934233  0.2005966940279001  0.9985587270527406
  0.4009425720140354  0.2011913394091706  0.1996639394074544
  0.4007381109120223  0.1989584436189426  0.3995889746455603
  0.4026147536976203  0.1998181924249321  0.5989340770328047
  0.4010045399755336  0.4006909784278060  0.9994078066074147
  0.4002009872578683  0.3983822843007844  0.1993817404536254
  0.4014230433275379  0.3989208679327595  0.4007155382495230
  0.4018378044368837  0.4005091559133965  0.6003846874802943
  0.4007563022736040  0.4000762615939058  0.7984733106941614
  0.4029941288764521  0.6014224834667004  0.9996788737844731
  0.4047814194809312  0.5945692057311454  0.2002848997501608
  0.4005975671980402  0.6012819476814216  0.4009071739057403
  0.4028582300176197  0.5995458393100628  0.5992846131212187
  0.4005118883373221  0.6005184500040938  0.8000521248822349
  0.3997145429924945  0.8014809409548014  0.9946569719020695
  0.4005799977462783  0.8000233797334115  0.4026236317787317
  0.4006870265049366  0.7996306356532074  0.6001239808648239
  0.4004888071343748  0.7990001529259891  0.7987408024242008
  0.6007383431997884  0.9998247673100562  0.9983959136817782
  0.6008114711722613  0.9969952166293957  0.1984379118826010
  0.6005177257103733  0.9980332588755068  0.3975359254039469
  0.6007151381481221  0.9991928346012926  0.5968318591827897
  0.6008507006240862  0.9980208814128125  0.7975053752986941
  0.5996377030076980  0.1990607426761575  0.9996087386235261
  0.6014368222320650  0.2009204106273504  0.1985856162304409
  0.6007193186822355  0.1989647962608867  0.5990290892890826
  0.6006797520030266  0.1998724508391811  0.7996712054026772
  0.6009953442328511  0.3994651865885146  0.9986041596893889
  0.6022751652897752  0.4008088580656874  0.1993405832812083
  0.6001201813513664  0.3986010904282665  0.3980076006451596
  0.6018698027875545  0.3996391031838129  0.5976848022146621
  0.6002958956425195  0.4003755596937008  0.7992111621111334
  0.6028155627238811  0.6004325131942299  0.0032727699690838
  0.6044953168978813  0.5993462842494642  0.3953152281696555
  0.6017500367693618  0.5997176808057364  0.5970145945552656
  0.6031226605159957  0.5999528522449930  0.8016527411660614
  0.6013264483165915  0.8010878131675557  0.9978368754934204
  0.5648141416362015  0.7909845120805681  0.1985797561206760
  0.5992403574988480  0.7998971289260955  0.3982975564580541
  0.6010077750470382  0.7993013815925312  0.5984825651301996
  0.6001664540657936  0.7981411064931661  0.7984717788706869
  0.8017298043851692  0.0018171005538443  0.9965474108248655
  0.8012022913516230  0.9983406036638132  0.1977293488294157
  0.7996387848568172  0.0010429235585517  0.3975967015403937
  0.8024874094604045  0.9995567595114047  0.5985469198510177
  0.7982378232305908  0.0001408172454357  0.7983074446218674
  0.7997065414888930  0.2009205840604301  0.9991714023953979
  0.7993653880961862  0.2000154940429711  0.1985605271338248
  0.7994498921028109  0.1968004748821505  0.3984766898546290
  0.7952744330727959  0.2016988884031269  0.5989889171877459
  0.8004689784559340  0.1993078355867537  0.8009449301098238
  0.8039343284002227  0.3982558599412820  0.1938438740064301
  0.7996615992401142  0.4014263232758653  0.6006176028462505
  0.8004410590765926  0.4005165991609788  0.7997060803408756
  0.8038017132282003  0.6015112595344211  0.9998181934906588
  0.7943652634356436  0.5947097993081089  0.2078216563117579
  0.8029074931608960  0.6184962124984722  0.4030179974642243
  0.7996850068205911  0.6006685395446980  0.5991216252583227
  0.8028669828551627  0.5993151425612558  0.8006573431827763
  0.8023816942037608  0.8029152523423438  0.9967497387142279
  0.8056247097192183  0.8067259954035689  0.4009817033850056
  0.7954694372648896  0.8001036946423528  0.6004073424379562
  0.8014656706420290  0.7991464536291485  0.7980727697309097
  0.9999768957112771  0.0035788343829446  0.1969540349259907
  0.0008232312585151  0.2020380043774766  0.0035399625066402
  0.2055417543557967  0.2020693271328834  0.6001023787785902
  0.4016362363962085  0.2000097571032142  0.7990528430408148
  0.5999223763148139  0.1987051020994867  0.3980984323374315
  0.7983319414606126  0.4002246361697438  0.9976413576197061
  0.6018764425852927  0.5982454131939214  0.1985523665381648
