Zr Ti V  Cr W 
 1.0000000000000000
    15.5633147981762434   -0.0105082892338306    0.0011052113616143
    -0.0105224976463168   15.5390273600018674    0.0056805954645976
     0.0011054290159095    0.0056800010957864   15.5617863503600393
 Zr  Ti  V   Cr  W  
  10   1 106   6   1
Direct
  0.0049882459182786  0.2723821825250784  0.8015757205478758
  0.0026078108047493  0.5367540669336525  0.7998808687520084
  0.1956612436718894  0.0009390548884740  0.8035457038308976
  0.1975141747906466  0.7992765370887188  0.3966630470069666
  0.3975071484419530  0.9965881578927331  0.9979809002549241
  0.3994059882122735  0.7716728903785861  0.0011725617280456
  0.5982019347730173  0.2011418064616956  0.2028683860407853
  0.6099138836053818  0.4090952431638751  0.3986892796619951
  0.6010217321148467  0.8003145307742945  0.6014142626723192
  0.7935578127157867  0.5919038489159950  0.4002201874706917
  0.9999353008095360  0.9937482950128477  0.2039691181434626
  0.9976090297079293  0.0023843037855189  0.9970394817491250
  0.9988232306340252  0.9982250963177106  0.4024974045449046
  0.9997710126393520  0.9997090856996271  0.6007259705948400
  0.9937952317969522  0.0059205414941355  0.7985733943297945
  0.9995197987613093  0.2006370371914628  0.0033877336642487
  0.0011639570577224  0.2010894663879551  0.2015104501572810
  0.0021378447589864  0.1975559862614830  0.3997548794731838
  0.0020314659062488  0.1985224141014898  0.5962146668954432
  0.0004724805649772  0.4004846213809614  0.0020342511744811
  0.0009915266922357  0.3999257102458537  0.2010923599452328
  0.0036650005439960  0.3980491135791008  0.3987571716310705
  0.0026853871033912  0.3983652984349185  0.5988847882638416
  0.0003845195168313  0.5981984516989592  0.0029363249386995
  0.0005658414125900  0.5991579751007381  0.2007358145473157
  0.0018784087434753  0.5982663900839315  0.3989546697439200
  0.0007799922068137  0.5972339657503327  0.5955481878241261
  0.9986764819558059  0.7959324424615263  0.9979474001765577
  0.9984289220576229  0.7969266953971967  0.1997223115780707
  0.9945245113028444  0.7976140856778636  0.4004538926153883
  0.9997722938788830  0.7959560586509143  0.6019473829531662
  0.9986278994390980  0.7862965822482291  0.7994039359222851
  0.1910202995013676  0.0007282738339649  0.0066064581072683
  0.2012626661191346  0.0009123044104802  0.1995154626679681
  0.1993113450082150  0.0029891729358401  0.3987780024861768
  0.1991533548544629  0.9974042701554909  0.5971044967883794
  0.2004183819886917  0.2005620865406935  0.2003656009153441
  0.2003038854336215  0.1995130341945210  0.3986328555774175
  0.2053372915000820  0.1982962544292185  0.5990370728721306
  0.2046657846225297  0.2054433382783306  0.8001935938012583
  0.2017238628635596  0.4001764523877748  0.0014787732385972
  0.2011694449341026  0.4003376135388043  0.1983039416235300
  0.2009480617564930  0.3981906763305993  0.3983767251925711
  0.2019976507706655  0.3989381558252250  0.5979200995007606
  0.2046907874464251  0.4008744018718671  0.8018011275212569
  0.2001631536468727  0.5995382981190094  0.0003303612071940
  0.2007442227321164  0.5984845653374853  0.1991102834956511
  0.2008256436806582  0.5956311863740370  0.3989010280083767
  0.2019865508515442  0.5983217084492918  0.5999363490216897
  0.1943244706473369  0.7999943029933859  0.9984064918681157
  0.1997423021917304  0.7988853377100333  0.1940493628241149
  0.1977827275769278  0.7989675383630359  0.6032606245804000
  0.1995246055174201  0.7936538549152677  0.8006870936979782
  0.3996162429702105  0.9999867777416503  0.2050718783881618
  0.4005852334932538  0.9995657460387910  0.4010238573738411
  0.3989509638775925  0.0034735522973264  0.5969614374206776
  0.4038454382775133  0.9988216455469717  0.7928427264198359
  0.3990496853485592  0.2030832888366585  0.9987124856938815
  0.3956535061607754  0.2005083146365788  0.2010297682703305
  0.4001472421044790  0.2005243527589099  0.4043273034958481
  0.4013311693250601  0.2005539899926983  0.7951343592196302
  0.3999794646797248  0.3988485616369263  0.9986265912462783
  0.4008718149730054  0.4004083791453898  0.2003959184789111
  0.4005643905762740  0.3999255981518968  0.3986479284088653
  0.4013637418216283  0.3954542527983572  0.5991854269121133
  0.4029876815596434  0.4010450208244153  0.7990941764276221
  0.3991479717677624  0.5999435307630346  0.2001851122302879
  0.3978921853142254  0.5991775674939582  0.4004968039280887
  0.3985939169824774  0.5970621935326609  0.5991273854885508
  0.4010697482903508  0.5990992703984801  0.7983226936625439
  0.3998249396568928  0.8000359282136023  0.2052542449359621
  0.4016846238513430  0.8002417926832183  0.4015494699654844
  0.3999019712512755  0.7982644871204713  0.7955943791562669
  0.6043710386889438  0.9998580125130041  0.0004077260231896
  0.5997507581025985  0.9961862535733068  0.1992833918815757
  0.6007478090164051  0.9996697589293915  0.3995270286841573
  0.6007308171877340  0.0030661286306140  0.6000982994970007
  0.6006648226676294  0.9980488214366102  0.8005520019377849
  0.5991646739019362  0.1988885631516885  0.9965789347086925
  0.6015368597268693  0.1979782094546095  0.4051966412044122
  0.5965884613057828  0.2007564405830916  0.6010572486172051
  0.5997124700664329  0.1992165015436864  0.8004904586502525
  0.6014723188185609  0.3990126359265950  0.9987376074793621
  0.6018538556069030  0.3991880651173229  0.6034449063755912
  0.6003115775307516  0.4008897491318976  0.8011805920827254
  0.5994641095003849  0.5991761458909324  0.9990571951732470
  0.5985531659591962  0.6020253997688526  0.1976385490590504
  0.5904478573652370  0.6105151683014194  0.3990973450536688
  0.5974101682936109  0.5962034238325163  0.6015914128036540
  0.5986992024398257  0.5997114068858282  0.8007460977040585
  0.6049074489436963  0.7997635868214421  0.0011219523504944
  0.5998341027928312  0.7996447595815933  0.1984841013528050
  0.6003767129811667  0.8032051236070953  0.3960859162149979
  0.5996925625051860  0.7991878119075766  0.8052510158625150
  0.8011945716140427  0.9988873066884291  0.0002643690699979
  0.7988760981927464  0.9991007047613665  0.2002279087816459
  0.7997654252959259  0.9989868991366372  0.4001721855141078
  0.8000403150018005  0.9989233719421389  0.5999574867487907
  0.7993769666736302  0.9992449487255546  0.7996735683710575
  0.8007904106186295  0.1983039180405413  0.0000094757529736
  0.8013707846491008  0.1960279782863713  0.4001688646251205
  0.8008662891062506  0.1971967124524807  0.6007696636715677
  0.7961186622308705  0.1976701599873117  0.7991732476296614
  0.8000711385743583  0.3980889638475129  0.9997827784271159
  0.8024411393234181  0.3987464057668463  0.1971445250850805
  0.8113412000146902  0.3887195087081230  0.3994959440593130
  0.8011944600759827  0.3957706991905518  0.6011458805210264
  0.7986688818765008  0.3978159383112576  0.8004345802771575
  0.7998146488374090  0.5985169197581053  0.9994424556081843
  0.7989217400338066  0.5994839036873055  0.1958974608021661
  0.8009669455442502  0.5972182932189228  0.6041297896490325
  0.7959841877377305  0.5981506795676612  0.8007974878118285
  0.8017887205703275  0.7996750097748008  0.0002776082838906
  0.7997962107949843  0.7986081705210897  0.1996040925798444
  0.7998256453760407  0.8004692814600932  0.3991190786663221
  0.8041588069753129  0.7987895236710174  0.6002012119024419
  0.8016291938001840  0.7972270240499217  0.8012053968488442
  0.1990957893976588  0.2009515757726487  0.0012890716686591
  0.2035350344116799  0.5977779730739238  0.7995522759659524
  0.4005060118197416  0.5888892582427719  0.0000408258254354
  0.3951726622451462  0.7988808508879538  0.5990927555598844
  0.6006937659848324  0.4049719855845280  0.1936337400914515
  0.8034374516566429  0.1987145627655797  0.1998938813604343
  0.4005563977085660  0.2000550127853813  0.5989998217129580
