Zr Ti V  Cr W 
 1.0000000000000000
    15.5025012111675391   -0.0012340279220979    0.0009674179831964
    -0.0012333392680093   15.5032162688686519   -0.0125459656457846
     0.0009693510165960   -0.0125545265931211   15.4792246816365271
 Zr  Ti  V   Cr  W  
   7   3 108   1   5
Direct
  0.2018607199175300  0.9949939498882138  0.1983745875096945
  0.1840705747916356  0.4020362581678582  0.8022143512377196
  0.1849919265951047  0.8102910896274198  0.4163562050960274
  0.4071228563132301  0.4003301799714459  0.8015472805333007
  0.6025947357884143  0.1862461851622723  0.9965166863394005
  0.5887583062286905  0.7707929337241105  0.3924002048673842
  0.7977871868893821  0.2019318127626356  0.6001206503731952
  0.0123976098248827  0.8031647687276817  0.5945613788106018
  0.1926201187773146  0.9831086764655546  0.5966927359703609
  0.4126966047682769  0.7906363730890007  0.2140956242856595
  0.9991651387990804  0.0000128754454550  0.9988104857330059
  0.9962430197797771  0.0013153006798271  0.1983781179040579
  0.9987574593566827  0.0020228637771118  0.3967398588569012
  0.9973232638363694  0.0026742954676677  0.5989996893282807
  0.9998527168467932  0.0007715717803543  0.7983313219181201
  0.0022119246858871  0.1993172104151126  0.9982430248467080
  0.0011181708612732  0.2018490957850851  0.1986057131946206
  0.0003575436196637  0.1999191217845688  0.3993085819296092
  0.0026777382724920  0.1997708996471774  0.7985297000404776
  0.0003770661182179  0.4004917942039231  0.9997866621134505
  0.9998688404026517  0.4009336628237839  0.1994911402303142
  0.9983187454904066  0.3997233631229044  0.3988254711732932
  0.9993238940494549  0.4013697288783837  0.5982434226920653
  0.9908047339777034  0.3995403309189001  0.7991273537247083
  0.0014514112570532  0.6013953973005676  0.9996081417755479
  0.0002529597651227  0.5993370074399867  0.1988992269805894
  0.9975423056507672  0.6013212933202301  0.3994236338258527
  0.0001311316616441  0.5998316305267781  0.5998621548054012
  0.9995783992541220  0.6022840862223335  0.7986538290422773
  0.9998948332374775  0.8014592295941854  0.9992270484489445
  0.9996015528670127  0.7993207713026002  0.1981236508615199
  0.9868264348191275  0.8015890395912123  0.3941086577803350
  0.0017815112548871  0.8020842146461278  0.8025579029012122
  0.2022745810320642  0.9996013030769977  0.9965767094941491
  0.2065944309306110  0.0112957582265195  0.4016172303852643
  0.1998469639055734  0.9979804565799861  0.8017005962893543
  0.2005993071080786  0.1990463029571726  0.9992935520986675
  0.1986802854829771  0.2033611879338927  0.1985031973621043
  0.1993152425515051  0.2042209599893473  0.4007072001105800
  0.2007323120617961  0.2016628316681517  0.6006783342548002
  0.2007343622761251  0.1952302047301048  0.7988970219611328
  0.2005935170855505  0.4009117424808781  0.0051359028051845
  0.2035047834422981  0.4007173220249803  0.2019625685925751
  0.1964683040437803  0.4021200244156509  0.3997751589401496
  0.2015670944542394  0.4002951974616343  0.5961266446453930
  0.2009766532127172  0.6013459154405154  0.0011534747221522
  0.1992177231473323  0.5998136582517360  0.2013126112862048
  0.1975616499788332  0.6010454477099583  0.4012702431033139
  0.2007361821837236  0.5983509895776326  0.6017981132917258
  0.1992446869572647  0.6056637319675788  0.8020740853630327
  0.2039155269658910  0.8004803278819843  0.0047158165192747
  0.1981159026066248  0.7934443643381917  0.2024432339660371
  0.2109068462610264  0.7899162474730828  0.6166657593671770
  0.2011474861376636  0.8012710496461034  0.8081265853468693
  0.4033705937177661  0.9993268815082074  0.0042294812515766
  0.4061913569917596  0.0034814057546642  0.2083416775909003
  0.4034627396048097  0.0014237349317099  0.5961655058811904
  0.3993511021962919  0.0008719161073556  0.7975359275304078
  0.3972104748794830  0.1993984664448380  0.9997272700096782
  0.4006356923184934  0.2056129675493137  0.2005579208309829
  0.3990007657076217  0.1954702031984688  0.4008069049743735
  0.3982628594123482  0.2005828947329068  0.5999403047433697
  0.3992253689547682  0.1949925930042335  0.7992307582439668
  0.4021751376413439  0.3995916375308265  0.0090389119195561
  0.4014209465494705  0.4013179201576919  0.5932654483615187
  0.3990237712317825  0.6019415383258589  0.0007950044959062
  0.3996458475948966  0.5933582255178749  0.2017769497646856
  0.3920333410579522  0.6073518050631037  0.4008572995573926
  0.3993685019783432  0.5997622651271154  0.5986217920057566
  0.3993261880990347  0.6048677914342860  0.8000258284125737
  0.4043152203712906  0.8001525193227291  0.0009429908663812
  0.3942162070961972  0.8102216358029394  0.4088811816472900
  0.4064549930991366  0.8007526567150203  0.6057337244071900
  0.4003017985671002  0.8034181916759802  0.8029341600485164
  0.6025489561703028  0.0002142765970598  0.1954691760069354
  0.5968634321084707  0.9978336335649468  0.3988519034075206
  0.6004259410005566  0.9945800965258934  0.6004806585758360
  0.6014871581137773  0.0016622387688718  0.8027657706202571
  0.6018245162932834  0.2021365250062096  0.2012588091841983
  0.5992858983110272  0.2000452436176501  0.3994175206876109
  0.5958657796888222  0.1993586649935612  0.5988285388164728
  0.6006472541338803  0.2002834022530002  0.7936010949112708
  0.6009364499362010  0.4011211476464208  0.9980636865842568
  0.5980682331178301  0.4029547803598406  0.2003978829920066
  0.6007251312753038  0.3992354313575406  0.3994224799546394
  0.5987170057603626  0.4051365018644774  0.5972348517505843
  0.6072167611560448  0.4014912825932553  0.7986735601113188
  0.5998574946870784  0.6051103669217833  0.9980782691814205
  0.6005472225222548  0.6017118005454544  0.1967937255688590
  0.4673704134898073  0.4666581740570054  0.3977530451964424
  0.5985069317932298  0.6067367890151367  0.5964771026339551
  0.6004228308221529  0.6012694815265105  0.7986299860460743
  0.6069866024826429  0.7988583366715420  0.1893974484061440
  0.6014406864201466  0.8009033500005621  0.8008609889089234
  0.7976664374217144  0.0004162496069221  0.9985905763398515
  0.8002497319903459  0.0015757067546365  0.1992184957971539
  0.7964822674686661  0.0002442566016898  0.3977496969140831
  0.7998182862126140  0.9960452600435833  0.5978525009432268
  0.8025717242756683  0.0015934972513403  0.7979607492211310
  0.8064475338860962  0.2014981534677802  0.9994594860243993
  0.8011051441731957  0.2020740781971155  0.1987463833813408
  0.8003914952639872  0.1997922905185203  0.3954210902143381
  0.8022966641630913  0.2003358747844147  0.8030556820059128
  0.7994268953631186  0.4011099295746319  0.0003691079869323
  0.7994893893858490  0.4014334211251629  0.1983943143349862
  0.7981855019839794  0.4023886041162792  0.3979639225284695
  0.7984311693900655  0.4066998731732198  0.5978157104411453
  0.8000802829918198  0.4011622721063111  0.7993774119220203
  0.8011811692878908  0.6007621136313592  0.9979579524469628
  0.8007306826230387  0.5988775308104989  0.1987930605311615
  0.7987790671922008  0.6022096734838502  0.3982506543674705
  0.8009052407742695  0.6021174518164583  0.5985375154899176
  0.8019349509572764  0.6010828022973213  0.7988496564470795
  0.7989525478847980  0.7998240612061918  0.9980234993309761
  0.8021296640405642  0.8011793343885908  0.1971442449934880
  0.7957076969683510  0.8016168148758599  0.3986234538433008
  0.7958995643738023  0.8005268616162914  0.5989337257078260
  0.8038290003604545  0.8006667785882989  0.7983058626827022
  0.0038334960817187  0.2003551695320199  0.5988803450477802
  0.4016799724667474  0.0032954655627666  0.4014770951238363
  0.4013374837068133  0.4011797429366459  0.2026437604478434
  0.6006380301726247  0.9879515749602011  0.9977859758956600
  0.6013399182685131  0.8017988716343469  0.9953134579323994
  0.6014607675834174  0.8007468697812022  0.6095368171565647
