Zr Ti V  Cr W 
 1.0000000000000000
    15.3960504026614231   -0.0029059402776773    0.0109527228615838
    -0.0029019596058232   15.4211892961187402   -0.0178703021294289
     0.0109643357546517   -0.0178836246684765   15.3929296075496413
 Zr  Ti  V   Cr  W  
   3  13 106   1   1
Direct
  0.3843430204360667  0.4146490856240607  0.8022260009907001
  0.7967559456732908  0.9713855799357360  0.2198034127433844
  0.8120143393913933  0.2067302361005553  0.7771458011937431
  0.9829754368355906  0.3895264762571451  0.7984621936817304
  0.0065179366607067  0.6045570850682773  0.9898225878433392
  0.0022199412680892  0.6370940100273075  0.1989817026442706
  0.0107669029939681  0.7940322687394852  0.3911596919552134
  0.2079812728945265  0.0000503171965001  0.9944219983806383
  0.2002336422452233  0.5855848343799200  0.8075224143410197
  0.1868236816251874  0.7982243128635280  0.2089264595027587
  0.3966626140413946  0.0028383509267642  0.8090051194730409
  0.5955207801339814  0.6022954759309533  0.0001095055667264
  0.8028005610150655  0.9978387595574409  0.4210136599204196
  0.7996072743619241  0.1942169470927304  0.1871512018537701
  0.7960410986881633  0.2013565689685346  0.5769047276267396
  0.7974830498739850  0.7734642507570078  0.1935684453750446
  0.0007638541274237  0.0025082946193491  0.0010258425034064
  0.0049629365214773  0.0062050686314671  0.1998352235759341
  0.0005431351230401  0.9986579044419140  0.5974641417231027
  0.9979234178112687  0.9988844941918805  0.8012303466673579
  0.0013593248325479  0.2010908023860518  0.9963702326559433
  0.0033741719132692  0.2009121384290349  0.1964681053405768
  0.0013580277170517  0.1980020100267155  0.3981673456392094
  0.0030914401187463  0.1990597656407558  0.5986364629466199
  0.0093739279716568  0.1928895599277025  0.7993278249232679
  0.9986370858413096  0.4004622852848786  0.0030264850774345
  0.9988118260160845  0.3969342795272032  0.2001811423671064
  0.9986911067912582  0.3995983629422633  0.3990178908943487
  0.9998217136039771  0.3988710309026105  0.5976751140499396
  0.0003173444844982  0.5969424542697247  0.4023364261917337
  0.0008794905343099  0.6004922468316626  0.6008733893803065
  0.9964245155390284  0.6011698417955956  0.7973165042154150
  0.0002071943929114  0.8065707294116784  0.9953238524734928
  0.9904121155770613  0.8171645929978447  0.1922832918259819
  0.0008244494537797  0.8014444790223519  0.5996221871906218
  0.0005022862911737  0.8001730571410646  0.7982518229676597
  0.2002454666830342  0.0019826394190454  0.2122858046775149
  0.9958056056235342  0.0012682670836720  0.3989537606181684
  0.1997765667192542  0.9982771916059157  0.6006768311896225
  0.1956608166538536  0.9982604847599701  0.7957191691572476
  0.2003007813278877  0.2037109310715456  0.9991320713614458
  0.2013032627545513  0.2009515945206860  0.1999334286216847
  0.2002247831330513  0.2039056447432009  0.3995621020418685
  0.2011777375577569  0.1969774080179727  0.5971689436492924
  0.2031227914853622  0.1988886278866560  0.7978001019105879
  0.1982322694486212  0.4012551470061254  0.0009966891259361
  0.1977819280916591  0.4029227943262036  0.2005543208128915
  0.1989470613069081  0.3986610409716886  0.4002940572441808
  0.1985220367284510  0.3995175793354911  0.6022211884409590
  0.1864844844073517  0.3924838998452765  0.8010814445576001
  0.2016327648917594  0.6006874631701181  0.0062948905383206
  0.2011705634060104  0.5985323180258119  0.2020362630001514
  0.2030335450998740  0.5948486803297538  0.4038006225903571
  0.2002749057850638  0.5990384547955059  0.6018494341748372
  0.1990966374219669  0.7986686658239363  0.9994052740464394
  0.2053181399053178  0.7953113118824146  0.4062966886506592
  0.2006493358328094  0.7989684483433727  0.6022848833654100
  0.1997890896733227  0.7982182514474659  0.8018558228811306
  0.3967699246614267  0.9988952982710746  0.1999361247877537
  0.3994338261861360  0.9996350622843586  0.5989845097030180
  0.3996860701796153  0.1979046910792421  0.9995363093025901
  0.3995572302545209  0.2010907724323333  0.1993663131649523
  0.3992226533059478  0.1990627228192689  0.3980638779053661
  0.4000590495477109  0.1996960276187841  0.5987431202273028
  0.4003128715058888  0.2035999117307307  0.7994528685833456
  0.3996626814696953  0.4006933691231171  0.0054646850710969
  0.3994061810179902  0.4019449536754309  0.2002742045581281
  0.4004448520137231  0.4009041841047665  0.3991028532411981
  0.3997757626969433  0.4007761433152195  0.5968653726816523
  0.3973452386214023  0.6040556986017350  0.0013202434663609
  0.4012553425965255  0.6034271527088021  0.2005062006863707
  0.4021193675080616  0.6001884231025415  0.3997683535698519
  0.4009769431206237  0.6021730645891159  0.6009505452525614
  0.4039115211348752  0.6120075637251037  0.8025843804070338
  0.3991536903123414  0.8054119656797933  0.0030682014109088
  0.4006891128893040  0.8008951719514871  0.2008406642337334
  0.4004669361019209  0.8003388344703706  0.3993384517993140
  0.4014590207332244  0.8020196353592790  0.6012691399702936
  0.3996162319734352  0.8020339160660143  0.8012652781484337
  0.5982030478877352  0.0029020362502368  0.0018095153016864
  0.5950530177585792  0.0029834841764820  0.2017152740983838
  0.5978156814458081  0.0007062075869692  0.3996588916805009
  0.6000266888145188  0.0013230669092097  0.6007738692557544
  0.6027734130137683  0.0025929705377404  0.8014577723964742
  0.6015005578435554  0.2021472809920996  0.9977823662031072
  0.5976986384278397  0.2010559283641365  0.1984618543028539
  0.5997684988244016  0.2001281990444740  0.3985641392306613
  0.5982479596770304  0.2006453843235968  0.5988434217625324
  0.5989415011543491  0.2023080202036157  0.7983167345704720
  0.5987240028716851  0.3990971631284072  0.0001216705677058
  0.6008773212252294  0.4009661327930876  0.1998900405058033
  0.6010453727307329  0.3997894650692183  0.3998652383810452
  0.5990971594251175  0.4007890682952133  0.6002634906868408
  0.5975128320480657  0.4016479763279604  0.8004863899128475
  0.6016680551123247  0.6021346512091869  0.2018437580646502
  0.6010064067168199  0.6003246500463782  0.3997116925963204
  0.6020572146157429  0.6010380463713261  0.5997090632701330
  0.5999983157365111  0.6017485681602690  0.7982367897378044
  0.6008253618863701  0.8045054246254618  0.9992979014057122
  0.6020565212507685  0.8031725740666894  0.2000098292109773
  0.6002115724331922  0.8006188066184432  0.4008721934351183
  0.6010154002144631  0.8024897290047756  0.6000714898250044
  0.6012709727483315  0.8021815295960459  0.7996795759485474
  0.7999774427342499  0.0031009684662999  0.0041321588873240
  0.7999923965272330  0.0012683924530383  0.6119904405569907
  0.8002950856918386  0.9974778914573982  0.8052640271943075
  0.8000098229380466  0.2013189393979949  0.9922197644715206
  0.8006792152517668  0.1977338961558822  0.3872777695041360
  0.7999818989751668  0.4026948899649448  0.9993209231468650
  0.8010150083398202  0.4021065187575347  0.1984648291926767
  0.7999082030306740  0.3972109446817034  0.3996678143787178
  0.8007519309124240  0.4021676692271829  0.6012751653843689
  0.7921123184050547  0.4094365729194862  0.8016780145950050
  0.8035315292255540  0.6009741244005440  0.0000264214210657
  0.8013392659716804  0.5918123425150253  0.1990998975783080
  0.8014911569366524  0.5966799588908006  0.4012938452944191
  0.8010458903139052  0.6000455407184753  0.5998114210976451
  0.7989021635234855  0.6037398633571515  0.7993853121443701
  0.7997088803058583  0.8008831469030997  0.9963937043821995
  0.7977172121327631  0.7948129112761884  0.4027625729023865
  0.8022118269780146  0.7997584398720257  0.6002289938014297
  0.8003612376259410  0.7993592395006125  0.8001639480083385
  0.3979235211800227  0.9999631842267946  0.4005600868171791
  0.4039821736916951  0.0016988876819607  0.0054407110917732
