Zr V  Cr
 1.0000000000000000
    15.5277836321495606   -0.0011014415353407   -0.0036444284316418
    -0.0011015311309700   15.5268057001839015    0.0012045176117796
    -0.0036459540422085    0.0012051907892001   15.5242636607114743
 Zr  V   Cr 
   5 117   2
Direct
  0.9996207685421881  0.1998654375309050  0.3993730315449327
  0.9905021625696948  0.3995827992753349  0.9940115432457329
  0.5993405765310603  0.9996956942740520  0.9823250662833728
  0.6028716142639026  0.9992577255632124  0.7578992088251386
  0.8065176920497519  0.3991320784453043  0.8105594159489472
  0.0013081433310060  0.9981543516334349  0.0004029744232059
  0.9999321286815992  0.9984708185876463  0.2001357933599021
  0.9990340408436933  0.9951945472955801  0.4003263105831162
  0.0017196099634198  0.9988583383501539  0.6001157158585355
  0.0022424684276843  0.9984440316833093  0.7990951500314009
  0.9991449327367696  0.1949359734004555  0.9985607300544986
  0.9990678490023848  0.1995819481665993  0.1956515377796876
  0.9989793397935781  0.1982807228452429  0.6030676434689779
  0.0024430827194088  0.1980324998419116  0.7989947448052422
  0.9994836309396923  0.3997728126039787  0.2015839220938498
  0.9997216375063924  0.4040407063892863  0.4000186114761980
  0.0012356331641561  0.4004351948720009  0.5981535787823729
  0.9988563515487295  0.6038977900195350  0.9998467143970997
  0.9993161564349343  0.5996059411751726  0.1999445923004007
  0.9993347274875851  0.6008592272933996  0.4003240477613420
  0.0000344978434921  0.6001251240095361  0.5993472242387340
  0.0022105105613398  0.6008449281414895  0.7983182251248757
  0.9994014023672884  0.7995390301051282  0.9996663201469282
  0.9992369984883905  0.7993948785342505  0.2003545349158681
  0.9994054668413597  0.7986535520248094  0.4003066807330857
  0.9989546166011677  0.7998260424228303  0.6006884741871484
  0.0006589123384252  0.7995329464365533  0.7999260798843268
  0.1983763611911180  0.9991150690238263  0.0007866408058745
  0.1987236963832798  0.9997895098680785  0.2005942385437152
  0.2002625647072409  0.9987005890173923  0.3996025411574913
  0.1994294540995750  0.9995206408344789  0.5993048884231561
  0.1996697248549963  0.9992844074051608  0.8001068584095995
  0.1989623095155061  0.2001729215290347  0.9997261784392979
  0.1999435307249335  0.1994433368664545  0.1991588377843815
  0.2040394841361116  0.1995164056593556  0.3997990340771453
  0.2008832713584370  0.2001559065651117  0.6011334573771984
  0.2014182752719987  0.1989275466954379  0.8007515177186171
  0.2005845413557571  0.3994449419947965  0.0008295583773283
  0.1986030265010497  0.3991139012809102  0.2002556056636659
  0.2007158855920692  0.4003662900968099  0.3999236033507046
  0.2008968263760338  0.3991402620181774  0.5988577660266916
  0.2025788247553027  0.3996104028643916  0.7992087948206863
  0.1987990644746954  0.5988839393891515  0.0002261206342829
  0.1989815493215404  0.5992445802124503  0.2002451805591737
  0.1998937180174775  0.5997712721589125  0.3998102068521833
  0.1997726484537665  0.5988588768045227  0.6002041535599506
  0.2009995736132135  0.5997908657390942  0.8005229139097033
  0.1995149156791503  0.7990353025888917  0.0004932675873216
  0.1991800691964452  0.7993204423809510  0.2000646430651578
  0.1997452246154781  0.7988378798399255  0.4002800858782434
  0.2002203060366187  0.7991153082057545  0.6003305111098537
  0.2002592730953835  0.7991189030632700  0.8005079280281341
  0.3947542147669997  0.9992652639889951  0.0007540844374792
  0.3987310798839483  0.9995478046532567  0.1999018672935136
  0.3992776428218590  0.9990480961675162  0.4002321605296418
  0.3980552130641755  0.9995877922392123  0.5988756798105122
  0.3977427123289627  0.9993167943927876  0.8001471692057053
  0.3995492706192443  0.1992924836977048  0.0005749406707741
  0.3993363627538353  0.1994700168508886  0.1997831907578927
  0.4008818830423622  0.1994422085317164  0.4001681728392739
  0.4007789973022151  0.1994367945330232  0.6005865920590606
  0.4000173241800081  0.1996756973297123  0.8011784042583813
  0.3980554493552586  0.3997243923422043  0.0009077295017763
  0.3989658057945100  0.3994610335399265  0.2013329806961709
  0.3998460170847476  0.4001469024188496  0.4004821461580749
  0.4000651106548587  0.3995461826518191  0.6000842664813191
  0.3997964702869615  0.3995543953856079  0.8003353397326644
  0.3992304840698110  0.5996766687659485  0.0006292373630040
  0.3989971308333281  0.5994418818281391  0.2004856034562403
  0.3996382699524568  0.5996742468959306  0.4004533686080875
  0.4002263874453311  0.5994543559377926  0.6005504527551914
  0.3996771203461852  0.5996389881432552  0.8007172913339725
  0.3988844788775329  0.7993128290349486  0.0008009966472101
  0.3994944090921049  0.7993061706782020  0.2004396676003359
  0.4000143904835710  0.7990694149162636  0.4000223734899316
  0.4000827494725386  0.7991929976523298  0.5999993169920186
  0.3997930788389759  0.7993110392392843  0.8007170986244841
  0.5990347723573379  0.9996258316139064  0.2039770990655515
  0.5992167280356678  0.9991138837142642  0.3984520723168620
  0.6675641626232741  0.9994500915375648  0.5928508429231584
  0.5989293376375581  0.2040485291250518  0.0007282972142598
  0.5990204110271090  0.2001460048760176  0.2004666920713594
  0.5985670660040682  0.1996817165545669  0.4017998113051388
  0.6005071525062371  0.2006632283207089  0.6009164615923837
  0.6003707517893394  0.2040683412552660  0.8016671868403618
  0.5949302233656152  0.4014169562103331  0.0023382168024460
  0.5979666935549509  0.4000295298082439  0.2028051007059883
  0.5986872009396748  0.4000141519996382  0.4010429495515755
  0.5998328681230570  0.4004032509649560  0.6007576628742943
  0.5981120543816536  0.4012628361923496  0.8004972564481428
  0.5985972386092939  0.5984816106195313  0.0010183860727863
  0.5990966902346354  0.5990480194242226  0.2015821379122407
  0.5997669076559509  0.5986909436497112  0.6006360070805630
  0.6001283839919521  0.5982809299953433  0.8006184785265776
  0.5993494609411891  0.7948214778635291  0.0009231384826367
  0.5992004421476557  0.7988444483608141  0.2005164206938318
  0.5990485860515368  0.7991190902258766  0.4011441665844769
  0.6005697629481775  0.7976443965547564  0.6000251660354752
  0.5997461579430012  0.7958663128525395  0.8013287775788235
  0.8040283025174195  0.9987647124718527  0.0027026398587136
  0.7999649562461618  0.9997424182041068  0.2013041298123260
  0.7983426184055220  0.9987844711907599  0.4007449692538940
  0.8058587226766176  0.9985955679256687  0.8048534948993826
  0.7982740813552555  0.1985878798327905  0.0024211131969423
  0.7989311673380641  0.1993085278956296  0.2008611090809563
  0.7948522836528110  0.1981684299378077  0.4017952912080915
  0.7995802276586678  0.2020764946785750  0.6026500776213676
  0.8005368664046636  0.1942747592048423  0.8015287189074553
  0.7880005393473857  0.3996409420863205  0.0131038145158217
  0.7984238849061449  0.3992964063087645  0.2055874376304614
  0.7983518347287772  0.4006550916300665  0.4017549640086457
  0.7997231281276533  0.3996329114683408  0.5998650978573332
  0.7981492714683488  0.6009792718379406  0.0024223915897426
  0.7995068435265343  0.5997129821860812  0.2017913144850232
  0.7989569873626499  0.6000356610888616  0.4004887347714362
  0.8001097232317295  0.5989948842642944  0.6016300492851097
  0.8004048753578605  0.6037493685547426  0.8020114435595899
  0.7991314646817622  0.7997392009041523  0.0021579266582925
  0.7992214506267048  0.7991870364595681  0.2012711341931821
  0.7984279902485902  0.7998852770217213  0.4018106031712289
  0.7994249920113380  0.7979231351067341  0.6007575120895055
  0.8009728950480731  0.8003359494485173  0.8011860326904165
  0.0082092577785278  0.3995060896029856  0.7924828674007319
  0.5993379458773024  0.5996108103712418  0.4011540975731769
