Zr Ti V  Cr W 
 1.0000000000000000
    15.4218125631900325   -0.0059686382723848    0.0062585989012477
    -0.0059677460242910   15.4281327699692579    0.0068346148581175
     0.0062604253005019    0.0068382331099848   15.4329886035241781
 Zr  Ti  V   Cr  W  
   1   3 110   3   7
Direct
  0.3998278485940632  0.8015185489785875  0.5986318710730987
  0.2005578898510390  0.6059830096791714  0.1899028678489249
  0.1980258768952222  0.7896635488408802  0.0069832494263791
  0.6003303469610960  0.5977363595369833  0.5817340478984986
  0.0013212915569474  0.9980647384709875  0.9998526748661908
  0.0014508915125368  0.0033597520548707  0.2006995319853146
  0.0004350028886093  0.0014799007319670  0.6000244068474440
  0.9995483193550052  0.9981611330214455  0.8017528153468451
  0.0003618652165027  0.1993399394445300  0.0040307259823604
  0.0011950584690796  0.1977172759950105  0.3967578069981364
  0.0016202591382971  0.1998760329493998  0.5989171237696379
  0.9981415558913190  0.1988759579630181  0.8011365435680822
  0.0049166329495528  0.4004755330676800  0.9997100077866389
  0.0013086979774084  0.3970025155830553  0.2009621542199858
  0.0004334333986972  0.4043065709328525  0.3992347585343630
  0.0000474784922053  0.3992673303920098  0.5987368279343926
  0.9989531958244317  0.4006934540225714  0.8005635435338708
  0.9999694430247398  0.6001577852375436  0.9996229526841015
  0.9978701896650012  0.5987593851855266  0.1991591298433950
  0.0009292161085071  0.6039629596707375  0.3987634449715191
  0.0005543320247337  0.5987400333653686  0.6010827276571565
  0.9990817308188524  0.6008652580524816  0.7994234666138392
  0.9985399114869248  0.7989747402351922  0.0016735142105646
  0.9995294081747120  0.7997488115199303  0.5971495757113698
  0.9998168600103139  0.7990199100087848  0.8000072217128374
  0.2007570236636280  0.0015443754291614  0.9990932346784208
  0.2001636737813263  0.0005549541925456  0.1964713014419479
  0.9981619488713909  0.9947224514211130  0.4000128809908358
  0.2001359212721979  0.0046151526245618  0.6039535417981278
  0.2005168557506022  0.9982140908314462  0.8014441799802811
  0.2000968148838535  0.2023025178353805  0.9978728923131537
  0.1952806769402977  0.1980731431728098  0.2042890011449736
  0.2002177867975747  0.2039206213297749  0.4034414657454484
  0.2000408402802495  0.1991244882075303  0.7959336765127042
  0.2002876487965506  0.3974669659615939  0.1947691133475825
  0.2004542521208293  0.4022653850870816  0.3985394264648763
  0.1999401189388252  0.3944070551281979  0.6006879620992585
  0.2007153661842964  0.3996431651536331  0.8021532072588219
  0.2007936443877301  0.5909219167102082  0.9932004279837072
  0.1998568705100319  0.5956689399638549  0.5999699660335770
  0.2010857060996657  0.5992353469192736  0.7970163914892484
  0.1992953588201183  0.8052929666047822  0.2061192643253639
  0.1949272341845708  0.7967788390525748  0.4001964972506526
  0.1959305231770210  0.8024970412731925  0.5996764285379739
  0.1995899725230216  0.7973465021578191  0.7993555869361614
  0.3990907322628243  0.9988922226953845  0.0005712242859577
  0.3986389997505514  0.0006208887357876  0.2003206300458956
  0.4001963532179200  0.9979313444097242  0.3987310940646880
  0.3981577239327884  0.0041760268510904  0.5989275569295532
  0.4010238575161255  0.9975572093017367  0.8025343019824372
  0.4005044870921825  0.1992745336912151  0.0010311516642346
  0.4014805401083202  0.1987841470598814  0.2002128096720322
  0.3982726591165132  0.1993350268386274  0.3975627919112046
  0.4004046826612387  0.2008815387230791  0.5997020015295335
  0.4016545625522681  0.1991604278527617  0.8011534958368609
  0.3964050435315747  0.3993004482439075  0.0003749291788158
  0.3999106480923582  0.3994291548045443  0.2005570545955362
  0.3997661679528588  0.4020243111539800  0.3980309826420423
  0.3993721440908682  0.3992169966105152  0.6001583662731610
  0.4009319948016788  0.4002202042473113  0.8003240303211411
  0.3996545633072003  0.5992682607138734  0.0007514709522382
  0.4021376878963143  0.6005219829186884  0.1994662983103477
  0.3987010400481310  0.5997809432054583  0.3988942057569667
  0.3976023179419748  0.5957559688550144  0.5999330046574884
  0.4055175542883210  0.5998507639270215  0.7992741845419962
  0.4013497382449258  0.7985735561324617  0.0022550971199928
  0.4006371970059578  0.8005495615788971  0.2004285619663519
  0.3964903474685347  0.7990538880751329  0.3950286031560943
  0.3994749393379446  0.7990983171173131  0.8043276471024895
  0.5991693565585634  0.9991731563603334  0.9984256065124117
  0.5996987364202935  0.0004365361061660  0.2000463503474848
  0.5985658269961290  0.9981085236672281  0.4006638454533227
  0.6002249280210630  0.0048082374046674  0.6012545209527584
  0.5999541320042898  0.9976196730106054  0.8002722439680283
  0.6002265177673529  0.2001154217945263  0.9985544768255294
  0.6042875758060127  0.2000306578493523  0.2013804777896056
  0.6002790653777685  0.2003319591925931  0.4032750528904198
  0.6010089634217349  0.1994996005464899  0.7967424114312265
  0.5982643180140816  0.3984243698804724  0.0003440851622474
  0.6001508792597233  0.3988774262263223  0.1998818803426255
  0.5990119216049512  0.4020588586966055  0.4009527597896758
  0.6002363979953655  0.3934238984886185  0.6004369168353919
  0.6006547693826215  0.4030766998850931  0.7996845192589553
  0.5999263891521539  0.5987001689407699  0.0010324416829211
  0.6010539430251671  0.5992525684328374  0.1991574629928222
  0.5997944872067656  0.6006416842533594  0.3952498080869150
  0.6004384719234717  0.7995106783941184  0.0021274239983199
  0.6015608326198574  0.8009288015839171  0.2008563551094976
  0.6014056090328540  0.7988061434176552  0.4006399959871225
  0.6045176592237198  0.8034192672407440  0.5996989293573011
  0.6015152685471593  0.7947593378273219  0.7997307718213128
  0.7999307111785183  0.9991203007212209  0.9997725890749753
  0.7991180021974602  0.0037248489617767  0.1990680846334133
  0.7988584833845925  0.9985647613880482  0.4005554302924451
  0.8002902777917119  0.0018455937604720  0.6010828692003173
  0.8000195521644112  0.9987998206799595  0.8015022548332743
  0.7998828675161215  0.1999391796787608  0.0026486192013280
  0.7999846159342704  0.2007190087435521  0.3971609989095321
  0.7979437343893949  0.1999159413127743  0.5988933209388019
  0.8017934936825019  0.3997695062395616  0.9994281510128094
  0.7993123817708961  0.3962628968687651  0.1996767312834020
  0.8009903617277363  0.4017327970945345  0.4004279358527125
  0.8013407899648604  0.3980324614228771  0.6011146283361773
  0.8011957847140179  0.3993197795252543  0.8009045764887740
  0.8011633089645955  0.5986304843160593  0.0015153569570942
  0.8005913800171170  0.5980765586689201  0.1994360247045072
  0.7993910059226045  0.5998588014124452  0.3998477521198776
  0.8016524220268588  0.5979286106035550  0.6000576373277990
  0.7964889924887421  0.5996777679576863  0.7995304441903931
  0.8011210612399987  0.7993145605659825  0.0012793270654663
  0.7997697354312479  0.8012999264111860  0.2000198941261116
  0.8036071699632393  0.7990209724099095  0.3994569238279312
  0.8008058658592287  0.8008588262939582  0.6022271279988770
  0.8008080215038458  0.7992026364353965  0.8003851086015461
  0.9989933399084415  0.8013693275176097  0.2013594156068421
  0.1997688799902618  0.5988948038673786  0.4012418965542655
  0.7999906136580205  0.1996936174987761  0.8013405483682614
  0.9963948160607941  0.1990554055944814  0.2010949517627006
  0.9985003211589705  0.8006311156749584  0.4017429034933901
  0.2002690947914015  0.1994723462648060  0.5987280046989037
  0.2009988049195022  0.3969915695867380  0.9975785259053932
  0.5985698530686404  0.1999289227155571  0.5989152447595046
  0.6010856279476358  0.5989208188942913  0.8079894300910762
  0.8025680171569251  0.2000809708924261  0.2006782676277351
