Zr Ti V  Cr W 
 1.0000000000000000
    12.4323594838933573    0.0028198881221341   -4.4082088542398692
    -6.2047882130921810   10.7765871797057606   -4.3829042311317892
    -0.0117614519554904    0.0105487829037310   13.1913038418922532
 Zr  Ti  V   Cr  W  
   3  15  75  16  15
Direct
  0.9937721066854912  0.9691514501037886  0.0008330873705606
  0.4150136705724697  0.0065959235918004  0.0065436169580168
  0.8023520686378619  0.0003018639222547  0.5942156914411687
  0.9930902410687875  0.2014367934584083  0.0005738867553398
  0.0021843835569805  0.6107620093554474  0.2012497763190956
  0.2037870928854560  0.1942458756318061  0.5972374162702486
  0.1916386656666014  0.4006533741318559  0.1915295950795507
  0.1959630656437035  0.3984370576904469  0.3993851574629440
  0.1923824574119586  0.4034264466160750  0.6085668413139899
  0.4040391970925820  0.3993384409447976  0.6032896941045626
  0.3953341398444910  0.6013178668053730  0.3978705722199872
  0.6037363059696106  0.0015354722910412  0.1998595681377900
  0.6013738258002982  0.2034030030476679  0.3952833016741895
  0.5998605659988374  0.2014762493949181  0.8004338652843808
  0.6000792115605031  0.5986626432820102  0.1976218958010589
  0.5997635548427002  0.7988593832379843  0.5991991809340448
  0.7997557103552080  0.9990982476116067  0.8051604918744464
  0.7948303878415353  0.2006705308532015  0.2004451498704524
  0.9953574342772047  0.9805499746918600  0.2090076359290285
  0.9964948472421326  0.9987075129848613  0.4040938711012247
  0.9997399510468060  0.2042342200947041  0.2042815215402022
  0.0004217879066256  0.1969012786095067  0.3963298358170492
  0.0016725320746228  0.2052019272365544  0.5998971891423531
  0.0040552528257506  0.4092134663615307  0.0001153262981806
  0.9965241388093518  0.4040296466761517  0.4000491654818354
  0.9984212288310428  0.5988527182538605  0.9893860170624995
  0.9964779378054381  0.5956961754042203  0.5963298726286729
  0.0000843797366854  0.5971876558944481  0.7987035037069992
  0.9994852739505602  0.7981285946778716  0.5980214286444093
  0.0000836828068384  0.7944293562247592  0.7960098333997178
  0.2025159313506716  0.9988146665578447  0.0023841982461116
  0.2047215553670630  0.0022841630110594  0.2031758435627843
  0.1957051113229598  0.9935514127103768  0.4006050643774616
  0.1922832972104108  0.1840687311297439  0.3821306521389566
  0.1974842319817204  0.1982062618967648  0.7974630375729578
  0.1978230948898628  0.4035831793776394  0.8083380286209724
  0.1969013182541483  0.5978637156824375  0.9961028965629867
  0.2025893820968075  0.6097471938946898  0.1989763899448198
  0.1837831569756049  0.5989169149055410  0.3895203023151030
  0.1976293323471437  0.5961856625850813  0.7985867716370673
  0.1968552443736563  0.7971972966838567  0.9990934675745247
  0.1973160066523725  0.7993087433572567  0.1994951839965739
  0.2048521396340059  0.8024435793173502  0.4065749347612094
  0.1978397791639341  0.8011355367842447  0.5977197395599189
  0.3885904878303518  0.9935686706022079  0.2013207853272704
  0.3955391810906373  0.9982388580632630  0.6040248402993517
  0.4045297943568952  0.2094399479463360  0.9998614207351108
  0.4023827764601985  0.1997219674232312  0.2013759243149849
  0.3992741423852713  0.1996597997415734  0.4024682365260386
  0.4094170893406894  0.1992550393774179  0.6066468965142735
  0.3969519233758025  0.1979260093437348  0.7982583979812112
  0.3955135666154816  0.3990077685680672  0.9936391902807492
  0.3987911125714526  0.6004333280939901  0.9966883881407946
  0.3913590437687077  0.5979496822482536  0.1897407478091605
  0.3956745608720121  0.7852708198216777  0.9974153127395265
  0.3964881521600875  0.7966765971456832  0.1948538084369946
  0.3975178057093814  0.8013723524950470  0.3988011524039082
  0.3963653067326954  0.8004438011118563  0.5991816152202488
  0.4002441633869048  0.8000695509052327  0.8009549228763684
  0.5976811053660375  0.0091754256370367  0.6079794783620339
  0.5921486609431508  0.9966645449208749  0.8035570669676199
  0.6035186537931734  0.2055843537580342  0.0044662892066569
  0.6069848922220766  0.2097807954465399  0.6057734497145392
  0.6024591392003509  0.4019923135687039  0.0019220188048501
  0.6046685842694212  0.4059354632841728  0.4005938255014145
  0.6058863308898504  0.3979254985700204  0.5991600150613209
  0.6040231304137668  0.4071155871035697  0.7993079577445222
  0.6026347999364398  0.6001059782370598  0.9949398013760792
  0.6061610544701788  0.6010203252700620  0.4031034823633700
  0.6011454988509202  0.5938747014624770  0.6038084042496553
  0.5936891156094143  0.7944806033762841  0.9961842941948214
  0.5964369720782881  0.7961022989571902  0.1924778482001062
  0.5918277041225576  0.7873569765359804  0.3828925838742872
  0.5993980812919891  0.7948117147433297  0.8025389360526787
  0.7823819933797669  0.9997326275389957  0.0049353499587350
  0.8039978593722222  0.9904937175958086  0.1995286809472568
  0.7990930785379984  0.9985323188777461  0.3867014790865425
  0.7978409081109632  0.2083020826286061  0.0010252706268490
  0.8186201848751163  0.2140261832458152  0.4188180976958925
  0.8027652310269918  0.2131863801810859  0.6033797006991806
  0.8068436830557292  0.2117824447374879  0.8009082066009331
  0.8094826042619545  0.4106161580471707  0.2036745310714402
  0.7993204635199942  0.3992039344317858  0.3971140587502166
  0.8068303367816649  0.4041840811518523  0.6042820424466966
  0.8006387690151552  0.6013040866753804  0.0019213382211513
  0.7963946630293012  0.5975127917710857  0.1985015707646171
  0.8010609041143019  0.5954465404192557  0.3942973185445087
  0.8014430247490589  0.5952211008967705  0.5980589532387119
  0.8000007307883038  0.5955725223762770  0.7997760541209190
  0.7833059077776069  0.7846192723605410  0.9889187577618587
  0.8019669381727972  0.7933188050156712  0.1979530065920372
  0.8043634932517473  0.8006681402280047  0.3999569149361636
  0.7904994150710380  0.7828711268849688  0.7883550069833566
  0.0110546504486618  0.0007051420022964  0.6012509130455029
  0.0046338433630148  0.9975190966156021  0.7952439564474355
  0.9944198274172088  0.3976974933003655  0.1986981038474291
  0.9969136635528566  0.4026650604171709  0.6045046575734926
  0.9988861840587027  0.4056421312334297  0.7981778447880198
  0.9957729263617697  0.5990802114137975  0.3980654427536802
  0.1976120477175272  0.9974604478052139  0.5999436665432121
  0.2040636728288304  0.2014790201547596  0.2047647054899108
  0.1979410342847656  0.4018689698170302  0.9935605966786861
  0.4025177984721627  0.0019947097598591  0.7944085211877627
  0.4022183255022628  0.6017298581628109  0.8036299657647819
  0.6059066728481693  0.9956321801553023  0.9913450333301960
  0.6080971994575521  0.2276585110122357  0.2046167067251642
  0.6030067749427367  0.3985626623077069  0.1993308611734269
  0.6046130812454640  0.5997158568966677  0.8043735422137621
  0.8031020607691267  0.4045490063867831  0.8004523500787253
  0.0058226135436957  0.2085390770379398  0.8037593233980831
  0.9978423231523068  0.7930411565244477  0.0676467832165739
  0.9999394941476709  0.7976897397512570  0.3982715354642002
  0.2018215983965371  0.0004877695031968  0.7986218516008171
  0.2006511231762063  0.1985835352947243  0.0006595685943931
  0.1957070854308338  0.6012584256122289  0.5965865042007042
  0.1964549860697518  0.7950426606884194  0.7969605889940697
  0.3984483818924905  0.0005425707362922  0.4018887206384627
  0.4048232895503464  0.4032506023120754  0.1989818738231572
  0.4003481143439409  0.3951350827199499  0.3960721436588552
  0.4019955183282267  0.4039952157846661  0.8044896947193901
  0.4017435621148052  0.6050502777938650  0.6080313755900947
  0.6000773464269979  0.9987023253122012  0.3995030058038778
  0.8026670719111035  0.4063788241244742  0.9982370100246338
  0.8057093705762643  0.7943109785769593  0.6012589853080023
