Ti V  Cr W 
 1.0000000000000000
    15.4603446293932016   -0.0041322082870834   -0.0012082850725322
    -0.0041323107289872   15.4623066666688764   -0.0009055477358807
    -0.0012084946887904   -0.0009048943237887   15.4540012347107183
 Ti  V   Cr  W  
   3  99  15   7
Direct
  0.9914166604593911  0.8088038934223112  0.9930566405782769
  0.5929175156914539  0.3981685961346544  0.0000568622354638
  0.8038102934275057  0.3971393664736655  0.9987157431277284
  0.0001091611684878  0.0019986856004082  0.9994293664134314
  0.9987555606038893  0.0008140600838784  0.1993542742247150
  0.0023511823676846  0.0002361712150328  0.4044484526250080
  0.0020384113624646  0.0025462581312288  0.7950066717272793
  0.9985804499368477  0.2013712074815451  0.1997024713089416
  0.9980089079021741  0.2014994943749776  0.3994935447304729
  0.0009255373919987  0.1976509262876696  0.6020242887947388
  0.9987420224927337  0.2017057452991428  0.8018649825878470
  0.9982887472930492  0.3984297784541854  0.9989459257712338
  0.0028041553271607  0.4026138647667709  0.2007708479332118
  0.9996211701942670  0.3992095209168398  0.4029816078316522
  0.0004862180764744  0.4000087820702085  0.5997904143034575
  0.0019167592355871  0.3997219636801919  0.7991308199853862
  0.0024444571669519  0.6012148954851591  0.0036243486369605
  0.0005956172161665  0.6015615921255653  0.3967711688755857
  0.9992993829254798  0.5998814517659914  0.8006493461002318
  0.0000178200511663  0.7998918257214372  0.4007142498351642
  0.9996578684798177  0.7999780214581794  0.7973301228048595
  0.2009756676929655  0.0003323591122565  0.0019012182906224
  0.1994603551370789  0.0012003184354883  0.2022253131110255
  0.2005265550095867  0.9989649342044027  0.8022316465632356
  0.2002124432748728  0.1991611200485694  0.9350997693551124
  0.2000130548261544  0.2041715032854700  0.2004368873398147
  0.2009368657995551  0.1941731774260939  0.4003645953246052
  0.2010377583392620  0.2019033013364472  0.5978297383082658
  0.2011693703156701  0.4001057877894637  0.3976832027409533
  0.1996722895205119  0.4010146350217398  0.5994009476909252
  0.1996511468123519  0.4020043079677232  0.7989961877532139
  0.1970468354810070  0.5960662784386997  0.1963634972683451
  0.2013539037721281  0.6029230099233478  0.4010864854991799
  0.1994353961622516  0.6000363694550863  0.8047252483479563
  0.2016093774495262  0.8002356155236582  0.0008459121383378
  0.2011884338991350  0.8007154402090373  0.2008159713841075
  0.2014803963861454  0.8035229365006213  0.4006165934389437
  0.2016757271299210  0.7977361371183849  0.6003788061191797
  0.2008524140717026  0.8008624732200510  0.7984183185238338
  0.4033529043031263  0.0004559399421695  0.0008944616074296
  0.4000892783675180  0.0002241920638420  0.2006462552759574
  0.4019837952957552  0.0001345973892647  0.6008212021024431
  0.3982052559484375  0.0017871269341918  0.7998723924510784
  0.4001095185504239  0.1994285332663269  0.9997641963515449
  0.4016042973259353  0.1992662667159000  0.4010699059795936
  0.3998412435970878  0.1997628865232101  0.6019119623794081
  0.4004461334792392  0.2007189200922003  0.8006582838656240
  0.3996224837709601  0.3997811855458922  0.0003104833911296
  0.3963168059564501  0.3998379494144792  0.2008450167780025
  0.4006079738593040  0.3990366218483324  0.4009450989655201
  0.3993359909614486  0.3994227269502079  0.5999048406416886
  0.3979604364988592  0.3996450804166234  0.8005843976112470
  0.3957441672846199  0.6007554285056180  0.9997167243338988
  0.4014915415716566  0.5994492072699329  0.2001908816155616
  0.4001666533896993  0.6002514099538320  0.3992389530195525
  0.4014258918109169  0.8012802136568319  0.0003547999984699
  0.4008487476166966  0.7980722304107754  0.2006260414519673
  0.4006923963328005  0.8003081225753599  0.3999893298839436
  0.4002750416726837  0.8011337726598929  0.6000814246601907
  0.4008873728684177  0.8003718898444041  0.7993644447760506
  0.5999886714738059  0.9998662494089268  0.1979986589641575
  0.6005681975331469  0.9999194144797879  0.3998154942435045
  0.6015251735356087  0.9989226525161210  0.6008393235539360
  0.6006839053203700  0.9996575594006931  0.8033964015256070
  0.5997918790706195  0.1940824768272454  0.0009930624984900
  0.6004968180266007  0.2006187511422394  0.2008822524665209
  0.6000134390768395  0.2001260073426766  0.6001496786136387
  0.6006534664358351  0.2006937446941804  0.7998527163731634
  0.6007193901223207  0.4004407284352461  0.2006256167065282
  0.5990716851102809  0.3990692552886459  0.3989001142078902
  0.5996289241979329  0.4053411198086190  0.5996856755066006
  0.5996229101868877  0.4006950422790915  0.7994036417315520
  0.6013783074907517  0.5998613297321720  0.1990156892649862
  0.6006496149618884  0.6000487052437441  0.4027831668629277
  0.5996423958616801  0.6008534429329778  0.7973920143021511
  0.5997032625273959  0.8031670770026915  0.0000982747019846
  0.6006768182318133  0.7989603549348084  0.2011680653450439
  0.6000556616741535  0.8011464458054520  0.3990828111278229
  0.6006568505969820  0.7963687062616258  0.5996617260333724
  0.6001141119073689  0.7999176311165866  0.8002765351780170
  0.7971059021016206  0.0004421836056965  0.0008012609964216
  0.8012425471006506  0.0012808170860916  0.2007655290775822
  0.7999194428154581  0.9997308036544353  0.3984501109235366
  0.8024974884129531  0.9995718271500379  0.5998707976144105
  0.8000041405397125  0.0002146593074492  0.8008285995008766
  0.7997125003476880  0.1990053783275516  0.0009151300369539
  0.8004289099481172  0.2014027715039811  0.2008976160541479
  0.7988221251852027  0.1998058617397050  0.3996683184936735
  0.7975493008923754  0.2022589204497758  0.5998029489689732
  0.7995001970299679  0.2008807322327286  0.8000676888821510
  0.7997902718439841  0.3996639783121324  0.4001697295323798
  0.8014755892747630  0.4001706288875322  0.5990899315083789
  0.8000888724852785  0.4010062941426404  0.7988698213422484
  0.7974515075782395  0.6009921517456303  0.0005588937530138
  0.8032190096743671  0.5995019738884200  0.1988883064919811
  0.8010791414112066  0.6004052967167908  0.3983414516948982
  0.7996731271507687  0.6009421565826635  0.5998454777506662
  0.8012981347265853  0.6002951828970924  0.8013855214315623
  0.7972556319476088  0.8004820029663902  0.0008946748572388
  0.8002145042924630  0.8009186410554416  0.3992032545529826
  0.8010488278184056  0.8000156037369531  0.5996470053340304
  0.8002887397184459  0.7994354297262154  0.8000668663299626
  0.0001951872583365  0.1992806159029815  0.0000912978280043
  0.0003392220115350  0.6006193986324796  0.5997014810856817
  0.9992668784921632  0.8007361387538818  0.2015756852686466
  0.0012794529095362  0.8007136689646491  0.5995441739466537
  0.2002455200171935  0.9998478319807652  0.5993648734789686
  0.1994809131652130  0.3975218471299376  0.0009598811428863
  0.1997324819534000  0.6001517034336166  0.6010908068494754
  0.4000689429839181  0.0000970178866152  0.4007970660242232
  0.4005283375991082  0.2001266300869563  0.2006562590624419
  0.4006139604052535  0.6002358980065485  0.6008292228932841
  0.4000239162077364  0.5998272240171362  0.7999816059520151
  0.5999834484470217  0.1994891584152880  0.4003030507504088
  0.5972910710133279  0.6042754757908304  0.9989058488653487
  0.8005924790766661  0.3994683889895148  0.2025962898534669
  0.8001254473498879  0.7999328323215203  0.2002914949344420
  0.9964543011017803  0.0040274083053202  0.6000001840997218
  0.0012357273684689  0.5982451581508232  0.1996620692858415
  0.1962775710528105  0.9989563544733970  0.3958440772064457
  0.1993521409910489  0.3991776581549134  0.2033119878964391
  0.1977765529837579  0.6079464915416803  0.0023454666507914
  0.5999427618634747  0.9992716123891316  0.0015077174319876
  0.6049052012908296  0.6005610464715386  0.5991290331815202
