Zr Ti V  Cr
 1.0000000000000000
    15.5054759955686290   -0.0026938295988576    0.0222345561511436
    -0.0026911951043345   15.4937529874400166   -0.0133710719798359
     0.0222461462953622   -0.0133733789628594   15.4975574155639322
 Zr  Ti  V   Cr 
   5   5 111   3
Direct
  0.0112499673155255  0.6135107179975812  0.1987377534469071
  0.3996569636353329  0.4002087957568650  0.6004103433993191
  0.5995342407294145  0.2002755940518404  0.2001092243697039
  0.6107774039746114  0.7995358426310911  0.9911057589955956
  0.7930326302121523  0.7981508653386157  0.8091352356554123
  0.9954199446172913  0.7870654030126982  0.3838820583955213
  0.1858511683929951  0.6013152706836378  0.0160662156570467
  0.2030089106641345  0.7966396692892631  0.3982432702028954
  0.5968736284510213  0.2020853312581825  0.7981206090718733
  0.8195388573882474  0.8045913533554058  0.0180982484278685
  0.9989843832605578  0.0005285710828564  0.9968065136953261
  0.9990142015266568  0.9995228598439932  0.3982582194794129
  0.9984404571671026  0.9974846544939965  0.5977290308910328
  0.9984854073772670  0.9985842213065804  0.7987242000794903
  0.0014707279116033  0.1996406969129954  0.9996327386246334
  0.0000657463838987  0.2010564078309368  0.1985110538812332
  0.0011780438095160  0.1990031690975197  0.3986114216771656
  0.9984633380286614  0.1983604083712962  0.5996937793085142
  0.9992938178913768  0.1997604936602621  0.7986081948928022
  0.9992371607993259  0.4000864011729058  0.9985761504068080
  0.0017169710711269  0.3996414261365918  0.1996401714786203
  0.9997050525161435  0.3979520280315930  0.3988825439714602
  0.9981931105295349  0.3991316851541665  0.6006329494562164
  0.9992824079498318  0.4006781617339304  0.8004523946121515
  0.9925246054517806  0.6004019727840375  0.9930036877039017
  0.0000379858383442  0.5934172374286648  0.4057627256832529
  0.9982047344135735  0.6001937660640084  0.6009946154076004
  0.9975844414315367  0.6004157770953803  0.7983117475396496
  0.0089080731993197  0.8007573135692025  0.9956643272984014
  0.0034266044481617  0.8114917494380246  0.1930387190255046
  0.9988077606185706  0.7990642280255924  0.5996885571161946
  0.0016073809032855  0.7995420332932696  0.7978586182300236
  0.1996522028744200  0.0019738692253215  0.0004848677144214
  0.2011610673040428  0.9970429037453292  0.1993512740975071
  0.1991830560772277  0.0018406277437149  0.3981480658457113
  0.1983098595077939  0.9986161190927272  0.5996520429425019
  0.1988187034025230  0.9996318754256879  0.7988926078138896
  0.1989557771470082  0.2004616839877038  0.9972913398471436
  0.0035674324943953  0.0039569250661864  0.1983830234382390
  0.1997162053272148  0.1996266027677115  0.4026475012088139
  0.1980675778153102  0.1987689291709213  0.6004209901314699
  0.1982300444288023  0.2000079779824540  0.7989969086928973
  0.1990961923163077  0.3969164621260784  0.0021914432296061
  0.2006404011902386  0.4057740774975218  0.2001519998981093
  0.1995287905036717  0.3971360835699612  0.3983971619078910
  0.1948764210229124  0.3996688671827483  0.6002221174648720
  0.1981661773323045  0.4015857691202017  0.8015119392938204
  0.2115383432770392  0.6006503185615880  0.2088907456444178
  0.2011351703035743  0.5962032501301093  0.4037717153335247
  0.1983352082289940  0.6002323545642900  0.6012824088225553
  0.1978796745764041  0.5997799511051993  0.8004124954642177
  0.2027078665136485  0.8022136226819448  0.9985714055675935
  0.2035270561729572  0.7993561442671588  0.1968535682415500
  0.1981769552787499  0.8001380784608604  0.5990195399954211
  0.1998140733886182  0.7990302010346066  0.7995391701263467
  0.4009225496492113  0.0004507882554858  0.9987489636327058
  0.3995144945362016  0.9986052516488489  0.1983556884160688
  0.4006394147893805  0.9991580328294902  0.3984678174314030
  0.3991767613659135  0.9983226487540640  0.5983449568359352
  0.3986474209459884  0.9996983048741399  0.7994941728412850
  0.3971795056839256  0.1997649531151289  0.0002351273969976
  0.3969405873869682  0.1994468747154976  0.1988958378207340
  0.3982924008541417  0.1984268598188561  0.3985356048157599
  0.3990391946181953  0.1949183840980274  0.6002854162031398
  0.3962798102749929  0.1997346352863292  0.7996963764567931
  0.3994706559103149  0.4006594941674214  0.0007918776634990
  0.3985623158634220  0.4000470553291138  0.1982957296758000
  0.4002520594184719  0.3992630012316604  0.3954195687122104
  0.3981173672656809  0.4008892079634701  0.8050372767142330
  0.4019008037187703  0.6005573085136340  0.0016816347743083
  0.4047421832261072  0.6014671814473215  0.2002061876422609
  0.4016651003516691  0.5995692559121115  0.3999357031649488
  0.3994323511280360  0.6047836860610568  0.6002958583092832
  0.3962902023242965  0.6008944739563969  0.8032509806113365
  0.3994716899027328  0.8000148501907404  0.9985102361559106
  0.4025496544189248  0.7994102318851898  0.1977949204946365
  0.4021981259058203  0.7996068782518745  0.3984060096744123
  0.3989080800212638  0.8010122162542692  0.5986914467251088
  0.3958542369943456  0.8000435685365331  0.7984478164013934
  0.6002394197301614  0.0042675684059394  0.9969246245845184
  0.6013155471248967  0.9944903059969471  0.1975039669453711
  0.5999222800649223  0.9986566960742186  0.3986587613478455
  0.5977171399150415  0.9990013686898783  0.7962993275014491
  0.5998845701144296  0.2013454801806352  0.9950131601746701
  0.5997868776869387  0.1992670659862282  0.4042654896319985
  0.5998746296717177  0.1982075720911178  0.5985782709313088
  0.6008824775242156  0.4004174738601917  0.9996012586967781
  0.6006852766763893  0.4051613017455806  0.1994714105811859
  0.6003893422682722  0.3999004065932181  0.3991213343707483
  0.6041047814924352  0.4003138292140411  0.5997125228596200
  0.5987975286372695  0.4028100170694375  0.7994413587071287
  0.6000549978290688  0.5961773764617148  0.9984817687886092
  0.6002316047294122  0.5989489369783149  0.4007379538887783
  0.5997253780669320  0.6008493943652555  0.5995374078733744
  0.5971760135466335  0.5997906522865847  0.7977597017733467
  0.6007865725924607  0.7993214335452314  0.1999504251167548
  0.5989043212891233  0.7998276866264080  0.5954141323567447
  0.5897491188524412  0.7996941726237445  0.7887266229390381
  0.8006541550290931  0.0046553298229999  0.9998272581888676
  0.8002875575699925  0.9984334024298589  0.1991539862352330
  0.7994571549441407  0.9994709658672670  0.3994425077327026
  0.7987207229755796  0.9988346411738022  0.5990939603301554
  0.7975768006357993  0.0041994346025158  0.7985623914731018
  0.8012705103728641  0.2016471568494784  0.9994897630800452
  0.8040148815079996  0.1992602552644213  0.2000212894677641
  0.7999664995976606  0.1997507989596482  0.4002774280379605
  0.7995579870198366  0.1985583850359991  0.5998850295830289
  0.8010815125316262  0.2010171419906146  0.7992662830757491
  0.8002270530080333  0.3992485960159562  0.0008496161534286
  0.8018664472444172  0.4019025392766036  0.1998037871720003
  0.8000072668596808  0.3989902321275339  0.3993633156502790
  0.8002746016407635  0.3991374265388051  0.5999577913236822
  0.7990727250353024  0.3991610530306633  0.8005709100126422
  0.7987576775843401  0.5980589958307684  0.0023709618735961
  0.8000122675152319  0.6006846180345093  0.2002859733580886
  0.7991671115258601  0.5979685801179652  0.4009337940973112
  0.7989883661514440  0.6006278214236539  0.6002225169469984
  0.7970824772282235  0.5951194026105247  0.7996270358130534
  0.8028358844543869  0.7999661375619621  0.2076061935220518
  0.7977375576011967  0.7986428199527688  0.4004477329944354
  0.7993682213830190  0.8006686154332436  0.5979586232014085
  0.5993435855260242  0.9984884188503540  0.5972188040661489
  0.6022383683097015  0.6017621603749440  0.1999312174348599
  0.6001512432101557  0.7988134525674075  0.3983681082161526
