Ti V  Cr W 
 1.0000000000000000
    15.3720038313806135    0.0023998420144863    0.0001449001601191
     0.0024007571799185   15.3633006247875361   -0.0006442210894229
     0.0001450310074229   -0.0006449824026597   15.3697544548857330
 Ti  V   Cr  W  
  15 105   1   3
Direct
  0.0057881217809526  0.3935413287657634  0.6012408605757793
  0.9907774142239217  0.8002848081886516  0.2040669739007883
  0.0089881408177850  0.7981814827473424  0.6022987848172171
  0.2009923682290992  0.2042448670121913  0.3931231399024552
  0.1967610181772991  0.2053443743979710  0.6046326956665652
  0.1980645978466071  0.3951921476449863  0.2015039838197964
  0.2019391929215419  0.7984590064231285  0.2000222647278432
  0.4046432813446291  0.9963358696262697  0.8065552661919043
  0.4022622562057750  0.5985816722744357  0.8011757052982431
  0.5935607866640453  0.9957746627687016  0.9951727464000131
  0.7918884579042701  0.1979857246784125  0.7953026872243574
  0.7994655896516588  0.4043729549603475  0.1932279470205073
  0.8019115486093884  0.5932452126467043  0.0028944179868799
  0.8067416823902093  0.7979165769882257  0.3918158391380177
  0.7984432182927802  0.7967546670210117  0.6043475179506668
  0.9993196565270689  0.0012724219194586  0.0009174862300425
  0.9987301976873000  0.0014694096772756  0.2013654211377554
  0.9980804102843281  0.0003844143893967  0.4010442624264254
  0.0002540754709731  0.0006551213672479  0.5992147713651167
  0.0002664597342990  0.9996354243540129  0.7994819241816764
  0.9984263012534769  0.1990490444835546  0.9998124519360319
  0.9986948278364549  0.1995080483196870  0.2005461869189088
  0.9976224069653192  0.1966447253273762  0.5981635370828493
  0.0016637877065163  0.1990455553108663  0.8004568653128866
  0.9969863095310173  0.3987603707915465  0.0004553668751008
  0.9997442902682747  0.3990842716914074  0.2009080514476179
  0.0001529754305216  0.3983604360234610  0.3978323121459699
  0.0000340126969791  0.3984883330371540  0.8018444746239337
  0.0021002668802788  0.6002186934046391  0.0018635061525685
  0.9994833601468343  0.5975735449210191  0.2015374599522432
  0.9999871361060887  0.5989742161591466  0.4006375545102916
  0.0007960982699595  0.5986543829244665  0.5987276233768102
  0.9993828268826312  0.6001240499616325  0.7993212691824150
  0.9999863129925370  0.7996699033915038  0.9997521049959195
  0.0031625733030400  0.7997786400245227  0.4015289376377718
  0.9992894870226988  0.8002766671308899  0.8027547724713215
  0.1981450930928312  0.0657251738331310  0.0000433574105423
  0.1974513454408363  0.0004124054940824  0.2015940734399373
  0.1992394403854119  0.9993528525785038  0.4006654719537088
  0.2004443368905267  0.9994810737100847  0.5998316815570724
  0.1994805841229041  0.0008018572994390  0.8004702174361584
  0.1990030143286661  0.1966088219990875  0.1990176211434320
  0.2013832862475981  0.1987974452929048  0.8011851314509422
  0.1983557825847031  0.4017088518730993  0.9994287203149994
  0.1992400967497639  0.4030969322701727  0.4052769392150725
  0.2038615990270141  0.4045014051521308  0.6025992814632982
  0.2002205133362380  0.4002957082954428  0.8022483341512820
  0.1989822457845766  0.5996407062681168  0.0007040418940227
  0.1989087063573858  0.6000285128481253  0.2019309546411326
  0.1986701385322425  0.6011438009353572  0.4006186281492874
  0.2005186219872768  0.6021727384930153  0.6010588989615937
  0.1974259877309806  0.6001129237327513  0.7998256485138984
  0.1992410607963894  0.7988838657205788  0.9984743697003143
  0.2005261442452504  0.8006686171920068  0.4038111879358327
  0.2053121251261974  0.8004358982610900  0.6022338728971736
  0.2006131198550694  0.8001309830422767  0.8005963681325770
  0.3957763562809026  0.0011410761788192  0.0041906053239766
  0.3974772839709325  0.0002031733466688  0.2009398791749177
  0.4025510397087484  0.0000958248122969  0.4002154648161616
  0.3997547495217109  0.0001740557436911  0.5983076159230148
  0.4007440558492852  0.1999872747844190  0.9996159483928216
  0.3986152838537061  0.2004635773307605  0.1968328360914903
  0.4019026696953653  0.2009912523519680  0.3996794058865200
  0.4004745084585850  0.2002587366775961  0.5998557142123770
  0.4021583572537869  0.2018959719074365  0.8008150214417830
  0.3979891246820570  0.4003275969946615  0.0011177598801565
  0.4019073656370501  0.3997787828337355  0.2006414395799455
  0.4002392559599472  0.4002018052993834  0.4002351438775921
  0.4013237920625327  0.4011913827831219  0.6002543702387282
  0.4008680534502811  0.3991673709489040  0.8009613891169700
  0.3994200990930689  0.5990799805872622  0.0036487489253116
  0.3995339344660964  0.5998034600542097  0.2013270598072208
  0.3996061529003645  0.6001821798690717  0.3994767720267054
  0.4012616232797386  0.6002623204100959  0.5968476745917410
  0.3986434224549958  0.7997251034492894  0.0004515393781652
  0.4011154815511902  0.7997598418705775  0.1994396078857411
  0.3997232910977828  0.7996495163058123  0.3990889466349176
  0.4009365884621406  0.7994200600998522  0.6013871946852655
  0.4015888210689377  0.7993006329705559  0.8009689899243839
  0.5988278298771970  0.9994024021359391  0.2044108255664550
  0.6008958700634701  0.9999857354754851  0.5941598979004298
  0.6047426363480987  0.0044262867373199  0.7935595405216089
  0.5990441805061871  0.2021172346702007  0.9943796205441655
  0.5990011977451982  0.1994359625398115  0.1976552978454063
  0.6002459454660275  0.1972346911986547  0.4003847320548036
  0.6008014182771870  0.2005465191675984  0.6028847055007257
  0.6042228138742338  0.4013417811893440  0.9996093424415122
  0.5974522258270987  0.4008036240983421  0.2000264584847269
  0.6010676751297994  0.3987439999852804  0.4002960152612507
  0.6009245085206342  0.4009083784938518  0.5997705983144730
  0.6008134898387882  0.3973452881985453  0.7993615317838951
  0.5969621403678410  0.6002020803976370  0.9995888218709961
  0.6001035265159571  0.6014541711020772  0.2017847102691654
  0.6018303031645493  0.6018170269152646  0.4000801134859308
  0.6011781242382788  0.6006132535294384  0.5988892536023771
  0.6035809981655620  0.6007388326758220  0.7988338318580555
  0.5994569628484444  0.7972855756021353  0.9982684712010520
  0.5987506942787972  0.8003893261252331  0.1979026818992850
  0.5989791481060759  0.8044112376478979  0.4000591943402919
  0.5992659302168569  0.8005627746139868  0.6002415928418392
  0.6008585597168167  0.8024874419041633  0.7995878737762635
  0.8013657753047729  0.9994593165463802  0.9992123442692723
  0.7985016035041108  0.0002650022793693  0.1983940789047611
  0.7965125669916056  0.0015026664705420  0.3989898590976745
  0.8022089417917595  0.0000336149094701  0.5980787303154658
  0.8013854046135391  0.9971634111728188  0.7987745819185221
  0.7991723924645595  0.2022688830877015  0.0012337810485478
  0.7979344899737254  0.1988822890894441  0.1983516487876407
  0.7993671298093062  0.2017719128016197  0.3973455799822324
  0.8008477449628264  0.2015902091236762  0.5962156330977398
  0.8004779446598715  0.4002068642619594  0.4006782031237692
  0.8004746828692030  0.3996788586295089  0.6003964814069133
  0.8009513854677287  0.4034705934258627  0.8015019291271563
  0.7990086501738307  0.6039695275595378  0.2032288742214609
  0.8016263466665593  0.5971745228214190  0.4002393088468267
  0.8020870356582793  0.5973245125343202  0.5993270102916962
  0.8010790972997851  0.6009468603186775  0.7975043028835075
  0.7989357519850228  0.8000389466842810  0.9988837814959447
  0.7949467270319285  0.8001184629595024  0.1937469176401070
  0.8000509606993799  0.7989968942268840  0.8027931945943574
  0.9961651056252935  0.1998496065539918  0.3991155825122872
  0.6002560127073187  0.0009925742038057  0.3992365947282087
  0.5977098562276252  0.2006843850234754  0.7972027972358701
  0.8002683161082365  0.3984209784218681  0.9957689429003107
