Ti V  Cr W 
 1.0000000000000000
    15.3947628529237015   -0.0004726939770559    0.0021267196503963
    -0.0004726263884090   15.4017912768726095   -0.0008921615345846
     0.0021270963932924   -0.0008941263393480   15.4191178141427301
 Ti  V   Cr  W  
  13 101   9   1
Direct
  0.9936974411110548  0.1958520169834520  0.3997568736518227
  0.9995506247805378  0.4085314060557020  0.3999083741342107
  0.2067890836968415  0.0085007910919902  0.3951512441553399
  0.1977802122681036  0.1979716394517444  0.0067507596644210
  0.1960464100106310  0.1977611295356948  0.7958704864553834
  0.3964426182578897  0.0039879065894869  0.2031154861695340
  0.3943296262388329  0.1950997012108611  0.3974538818290415
  0.4018243011459284  0.8032570351035973  0.3961544284615360
  0.6047298323172692  0.1944392531177636  0.3991628525591200
  0.7998903823203835  0.0092628442381053  0.9970216989234385
  0.8005642960441148  0.0095460419568607  0.3998333962194597
  0.8003815530825419  0.1908710137929133  0.8042389570160202
  0.7988766221075250  0.4013134260395296  0.8016821342501317
  0.0019515276652800  0.0013459707676078  0.9986486266578832
  0.0004981965933162  0.0003645242354773  0.1994391695699999
  0.0021249236113776  0.9991140003194769  0.4006664889911415
  0.0014638764485515  0.0002030900178256  0.5999475171888914
  0.0004530926767294  0.9993953469202682  0.8003317986088804
  0.9983411679570163  0.2005883147992336  0.0005217406342858
  0.0013872200060572  0.2001774978585871  0.1983557476391725
  0.0012211336907623  0.1994684195580564  0.6021908403204509
  0.9999269925610323  0.1988841508351330  0.8002819439289330
  0.0013058556265045  0.4002282540724778  0.0001075103396641
  0.0010872467333725  0.3977178452917463  0.1987234631469929
  0.0007082450544920  0.3983406060724648  0.6027732484066536
  0.0025129523482039  0.3983091261233710  0.8015282277055915
  0.0004211485801265  0.5991572455757218  0.9987876478003701
  0.0003515504224565  0.6008949726322946  0.3002428234234932
  0.0007481095615697  0.5991917175220015  0.6013211431553378
  0.0002636995617996  0.6000398150574787  0.8005757826132768
  0.9997117541049890  0.8000392492118539  0.0010125333398474
  0.9996933663583543  0.8023807754649240  0.1998948115254972
  0.0004729258125302  0.8022234519276411  0.3993346256643925
  0.9999262678410705  0.8002829278608434  0.5998879322596377
  0.0001739676822869  0.8010649391013204  0.8002797193009538
  0.2015402722241207  0.9990406627989680  0.0000228642264488
  0.1980586899817546  0.0018388974536883  0.1975080645913295
  0.2004547301150781  0.9979026312846718  0.7990564618576073
  0.1963875039022144  0.2045529210224966  0.4005369939568477
  0.2045439739379945  0.4002494334873335  0.0013418395153624
  0.1999689146469767  0.3989003599627783  0.2021625977328391
  0.2024043443461240  0.4000123124377359  0.4003155462958529
  0.2018723040071792  0.3978629995221442  0.5995164864292252
  0.2005993577030425  0.4004295408265334  0.8000353830492080
  0.1993554960978719  0.6002959980322879  0.0024456888185028
  0.1996325497907452  0.5995758085180020  0.2028041162988612
  0.2007436350756487  0.5998458735590760  0.4002410064617941
  0.2001046614368212  0.5987622494137008  0.5986513035262034
  0.2003443914965636  0.6004952249612355  0.7983858291291611
  0.2011302871982154  0.8000402200916521  0.0009004369050940
  0.1986580134887170  0.7999403088254649  0.2004768248801237
  0.1994039108218981  0.7990120412524988  0.4000311946039563
  0.2007507783614792  0.8005696223612838  0.5985083049181745
  0.2003307557566743  0.7999278447574475  0.8007139766940267
  0.4001168799145497  0.0015193686683035  0.9978977546544686
  0.4029977258631295  0.0007789262037026  0.4040883841227081
  0.4013746307150508  0.2028181429161921  0.9986259706640465
  0.3997365277317709  0.2021414861250869  0.1973469004650231
  0.3986264064838156  0.1994601622262793  0.6027244715260668
  0.4001494982814464  0.1984306835371382  0.7999886407280719
  0.4007409098174969  0.3992332812717320  0.1977879773003587
  0.4018873530178262  0.3990287142834170  0.4005329012353932
  0.4004279240887635  0.3977271747494671  0.6018019277984701
  0.4001445715204169  0.3989893575280370  0.8045197571415541
  0.4005913883799394  0.5958819059675272  0.0001422227893453
  0.3997861768672136  0.6000436939652177  0.2018357108962559
  0.4002280458539559  0.5989433531154450  0.6005724432509529
  0.4001746899478563  0.5995546620819050  0.8004170172740879
  0.4003919883115414  0.7995286039208288  0.0002921352119545
  0.4001614707410943  0.7994961973232192  0.1973656006931664
  0.4006751861276572  0.7989307492407081  0.8008869019386379
  0.5973699863172284  0.0007357861149131  0.9999068146415875
  0.6015137051197459  0.9999887115355579  0.2002905236042632
  0.5980053692065743  0.9973359874446318  0.4012100231124920
  0.5996372352118391  0.0002329129042682  0.6003643095619695
  0.6000443186468872  0.9983443870461178  0.7996026702044569
  0.6008186685731639  0.1997637883230737  0.0010155854087390
  0.6010949480412624  0.1987392539917235  0.1994576686395739
  0.6000881569703804  0.1990120097201216  0.6019480972561972
  0.5993701611651026  0.1978356756579258  0.8002106698196847
  0.5966212125266485  0.3991598256655814  0.0012735070599290
  0.6000633792002754  0.3992310289507492  0.2021775274264030
  0.5989259463408048  0.3983914967964552  0.6002152250448340
  0.5992359587113125  0.3982725945070970  0.8005989178722546
  0.6004067204250740  0.5995851908974904  0.0010705484364146
  0.6011077928052465  0.6012541944617480  0.2015675157988037
  0.5996487655660871  0.6002807591600449  0.4012991053701218
  0.5999348495826888  0.5996145735662796  0.5999784863649138
  0.6007358494861983  0.6007113712945965  0.7995808396898978
  0.6005488045464494  0.8006337181642807  0.0006858910660564
  0.6010675471876827  0.8014897559728915  0.1998206690910446
  0.6022280721247762  0.8002698984465939  0.4000412034092206
  0.6006525245046230  0.8005592296080115  0.6002685240787420
  0.6008165089433130  0.8005737123712997  0.8011145589761259
  0.8003401228034167  0.0021927123689247  0.1990493355484931
  0.8000929484492577  0.0011416276958724  0.6009783329732864
  0.8003325673104270  0.9959961055190852  0.7973909429349519
  0.7995802848494367  0.2054650420141008  0.0038765628266082
  0.8017239956678999  0.2011561192323103  0.2023262992530489
  0.7998636950122088  0.2069636918492969  0.4004161653009642
  0.8011514862954657  0.1997145003339814  0.5987982757965409
  0.7987595424258065  0.4009565323622854  0.0032290921391012
  0.8008657661321692  0.4000055725557873  0.2013243154833418
  0.7971701536456532  0.4033959856541460  0.4007655561598287
  0.7999615311304955  0.3976395043114644  0.5994132809327863
  0.8006041060555754  0.5997120215088808  0.0020048749223187
  0.8002128122337850  0.5997062904390561  0.2019932459240089
  0.8004637898204024  0.6013608322351460  0.3997009770802453
  0.8009223653643351  0.5990661404026779  0.5989973897650893
  0.8004139208348151  0.6009834355177772  0.7998980891647356
  0.8019328717958699  0.8013822064703331  0.1999038719429916
  0.8007860269876464  0.7993875774251784  0.3997233617359311
  0.8009115573035017  0.8010553463034737  0.5988204978895227
  0.8004308677526376  0.7992056441769715  0.8007880119297903
  0.2010537777244326  0.0002984505447903  0.6009034763127620
  0.1993099104207262  0.2003635992017197  0.2037156556779142
  0.1994150194190576  0.1989175172481578  0.5963264429312649
  0.3997405766456333  0.9992917958588309  0.6014492586307413
  0.3999322285050914  0.9990057290104775  0.7990067817691541
  0.4006127696770904  0.5983240249902141  0.4007887727744704
  0.4004333244546213  0.8001560584032903  0.6020911799817782
  0.5995584788255797  0.4013837479604503  0.4006323807996029
  0.8000754311530314  0.7988298047068089  0.0006118565503213
  0.4006504187499116  0.3996931000892998  0.0013379675858195
