Zr Ti V  Cr W 
 1.0000000000000000
    15.3205282173675101    0.0002014824685806   -0.0032720455521328
     0.0002023707323046   15.3277042438828079    0.0007193262014022
    -0.0032728540049734    0.0007198926617368   15.3420216939870571
 Zr  Ti  V   Cr  W  
   1   2 101   1  19
Direct
  0.3941460343715158  0.4177719604876114  0.8182559954548770
  0.6108581531730458  0.6089363695840773  0.0070277826669448
  0.7920197970252918  0.7915389336658205  0.0075335804581210
  0.9979062957647521  0.9979939254656660  0.9955527066707830
  0.0014232730341270  0.9985920649468790  0.1975644985881661
  0.9980837929239509  0.9979163525451018  0.3966613952572803
  0.9994200742954935  0.9950726632514116  0.6069467968035491
  0.0014210078298707  0.2002999104319202  0.9977015677606724
  0.9645522835166246  0.1645617821692004  0.1993142036933879
  0.9991062273015344  0.1987405944727600  0.4035949637443698
  0.0000037777827497  0.1990461196919754  0.6014866916016268
  0.9961508577882083  0.2163210461919809  0.7994845917143175
  0.0041642081046272  0.4001617285140081  0.9992697337394246
  0.9999659698858041  0.4005093992552715  0.1966979316216506
  0.0006894568407394  0.4005095069723414  0.3984829398550723
  0.0019477566129226  0.4036108705673762  0.6051515988902942
  0.0020354833277845  0.6001818479906231  0.9951700656075597
  0.9986787860454123  0.5980351178953142  0.1983877264230654
  0.9951918505841107  0.5985276397541428  0.4052580136186844
  0.0046611492792683  0.7982143791970108  0.9991052461515008
  0.9961585346448143  0.7987580340546183  0.1984337846504594
  0.0022085174164961  0.7989845228922544  0.4039097000560262
  0.0015338168479388  0.7926023950042212  0.7972662203549319
  0.2011451692329246  0.0018826307208177  0.0001920839162999
  0.1981366253718046  0.0001290495895493  0.1986115560449628
  0.2041117635487657  0.9955434026998005  0.3989193466027112
  0.1996291039824463  0.0052199422799011  0.5996587990493403
  0.1947927312369839  0.9998073411940046  0.8002108100579097
  0.2003559126813331  0.1981152862833049  0.9998495752170664
  0.1992534319963141  0.2009850129999118  0.2019096987630402
  0.1988177633872135  0.1993182261299470  0.4048838198334194
  0.1991684291298687  0.2003537082581498  0.7954640929246284
  0.2061452844603668  0.3980041504985458  0.9993608310068974
  0.2003217535334727  0.3992467555119656  0.2009641995576220
  0.2009231079470880  0.4000382965094196  0.3984409910160612
  0.2008302547536828  0.3944567126317197  0.5999362385756332
  0.1918257953768721  0.3999455811336368  0.8002522505703559
  0.1983652529299987  0.6005291113769852  0.0002308842943818
  0.1989414762288911  0.5985451488059029  0.2000718627754311
  0.2009239975269916  0.6026336112638094  0.4007276527091188
  0.1966685109405868  0.5970125808193529  0.5988755468338021
  0.2144069616977771  0.5971491231066536  0.7987671754313099
  0.2003423303934424  0.7998178835320152  0.0014409913655686
  0.2000480446635620  0.7982229511829487  0.2033692521941670
  0.1968143070787176  0.8001496463881308  0.5946433056798210
  0.2031320735684949  0.7984897258210107  0.7985673716301659
  0.3998693044202777  0.0011063932884403  0.0010340022343410
  0.4013214987714291  0.9999172945109905  0.2011771212993366
  0.3998425600689922  0.9993395899459779  0.5968626709457026
  0.4000115047255263  0.9963028230081655  0.8019179864207898
  0.4005876281614126  0.2031763835384681  0.9977742057031660
  0.3997570742861692  0.2002624372176963  0.2017149975569926
  0.3998702838100859  0.1957670598184634  0.4019967198253425
  0.4007288681293100  0.2004120306562807  0.6025932190054059
  0.4008979734737821  0.1983544025003626  0.7992462593631845
  0.4038346670367923  0.4010759532254009  0.2028495458664379
  0.3989267220602575  0.4022175972516161  0.4008152154592961
  0.3996170903191676  0.3992463478531435  0.6019745064450855
  0.4000333254399955  0.5980622029229198  0.9965173711179658
  0.4017347511397971  0.6006441307826168  0.1996772949129601
  0.4004824277817862  0.6007320250257909  0.4034287760696522
  0.4007338359091463  0.5983723678759111  0.6049117401720702
  0.3980466327345984  0.8009525896022552  0.9977036678411818
  0.4007635343657206  0.7974939573533871  0.1967414197603208
  0.3987799669475098  0.8005247421399587  0.6027249608351369
  0.6019716388854004  0.0029835248000658  0.0013877918288880
  0.5978225621114547  0.0010362913067065  0.2001829179710378
  0.5964321621425469  0.9985698946309858  0.3979493434489086
  0.6003069577111133  0.0037140671806377  0.6015154804727845
  0.6008745823605295  0.9992720210275797  0.8011075780329356
  0.6002717384933164  0.2004161078347511  0.9988206360621299
  0.6034227775952888  0.2018413087954606  0.2019095199858005
  0.5999086180087949  0.2004868748216424  0.4058256929181608
  0.6038299160029346  0.2008989019473988  0.7966361103850202
  0.5953648096892354  0.3981008025920867  0.0052347438001097
  0.5979056136130931  0.3992085562349281  0.3960793689281897
  0.5971889812547370  0.3948939060631322  0.6007439887819457
  0.6018170550786855  0.4014157746903905  0.8035163037014709
  0.6004595416831749  0.5953287548328862  0.2052664704667732
  0.6025407379019355  0.6000155297915211  0.4041052211441830
  0.6018030792506956  0.5978088085398956  0.5989769055955785
  0.6022202950367463  0.5999961991502011  0.7964174671738247
  0.5938596286451880  0.8049073154139749  0.0003273857019583
  0.6005365412990963  0.7992802025991839  0.2005222448794487
  0.5993156709776648  0.7993910145606691  0.4009352225301275
  0.6006061094728938  0.8020440785217842  0.5981268304395124
  0.5981635101036444  0.8024870426598453  0.7976746067969130
  0.7983708473529553  0.9981564871990901  0.4016953922585614
  0.8007620059631482  0.0023598669627083  0.5991850202744378
  0.8038760594695038  0.0009053049566604  0.8066879809890903
  0.8000679213582039  0.1989840692061810  0.9961902337220020
  0.8008919623498929  0.2029081596119969  0.2025957527842187
  0.8009380618423149  0.1979474860312289  0.4044738511526358
  0.7990394161053670  0.3992868195833225  0.0023405017437286
  0.7965087907863507  0.3992563430943908  0.1994904075544056
  0.8001064609244664  0.4033904185141175  0.4004306923699062
  0.7996590856350017  0.3949329183896669  0.5990648222773323
  0.7996240542775638  0.3996471767231430  0.8036738807746381
  0.8029205029595294  0.5958497663549062  0.9946781284324951
  0.8007302788194002  0.6005221414448705  0.2061297770452251
  0.8008913430505273  0.5968094335565057  0.5986099450287425
  0.7989689873942137  0.7971590356710516  0.3970949280712480
  0.8029615428647574  0.8026807378173385  0.5982810188196408
  0.7954059891287233  0.7944226584932441  0.7966552268178758
  0.3995284715372785  0.7991130443811084  0.4000187724415901
  0.9991773041076334  0.9809786066530917  0.8009043275836135
  0.9974993186169787  0.4099184358587297  0.8038491387686584
  0.0000716766554980  0.6023643774249842  0.6035336007161912
  0.9845155879696682  0.5970047025326463  0.7952320955295387
  0.0010526087542100  0.7956863396657622  0.5994247784783534
  0.1991206923729774  0.1991007769744269  0.5996523860872259
  0.1969922774798346  0.7996319562170451  0.3987290789537705
  0.3996795824192438  0.9996076995072483  0.3986745077830837
  0.4013303329003257  0.4009117023059398  0.0129162174257977
  0.4076501224239669  0.6152075553118829  0.8008037081292227
  0.3997638191538905  0.8016454886761513  0.7998855164901723
  0.6028300399423036  0.2003656515937018  0.6012019074990398
  0.5998322805940050  0.3986181602110529  0.2010026231919096
  0.8003670075989961  0.0042481823584510  0.9968237648161072
  0.7983271989912897  0.1989826630681790  0.6038916821630166
  0.8019246013542976  0.2005572516067682  0.7962944721729949
  0.7997098665716065  0.5996246831397777  0.4035807262860804
  0.7961166004420293  0.5972505890162603  0.7961374991563117
  0.7987415628126574  0.7922728255086130  0.2012463114756526
