Zr Ti V  Cr W 
 1.0000000000000000
    15.4774007178547244   -0.0057270445464663    0.0060485456842571
    -0.0057275938548885   15.4869400142696509   -0.0016006725836938
     0.0060484205712483   -0.0016004018593464   15.4828342852602923
 Zr  Ti  V   Cr  W  
   2   1 107  10   4
Direct
  0.0025721384511754  0.3851262686834951  0.0008179139309465
  0.4014275842469068  0.5971289482842141  0.8025494124451387
  0.7984664145008193  0.1935710750988717  0.5986103799005421
  0.9996198898774808  0.0011763100956612  0.2029932881715943
  0.9998227324523072  0.0002585655374474  0.3996079795766179
  0.9969556065781193  0.9993417627349367  0.5991557405729144
  0.0006805524199400  0.0007996486262787  0.7975891236614787
  0.0005007428321419  0.1277204300379347  0.0007568001054261
  0.0003435832534211  0.1994376177728483  0.1983358798285753
  0.0002144516549203  0.2006130421135379  0.3992881506059008
  0.0036141578868762  0.2000752492179609  0.5987428038604096
  0.0019079836302436  0.1985692857729815  0.8008987215681032
  0.9994936067956323  0.3999835723685889  0.2043833096293348
  0.9998604760598822  0.3999941369703132  0.4017136284574512
  0.0013693728358162  0.4005664390972384  0.5985036620954985
  0.9949944386127971  0.4005250129172958  0.7950790871229738
  0.0000707091757002  0.6057863927585990  0.0005933468751420
  0.0000775810561986  0.5995666846957883  0.2007680836335884
  0.9993097124312181  0.6003913053531054  0.3999776926257416
  0.0005219253256659  0.6013038367083895  0.5990303113511113
  0.0006653171105713  0.6002610659711592  0.7986503808642721
  0.0001925947171839  0.8013438540923320  0.1971823920077292
  0.0002458134303847  0.8002513356579700  0.3990821447109520
  0.0014689198574898  0.7987037411408944  0.6006967656329308
  0.9996135520991766  0.8011045035524323  0.8023474959217630
  0.2022967698171438  0.0004294813665273  0.9990602316787854
  0.1996061503170072  0.0004146063782791  0.1993237399495698
  0.1999548324173543  0.0003490864573479  0.4011328368963637
  0.1991278041261426  0.0005954815392970  0.7994159873771870
  0.2006991397898465  0.1995844576983199  0.0001440470418557
  0.2010501358543599  0.2004778839368990  0.1999000752552140
  0.2002131874818355  0.1999439246533039  0.3995599008767848
  0.2001257477887375  0.1989100266517906  0.6000582973106097
  0.1997222799024724  0.1996266734864429  0.8004652632541059
  0.2052362725196531  0.4010847337825311  0.9992775434810098
  0.2021396412040911  0.4010503753514207  0.2018997250044796
  0.2000241751218904  0.4005707753527362  0.4010727298049813
  0.2048657784908213  0.4005518359774427  0.6006458176510293
  0.1981003982248593  0.3998058875985938  0.7991823526336006
  0.2004674009388470  0.6008875160930801  0.0003077997716789
  0.2001875294678578  0.5996599085888180  0.2004197169251522
  0.1990237491003682  0.6007912889194582  0.3994569918591152
  0.1963064782381978  0.5998376144503784  0.7998578700380745
  0.1982493735496125  0.8011820527796893  0.9989955624114423
  0.2008206280075754  0.8001750689090279  0.1999255163389269
  0.2001559577434005  0.8006403910697866  0.4005894336696779
  0.2001440835707889  0.8004410545219296  0.6000481195579325
  0.4010016660657793  0.0007303127072834  0.0001501347025719
  0.4006454211483376  0.0004973061139053  0.2008464276390184
  0.4005388569459413  0.0008286704182460  0.4012702962492570
  0.4007136760307543  0.0008511950721678  0.5996793357526030
  0.4004523863522533  0.0007510237847137  0.7981253572068754
  0.4006070576879420  0.2005729668823392  0.0003627895481218
  0.4008886941247450  0.2007340787145924  0.2001961658602996
  0.4000629964248419  0.2000572545131733  0.3992659763178210
  0.4001454843222607  0.2028188352196309  0.5993829777663129
  0.4002393694604445  0.1987474781024720  0.8006520929798265
  0.4019453089452240  0.3986944345530995  0.0000667250612032
  0.4008983656396247  0.4000854988110571  0.4041841147818920
  0.4021979748963473  0.3939704677363629  0.7952140601302053
  0.4001570328898589  0.6010016349641019  0.0055613963860450
  0.4001848512707666  0.5997430597282993  0.2020291416090462
  0.3997059694380830  0.6009340070258273  0.3996956898574312
  0.3998727647743666  0.5969180109498263  0.5965175250454551
  0.3994663597636289  0.8015962466277313  0.0010153767000802
  0.4000067187191757  0.8007888308568115  0.2003070597653442
  0.3997058684908730  0.8005132639909848  0.4001485997675538
  0.6005485356685625  0.9995486655256838  0.9993521638279409
  0.6008425718777102  0.0008246795094213  0.2003032510062275
  0.6003866234304618  0.0003951192617844  0.3994469882689625
  0.6030201060316739  0.9993112386174725  0.5996862960608288
  0.5999228988587154  0.0008157997769369  0.7998447335775631
  0.6004537424494766  0.2003690305369820  0.1992860273818850
  0.6008946353419983  0.2004729355483831  0.3981390743295142
  0.5984819340599589  0.1989442921022594  0.5987380859227118
  0.5996312521180781  0.1989894870834187  0.8008441106817416
  0.5982585489952380  0.4010715139843109  0.9999500503451239
  0.6005489654885912  0.3996153208043437  0.2002183550446658
  0.6011612311325639  0.4000247671596130  0.3999368931953174
  0.5962658322559000  0.4009777397179960  0.5997733171783405
  0.6062597319726015  0.3989760706207513  0.8002289534540701
  0.6003523302672470  0.6015007314923717  0.0015790776742508
  0.6004623094025883  0.5998450662057934  0.2003515617645811
  0.6010930342243995  0.6003964901092161  0.3993211660323301
  0.6005423660919220  0.6024534626952613  0.5991260747104622
  0.6051524563036818  0.6015532221328599  0.8002423006983033
  0.6003352464220633  0.7999416260949520  0.9997175833226813
  0.5999272614800885  0.8005404981312072  0.1994875210220885
  0.5995133650937111  0.8007285710681821  0.3998545481996827
  0.5986240754734448  0.7989909261835880  0.6005901610355108
  0.6011157619417575  0.8011603479753659  0.8003949332693022
  0.7975717783873356  0.0015946638438356  0.9986713355201228
  0.8000621638822946  0.0007339306249244  0.4032464943009787
  0.8010664890702505  0.0020769316190780  0.7967143609496651
  0.8012046226951274  0.1976125971429415  0.0007863471997982
  0.8002022390863887  0.2003732627426212  0.1986831366818805
  0.8005212580634560  0.2027453733289601  0.8023468332736656
  0.7957370855941810  0.4006372079895767  0.9946799938417797
  0.7995535615823145  0.4005517996168348  0.1991178092350281
  0.7997140214066705  0.3992621819430378  0.4019646230515735
  0.7987206641588395  0.4011924287832288  0.6037525473521703
  0.7998721232311848  0.5998894702935331  0.0005793918040733
  0.8000758944894812  0.5991686952221742  0.2004662830847385
  0.8004043046815714  0.5999821430653501  0.4003044026438666
  0.8000508522206591  0.6008496582492597  0.5988668918957604
  0.8019083206828629  0.8019340078885121  0.9991347944667112
  0.7996299166115044  0.8002961065998637  0.2006422508801789
  0.8000184838964561  0.7996924345830198  0.3991289225677305
  0.8002888003529829  0.8015282641603155  0.6006547627704094
  0.8002000632381979  0.8003859268995855  0.8001433550467348
  0.2002791855376387  0.9995042643915962  0.6001391287039284
  0.1997599886043400  0.6010132160028390  0.5996536452925882
  0.2000622961225521  0.8007574943756113  0.7991303643493064
  0.4012703807411575  0.4000687633715247  0.2018825178669106
  0.3993971983109117  0.8000113797437254  0.6001069440761222
  0.3998274243206497  0.8032143729273835  0.7999030526321674
  0.5997955065592716  0.2000389091146155  0.0004624943473099
  0.8001544282989275  0.0001873876524792  0.2001066803429975
  0.8004377444406571  0.2002878322033751  0.3968776425250956
  0.8015822160825572  0.6005986484670777  0.7994303177576291
  0.9985709143210392  0.7973997979453585  0.0000696952300951
  0.4010273361468589  0.3995167202333189  0.6004325999336604
  0.7997996904559158  0.9957975597177788  0.6004657036025284
  0.8004679587226138  0.3964960714320565  0.7995638855260554
