Zr Ti V  Cr W 
 1.0000000000000000
    15.3971014729145068    0.0074926316345343    0.0156669572009110
     0.0075040429385702   15.4061050316485026   -0.0023701499804443
     0.0156766635863526   -0.0023655926984651   15.4082154988891684
 Zr  Ti  V   Cr  W  
   5  10 103   3   3
Direct
  0.0346450060424282  0.9954377287983012  0.1979876836373392
  0.1961112062197330  0.8170297176546103  0.1957607402785587
  0.4376213694017140  0.9469829265882206  0.1947965519271813
  0.4269289388869389  0.1624880464338430  0.1974660202374744
  0.5933785754607823  0.7762881303039451  0.2106570729349450
  0.9932330244974134  0.9980600962982706  0.9883781529872875
  0.2102158645717150  0.8059206514216639  0.6045518643926203
  0.4046859648593686  0.1958983661471240  0.8001087405412761
  0.4105766621201903  0.7985116136768217  0.3872667057388137
  0.3896110149050047  0.8054536499846141  0.7984044126265770
  0.5926086986420723  0.9975133951622438  0.9996705724227339
  0.6220622528200995  0.0112846048944080  0.2119076391810779
  0.5984044182036401  0.3995014380343537  0.5922041078185798
  0.6037131256687439  0.5778442031123590  0.1963551966278954
  0.7936295401577950  0.6044635673191023  0.7981900713944656
  0.0005957421569851  0.0015576090469258  0.6014330652709399
  0.9983146082382178  0.0014281796563633  0.7957812311870612
  0.9983294211717062  0.2019570508046912  0.9999890803059532
  0.0065591901464074  0.2036198870307601  0.1992404624487798
  0.0002874327101536  0.2012596677040432  0.4001521862817237
  0.9994203068880295  0.2025613302082278  0.6000930360593910
  0.9638761731371105  0.4015181405256740  0.0330903279476036
  0.0018800934402767  0.4009396584903992  0.2008802085074267
  0.9959255721325753  0.4027430988945231  0.3985098086034738
  0.0017497873883777  0.4023797409931296  0.5999952167707698
  0.9969579768017162  0.4027358914115420  0.7991322937588698
  0.9964776817000247  0.6010265600423705  0.9983755770576873
  0.9989710811328067  0.5975027728551591  0.2002425556541176
  0.9982190755577105  0.6021147293488306  0.4005967434273178
  0.0015848853202283  0.6032149658250847  0.5998731501813868
  0.9943169777945731  0.7973955448255828  0.9983787484780684
  0.9915764445683816  0.7926068600196510  0.1994798124653465
  0.9988153405796125  0.8000732574195754  0.4031760797377465
  0.9981863466128889  0.8012204644460331  0.6016424838071978
  0.9957502089547987  0.8008199320775118  0.7995156429999697
  0.1984865397589137  0.0013298201840395  0.0021602079734424
  0.2355875138340998  0.0164044256416079  0.2039616515667424
  0.2024536105284360  0.0026672664059002  0.4032591882568049
  0.2006270837354310  0.0070465560773880  0.6018841767555760
  0.1969791891029508  0.0036521985142659  0.8007291965698270
  0.1985696449910044  0.2031363027950948  0.9995549050639631
  0.2087486567648757  0.2053299777266364  0.2009895755991475
  0.2020117743644413  0.2036185217809499  0.4004602607216095
  0.2003908197323939  0.2055497159930647  0.6013701872354195
  0.1971982468392078  0.2008730562807230  0.8016852557622184
  0.1978912047741061  0.4029279473332955  0.9984032462024536
  0.2004378698218650  0.4018528939997171  0.2012350175448502
  0.1999985856702033  0.4015815337758586  0.4038084406902713
  0.1974150546087776  0.3995657755683564  0.7979666756268626
  0.1977682864304205  0.6027168250365331  0.9996147097710728
  0.1976522455307099  0.6022008373072043  0.1997118558263337
  0.1992481325489299  0.6043611192290860  0.3990499289754861
  0.2040757478207907  0.5969275991501766  0.6007281696125100
  0.1972869987577662  0.6030825631129804  0.8003942340412625
  0.1961210081755636  0.8021960596595111  0.9926601547807421
  0.1992721407643497  0.8035275485864047  0.4035860178937522
  0.1934551631692874  0.8034700839713133  0.8009372149391069
  0.3943190017457024  0.0010509370941547  0.9974380397073604
  0.4004048189673740  0.0029615535651717  0.4015891300255784
  0.3976881643822630  0.9968080486014007  0.5999530348186718
  0.3978917008362431  0.9993765545061183  0.7996920249218537
  0.3982528368998348  0.1998244600206658  0.9965742391425847
  0.4017268782191877  0.1981057020947922  0.4033229601013392
  0.4004421270794563  0.2009286514839713  0.6008252604793972
  0.3969582303405499  0.3997046156502939  0.9991204257067697
  0.3969911892059956  0.3907702474014583  0.1994581569263689
  0.4038533867069154  0.3987309304298288  0.3993250357189406
  0.3922988246085043  0.4046647832821232  0.6004285403679566
  0.3989764605932187  0.4019965944523219  0.7999715109490185
  0.3966568799178155  0.6000520051564451  0.9957333426640311
  0.3957268935713212  0.5884496734661603  0.1992944086992056
  0.3993771928972871  0.5992890678305124  0.4038603591260965
  0.3971578203195358  0.6004093428464897  0.7958830875887225
  0.3953621447910722  0.7991928463982578  0.0015313828426760
  0.3944067161479815  0.7675348892205291  0.1926616996024386
  0.4050058337518422  0.7961300549210146  0.5985080515020639
  0.6008544612932079  0.0021004998806944  0.4070285544937225
  0.5975825226817528  0.0013591702469499  0.6014368146235777
  0.5962632793909265  0.0027457801168491  0.7979201029316563
  0.5954454689042780  0.2028144659888966  0.0026156191162893
  0.6201306334568092  0.2029424847678024  0.1993580958215113
  0.5987512751229618  0.2036685237080463  0.3970289762194383
  0.5989431832061304  0.1997034617414648  0.5997787171967287
  0.6024307739734407  0.2012761779948250  0.8007499124537536
  0.5966801040450701  0.4021332693054815  0.0013450672382198
  0.5953624624582445  0.3892633198982086  0.2014722781856950
  0.5977524385750003  0.4003914078809053  0.8009749267579097
  0.5943902130920649  0.6017128523659417  0.9977576993323546
  0.5987886760683185  0.5987368806504000  0.4014746723667544
  0.5927699263173586  0.6035350348347018  0.6003454242711129
  0.5944131973908460  0.6014755823764940  0.7991635975924973
  0.5956044715833075  0.7997898678815635  0.9969685550784835
  0.6055723823934568  0.8019516522089222  0.4110128697505420
  0.5994782578137924  0.8015193146540026  0.6045732089626791
  0.5991525955118060  0.8033538668086541  0.8020669078609449
  0.7941388385089908  0.0018019504790279  0.0015019473652462
  0.8176361954688766  0.0006409553159162  0.2004359824422741
  0.8011581343113717  0.0019152375273896  0.4019329149850117
  0.7973086192623888  0.0016353886365863  0.6017112847802411
  0.7991534584124301  0.0028740930908613  0.8008968624281270
  0.7979942767984615  0.2014709875036574  0.0015925975011716
  0.8111351589776943  0.1965611082297145  0.1994858902389124
  0.8017068357923020  0.2018947223848771  0.3994770579342183
  0.7999858238256596  0.2001574443387436  0.6008154205284759
  0.7980305284563275  0.2009053945164508  0.8014058059451090
  0.7957290468884746  0.4012582545211205  0.9997704599258922
  0.7947140863903058  0.4016018122223147  0.4015108504719193
  0.8016593362232309  0.4021835165062123  0.6006216526950537
  0.7979715734220548  0.4000201577249869  0.8011901572606513
  0.7956894682739495  0.6008145563059851  0.0039299724765461
  0.7992021685557229  0.6028773742159118  0.2010847802110386
  0.7994174112932366  0.6019890569669286  0.4006923944690662
  0.7972972763779569  0.6029056674020259  0.6002156227304515
  0.7935068083644315  0.8035777643990722  0.0028325908212627
  0.7986263969366008  0.8032840249368245  0.2013857929244313
  0.7988079849668761  0.8040331538068763  0.4006039790824508
  0.7993950852608478  0.8024403529921699  0.6014025004179999
  0.7967251542709117  0.8042631640466660  0.8020514973976435
  0.0014532061841479  0.0019977055484277  0.4058921873868019
  0.9977181833285480  0.2021781002602482  0.7999748892097364
  0.9994750021557687  0.6015567334315122  0.7995543532027347
  0.1972134988950401  0.4022767390749097  0.6003486101540347
  0.3975423473076488  0.6006855462356104  0.5994385247021948
  0.5999025112085650  0.4013155576973526  0.3953140455453405
