Zr Ti V  Cr W 
 1.0000000000000000
    14.9137648058014189   -0.0380344690812818    0.0106833392427911
    -0.0376694697948715   15.0422790407743960    0.0345477692832103
     0.0103419285353073    0.0349907567863943   14.8014378166485869
 Zr  Ti  V   Cr  W  
   2   9 104   3   6
Selective dynamics
Cartesian
  2.8165737231321391  2.5436878307801205  3.0592973559377930   T   T   T
  3.2720976776361050  8.5059854864069635  9.1672315998054952   T   T   T
 -0.5693726651289401  8.6500631000428552  8.9066295483659772   T   T   T
  5.0422706731210738  0.0246838198654394  2.5626417476145154   T   T   T
  5.0151197712826967  2.6464058473869976  0.5581098689057227   T   T   T
 10.2444052439495703  9.1880086635138305  8.4831256541331221   T   T   T
 11.9558231323666604  0.3272646977249533  0.1731169819343370   T   T   T
 11.6165642006789156 -0.0343395705331624  4.0039675107816404   T   T   T
 10.9818755001616939  4.9058052850544831  5.7683962691136212   T   T   T
 12.5436653697087639  9.5613227100519325  5.5423166664356600   T   T   T
 12.0862498870634418 11.2111177509167153  9.8195743049825488   T   T   T
 -0.5160942984757190  0.2262897843295903 -1.3501155172134514   T   T   T
 -0.5167145863490692  0.2114050069784149  2.6767780817093838   T   T   T
 -0.6051964061870807  0.3993126092593778  5.8214538010131847   T   T   T
 -1.3630122403208094 -0.4490424570472630  8.9035087973664488   T   T   T
 -0.2537837838446554  0.1823288158936082 11.1862267084750453   T   T   T
 -0.1641200933068729  3.7755886498242637  0.4809764794818866   T   T   T
 -0.6582820744881011  3.0142589526884436  3.1227472634507563   T   T   T
  0.3850820176162233  3.0846438764379549  5.5077148457317993   T   T   T
 -1.3400839193558740  3.3544944662504177  9.2519353301741507   T   T   T
  0.7043686012817665  3.9415428945362505 12.3284592531706032   T   T   T
  1.1717370416044859  6.4196381846493109 -0.6344802822299909   T   T   T
  0.5674191852366390  5.5047029401160019  2.4017554001361159   T   T   T
 -0.2778313086316947  5.4766679512626171  6.2051786629272510   T   T   T
  0.7025709786268066  6.0973928056599691  8.7620525586519076   T   T   T
 -0.5131421964881994  5.9585095444742606 10.8686802102496465   T   T   T
  0.0857597102519423  9.9763711540834699 -0.0986592773702685   T   T   T
  0.8369506491670911 10.4178533103347313  2.2046370774583135   T   T   T
  0.7968802759834652  7.7832823866767518  6.3972269423317041   T   T   T
  1.2072918630063247  9.6332821366572254 12.1527370130374681   T   T   T
  0.7831935495424045 10.5402657142981546  7.1322616704569528   T   T   T
  0.8055147140078842 11.3133941129914248  9.6830218654487048   T   T   T
 -0.4013773550957553 12.1570274253002868 11.5989874201147281   T   T   T
  2.8516783947371862  0.6752265417908008  0.4591546730044492   T   T   T
  1.4134084377365785 -1.1136006945281154  3.5594267999834073   T   T   T
  2.8547936924745443 -0.4150676177278528  5.4046273745495181   T   T   T
  2.4230981267112606 -0.1688007417938835  7.9530022909839886   T   T   T
  2.7155205586112965  0.1750396135388350 10.5858259592308723   T   T   T
  2.4238970647891653  3.6478587808692651 -0.5975404589965762   T   T   T
  2.6599596937070968  3.0997110840290705  6.4782922724453895   T   T   T
  0.9279449178491513  1.7399366509514804  9.1519613812114500   T   T   T
  2.9389870602767054  2.2620343409984098 12.0908035325873264   T   T   T
  2.6488955895883608  6.5436885931921207  3.2679997184280949   T   T   T
  4.2176941382607849  5.4610605172035553  7.0703048646915185   T   T   T
  2.9803455979783755  5.2596287401152821  9.7535961328802951   T   T   T
  3.6072738634986559  6.5272364759588450 11.7173839593054474   T   T   T
  3.2152150954876504  7.9682332521273418  0.4558114197260148   T   T   T
  2.8906618093442367  9.2812585162221364  3.2448716531803159   T   T   T
  3.6740884545907670  7.6873598852901548  5.4010516873534318   T   T   T
  3.5916241805100633  8.9070058492428803 12.5540884540413771   T   T   T
  2.3878266654575522 12.8078394547205416 -0.7920419587892400   T   T   T
  2.8013383700379619 11.9578662534258591  2.1281320653319642   T   T   T
  2.9628754017264938 11.5532367132763003  6.2504861917306851   T   T   T
  3.1775541827506664 12.7861330664557915  9.4085360338645767   T   T   T
  2.6112812115791693 11.6649068272659093 11.7142657547925637   T   T   T
  6.2968838836815761 -0.6996428880053254 -0.7244729975741107   T   T   T
  6.9261521907491250 -0.7540478932319260  6.3889455184647126   T   T   T
  5.8495563539395512  0.8420708644156555  8.3183849880421921   T   T   T
  5.5049464832138160  1.3236406861079537 10.8479496666680664   T   T   T
  6.6734755644744972  2.9483761598992739  3.5933145189810674   T   T   T
  5.2554794048429381  3.3819439366366049  5.7320947523784254   T   T   T
  7.1061241910525155  4.1487882392778985  8.9501067689730576   T   T   T
  5.6561056258479434  3.6987954809907033 11.7234975497532830   T   T   T
  6.0843711333035531  6.7041696659854741  0.3680979395185850   T   T   T
  5.8759834234196440  4.9208409977117249  2.2456109104563184   T   T   T
  6.2268517122422686  5.8757722097798348  5.7870970114082985   T   T   T
  6.1656227942257331  6.4308056307443726  8.9657739120495901   T   T   T
  6.9809053022079750  5.0258876960941796 13.2953795480827530   T   T   T
  7.1481989121456708  8.9561950651175746 -0.6901603497895392   T   T   T
  6.5873357776099812  8.8867722348544849  1.9067946854351689   T   T   T
  5.5043473552972380  9.5453070876127164  6.4941921431103404   T   T   T
  6.4157217879263255  8.9895235798609789  9.0649379716534160   T   T   T
  5.7838657015559640  9.8433863944212092 11.6091232729203906   T   T   T
  5.0380200860531339 12.6216478459921646  0.7909653397448118   T   T   T
  6.7571338697276202 12.4227086190241494  2.8938400771657116   T   T   T
  5.1395088947741110 12.4340872747773314  5.1636275972233676   T   T   T
  5.3040109552894270 11.2939934660156318  8.6993225257361626   T   T   T
  5.0144775344540573 12.4770849338412795 12.8928332141964255   T   T   T
  8.6029531230009333 -0.0170720787331529 -1.5871356121803641   T   T   T
  8.3819504613064293 -0.4247020663605813  3.8869284763598810   T   T   T
  8.3517788982037438 -0.5977943598693453  8.5357098424113591   T   T   T
  9.2790709420359079  1.1593555891254024 10.7812139499129742   T   T   T
 10.2078373080163427  2.2243863145189899  1.3879184065885686   T   T   T
  8.8028484314829498  3.5482550669918038  6.3569846894892423   T   T   T
  8.6963055258219963  3.6404475933330041 11.0363241061522483   T   T   T
  9.2765338927494927  5.6318117830409689 -0.4440340809241807   T   T   T
  9.3851539739344609  5.6655797532685277  3.2171111103061381   T   T   T
  8.9896137798213172  5.6943468613649557  7.8703824654375341   T   T   T
  9.2308944596994316  5.8557676417417754 10.8357548376902191   T   T   T
  9.7803473416110052  8.1247289739408473  0.2963232444325244   T   T   T
  8.7921150663371694 10.1864902570808429  2.6986409390436004   T   T   T
  7.2305256216409024  9.1989358738872866  4.3587828154793637   T   T   T
  8.3743956646964772  8.1089161518228821 12.2560391227336734   T   T   T
 10.0163386545427642 13.2392185113495859  0.2672189919817354   T   T   T
  8.5329965099837839 10.9454276509421540  6.4097582425021811   T   T   T
  9.4042676711937183 11.9074891566440542  8.6325378117012459   T   T   T
  8.3853472386887056 11.8167504457124934 10.8429474453511538   T   T   T
 11.0403818993395753  0.8234996287853051  8.9394880450575922   T   T   T
 10.9195856343013080 -0.7171996478266270 11.4477874827248733   T   T   T
 12.3107273072600965  3.2097665906680160 -0.6556430787690022   T   T   T
 11.1514019370546382  3.9072276619141442  2.5782501978189756   T   T   T
 11.1667529676125223  2.3508063985155778  6.6664338050493290   T   T   T
 11.6198425176697810  2.1578401124923667 11.4996318842325334   T   T   T
 13.6973228867627732  6.4547667451620647 -0.1610110214842644   T   T   T
 12.9851178263260447  7.3035311254566988  3.4309974276382746   T   T   T
 11.2113178795713413  6.5694285751584891  9.1383140574232140   T   T   T
 11.7408833897058091  4.5793108682149084 11.3001600346866660   T   T   T
 12.2888740275244519  8.6220395829488137  0.5410709213995468   T   T   T
 13.2560814591139575  9.7517078909874684  2.8265553769469136   T   T   T
 12.0228856778840765  8.2799520726257434 10.7493676040131430   T   T   T
 13.7306648489433503  9.0995452059020856 12.6499497402884984   T   T   T
 12.7685209664235231 12.2379134245303494  0.0812017449185444   T   T   T
 11.0861641097540247 11.4398367414082180  3.4872444549955137   T   T   T
 12.5187336900421062 13.2305622858257177  2.9515785230002174   T   T   T
 11.8318253800619875 11.9612856935153538 12.6411189331284906   T   T   T
  8.7978374855887349  6.1953569664100634  5.5390193607835547   T   T   T
  9.0633254419119318 12.6844999669983061  2.4995274952323157   T   T   T
 12.1778302640384393 -0.0377392133501057  6.7695509026955358   T   T   T
  0.3266057725913255 12.8283115250962982  0.9958150678858615   T   T   T
  3.5243712216311023  5.3202445861197782  1.0788698021832253   T   T   T
  9.5184458478975458  0.4906957220215701  6.2107884553289061   T   T   T
  9.6127930458754296  2.4387182175367981  4.1255285063908396   T   T   T
  8.5573864563061814  1.9900469428779399  8.4054300007465912   T   T   T
 10.5378958953078659  3.7569037306805315  9.0406599849562035   T   T   T
