Zr Ti V  Cr
 1.0000000000000000
    15.5203045776677033    0.0123623473933798    0.0020430338638102
     0.0123621989531639   15.5305412365208202   -0.0005354779444938
     0.0020440238761689   -0.0005334620644981   15.5220072543039933
 Zr  Ti  V   Cr 
   5   2 107  10
Direct
  0.0001891518262951  0.7978141531097566  0.6012136560052322
  0.2042769996689707  0.6001154296373183  0.9965496982968617
  0.2047881683583653  0.5975815929742796  0.4008225278860600
  0.3823470915375125  0.2031719472621849  0.8038249028804669
  0.6048544081007212  0.1986394150013398  0.7962619510717996
  0.6017335232499431  0.1956775984270708  0.5877777704226262
  0.5689542735122161  0.5983494776563396  0.1999507628695232
  0.0000825673708162  0.0016303579786889  0.9997511830690708
  0.0002839647811519  0.9995427185675482  0.2003135370010582
  0.9997205898829337  0.0003782217304966  0.4003075116253007
  0.9999046140185424  0.0032187890652095  0.5999241229811183
  0.9995421416760906  0.2002387085137101  0.0005720850994027
  0.9999033418280071  0.2005328445003084  0.1995391098558196
  0.0001276700574540  0.1995190325057957  0.3998189398544412
  0.0010671157249331  0.1998339773501414  0.5997134437513179
  0.9991585799390105  0.2003901542594651  0.8006997444615076
  0.9998078563887649  0.3988903175532537  0.0000337404329509
  0.9986970619923843  0.3988343265102325  0.3994205500531868
  0.0013985274234749  0.3982464494303465  0.6006102282379094
  0.0006354178682810  0.4006178995128786  0.8000924841383534
  0.9973387228088957  0.5989839867743856  0.0001572905687541
  0.9997371224637069  0.5997395356198001  0.1998355314788314
  0.9979044382400217  0.5996252141685973  0.3999774906433523
  0.9996377160775686  0.5948958929731819  0.5995698269643884
  0.9996585891361998  0.5983047604291550  0.8014333489436221
  0.9997484129495192  0.8010315318634785  0.0015069108495817
  0.0004619807633593  0.8009527537216670  0.1999207633806550
  0.0002330025574432  0.8011431366354542  0.3963241330988315
  0.0011669544440787  0.8001234214037525  0.8049678067784567
  0.2008751122008657  0.0015252313246343  0.9990850876305226
  0.2004984474110264  0.0000580103833970  0.1995836501926891
  0.2002643709977361  0.0011374760022578  0.4006287995447238
  0.1994480854174687  0.9992898210637438  0.7992277053791818
  0.1993347539763229  0.1993123683945924  0.0005384358422889
  0.1989115544433201  0.1989513084109309  0.2002523265055733
  0.1990666019820175  0.1987287287413644  0.3994029394648977
  0.2007296114231118  0.1993940138706038  0.5992148409965107
  0.1893777679970749  0.1984744765475523  0.7988634058178075
  0.2011784600490614  0.3953673434568830  0.9997154810401458
  0.2008658919378626  0.3989772569808941  0.1991702107053537
  0.1999589787630428  0.3945627549929536  0.3999920786152028
  0.2012031277135636  0.3981356872783339  0.6000223734647404
  0.2008274221513537  0.3987921233100299  0.7991131827022955
  0.1975893824434498  0.6008585614577735  0.1999183927717066
  0.2018589127460087  0.5983455696529868  0.6032401756159177
  0.1996181359327665  0.6008681613079728  0.7950550502427768
  0.2015498560518058  0.8052984728879166  0.9999319177198619
  0.2018082402996388  0.8015156050635204  0.1997716243716701
  0.2044475826842467  0.8018085397872995  0.6000437219341230
  0.1998246879273073  0.8017303264217138  0.7995184372132709
  0.4021574072184521  0.0016617008526854  0.9995028090472338
  0.3993471446648784  0.9995518726854022  0.2004068492427706
  0.4004019080644587  0.0007214402907603  0.4010849058291207
  0.4004986573405034  0.0001120736057862  0.6005297796104492
  0.3999217052980178  0.9969024965423515  0.8000163222984652
  0.4020955444969546  0.2004684789696768  0.0066591867615691
  0.3987757154614157  0.2005460166196201  0.2011920655545156
  0.4001283362976039  0.2004096452747410  0.3989385919937132
  0.3996555959041240  0.2010446668981696  0.5963198821504466
  0.4021015589789080  0.4009069747367341  0.0012187742819231
  0.3996138948970430  0.3990469976232121  0.2002472741119916
  0.4016326062990495  0.4000345968823069  0.3989451009184870
  0.4019512288906392  0.4006389910639180  0.5997054712568914
  0.4021336301459332  0.4059131262975741  0.8000438694298344
  0.4066170645435450  0.6013640060505444  0.9970845765325225
  0.4065694388721366  0.6010951390330854  0.4028494307137708
  0.4015642402886764  0.6008557722832827  0.6003542091052826
  0.4010939972572812  0.6021744947082356  0.7984570108836845
  0.4015673669438461  0.8009583385500173  0.0008405864470180
  0.4007851604095887  0.7683974831887891  0.3661270858116676
  0.4008685823113591  0.8007503381490464  0.5998540168189527
  0.4002907022961648  0.8000272650918512  0.7994064992320207
  0.6003648364882160  0.0007874900880410  0.0000196602319449
  0.6001075511820415  0.0009175918775803  0.2001729780975207
  0.5999724083912688  0.9997630730173438  0.4000956285362583
  0.6004596054614695  0.9971227501763564  0.5993393472535732
  0.6007770067119996  0.9939101182677702  0.7999005607992592
  0.6003775582621789  0.2001737152490742  0.2004134451269512
  0.6007612852213279  0.2007505657470795  0.3956416094275747
  0.6020257965765841  0.4005111381760421  0.0001940322822123
  0.5988887452347857  0.3989423769280734  0.1993565086767292
  0.6020347260522615  0.4006898372691364  0.3998386200917503
  0.6018071177845932  0.4050024733506583  0.7995882920642184
  0.6016651608504848  0.6006902784548571  0.9974408271930746
  0.6012763200563220  0.6016486790531035  0.4017132364909730
  0.6009810483739352  0.6012690122805608  0.5999889916429734
  0.6023212175015560  0.6016980536414158  0.7985153085072679
  0.6010098106791862  0.8004519315453387  0.0014558421878477
  0.6000124245669978  0.8029486306053532  0.1999368463339197
  0.6006439292396356  0.8003284031495355  0.3980910644269101
  0.6006771036195269  0.7988765172713027  0.7997556558707101
  0.8004997557254119  0.0005328735073513  0.9990530400770118
  0.8003918366293906  0.0010311933092428  0.1998715370130746
  0.8003969606639131  0.0000161312612871  0.4006713279769887
  0.7999660855899440  0.0002260825781321  0.6007326590845121
  0.8007084359523827  0.9994856400420096  0.7995474608072496
  0.8010515163941002  0.2007416958127239  0.0010550063222627
  0.8008831933588179  0.2006777755136222  0.1999884184236497
  0.8010121141933637  0.2009702555158695  0.3990085659196492
  0.8017982277518640  0.2009350671490097  0.5990416820276944
  0.8060800876752063  0.2009353566366061  0.8001376108900686
  0.7990229752974138  0.4013729794585872  0.1998828682042524
  0.8000584745903944  0.4001512482210742  0.4002219009482588
  0.8004037883938266  0.4005743216241842  0.5999786919053790
  0.8011041138478990  0.4009876345340409  0.8000902543434374
  0.7991839670860130  0.6000204068942144  0.0011697163698858
  0.8040481955082477  0.6002378843540683  0.1999847340701713
  0.7992334169650023  0.6004720545935046  0.3992755784854495
  0.7998207876287242  0.6002966807903996  0.6000255809647221
  0.8013127404242026  0.6011241075621570  0.7991471180518073
  0.7995203034585165  0.8011496166851583  0.0001751446683014
  0.7993732543109916  0.7991171814250569  0.1999062412201150
  0.7962913269047089  0.8004270089298725  0.5995449777477523
  0.8011270116863632  0.8005777837963345  0.8010258983696578
  0.0002695777482029  0.0004028838091936  0.8004929730148952
  0.9998932758382433  0.3993483511922113  0.1997693104834337
  0.2001554008455931  0.0006547410263831  0.5998404079300462
  0.2018460160101647  0.8044371560063328  0.3993997149221207
  0.3994892013889700  0.8010675931806448  0.2002246642075009
  0.6014661051037701  0.2008865477289439  0.0036455026762168
  0.6009600760496940  0.4033679399275816  0.5985586113326601
  0.5995806233237642  0.8000417822536007  0.5987233822643742
  0.8000858508472694  0.4003087219056933  0.0002914712268971
  0.7989392268712439  0.8006025402929657  0.3989956319491130
