Ti V  Cr W 
 1.0000000000000000
    15.3947628529237015   -0.0004726939770559    0.0021267196503963
    -0.0004726263884090   15.4017912768726095   -0.0008921615345846
     0.0021270963932924   -0.0008941263393480   15.4191178141427301
 Ti  V   Cr  W  
  13 101   9   1
Direct
  0.9930555378021924  0.1913818900852048  0.3999559707897550
  0.9992032249916858  0.4029721369485170  0.4008304982012359
  0.2064790226496744  0.0085840313563928  0.3968386872394459
  0.1968501991627628  0.2000240366619489  0.0070204184780327
  0.1966701142022919  0.1977287888195814  0.7955577669857028
  0.4017208277167206  0.0017585886871750  0.1934807594510869
  0.3914242812337511  0.1958916526460014  0.3996867890166720
  0.3985967802987994  0.8022957217331012  0.3966222624542355
  0.6031636980205874  0.1958213586614215  0.3996369151998487
  0.7815121090146033  0.0086546496694537  0.9934967692634235
  0.8035302743754719  0.0073239852473377  0.4002863031858500
  0.8009107880445501  0.1900602415618996  0.8071242353087911
  0.7995209986763590  0.4008901960934728  0.8013895325753136
  0.0043541339384616  0.0009121230729712  0.9990485924413988
  0.0007104187205253  0.0000258435569558  0.1989427272059396
  0.0025928739041061  0.9972488334462527  0.4007677930562317
  0.0013373094214689  0.0000150477318902  0.6005973616701625
  0.9999972198669773  0.9992180816910073  0.8012653684816554
  0.9978020385655151  0.1996784991515946  0.0010736852860754
  0.0017908778254156  0.1998411261823344  0.1986652838340310
  0.0009249068875668  0.1991142527606904  0.6025258764268956
  0.0001056043855241  0.1985966592393174  0.8003554050125340
  0.0012326543562773  0.3995115941322311  0.9998237930707704
  0.0008790795354581  0.3990751842691151  0.1985381932240526
  0.0005244684552980  0.3980725278825019  0.6029832963704818
  0.0025345356829702  0.3984753707573151  0.8014323049066738
  0.0008269471595014  0.5988497199246955  0.9999743165769137
  0.0008606792313744  0.6011128539666466  0.2000897675423026
  0.0003222832820364  0.6015094094800781  0.4007493727003062
  0.0006821651162405  0.5995116087364963  0.6005506513811407
  0.0005873590531772  0.5998806170088473  0.8009813294946099
  0.9995925702312946  0.8008372232674976  0.0006858586521659
  0.0002259790910240  0.8018502417532569  0.1997090194408048
  0.0010862706696031  0.8008293637721462  0.4001134908691312
  0.0001157771900313  0.8008744404031183  0.6005779681252623
  0.0004529693987094  0.8003083433282923  0.8000604730355043
  0.2025056487614900  0.9981566342263873  0.0002229394920497
  0.1994005634533549  0.0019948271831602  0.1982683147914612
  0.2005993082579606  0.9978633690884340  0.7991700748013476
  0.1949927137457086  0.2042461610987399  0.4003230785842923
  0.2039386384300391  0.3997782360856210  0.0014477903147063
  0.2003988075412621  0.3988882387340677  0.2025254254513404
  0.2020734101159922  0.3997512813349284  0.4003944978656191
  0.2011277628410007  0.3984597329108906  0.5990689338518917
  0.2004488332527635  0.4005075426980239  0.7997166549330156
  0.2007332219284791  0.6008584056735978  0.0018260488909327
  0.1998634304876332  0.5993732597566765  0.2022492234023974
  0.2008405366321991  0.5997813838067521  0.4007289028511041
  0.2004221272066732  0.5989190356455576  0.5993204735656330
  0.1999282790884918  0.6002251785437226  0.7982586532404476
  0.2009617835849730  0.7994966227258450  0.0011258542510608
  0.2005731302366315  0.8008383224064926  0.2002717036142987
  0.2001305181963505  0.7995143303696804  0.4000366858523950
  0.2006661342162901  0.8006858595531126  0.5984616408588527
  0.2009257306030185  0.7998053464254423  0.8017602084464651
  0.4003261639674254  0.0041958462063893  0.9967620629330999
  0.4027269475584585  0.0009527494775357  0.4026473635149465
  0.4027255852330349  0.2033958861232297  0.9984656826732512
  0.3993637743492944  0.2017672320183063  0.1978657240442985
  0.3984897947025048  0.2001776785195366  0.6027710593737333
  0.4004316588793913  0.1991965771116629  0.7999631055201513
  0.4009487282482054  0.3990221622956931  0.1982864865217504
  0.4012576234700413  0.3993720425423325  0.4006229912749624
  0.4001424162168103  0.3981494312035706  0.6019218183779479
  0.4000308901755275  0.3992882901978970  0.8043417806221856
  0.4004304327505276  0.5943587122961401  0.0003536888079603
  0.4003052933550887  0.6006139736542356  0.2014042510259273
  0.4001536495417608  0.5987734615384537  0.6005244955172342
  0.4002134211425731  0.6004802160668895  0.8011234707478190
  0.4005828415939185  0.7997559736941672  0.1972376038711485
  0.4006191917803135  0.7993996809947984  0.8005176749417886
  0.4999430346336327  0.9005455524516235  0.9999212892903637
  0.6036168640318422  0.0007155789941056  0.2025442599332635
  0.5983478234977686  0.9975717744167982  0.4012333505930585
  0.6001540584800181  0.0005098169592668  0.5996485015098931
  0.5996718925140597  0.9985991746404579  0.7964745297027492
  0.6009040995783491  0.2028678747877276  0.0015827829695392
  0.6008801397506783  0.1983606654671659  0.1995900876747923
  0.6003665908729053  0.1995849788458701  0.6019932074263687
  0.5993991484640363  0.1979231881709524  0.8007988375603146
  0.5973149262991316  0.3998235437659771  0.0016211091920637
  0.6005737639242050  0.3997101522566024  0.2028549197130864
  0.5990234671572964  0.3986753117800177  0.6001736347377918
  0.5997882770691541  0.3989685380609691  0.8002340938057834
  0.6003757735354336  0.6006257818935011  0.0013146350046742
  0.6016333420523269  0.6014752392687133  0.2019835184552729
  0.5995591796328589  0.6006565567365055  0.4011406904799659
  0.6000796153617860  0.5997682548744212  0.6000037679521953
  0.6010398328964592  0.6006850841405289  0.7993061799889590
  0.6010407547958563  0.8001279095963857  0.0007534485806283
  0.6005879980202518  0.8023183999307397  0.1991728181381146
  0.6023010153215861  0.7999176669288117  0.3998503504281326
  0.6008552285671415  0.8004538467356664  0.5994548749191753
  0.5999678413766192  0.8010092850662854  0.8018770956849131
  0.8006124676008302  0.0025448244930192  0.1978583334472999
  0.8006277799628130  0.0012636167994760  0.6009121095499229
  0.7995586185491677  0.9955123001192182  0.7970616357551157
  0.7994169036779813  0.2051894223628378  0.0050589906769949
  0.8030012865549165  0.2016498182727153  0.2027963369054369
  0.7990771153057055  0.2059304858301823  0.4005565306339178
  0.8009809810253938  0.2000821049176084  0.5989465601697358
  0.7993716600082625  0.4012287234857200  0.0035275417229417
  0.8005342616589534  0.3999567424900102  0.2020858913508398
  0.7968432319554035  0.4027277756601157  0.4008982497174078
  0.8005183019022232  0.3979636825899540  0.5991129673281659
  0.8010102676524709  0.5998565603082691  0.0014747715921700
  0.8006413517130506  0.5999802141254424  0.2015323298479789
  0.8011443671231131  0.6014002039584672  0.4005010699210739
  0.8004831302797090  0.5989697346492583  0.5995153689113999
  0.8008056695109840  0.6009305154719576  0.7998169778959096
  0.8022260478576909  0.8023194176962349  0.1997087281004027
  0.8004339014576676  0.8000264668477911  0.3996440831734746
  0.8009193003509234  0.8008828063850075  0.5988095058005719
  0.8014073927671721  0.7986832992379423  0.8003355530764379
  0.2007927533862038  0.0003931305945677  0.6014037664736961
  0.1993547284523838  0.2001340141290127  0.2039867847076006
  0.1990208809596668  0.1992681252800047  0.5962814587789478
  0.3998518577886502  0.9995790757390429  0.6009139365389383
  0.3999594543698567  0.9998538592565082  0.7985778384975626
  0.4004283624396602  0.5982100608818348  0.4007446784378679
  0.4005391477284937  0.8001352422686624  0.6019698712400277
  0.5993747624911268  0.4018716369510899  0.4009098454690369
  0.8002147264606683  0.7992994985608944  0.0001939440036975
  0.4006760194389898  0.4003048963359176  0.0014447123087113
