Zr Ti V  Cr W 
 1.0000000000000000
    15.4771126092992706   -0.0171409429028663   -0.0108832458615090
    -0.0171377985850307   15.4835452709138899    0.0089453070842751
    -0.0108770206815257    0.0089383803551370   15.5150560916889226
 Zr  Ti  V   Cr  W  
  10   1 106   6   1
Direct
  0.9992825388971067  0.0372576290490389  0.9849514670881711
  0.9962006815908244  0.2039338295630217  0.8027951117191593
  0.9895355586935929  0.3921423176364532  0.5970567303850960
  0.9995332435338831  0.8017350694675729  0.5990095285342554
  0.1906437946259707  0.9978583785431142  0.3900037554211948
  0.4149026351858371  0.9958940410771397  0.4013191694520648
  0.4010875341570417  0.2024480904958894  0.9986424970579943
  0.8032022946591810  0.3939100415896046  0.4246693521951935
  0.7820369342189062  0.3969588572397922  0.6709408478252397
  0.7971798183310648  0.6161704813422705  0.3991742740729272
  0.5992350995975908  0.7994778996289628  0.5973414989132090
  0.9923464529583906  0.9985184046206544  0.3968976024653072
  0.9998254464692989  0.0015783428255236  0.5959797519688325
  0.9990875713380351  0.9940089219909009  0.7905740449228001
  0.8667117025102411  0.3368611799231848  0.0028509766045761
  0.0003463079947236  0.2039021329204501  0.2012769461550625
  0.0014987063175609  0.1971693364624107  0.3976369547410856
  0.0005424058719532  0.1913561844711931  0.5954690781209061
  0.0001150463690760  0.4076744593671056  0.0037824502544310
  0.0068367394048125  0.3995565037987078  0.3886960640144004
  0.0025359627300903  0.4074830290290377  0.8075781468044483
  0.0001631519503266  0.6054908367209548  0.9992511615425025
  0.0007476166080406  0.5953915675093093  0.1988620692558570
  0.0035386063368588  0.5996873835321621  0.3998112349927345
  0.9993912592588640  0.5990602925052937  0.5983337221541082
  0.0008804580164245  0.6007848725430681  0.7974018218837552
  0.0001867614632767  0.8076875337517003  0.0005016436722869
  0.0001438396309079  0.8002905030783823  0.1979358181838702
  0.9995017362266523  0.7990431278968291  0.3945676585241256
  0.9999064059861908  0.7986775168800316  0.8033944427362715
  0.2036995199375548  0.9994225401581537  0.9952149783448667
  0.2012955769799292  0.9991715992717051  0.1888089438446678
  0.2010331329901609  0.9994886700677993  0.6051694372261111
  0.2010240408512603  0.9974379102213859  0.7985838875977949
  0.1961977891293066  0.1988913163560180  0.9974072501398441
  0.2009799693289019  0.1975564268416039  0.1990846245111617
  0.2013549090848819  0.2016816966260749  0.4000542083094683
  0.1993505888232379  0.1985202024472243  0.5982476889485906
  0.1988810919224356  0.3988257063622882  0.9981200905988200
  0.1979246842133744  0.3986836040258123  0.1974358521269224
  0.2018155783787658  0.3998756506244801  0.3998096889565355
  0.1996362550189302  0.3974969216490061  0.5992008781647241
  0.1994558168347130  0.3992839409535953  0.7986344302070194
  0.2010439270823930  0.6007661729386349  0.9974288955556548
  0.2014582023341958  0.6003384654490094  0.1984098134512130
  0.2008678024503410  0.5983863636755293  0.3997104407302678
  0.2007948584682919  0.5994123740423556  0.7984647169546113
  0.1994774338290474  0.8006183486031430  0.9982208297834467
  0.1999126957194735  0.7999891364817436  0.1984276354357248
  0.1994379235676247  0.7938785486767159  0.3984781533814784
  0.2037438834451590  0.7980495009255293  0.5991945141443306
  0.1999792388417269  0.7977165282703218  0.7990935692338933
  0.4020709316642700  0.9962425861235860  0.9964339417411918
  0.3996803291016996  0.9988388338054889  0.6034777943489890
  0.4013387856829247  0.9987207927781537  0.7984330947039652
  0.4005025590044718  0.1996738724880009  0.2032343853146877
  0.4003273836174430  0.2019483087162378  0.4002783288723454
  0.4003816424434750  0.1992576919202588  0.7944478934106531
  0.3998427784087490  0.4054192766799887  0.9999779969374886
  0.3988738569545932  0.4005930858964159  0.1994970460048450
  0.3987852835762281  0.3996358299744761  0.3986754350434636
  0.3958569586331496  0.3994062263278679  0.6001758406822512
  0.3992482036598989  0.3999252781329141  0.7996645641607740
  0.4005844653636653  0.6010827037106785  0.9986943925812843
  0.3999166151719704  0.5992671665441067  0.1995211922793525
  0.3997519527889877  0.5989068842410954  0.5996272450081260
  0.4003754425008894  0.5995412147076872  0.7977018241754459
  0.4007768816166827  0.7984109618962025  0.9992899553065049
  0.4000467247639938  0.7985317268586999  0.1987388638938376
  0.4002432571500156  0.7933095628481283  0.3983356740216262
  0.3988820692620262  0.7976719891571535  0.5987112831039831
  0.3999199862180422  0.7986574819038308  0.7990054071528554
  0.5999159924577429  0.0000274927286639  0.9988406543596619
  0.6006601498920939  0.0001942214223918  0.1988668426646858
  0.6086564614824990  0.0001439851170131  0.3986423250642116
  0.5986558594559287  0.0022042250137770  0.5984072636796350
  0.5994861665340777  0.0000784796402042  0.7988015231991410
  0.6049712833465648  0.2005267710468275  0.0004791981479180
  0.6012689254773931  0.1997106582176956  0.2007661505114377
  0.5999281555303292  0.2000415824862852  0.4007003937057170
  0.6003663481170352  0.2004754055355054  0.5988965203373272
  0.5991120149731688  0.1999507863555136  0.7984561595496492
  0.6025620503194218  0.4011877505090035  0.0005071537513063
  0.6023927241947630  0.3998027632414802  0.2013225446062070
  0.5962869054565818  0.3985459624328666  0.3989791591715625
  0.5876684909623566  0.3983115319237341  0.5982675756204547
  0.5976186348789970  0.3991345493940472  0.8015020982031119
  0.6008107786232745  0.5998424417545952  0.9996681350229549
  0.5996441064644679  0.5990934379195072  0.1994213029939162
  0.5947892246861960  0.5982940152178807  0.3999533885691790
  0.5995565772474876  0.5958056542642998  0.5989736847771386
  0.5997303350392473  0.5984456662664683  0.7992952247113946
  0.6003272641061675  0.7996979541326825  0.0003095044489124
  0.6008556732346938  0.7997728265134084  0.1990932365867124
  0.5997325105214890  0.7989757085510109  0.3962916077939933
  0.6000669363786110  0.7989062831027912  0.8014379168911004
  0.7963134100089585  0.0000227222218900  0.9994887876570773
  0.8003026287348728  0.9997826692984673  0.1977373797673123
  0.8004869787783178  0.9997046677927416  0.3993208119994552
  0.7984342567568518  0.9970146258872792  0.6002822970241550
  0.7984378375364152  0.9965047107719107  0.7978067801008765
  0.8006482777874856  0.1992010577123771  0.9981822068992625
  0.8006835854221118  0.1998748188565932  0.2010257509814795
  0.7995753670375848  0.1927316420277159  0.4012258221750033
  0.8000828945950462  0.1938245896173583  0.6000835698251619
  0.7938754853542072  0.1971896508687455  0.7967372580091802
  0.8051262164440710  0.3995174979274484  0.2049307787755324
  0.8016650182508741  0.3995807939024513  0.8711154943875721
  0.7996007474600321  0.6016078764814173  0.9970632764830907
  0.8002580215231494  0.6001836063146271  0.1955072995455665
  0.7993235269314867  0.6012933129201637  0.6040749735402353
  0.7999597655912386  0.6007233898916224  0.7992733350071967
  0.8008132575169662  0.8023437202390964  0.9997120593155194
  0.8011252630840845  0.8003520817594243  0.1985840669760697
  0.7995756722066197  0.8087854439341124  0.3980968888301149
  0.7950875898331157  0.8002040935717590  0.5998339965484625
  0.7992197443702825  0.7988981034645138  0.8011696997983563
  0.0001858350642372  0.0015852061922730  0.1994275009454483
  0.2030452241886339  0.1992939223307433  0.7965302333836037
  0.1991967982414175  0.5967865291139873  0.5990863616594692
  0.4015358658145794  0.9990380479308968  0.1947255150836163
  0.3994935727645139  0.1992874525678799  0.5990188326933736
  0.3983218897911515  0.5978040600448502  0.3998691630795180
  0.0011400812000091  0.3985146465553219  0.1961087366363119
