Ti V  Cr W 
 1.0000000000000000
    15.3720038313806135    0.0023998420144863    0.0001449001601191
     0.0024007571799185   15.3633006247875361   -0.0006442210894229
     0.0001450310074229   -0.0006449824026597   15.3697544548857330
 Ti  V   Cr  W  
  15 105   1   3
Direct
  0.0054827731676916  0.3934028202982394  0.6016843512771552
  0.9910448816553165  0.8004789547972835  0.2039229762573255
  0.0092046523628096  0.7982309795936523  0.6023785977971121
  0.2007007466406671  0.2036709071584971  0.3935410978521109
  0.1968325760778813  0.2045741397063485  0.6058974539965352
  0.1982484280538568  0.3951025207400645  0.2003433796118737
  0.2024705156138630  0.7974154278093227  0.2012814784386907
  0.4067769739579490  0.9961104377605771  0.8060327645177768
  0.4022238940160130  0.5988169933501906  0.8013418325059121
  0.5940225852671183  0.9952628715631910  0.9945587917612125
  0.7927472343334111  0.1978839415254875  0.7954419262319479
  0.7993335558292406  0.4045136130147011  0.1932069093546762
  0.8016835284940921  0.5932960413646295  0.0030375379277101
  0.8067823583213544  0.7978611862426294  0.3917304591162340
  0.7986146708224984  0.7967454897800166  0.6043328731934409
  0.9995130990700533  0.0019200346175070  0.0003160961137620
  0.9983844828058361  0.0013924235112264  0.2015764620575610
  0.9981686945032203  0.0002353309507663  0.4007378308821802
  0.0002522320013791  0.0008980890818771  0.5993441855166243
  0.9996477576418364  0.9993421698955867  0.7987521551655372
  0.9974983980658194  0.1995691401154559  0.0001870334950151
  0.9987103945639251  0.1995673036512819  0.2001704192057336
  0.9976624166018929  0.1966860813455532  0.5978145446014261
  0.0347600551901325  0.1992865417867998  0.8339420454869598
  0.9973637762849457  0.3983233392212611  0.0002425416609382
  0.9996728411563081  0.3993515095301347  0.2010736297993312
  0.0001135464046034  0.3982995623534883  0.3979479136466378
  0.0001206485849729  0.3989610374938216  0.8017719268696973
  0.0020982735791362  0.6004272250538528  0.0019804658293983
  0.9994509491671262  0.5977040248768479  0.2015922056173420
  0.9999810977654335  0.5990440020582495  0.4007038537081185
  0.0008237589982571  0.5989773519045983  0.5987778506626923
  0.9992878148384781  0.6000323970052348  0.7994119455961665
  0.9993671384758206  0.7991352322020780  0.9998312929564409
  0.0032842951499523  0.7998162003063225  0.4014682868164017
  0.9992274164968020  0.8003268133545552  0.8027763002153069
  0.1974977082938110  0.9972973674340935  0.0003659479408636
  0.1975195319968900  0.0009062801931559  0.2003115462168914
  0.1991993142669227  0.9990700525631440  0.4004264327285467
  0.2004961293229484  0.9992971307297192  0.5997469796979200
  0.1989513903692936  0.0010079296201712  0.8014958443580106
  0.1989988979420206  0.1976218944179993  0.2003235570706996
  0.2020718161298716  0.1990481265918637  0.8003702158436554
  0.1982971740878238  0.4022063881626026  0.9997003264508946
  0.1992474492977789  0.4031273305268673  0.4051145833132547
  0.2038944819945643  0.4045440797718514  0.6025475808594090
  0.1999379529884061  0.3997201744023289  0.8027288756051815
  0.1989413580440984  0.5998232001634528  0.0007555418842755
  0.1989881457498266  0.6002362258784774  0.2018945825637828
  0.1986506603166126  0.6011116225926856  0.4006697654946018
  0.2005858808606402  0.6022354387100252  0.6011211501536373
  0.1975170175557426  0.6002111376666107  0.7999395120015126
  0.1992005461795997  0.7997382020967498  0.9980846358672596
  0.2006144645323081  0.8006229186898332  0.4038247569407846
  0.2053828640052769  0.8006230846624913  0.6021760999473031
  0.2004633325160512  0.7996230756785760  0.7998895061967007
  0.3940138827012702  0.0012959914481665  0.0043990699268304
  0.3980179691358673  0.0002065210775521  0.2012233045866595
  0.4023400208215855  0.0000913227823609  0.4001099252569416
  0.3998145099604136  0.0000809194849072  0.5983822993077760
  0.4015177769860183  0.2001318421453309  0.9995401273004917
  0.3984870206795679  0.2003855112700806  0.1964526917114093
  0.4018254413703454  0.2009360959627941  0.3998529627956411
  0.4005600341226770  0.2001965653077571  0.5998842304733399
  0.4024255570883146  0.2017376432291818  0.8011535678277755
  0.3975388527166515  0.3999904627863731  0.0011459679969452
  0.4019855075880992  0.3999530953285311  0.2006801039691156
  0.4002260505704233  0.4001129627937171  0.4001870123343363
  0.4013113088188900  0.4012710344357366  0.6003995567213447
  0.4009320276693709  0.3992418708658932  0.8010863152041874
  0.3993918068775241  0.5992049795883928  0.0036704805804759
  0.3995405595878027  0.5998678250713293  0.2013644023104264
  0.3996057366210684  0.6002058627407666  0.3995222962245565
  0.4012894499518678  0.6004610485541652  0.5969414835970897
  0.3991052186765480  0.7994012421071436  0.0005165778534497
  0.4011464766104947  0.7999187434256141  0.1994039106299286
  0.3996238707179126  0.7996910040986384  0.3991248280244483
  0.4009037835366264  0.7994684301132619  0.6013480629435527
  0.4014148879523103  0.7996324867595831  0.8010566427615997
  0.5986570799511489  0.9993479135691912  0.2041699504847442
  0.6010591707368881  0.9999632384354187  0.5939236940923419
  0.6049910007621814  0.0043915033319526  0.7934811438379811
  0.5989566224092291  0.2019215175038638  0.9944137741901959
  0.5989714047194730  0.1993508137204780  0.1976044115200536
  0.6001610545741646  0.1971987418075970  0.4002795840856968
  0.6007665108350453  0.2004963295674074  0.6027797704597641
  0.6043841674106907  0.4014053471756126  0.9996080614203305
  0.5973623988691255  0.4008595907782063  0.1999488063019635
  0.6010363400057978  0.3987357870570343  0.4002708061521321
  0.6009205373674469  0.4009727352444471  0.5997879895781626
  0.6007707386410457  0.3974464361341840  0.7994612417420313
  0.5968820441634162  0.6002714602601477  0.9996019621361043
  0.6000320755017934  0.6015928376998874  0.2017480645877961
  0.6018069369994550  0.6018072477030982  0.4000963158807181
  0.6011185210028360  0.6006538764157568  0.5989051403605866
  0.6034882811434826  0.6009560547871323  0.7988577346992688
  0.5993323068965896  0.7974154773116537  0.9982992643529119
  0.5988071106726660  0.8004427431801756  0.1979140426079286
  0.5988303265979227  0.8044351225422965  0.3999909862985974
  0.5992207101203625  0.8005658122862239  0.6001828652706477
  0.6007826051638269  0.8026324663479117  0.7995241769015559
  0.8011002683931591  0.9992328324688394  0.9993446580558955
  0.7985137478032224  0.0002486784747042  0.1983874890193029
  0.7964092073297598  0.0013621943196789  0.3989283868817035
  0.8020932923433206  0.9997329340337350  0.5977920951101801
  0.8015827027614749  0.9973126675626222  0.7988063415147656
  0.7992767293245118  0.2021331824101350  0.0011953769317850
  0.7975879412000895  0.1988595928816390  0.1983341536698429
  0.7992308058527413  0.2016593698536703  0.3972415237738740
  0.8009878722584693  0.2015677560648879  0.5964141103600163
  0.8003339671368879  0.4002365406489869  0.4005852492945020
  0.8002372057320218  0.3999303073106723  0.6001933198917468
  0.8011819514500499  0.4032845684778105  0.8016186419662101
  0.7988919367447103  0.6040425311706197  0.2032569672858871
  0.8015902663259448  0.5972168546955497  0.4002760083054869
  0.8020418397087407  0.5974832704927807  0.5993662607267662
  0.8009261305603808  0.6009623586625187  0.7976487554503481
  0.7989344386712349  0.8001103506964842  0.9989022928856907
  0.7949271702403603  0.8000721464050227  0.1937376107189264
  0.7998398775546200  0.7989824694992419  0.8027766195170341
  0.9959894029708222  0.1997415188572256  0.3990819165571214
  0.6001048394917202  0.0009403239117305  0.3990393832310429
  0.5984904760407265  0.2007340406889639  0.7970755219799240
  0.8004216572061694  0.3984015343645725  0.9958991806737514
