Zr Ti V  Cr
 1.0000000000000000
    15.4889002550493640   -0.0195313770937778   -0.0155534076795571
    -0.0195267745976093   15.5102089440028070    0.0059105293967036
    -0.0155475950656657    0.0058984254639578   15.5083315327291498
 Zr  Ti  V   Cr 
   5   5 111   3
Direct
  0.9988322010209331  0.9953751575949743  0.8005884652306390
  0.2034195412296848  0.8024975047372306  0.2016952360376031
  0.2166783548967177  0.8086254184243024  0.8058717221856191
  0.3902103973961135  0.9665503834330874  0.8342518517008645
  0.3996692307983848  0.7967441184153510  0.9949981642525763
  0.1986672085096005  0.3992681468673707  0.9992046871528482
  0.2099931107226871  0.8126404349801560  0.5947767683641689
  0.3976469632290719  0.0115072055882484  0.0251653593459711
  0.3905112685042120  0.9888753029966216  0.5952251505417088
  0.7966591352818578  0.8003015450695211  0.1957683482526003
  0.9964020758539319  0.9998390986013774  0.0047762996389587
  0.9980497917779754  0.0014948260414277  0.2005867150820330
  0.9991872067019775  0.9994750566789699  0.3982784204701900
  0.9980275153683590  0.0000961383406302  0.5947180593725009
  0.9981055509294929  0.1999497138463113  0.9999037656123615
  0.9989645046523365  0.2010131522660601  0.1992786469406271
  0.9994071770844563  0.2001968266076077  0.3989857906248045
  0.9991073829942697  0.2012744198011020  0.5992944597372368
  0.9987212869524071  0.2035476600150654  0.7997575262143237
  0.9968287826229177  0.4009878293438863  0.0003135352630266
  0.9990358100073918  0.3993349465410587  0.1999371790869006
  0.9997248711121154  0.4007824039310480  0.3994994136349968
  0.0002216209363854  0.4006853508864199  0.5985064801178896
  0.0000257020759040  0.4006613520230993  0.7994991119074364
  0.9988525108963832  0.6000594238951170  0.9996938930048509
  0.0001371979341883  0.5993600888217162  0.1992880384770845
  0.0006753444191794  0.6006963747286437  0.3991967896788326
  0.0024883623128812  0.6008991510169103  0.5992887647981640
  0.0023177266538536  0.5993646997921629  0.7999058400157280
  0.9975411518829765  0.7998025087543265  0.9989615021507791
  0.9971840867093525  0.7995274828150625  0.2003908367322227
  0.9992017744658814  0.7992774881586366  0.3997795836024495
  0.0019170621984563  0.8005712308618275  0.5998700575500668
  0.0030491417037797  0.7935715535838022  0.7977579087024007
  0.1954961340308090  0.0016134573958362  0.0007897929545437
  0.1991347553810116  0.0052474056978467  0.1998906066892208
  0.1980493539540400  0.0021947493269938  0.3989821092728986
  0.1945342338574395  0.0081970462906543  0.5983432211241521
  0.1962840551309556  0.0125218075959175  0.7994264626131864
  0.1985887300147418  0.1990586079615026  0.9985985872234362
  0.1990865190501236  0.2015385944567160  0.1993866005959984
  0.2001055461242098  0.2001883614144712  0.4000128401145573
  0.1993582783393179  0.2025511631904955  0.5993718871422423
  0.2005321178727029  0.2037835276308216  0.7995507557962880
  0.1996359763979771  0.3994966322917131  0.2018680678507979
  0.1996780465669680  0.3991834844476513  0.3998624300774191
  0.2002613670114954  0.4004541123021714  0.5990003036720041
  0.1997324221991792  0.4009004946452264  0.7974897753386126
  0.1980013482699743  0.6023818231037161  0.9992656914065482
  0.1999362588360523  0.5963880717086357  0.1994789164544283
  0.1996658186277130  0.6002696291414663  0.4003755538053371
  0.2016127188601164  0.6004885994951578  0.6004735980868759
  0.2010662460619344  0.5986927428906816  0.7995166109820724
  0.1930808830862740  0.8014081789044013  0.0045756713484726
  0.1996927644840619  0.8010667706062655  0.4014861086789466
  0.3981708217700888  0.9996558155791013  0.2094584170809250
  0.3986025391079407  0.9986843134811667  0.3995738855406395
  0.3981750762149745  0.2022141278804448  0.9983423002503458
  0.3996196726491517  0.2007100355687934  0.2007043390950954
  0.3994823236829164  0.1991993624266440  0.4003610209862137
  0.3991881830415727  0.1977904543733699  0.6012017729792819
  0.4000818948808321  0.2030856007376546  0.7986253897596548
  0.4008618846371759  0.3976449137038451  0.0006957559400698
  0.4001209453207331  0.3989896212962555  0.2007808771486299
  0.3996617044839536  0.3991618261670750  0.3996157075020617
  0.4007217110628898  0.3978102384747138  0.5978329590789422
  0.4014980893086671  0.3978022784373416  0.7981415906714515
  0.3974941861021398  0.5913616831463007  0.9998055052755379
  0.3991762953802910  0.5982404258803242  0.1986244269787413
  0.3995434032679964  0.5985922218032649  0.3984702107239058
  0.4005914703018485  0.5953541272347442  0.5977509274690151
  0.4005334489827171  0.5908448762753781  0.7989294814915652
  0.4057693918715375  0.7977481422625488  0.2030336751133618
  0.4015613415785642  0.7973321114089960  0.4002600480233801
  0.4077506353213212  0.7918515248700101  0.5945964880559504
  0.4175541261622198  0.7775519881014430  0.7886766547110945
  0.5956575148865689  0.0032122630296997  0.9988197267952126
  0.5988638032037390  0.9987634905921311  0.1978973673544635
  0.5990531218480168  0.0002955310774056  0.3993682675825808
  0.5994334614506375  0.9993853895102374  0.5984963052876657
  0.5978660505530102  0.9982933247875883  0.7999117808307712
  0.5987128152415262  0.1994155817514057  0.9983995278371541
  0.5987004520026294  0.1997456040871953  0.1999342526727563
  0.5989692384083466  0.1984645502087278  0.3998359827708794
  0.5997103944755887  0.1979544767644201  0.5995017902555527
  0.5999490979738507  0.3984664700469065  0.9992616865204198
  0.5995319404701435  0.3983479882727720  0.1997038043919100
  0.6003756864066401  0.3990445926069748  0.3992508819702075
  0.6003371067539652  0.3981663836990829  0.5993461959041005
  0.6014989950791333  0.3985224940826266  0.7990408580240090
  0.5980250669686797  0.5970789141175989  0.9990862386856846
  0.5989144844746100  0.6010253350665543  0.1972808793860807
  0.5999553938699171  0.5992175944259093  0.3991007348880091
  0.6017027445816722  0.5977778323935236  0.5989741638835695
  0.6025964024064222  0.5987581740238810  0.8011705290074317
  0.7953767085971880  0.9996069447655921  0.0004418773272863
  0.5983485583270850  0.8006910862990514  0.2023194923504602
  0.6010292100404269  0.8001751110787533  0.3998655843794205
  0.6046468788570345  0.7991183777899826  0.5981633152193416
  0.6055967501026066  0.7992866002300252  0.7940913109665375
  0.7978642978924125  0.0034552751077555  0.1997748768656346
  0.7993622761176181  0.0001057028806770  0.3988436343992874
  0.7992985549099912  0.0006073868630565  0.5992880448787957
  0.7944100673265613  0.0007330142746704  0.8002744562559986
  0.7984610562202825  0.2003622271458098  0.1993998106099658
  0.7996424624837417  0.1995128876433435  0.5995372833298407
  0.7993836670302640  0.2005264098664056  0.7999500725742554
  0.7993691786909584  0.3988176954554400  0.9994042605836155
  0.7990910493736874  0.3992281030891305  0.1998357925561719
  0.7999129144010713  0.3993058948332745  0.3994917157592278
  0.8006818674553168  0.3989312237209950  0.5992780345158764
  0.8005132569821064  0.4002265739611107  0.7995363801663861
  0.7978344261610779  0.6012081983930058  0.9993328782389866
  0.7991527432669400  0.5969169303475031  0.1991202204051574
  0.8005755998944569  0.5997322683896474  0.3991399758157613
  0.8016762704277649  0.5993420907622514  0.5996308578608333
  0.8015703867970324  0.5990159513291088  0.7992409297718690
  0.8005648806091791  0.7998136749436190  0.9966233874301524
  0.7997299284874826  0.7998745850770708  0.4016031781377688
  0.8029660080883676  0.7998736994729669  0.5986700959676610
  0.8008273782142912  0.7986135126634453  0.7990368623195671
  0.5994229644881905  0.1988783274291499  0.7990537810129592
  0.7979910927172806  0.2004081632652294  0.9994739081374356
  0.7992191095197186  0.2000799623739195  0.3997892954062592
