Zr Ti V  Cr
 1.0000000000000000
    15.3990340272275770   -0.0170018773457157   -0.0022529018582575
    -0.0170107766548915   15.3787801482628375    0.0165544931564424
    -0.0022517709109467    0.0165430754876648   15.4057927644380346
 Zr  Ti  V   Cr 
   3  13 107   1
Direct
  0.1902362543328003  0.2030725480615114  0.3746258008180863
  0.2040496186097135  0.6175162755991641  0.3835042253020467
  0.3832433477021709  0.7945734874765694  0.3903510596278965
  0.0014464154976142  0.0060763243407417  0.9968120819900284
  0.0013900691750459  0.1948483442755059  0.8074805109009238
  0.2039571922952765  0.1993329232871430  0.1765300859901470
  0.2027977600007674  0.5904944549489382  0.1835779905068939
  0.2088767282067428  0.8005438032987242  0.2139807357412701
  0.3929442374553354  0.2035208875453320  0.6021254001405570
  0.6107096334063757  0.0134237934488886  0.5900588032403937
  0.6058161236160363  0.1909456723663735  0.4112828061795944
  0.5909547497576099  0.2019650210144480  0.8110197677656484
  0.7987063379347716  0.1966790449480467  0.1975457638731016
  0.7873734937193783  0.1937813272339644  0.5913181668733625
  0.7981383427418623  0.1983278210580965  0.8017378109585868
  0.8018758216982345  0.8046935716063701  0.2018600198786780
  0.0014397216920492  0.9997492065806988  0.2044166360329545
  0.0014548623719372  0.0012865762676522  0.6002444036320571
  0.0019230134537206  0.9975670918507541  0.7982616609176365
  0.0012293895457396  0.2032651001290072  0.0062191051239249
  0.0034130689163155  0.1997492294675606  0.2023290943746318
  0.9895990097878636  0.2013084671610443  0.4014712083624372
  0.9994143655960728  0.1997748622314287  0.5978467331622052
  0.0005583060139724  0.4002195481609477  0.0021438234333135
  0.0007767471199594  0.3995906049070980  0.2021866920433188
  0.0008501907836582  0.4001045368010370  0.4014911479382930
  0.9994030161991905  0.3990084053174768  0.6016620030343151
  0.0010559415667712  0.4005769117692398  0.8012301503443696
  0.0012453996561477  0.6001562093412514  0.0017921929628395
  0.0005854202960707  0.5997700221190785  0.2001896631286721
  0.9959197469910478  0.5997843148671722  0.3995976799527277
  0.0016384225546503  0.6001253447451796  0.5988974111379893
  0.0003312209684292  0.5995952994841744  0.8017181672245116
  0.0024355701824777  0.7991857002387877  0.0030936937142809
  0.0025285147651426  0.8011335863027310  0.2018915109671857
  0.9905908592456146  0.8017619344283422  0.4015042244687794
  0.9999987617198327  0.8006509472142797  0.6014507514674198
  0.0006170922371447  0.7989976478736693  0.8011859484203007
  0.2026783931961235  0.0001014825901385  0.9998932253781773
  0.2014891922074297  0.0034105186340396  0.2010399344038838
  0.1987055566962161  0.0026125432043560  0.4016163912521806
  0.2022072688563214  0.0034804847708579  0.6003307355955929
  0.2020925929498424  0.0005372397661500  0.7986993166388403
  0.1995372040045237  0.1998133095976938  0.9883027451200685
  0.1964352714597322  0.2010118283463037  0.5963338897713804
  0.2020120050181183  0.1995337272901716  0.7959650080735984
  0.2001910645208814  0.3981971727236253  0.9996169746698892
  0.2016395765265185  0.3957160959325896  0.2010281888087201
  0.2000084496631349  0.4059054841477461  0.4019215323853449
  0.2002229113193729  0.4012388896722628  0.5993416903919749
  0.2003213356725355  0.3994471429587662  0.8002031236320223
  0.2007411289378399  0.5994841705100739  0.9935668919437195
  0.2008566106014630  0.6010860847721673  0.5997435230186152
  0.2012430156360795  0.5996985121536024  0.7983018590983585
  0.2008893234269055  0.8000727341407707  0.9998931858210356
  0.1824316898573903  0.8165881797665586  0.4101734595599494
  0.1994398704125541  0.8014648080214442  0.6032415259519285
  0.2005800877956524  0.8022363133443613  0.8017706755833812
  0.4009836373362529  0.9997024479377697  0.0017133469493105
  0.4007667790671637  0.9975548319777799  0.2007083312555223
  0.3980644445219609  0.0039841205663960  0.4001321818249288
  0.4020989220001743  0.0001041126912191  0.7986867750642161
  0.3993859581178603  0.1987289850898797  0.0016543997333011
  0.4015385052199830  0.1984223398796235  0.2011797068293406
  0.3990414048684089  0.1988813240976831  0.3999771823163760
  0.3965510971402569  0.1994021304211419  0.8049342427302040
  0.4006559039929615  0.3987728603813879  0.0020138586906424
  0.4016233199961213  0.3976963470215161  0.2019932432369852
  0.4002167942397046  0.3950675972586173  0.4016935577963742
  0.3999991192335058  0.4011980471189646  0.6014232555903045
  0.4007607449175041  0.3994362245973902  0.8007560357684789
  0.4006155866065905  0.5989632417509478  0.0008295894043275
  0.4040193947176266  0.5968853130442621  0.1996431998353822
  0.4090295250876157  0.5900182502072345  0.4000189069423737
  0.4009482299086375  0.5987358901488450  0.5995552967655802
  0.4013861620309346  0.5998544641689124  0.8013454887575934
  0.3995220002328392  0.7997183996767386  0.9975787394819373
  0.4049123193970447  0.7992598682697819  0.1910689390094138
  0.4001701069152478  0.8004385066881021  0.6019402208624012
  0.4005999250751594  0.7999348828640975  0.7996914832677922
  0.6011201368383335  0.0004670189231515  0.9998884735108137
  0.6018128615900491  0.9997125108167998  0.2019693516548480
  0.5936859710371513  0.9941686518124491  0.3970099575420571
  0.6010814810066475  0.0004561721513507  0.8006809204199007
  0.6000500379929139  0.2000454518027351  0.0065017796549463
  0.5980436345056444  0.1984118212488939  0.2011668416031911
  0.5934269239557715  0.2055266555083439  0.6081044215357631
  0.6016209899244138  0.3995497185411516  0.0015319112901831
  0.6008815055175082  0.3975042368817956  0.2028509317886931
  0.6013376780258528  0.3986418813511086  0.4023069806984392
  0.6000550879554947  0.4017269258019247  0.6025686368719793
  0.6007655874321516  0.4020347434847391  0.8023138952401099
  0.6013535763571790  0.5997145117043897  0.0013556567587353
  0.6026837312064379  0.5996018442461140  0.2001424036468834
  0.6022745417446285  0.5982015234737267  0.4002394794593255
  0.6006348707115342  0.6021338224194006  0.6009065272724093
  0.6008598973000651  0.6003453555350079  0.8011291789694068
  0.6011422288832355  0.8002402679081948  0.0008723858594151
  0.5988312978067560  0.7990072450810657  0.2000694469110857
  0.5983782946039542  0.7995226690652558  0.3999042777368549
  0.5988659955780182  0.8013216486833101  0.5997423324026142
  0.6002313031998788  0.8018719350951627  0.8004455883877445
  0.7995319313738694  0.0003750481286302  0.0006331978042375
  0.8013877695290839  0.0008240480096746  0.1993891461688306
  0.9442352217386778  0.0024295199004437  0.3995422940968605
  0.8061270944375012  0.9960643850317076  0.5999914706322677
  0.8011297599020266  0.9976255581376842  0.7987596477766243
  0.8012991636156430  0.1995780931285875  0.9985273345100879
  0.8008452192186517  0.1990717371581490  0.3955649106236099
  0.8013976865075741  0.3986355822705470  0.0010618861228289
  0.8016240657552312  0.3996448961850425  0.2008779425701471
  0.8000707878100480  0.3983710760494951  0.4006272085414999
  0.8001273886898156  0.4004807432305257  0.6003972671020512
  0.8008925229076975  0.4001498310408974  0.7997624842924727
  0.8016996318092340  0.5993490273705325  0.0005925165792652
  0.8008432924926834  0.5974496519793397  0.1997795913203338
  0.7993395972470587  0.6003135316493341  0.3999128918470707
  0.8001883457396176  0.5987994213431568  0.6008193776374472
  0.8009387933118753  0.6002723170525784  0.8010062879824718
  0.8016730254876470  0.8005311497254302  0.9983279842248717
  0.7959481414751765  0.7999421995778190  0.4033771380652874
  0.7996387766699095  0.7996782166300214  0.6016161299643704
  0.8006526218980984  0.7998823057122934  0.8011303175346651
  0.3993573389014042  0.9978028827286320  0.5985159181936685
