Zr V  Cr W 
 1.0000000000000000
    15.4863295998759050    0.0024137293282322    0.0105674120120943
     0.0024156779473548   15.5040449564505511   -0.0174543962439357
     0.0105707746262879   -0.0174578174046017   15.4782021514271442
 Zr  V   Cr  W  
  10 107   6   1
Direct
  0.0003166712084124  0.9690246611839740  0.7588640579540087
  0.9989089820877529  0.2019453631224879  0.6082926903178851
  0.0001648692350866  0.4328747087138507  0.0408270432195899
  0.0036672763397803  0.5784300340353409  0.2209520318591293
  0.9611415675602620  0.7918938437979713  0.1934558421987471
  0.0033084955917453  0.7977921576926044  0.5985780450220700
  0.1977791436424611  0.5584375968724925  0.5988534960054610
  0.3587414948031774  0.8033746045775042  0.1992250156443898
  0.8358217393543824  0.4310481118478073  0.3975528544831720
  0.7505780776744855  0.7914705219437125  0.1979788753570295
  0.0010376641427353  0.0064614892206244  0.9987070058226191
  0.0037837726007863  0.9987542235399272  0.3932101962944360
  0.0011851031019554  0.0035590568521156  0.5717003157821819
  0.0011674106652289  0.1993101233409064  0.2022977868325672
  0.0010391299001662  0.1984629465842782  0.4000693321979424
  0.0005122879909822  0.2045617817669124  0.8097797311383577
  0.9999232402753585  0.3867488993588334  0.2333746847187634
  0.0240334897687366  0.3941158474248183  0.4150654322014515
  0.9909634273217023  0.4046840369357810  0.6009087842994448
  0.0013364140303838  0.3973016425937025  0.8001063435360277
  0.0009950078252179  0.6226997739712671  0.0123964309263516
  0.0065650040268754  0.6086160140071216  0.4186203429227356
  0.9948457478939751  0.5975639471821009  0.6093825071661922
  0.9990602364980133  0.5930134778649432  0.8094259045133124
  0.0014346626496879  0.8122020482362936  0.9927129127383478
  0.0023828714325076  0.8013305583968412  0.3950178364821508
  0.0002028122557742  0.7822427945171440  0.8043095286938839
  0.1997684115766069  0.0023909394214443  0.9971350870832764
  0.2003120592515232  0.0019053451825312  0.1987088024437734
  0.2023117819511664  0.9994508574396778  0.3972145777963773
  0.2012076882887363  0.9991274878945648  0.5974660080611586
  0.2029576400366116  0.0005751649595013  0.7988674600613119
  0.2017561654297301  0.2008720698913324  0.0008512826905882
  0.2013274380561754  0.2001785530331501  0.1990598001905231
  0.2037301484319183  0.1996364000556596  0.3998538220989302
  0.2012463744156688  0.2004510642047224  0.8005594830519320
  0.2031677289025594  0.4008772294058262  0.0006461279740215
  0.1987187363361661  0.3994145112811463  0.1995124779128425
  0.2073792563616009  0.4031223215640766  0.3969633184733389
  0.1991496844973147  0.4002838829418749  0.8043231811770585
  0.2014106980875526  0.6022917032010586  0.0014974970080516
  0.2070738619486172  0.6008271067672895  0.1989052772670957
  0.2011994477408069  0.6015298268341379  0.3937342511926368
  0.2001162093468325  0.5996207068092729  0.8052697908400548
  0.1995335686577917  0.8027422167290955  0.9995226274668083
  0.1717160194722583  0.7970659797978270  0.1969779763115774
  0.1995831800951124  0.7998942944391485  0.3976201895805927
  0.2068034492083703  0.7962598132542434  0.5982498541464949
  0.1996874751912576  0.7992677123711485  0.7985103024034820
  0.4015484978063905  0.0006602343446807  0.9983632196596538
  0.4022978516799995  0.0040644788449018  0.1981068111722670
  0.4005012798715283  0.9991839302798119  0.3987318298174686
  0.4021272793120322  0.0004457404639990  0.5983326130207960
  0.4002986957389031  0.9993437345500805  0.7970579035447166
  0.4013756755360238  0.2002036183782896  0.9987164996343316
  0.4010514734230755  0.2007518340274158  0.1997750301397056
  0.4011089249225346  0.1989703145155043  0.3997705456102770
  0.4020812167065064  0.2006604298463972  0.5989453203928528
  0.4006574544187984  0.4003023829294003  0.9998190130414871
  0.4003671751253701  0.3979077372101029  0.1993654368791437
  0.4015515349844122  0.3986773635678794  0.4010795792538457
  0.4022819511860582  0.4001395210247717  0.6002858807402724
  0.3994313374302607  0.3996396323033976  0.7982731989862435
  0.4026190986628536  0.6008696693623777  0.9997679388432069
  0.4044160440345914  0.5940012664175355  0.2005766341968269
  0.4016134642269293  0.6014821733515480  0.4005527715428961
  0.4056712455977824  0.5992650442101405  0.5992466189048049
  0.4008986059261788  0.6006585791718346  0.8003966952652757
  0.3994476569964390  0.8010447665415547  0.9948558998418870
  0.4008486566325962  0.8001415322860925  0.4025666118416875
  0.4010123919207342  0.7999960278539656  0.6002634796534561
  0.4002305775630114  0.7991542460987214  0.7988039612295543
  0.6007838878422564  0.9993621713282352  0.9985608876235339
  0.6010276903058791  0.9965074463743079  0.1986434758430241
  0.6008887764153863  0.9978640769190694  0.3977404758153796
  0.6008598825680173  0.9991624589203509  0.5970191135028418
  0.6005996373767051  0.9980029192259851  0.7977503711268464
  0.5995869206724541  0.1986612854574252  0.9997835122429402
  0.6015385158043776  0.2003994427526438  0.1987886387170950
  0.6003991943294078  0.1985266304791833  0.5992848667982746
  0.6003716763448238  0.1996742729489619  0.7999170648900632
  0.6005247326964215  0.3990089899601536  0.9989539779903186
  0.6024317516683765  0.4003253536461577  0.1995791801021549
  0.6023167889853948  0.3988894873100419  0.3980318555996642
  0.6010320004164402  0.3996881879239105  0.5980512784684787
  0.5995149084193839  0.4000343309244237  0.7996399166424534
  0.6025984085071268  0.6000955644986419  0.0039039355064983
  0.6045093725801415  0.5992398906801943  0.3955590481120185
  0.6021831433774943  0.5999990478403602  0.5969188275710485
  0.6020720671563620  0.5994977687976679  0.8017644471705282
  0.6009582449821893  0.8005599427229722  0.9980090282351398
  0.5646923012185455  0.7906208134433061  0.1987176387447702
  0.5998149354050345  0.7998836712248680  0.3982377330187282
  0.6010875702229950  0.7994637618613968  0.5985136092025182
  0.5997428158517509  0.7981891504817331  0.7985276516378933
  0.8016133250201638  0.0014392000963925  0.9970582447594479
  0.8015496946995417  0.9976008430211679  0.1981193161395605
  0.8001655360550129  0.0008182770251517  0.3981186871859807
  0.8026075671192504  0.0002492960306498  0.5989005598898509
  0.7980708735090215  0.0001233607081292  0.7987902086532812
  0.7996959418522280  0.2003307760001547  0.9996316301179725
  0.7995501804887862  0.1994540476061574  0.1988991905989819
  0.7996196770095286  0.1966306376314244  0.3985395082733079
  0.7945539036297751  0.2013350788156076  0.5996344471503492
  0.8003875763289824  0.1992088764053743  0.8013979500070260
  0.8041330547467039  0.3977693567966468  0.1945303783046072
  0.7965068040813282  0.4004102180186470  0.6010049292587105
  0.7992894309305667  0.4001480155759201  0.8008933835327084
  0.8034421753846510  0.6008964672204088  0.0003644664265282
  0.7941392395570004  0.5945204666053839  0.2074664033614178
  0.8030348498614482  0.6182361771973804  0.4034593380260012
  0.7985813116777969  0.6005337410606123  0.6002703418293224
  0.8007950578900539  0.5990528078510621  0.8025811763441532
  0.8023807596533713  0.8024849581856410  0.9970011317995525
  0.8059062984654575  0.8065983100765750  0.4007708673006791
  0.7959420910511207  0.8005236672894102  0.6006041791802026
  0.8002596802059488  0.7988725791302930  0.7987300159512583
  0.0002611346948090  0.0030820728971077  0.1970091310832978
  0.0007537554690285  0.2011460448813642  0.0038355000639404
  0.2052122487940449  0.2041807794856420  0.6001729217136319
  0.4011473742365960  0.1998701474357366  0.7992013540904030
  0.6001607859420700  0.1986946395219745  0.3983186544995730
  0.7979869349678189  0.3996539091113199  0.9982990959197328
  0.6017845403523551  0.5978000817087591  0.1989933653236648
