Zr Ti V  Cr
 1.0000000000000000
    15.4889002550493640   -0.0195313770937778   -0.0155534076795571
    -0.0195267745976093   15.5102089440028070    0.0059105293967036
    -0.0155475950656657    0.0058984254639578   15.5083315327291498
 Zr  Ti  V   Cr 
   4   5 112   3
Direct
  0.2107165068323035  0.8013908763015396  0.1954235249897757
  0.2162134289488251  0.8056771640070721  0.8038632493431439
  0.3881846996871822  0.9672303549225766  0.8368797745567960
  0.3840855362189181  0.7957852685742530  0.9973622133363607
  0.1992223392393000  0.4007986117109895  0.0005662191185054
  0.2143882501552401  0.8122682600783986  0.5906666900544604
  0.3998226023123441  0.0138733681717967  0.0265213146799460
  0.3897688920215852  0.9892389265576832  0.5967928849930827
  0.8027326726637305  0.8003400461687310  0.2054247502384249
  0.9954555112292031  0.0003359420529643  0.0014209283691305
  0.9987927154902851  0.0008924327421523  0.1998389937964152
  0.9987712908982956  0.9997573672937774  0.3993709091535785
  0.9965118141064718  0.0003563208426509  0.5987756886823240
  0.9983668488361058  0.2003347284273614  0.9994226637594774
  0.9992775114321443  0.2006158952777644  0.1991540556823125
  0.9993416980360424  0.2000411299668119  0.3990224396275018
  0.9987494242674851  0.2008479866874528  0.5997728397105285
  0.9992648106004662  0.2016675989127655  0.7998990445639071
  0.9973453436317544  0.4013803166249953  0.0000353727839981
  0.9992796917655065  0.3993591680981489  0.1998757479473369
  0.9996770414097836  0.4007181111528184  0.3993874109167815
  0.0001684736145779  0.4009034961348311  0.5988064156464940
  0.0005471835381678  0.4001902992334762  0.7995338792519114
  0.9988102235378061  0.6006112467273017  0.9995543353063021
  0.0011302068483036  0.5998265837846125  0.1987262462143871
  0.0007103358962809  0.6006232650545994  0.3994727398290895
  0.0024189907287148  0.6017468889491289  0.5998537001966995
  0.0019098118735512  0.6025786760401060  0.8000888133195923
  0.9923341510384684  0.8004779897354731  0.9956311588140296
  0.0006040712982913  0.7998776791137516  0.2000422466806846
  0.0009497181469533  0.7995055405282301  0.3993997007500837
  0.0011345380661611  0.8012589342047329  0.6008094817114593
  0.0088918166138579  0.7998223924372969  0.7961490390889955
  0.1937842711918711  0.0035360391783150  0.0021474133467442
  0.1991068034559172  0.0044251958539855  0.2007690403786846
  0.1971853761109049  0.0014957442204506  0.3996971614658029
  0.1931664111753000  0.0076343487524173  0.5994605159346157
  0.1887158036070502  0.0113834476057229  0.8002159822581336
  0.1991981953216442  0.2001497539218927  0.9991454437766819
  0.1996861971446074  0.2012562308482758  0.1999659387834476
  0.1999409146234811  0.2001788930235078  0.3999774217396901
  0.1994467017359660  0.2022423699225825  0.5990237696306255
  0.2001529533626398  0.2024739218720200  0.7995338505908277
  0.1998950602400553  0.3996398775009735  0.2017639412345287
  0.1994534054715301  0.3990934978635053  0.3997371859135208
  0.2001766804126259  0.4005200438308387  0.5987054397600926
  0.1997200843912034  0.4002004601052482  0.7978012737931995
  0.1988031432039414  0.6019410847256427  0.9997529734349762
  0.2005770908332965  0.5958237480518677  0.1999911162279472
  0.1993782273327072  0.6003301303696118  0.3997817089977055
  0.2020667453732369  0.6005103421064846  0.6002431089097853
  0.2015497052557562  0.5965964503331346  0.7997472726477185
  0.1842754762484362  0.8007368303582660  0.0041372432457331
  0.2000351620903782  0.8007205994017725  0.3982317003222852
  0.3987528440400303  0.9993154215970451  0.2091267557484465
  0.3981859909741441  0.9987795216866290  0.3997002054095820
  0.3984706721165280  0.2034116069670112  0.9984652782703615
  0.3994012461832578  0.2014088472926507  0.2009778108244213
  0.3993628715035585  0.1987315974748964  0.4002478767828115
  0.3992138849459740  0.1977008784713362  0.6010247539206794
  0.3998325597961721  0.2022755202918749  0.7984037113177008
  0.4015631683362718  0.3987668539851443  0.0009283225528505
  0.4001831239254194  0.3989620395537591  0.2007128912705997
  0.3995120937219510  0.3992995575709867  0.3994482027451456
  0.4006665046405002  0.3978931580651964  0.5979197184168726
  0.4011134846190281  0.3972229869592185  0.7982560370292456
  0.3991419085074703  0.5916639905818477  0.9998632337583535
  0.4002011490191752  0.5979708548289333  0.1993452272677756
  0.3992828856391296  0.5983484043786816  0.3988086401571100
  0.4008220550289733  0.5952297161009029  0.5979608926069726
  0.4011170079679450  0.5903670089495966  0.7997959062541661
  0.4091650263798017  0.7974932964937469  0.2051732042850964
  0.4015740096528210  0.7972644205118451  0.4007037268981735
  0.4093420776828737  0.7917391187389122  0.5946326793172489
  0.4178008522688038  0.7780025505112254  0.7888922571600746
  0.5971082098489693  0.9989759365797151  0.9988419207747481
  0.5984874035916005  0.9998404357834567  0.1984543198499499
  0.5991263719184972  0.9994402404213019  0.3994617302448723
  0.5998843485684915  0.9982318733501624  0.5994455669967729
  0.5993886553048481  0.9988914937446088  0.7987945019051207
  0.5984429515244573  0.1988274674111233  0.9982557126588476
  0.5989311714848596  0.1995422084129390  0.1994333734287680
  0.5986013012583123  0.1981920999482016  0.3994028432876501
  0.5993756492554403  0.1976620850017957  0.5992166680719300
  0.6000239347223413  0.3988261499316778  0.9989027368217559
  0.5998040568482859  0.3985727630679615  0.1990336102237575
  0.5998589181289569  0.3990091799877443  0.3989109787543657
  0.5999358863369052  0.3983602852089883  0.5990412868708638
  0.6011928674660952  0.3980195560219824  0.7995193985535295
  0.5987646524751866  0.6005663322796341  0.9989646274535837
  0.5994067580735549  0.5992520712375601  0.1980072551098356
  0.6001703257340379  0.5997904159015571  0.3986926978503022
  0.6018166395209853  0.5984638258032536  0.5995261130450490
  0.6040363318043455  0.5976560133375467  0.7996458185714130
  0.6000683934338721  0.7990878892759378  0.9986284159550682
  0.5998739155516013  0.8003364993673842  0.1976136464934612
  0.6003778162733544  0.8000782084507485  0.3987400997582722
  0.6058060272830558  0.7987655460012463  0.5990619032722387
  0.6014245246367353  0.7982651124125291  0.7988223849569166
  0.7978345702713107  0.0004411535095776  0.9996620648836338
  0.7979976188741965  0.0031265308901280  0.1998045791162425
  0.7993032009919272  0.0007854423707627  0.3989689234070071
  0.7989678345173066  0.9993985307989774  0.6008915928732700
  0.7972157388855293  0.0031745792165834  0.8003032811310513
  0.7985306592573197  0.2002876265893798  0.1991866838553720
  0.7990635721960608  0.2000553750276033  0.5987864276738477
  0.7994443556576346  0.2004168093195302  0.7997468225981350
  0.7987762470977936  0.3988634842921874  0.9998544828933935
  0.7994356746480205  0.3991465316848637  0.1995783855092827
  0.7996738335130499  0.3993669270295217  0.3990675361396001
  0.8001037813373280  0.3988309488618041  0.5985420205624717
  0.8010005200364563  0.3995380552057996  0.7994091433370685
  0.7996629602022856  0.6007221223677373  0.9985269553988891
  0.7997280722122544  0.5972213694154292  0.1989586317798687
  0.8006659270761741  0.5989086715313454  0.3989253734774173
  0.8014828658065728  0.6001391793190083  0.6004084152587785
  0.8020733056064822  0.5962779898122023  0.7991546471320359
  0.7964312528309059  0.8001839958089644  0.9928289536865108
  0.7998461500844449  0.7996723119187782  0.4016137708181000
  0.8023152850269095  0.7993785871032810  0.5965603473908193
  0.9951827357900150  0.9978457298530007  0.8011171082124103
  0.5993753395516388  0.1985732872317200  0.7991180296177335
  0.7979460522755250  0.2002823516680906  0.9994634617918932
  0.7989168121685635  0.2001567345480212  0.3993072968207637
