Zr Ti V  Cr W 
 1.0000000000000000
    15.4774007178547244   -0.0057270445464663    0.0060485456842571
    -0.0057275938548885   15.4869400142696509   -0.0016006725836938
     0.0060484205712483   -0.0016004018593464   15.4828342852602923
 Zr  Ti  V   Cr  W  
   2   1 107  10   4
Direct
  0.0023738575774837  0.4016560857904616  0.0008823541970087
  0.4013125494075608  0.5968670610029847  0.8025220458824553
  0.7986351675752353  0.1931807306531819  0.5996327811883929
  0.9996145700970233  0.9988884879325272  0.1353129142462411
  0.9997328667637434  0.0002560355129223  0.4004730636676090
  0.9969379917691876  0.9991645750686761  0.5992088618581343
  0.0006798038436882  0.0001588537334608  0.7967358269686515
  0.0009531363872163  0.1943917937476420  0.0018910809699109
  0.0001023517943970  0.1997538851842758  0.1996361687957175
  0.0000597894027735  0.2000048229775707  0.3993081410844282
  0.0035972329787700  0.2001180597444240  0.5988843010921224
  0.0018307519261516  0.1981319286591132  0.8009783102132345
  0.9995979801291732  0.3998284606339328  0.2050500991000054
  0.9997910873262359  0.3999497082570533  0.4019422027029921
  0.0013768207806817  0.4004459052557991  0.5984770408106380
  0.9951376623571074  0.4003118772379292  0.7946297199107861
  0.9999655397310940  0.6079580330016325  0.0003622372459031
  0.0001210424358271  0.5997931411300754  0.2012096230731527
  0.9992616156643481  0.6002499459272304  0.3999873072555511
  0.0005098402916690  0.6012648849967114  0.5989412998991550
  0.0005924057031725  0.6006693620757478  0.7979047276661800
  0.0002173247609911  0.8001223353025038  0.1969888216638678
  0.0001701167621590  0.8007027278717410  0.3985380789526912
  0.0014867969837162  0.7984874672120745  0.6005695119761407
  0.9995823498637686  0.8011301364239185  0.8023499674420356
  0.2029427631934646  0.9996229602572816  0.9992100433365403
  0.2005794898285618  0.0001362600796755  0.1991982360556782
  0.1996502976224627  0.0002247828390909  0.4008086901498025
  0.1993905256288896  0.0005057369436949  0.7990999712328586
  0.2009512571692736  0.1987346931291996  0.0002921036664318
  0.2004772711219026  0.2002727002129898  0.1999934974846991
  0.2001203772749852  0.1996302519522493  0.3995502644154048
  0.2001023324613813  0.1987704603653377  0.6001768135625403
  0.1997050217138724  0.1999276294546732  0.8007142100516350
  0.2058850925961720  0.4005346308575478  0.9992961076453003
  0.2021345192281424  0.4002378577979265  0.2017205039644945
  0.1999953951837124  0.4003212725753675  0.4010826657948428
  0.2048667640064291  0.4004497862209996  0.6006175203413056
  0.1980237416403920  0.3990604476260592  0.7991870286579187
  0.2011079260688572  0.6012174793721353  0.0000778581722349
  0.2004102337800359  0.5989680384052286  0.2002583815784482
  0.1990431072281984  0.6005080831631877  0.3993575233123677
  0.1963869460393840  0.5995067838628347  0.7997409042265617
  0.1981546813428208  0.8011886240590603  0.9989070416449787
  0.2006045560584514  0.8001404709687209  0.1998649310208722
  0.2001368010320899  0.8004358792524867  0.4004449170458864
  0.2000962923667322  0.8001615804590686  0.5998829627513068
  0.4012815266117215  0.0006627799263075  0.9999432069809224
  0.4009267551952421  0.0003868800426332  0.2009084285895124
  0.4006932755757051  0.0006659279201102  0.4014274535806742
  0.4007623591258383  0.0006793031693745  0.5996696880517329
  0.4005003865497379  0.0006464044859182  0.7979912311390384
  0.4008189936122974  0.2004499090515035  0.0004517929641592
  0.4008757223660118  0.2006555563293042  0.2002126585848253
  0.3999914111906857  0.1999836434552504  0.3993384302063180
  0.4001409188888015  0.2027007382274878  0.5995324428205803
  0.4001629932667553  0.1986185042186138  0.8007863407768103
  0.4020712175360971  0.3985872225562195  0.0000043867134500
  0.4008370565189071  0.3999005697979082  0.4041693382999516
  0.4022831607508344  0.3938414305424692  0.7952045611666476
  0.4002185460946277  0.6008755981058004  0.0054837093781693
  0.4002297766980800  0.5994754909177887  0.2020340054184745
  0.3997446654528909  0.6007181223789082  0.3997277276269567
  0.3999219603982075  0.5967087009949377  0.5964483783467106
  0.3996526915450357  0.8014993415295049  0.0009163214584384
  0.4001113645175428  0.8004169552548361  0.2001972934241589
  0.3996686336171745  0.8002863786686245  0.4000690168104171
  0.6004750291069488  0.9995067850098173  0.9992620575246762
  0.6011534800770533  0.0007916781822905  0.2003783234758371
  0.6003141342914875  0.0003081348127820  0.3995631767662202
  0.6029586788252138  0.9992010060958881  0.5996520346416923
  0.5998314964463026  0.0008283819253321  0.7997762178506885
  0.6004808287521692  0.2003019376653615  0.1993588853807947
  0.6009161089801462  0.2004010002882540  0.3982334634694609
  0.5984230285764386  0.1989247254952489  0.5988519184216019
  0.5997012570267378  0.1989368250928933  0.8009902251739113
  0.5982767925738111  0.4009648948123454  0.9999074926581649
  0.6005231715092649  0.3995482758051691  0.2002174529749863
  0.6011607750659452  0.3998427540700811  0.3999032367345085
  0.5962508792175639  0.4007229389171694  0.5997164383716997
  0.6060822553983068  0.3989619788926632  0.8001925619893450
  0.6003655543663373  0.6014173032349849  0.0014552652736705
  0.6004620782580272  0.5995662875380388  0.2003255316952101
  0.6010160652825627  0.6002548263046446  0.3993217542582621
  0.6004288612910178  0.6023062766847558  0.5990439284803684
  0.6050196388806748  0.6013972776731844  0.8000952962678635
  0.6001705264471310  0.7999155328897716  0.9996573883238610
  0.5999585813611596  0.8003187411111218  0.1993815635994415
  0.5994819737238477  0.8005493348399949  0.3998252919522874
  0.5986172450952113  0.7988438519421298  0.6005791882207110
  0.6010860642166174  0.8010542345276698  0.8003378396690054
  0.7969899965899444  0.0008583347282072  0.9985801734645021
  0.8001606123041625  0.0006424442672535  0.4031777032615908
  0.8008321391929502  0.0021101206116869  0.7965026617386807
  0.8009121074858119  0.1968139930457567  0.0011161720214719
  0.8004527077399403  0.2005625649405107  0.1988226336147038
  0.8006027284723037  0.2032953184373716  0.8026304488808963
  0.7952515634672319  0.4003918718665794  0.9947837256676719
  0.7995257725146664  0.3999187395546589  0.1989440870746628
  0.7997191280467043  0.3990427317051269  0.4020894021262743
  0.7986704052226803  0.4011683914214278  0.6037178432319854
  0.7993295454820879  0.6004129614879038  0.0004351427933900
  0.7999106482653140  0.5985918534426785  0.2003982644055018
  0.8003339443861535  0.5998075554022140  0.4002670126992310
  0.7999162885937443  0.6006773908948271  0.5986685065368788
  0.8018244215572441  0.8021062510554986  0.9991863350402264
  0.7997788397269789  0.8002783214377879  0.2006878987327616
  0.7999393186113766  0.7997180690966940  0.3989155897450614
  0.8003777318999268  0.8013930045533497  0.6004760803004627
  0.8000762024310356  0.8002642854655078  0.8000208162992610
  0.2004132266347977  0.9993474054079936  0.6000196672593043
  0.1997935382494022  0.6007745281422932  0.5995639244945837
  0.2001119934791908  0.8005550474430182  0.7989957119264156
  0.4013076558194901  0.3999335913058354  0.2018203054118391
  0.3993801610685604  0.7997916712924135  0.6000614870066289
  0.3998153369219513  0.8030155143110294  0.7998241100703674
  0.5998064559379178  0.1999441937996842  0.0006061832016258
  0.8008425222663779  0.0002027922203159  0.1999659338212600
  0.8003444253827131  0.2000556971890802  0.3970115680792872
  0.8013932476647357  0.6004971293793828  0.7991676543459750
  0.9985408566708214  0.7988939891939473  0.0003588632429234
  0.4009549640521595  0.3993387541448391  0.6004989007494842
  0.7995454859612070  0.9958354129922229  0.6006334176886599
  0.8003358256779621  0.3964528303115005  0.7995079028003262
