Ti V  Cr
 1.0000000000000000
    12.2882735461728885    0.0000000000000000   -4.3445607757035454
    -6.1441367710433559   10.6419570608175889   -4.3445607757035454
     0.0000000000000000    0.0000000000000000   13.0336823299999995
 Ti  V   Cr 
  19 101   4
Selective dynamics
Cartesian
 -1.2288273542086712  2.1283914121635177 -0.8689121551407091   F   F   F
 -2.4576547084173423  4.2567828243270354  0.8689121557185819   F   F   F
 -3.6864820626260135  6.3851742364905535 -2.6067364654221272   F   F   F
  0.0000000008172355  4.2567828243270354 -2.6067364654221272   F   F   F
 -1.2288273533914353  6.3851742364905535 -0.8689121545628362   F   F   F
 -1.2288273533914353  6.3851742364905535  6.9512972434371640   F   F   F
 -2.4576547076001072  8.5135656486540707 -4.3445607757035454   F   F   F
  4.9153094184691559  0.0000000000000000 -1.7378243102814181   F   F   F
  1.2288273558431426  6.3851742364905535 -4.3445607757035454   F   F   F
  0.0000000016344710  8.5135656486540707 -2.6067364648442544   F   F   F
  0.0000000016344710  8.5135656486540707  5.2134729331557459   F   F   F
  7.3729641277037326  0.0000000000000000  0.0000000005778728   F   F   F
  7.3729641277037326  0.0000000000000000  7.8202093985778731   F   F   F
  6.1441367734950614  2.1283914121635177 -3.4756486205628363   F   F   F
  2.4576547108690474  8.5135656486540707 -6.0823850859849635   F   F   F
  9.8306188369383118  0.0000000000000000 -3.4756486205628363   F   F   F
  8.6017914827296398  2.1283914121635177 -1.7378243097035453   F   F   F
  8.6017914827296398  2.1283914121635177  6.0823850882964550   F   F   F
  7.3729641285209695  4.2567828243270354 -5.2134729308442544   F   F   F
  0.0000000000000000  0.0000000000000000  0.0000000000000000   F   F   F
  0.0000000000000000  0.0000000000000000  2.6067364660000001   F   F   F
  0.0000000000000000  0.0000000000000000  5.2134729320000002   F   F   F
  0.0000000000000000  0.0000000000000000  7.8202093979999994   F   F   F
  0.0000000000000000  0.0000000000000000 10.4269458640000003   F   F   F
 -1.2288273542086712  2.1283914121635177  1.7378243108592910   F   F   F
 -1.2288273542086712  2.1283914121635177  4.3445607768592911   F   F   F
 -1.2288273542086712  2.1283914121635177  6.9512972428592903   F   F   F
 -1.2288273542086712  2.1283914121635177  9.5580337088592913   F   F   F
 -2.4576547084173423  4.2567828243270354 -1.7378243102814181   F   F   F
 -2.4576547084173423  4.2567828243270354  3.4756486217185820   F   F   F
 -2.4576547084173423  4.2567828243270354  6.0823850877185812   F   F   F
 -3.6864820626260135  6.3851742364905535  0.0000000005778728   F   F   F
 -3.6864820626260135  6.3851742364905535  2.6067364665778729   F   F   F
 -3.6864820626260135  6.3851742364905535  5.2134729325778721   F   F   F
 -3.6864820626260135  6.3851742364905535  7.8202093985778731   F   F   F
 -4.9153094168346847  8.5135656486540707 -3.4756486205628363   F   F   F
 -4.9153094168346847  8.5135656486540707 -0.8689121545628362   F   F   F
 -4.9153094168346847  8.5135656486540707  1.7378243114371639   F   F   F
 -4.9153094168346847  8.5135656486540707  4.3445607774371631   F   F   F
 -4.9153094168346847  8.5135656486540707  6.9512972434371640   F   F   F
  2.4576547092345780  0.0000000000000000 -0.8689121551407091   F   F   F
  2.4576547092345780  0.0000000000000000  4.3445607768592911   F   F   F
  2.4576547092345780  0.0000000000000000  6.9512972428592903   F   F   F
  2.4576547092345780  0.0000000000000000  9.5580337088592913   F   F   F
  1.2288273550259068  2.1283914121635177 -1.7378243102814181   F   F   F
  1.2288273550259068  2.1283914121635177  3.4756486217185820   F   F   F
  1.2288273550259068  2.1283914121635177  6.0823850877185812   F   F   F
  1.2288273550259068  2.1283914121635177  8.6891215537185822   F   F   F
  0.0000000008172355  4.2567828243270354  0.0000000005778728   F   F   F
  0.0000000008172355  4.2567828243270354  2.6067364665778729   F   F   F
  0.0000000008172355  4.2567828243270354  5.2134729325778721   F   F   F
  0.0000000008172355  4.2567828243270354  7.8202093985778731   F   F   F
 -1.2288273533914353  6.3851742364905535 -3.4756486205628363   F   F   F
 -1.2288273533914353  6.3851742364905535  1.7378243114371639   F   F   F
 -1.2288273533914353  6.3851742364905535  4.3445607774371631   F   F   F
 -2.4576547076001072  8.5135656486540707 -1.7378243097035453   F   F   F
 -2.4576547076001072  8.5135656486540707  0.8689121562964547   F   F   F
 -2.4576547076001072  8.5135656486540707  3.4756486222964540   F   F   F
 -2.4576547076001072  8.5135656486540707  6.0823850882964550   F   F   F
  4.9153094184691559  0.0000000000000000  0.8689121557185819   F   F   F
  4.9153094184691559  0.0000000000000000  3.4756486217185820   F   F   F
  4.9153094184691559  0.0000000000000000  6.0823850877185812   F   F   F
  4.9153094184691559  0.0000000000000000  8.6891215537185822   F   F   F
  3.6864820642604847  2.1283914121635177 -2.6067364654221272   F   F   F
  4.5057003006720100  2.1283914121635177 -0.2896373844690302   F   F   F
  3.6864820642604847  2.1283914121635177  2.6067364665778729   F   F   F
  3.6864820642604847  2.1283914121635177  5.2134729325778721   F   F   F
  3.6864820642604847  2.1283914121635177  7.8202093985778731   F   F   F
  2.4576547100518136  4.2567828243270354 -3.4756486205628363   F   F   F
  2.4576547100518136  4.2567828243270354 -0.8689121545628362   F   F   F
  2.4576547100518136  4.2567828243270354  1.7378243114371639   F   F   F
  2.4576547100518136  4.2567828243270354  4.3445607774371631   F   F   F
  2.4576547100518136  4.2567828243270354  6.9512972434371640   F   F   F
  1.2288273558431426  6.3851742364905535 -1.7378243097035453   F   F   F
  1.2288273558431426  6.3851742364905535  0.8689121562964547   F   F   F
  1.2288273558431426  6.3851742364905535  3.4756486222964540   F   F   F
  1.2288273558431426  6.3851742364905535  6.0823850882964550   F   F   F
  0.0000000016344710  8.5135656486540707 -5.2134729308442544   F   F   F
  0.0000000016344710  8.5135656486540707  0.0000000011557457   F   F   F
  0.0000000016344710  8.5135656486540707  2.6067364671557449   F   F   F
  7.3729641277037326  0.0000000000000000 -2.6067364654221272   F   F   F
  7.3729641277037326  0.0000000000000000  2.6067364665778729   F   F   F
  7.3729641277037326  0.0000000000000000  5.2134729325778721   F   F   F
  6.1441367734950614  2.1283914121635177  1.7378243114371639   F   F   F
  6.1441367734950614  2.1283914121635177  4.3445607774371631   F   F   F
  6.1441367734950614  2.1283914121635177  6.9512972434371640   F   F   F
  4.9153094192863902  4.2567828243270354 -4.3445607757035454   F   F   F
  4.9153094192863902  4.2567828243270354 -1.7378243097035453   F   F   F
  4.9153094192863902  4.2567828243270354  0.8689121562964547   F   F   F
  4.9153094192863902  4.2567828243270354  3.4756486222964540   F   F   F
  4.9153094192863902  4.2567828243270354  6.0823850882964550   F   F   F
  3.6864820650777190  6.3851742364905535 -5.2134729308442544   F   F   F
  3.6864820650777190  6.3851742364905535 -2.6067364648442544   F   F   F
  3.6864820650777190  6.3851742364905535  0.0000000011557457   F   F   F
  3.6864820650777190  6.3851742364905535  2.6067364671557449   F   F   F
  3.6864820650777190  6.3851742364905535  5.2134729331557459   F   F   F
  2.4576547108690474  8.5135656486540707 -3.4756486199849634   F   F   F
  2.4576547108690474  8.5135656486540707 -0.8689121539849635   F   F   F
  2.4576547108690474  8.5135656486540707  1.7378243120150358   F   F   F
  2.4576547108690474  8.5135656486540707  4.3445607780150368   F   F   F
  9.8306188369383118  0.0000000000000000 -0.8689121545628362   F   F   F
  9.8306188369383118  0.0000000000000000  1.7378243114371639   F   F   F
  9.8306188369383118  0.0000000000000000  4.3445607774371631   F   F   F
  9.8306188369383118  0.0000000000000000  6.9512972434371640   F   F   F
  8.6017914827296398  2.1283914121635177 -4.3445607757035454   F   F   F
  8.6017914827296398  2.1283914121635177  3.4756486222964540   F   F   F
  7.3729641285209695  4.2567828243270354 -2.6067364648442544   F   F   F
  7.3729641285209695  4.2567828243270354  0.0000000011557457   F   F   F
  7.3729641285209695  4.2567828243270354  2.6067364671557449   F   F   F
  7.3729641285209695  4.2567828243270354  5.2134729331557459   F   F   F
  6.1441367743122983  6.3851742364905535 -6.0823850859849635   F   F   F
  6.1441367743122983  6.3851742364905535 -3.4756486199849634   F   F   F
  6.1441367743122983  6.3851742364905535 -0.8689121539849635   F   F   F
  6.1441367743122983  6.3851742364905535  1.7378243120150358   F   F   F
  6.1441367743122983  6.3851742364905535  4.3445607780150368   F   F   F
  4.9153094201036271  8.5135656486540707 -6.9512972411256726   F   F   F
  4.9153094201036271  8.5135656486540707 -4.3445607751256725   F   F   F
  4.9153094201036271  8.5135656486540707 -1.7378243091256724   F   F   F
  4.9153094201036271  8.5135656486540707  0.8689121568743269   F   F   F
  4.9153094201036271  8.5135656486540707  3.4756486228743277   F   F   F
 -2.4576547084173423  4.2567828243270354  8.6891215537185822   F   F   F
  2.4576547092345780  0.0000000000000000  1.7378243108592910   F   F   F
  1.2288273550259068  2.1283914121635177  0.8689121557185819   F   F   F
  8.6017914827296398  2.1283914121635177  0.8689121562964547   F   F   F
