Zr Ti V  Cr W 
 1.0000000000000000
    15.4218125631900325   -0.0059686382723848    0.0062585989012477
    -0.0059677460242910   15.4281327699692579    0.0068346148581175
     0.0062604253005019    0.0068382331099848   15.4329886035241781
 Zr  Ti  V   Cr  W  
   1   3 110   3   7
Direct
  0.3991168279409797  0.8024226147283595  0.5980768781293968
  0.2014328989772985  0.6064190937696620  0.1898625070028209
  0.1984536993530466  0.7899011787470612  0.0066722969231310
  0.6002759344895560  0.5978446696375139  0.5818289997382564
  0.0018397783176425  0.9974464501829202  0.9997179216326324
  0.0003613041837392  0.0016420092354923  0.2000404326190136
  0.0005703762009119  0.9922769669852705  0.3998055780352172
  0.9989717324140451  0.0015367556486027  0.6008442089076544
  0.9999664798424863  0.9976092656270980  0.8018088649605983
  0.0003902214856422  0.1990861291596059  0.0031820179943189
  0.0020091218032809  0.1996697571201368  0.6021157015604528
  0.9982853727855876  0.1987366908456705  0.8012437297886821
  0.0050877644625604  0.4010614397030598  0.9995812539907079
  0.0015819828850870  0.3983503341272259  0.2014940672311621
  0.0012531830960469  0.4068343404454453  0.3991870881758164
  0.0002100648551370  0.3989163814733298  0.5982668904129604
  0.9989466508178528  0.4009550102792847  0.8008941518503411
  0.9999537968884642  0.6003689704676876  0.9995333917920292
  0.9981545258888703  0.5998872532809669  0.1992025811256485
  0.0009765911224122  0.6043416135333756  0.3990540546874904
  0.0004677034158245  0.5990200999476261  0.6012564334860712
  0.9991981842404212  0.6010320080987379  0.7992506068266477
  0.9987727872309329  0.7986959160234874  0.0012854880591604
  0.9993911079317432  0.7994806279712567  0.5977727275941673
  0.9997685901515200  0.7989419927770457  0.8002313612068835
  0.2006256725017368  0.0018327062603555  0.9998751579333609
  0.1998306964860819  0.0009475556672827  0.1996645354484170
  0.1995102262252844  0.0004374145426687  0.4002500904291194
  0.1998464473027275  0.0047850457564655  0.6011947861474496
  0.2004498454975416  0.9978760476257859  0.8012322233117393
  0.2008402784103188  0.2019265329428074  0.9969950989804112
  0.1630793916801310  0.1996632530808277  0.2357501043504033
  0.2022861581427061  0.2000884877486283  0.4041291425790049
  0.2004170938928939  0.1989557205076736  0.7959854463761128
  0.2004966808245527  0.3973046660925651  0.1952300953886918
  0.1994721341797277  0.4010242976374888  0.3977394356681861
  0.1998979913227192  0.3952996212342451  0.6003660664606684
  0.2006962666399616  0.3999174584679368  0.8022134485504467
  0.2008559349118060  0.5908822259070952  0.9933858992624864
  0.2000822373063214  0.5964058045101847  0.6000530158371876
  0.2011896375071130  0.5993059243164010  0.7974019969783067
  0.1994771345495013  0.8030900351878387  0.2035934967817949
  0.1950500558540651  0.7979614618479886  0.4004357561715981
  0.1957176481705771  0.8008519836316604  0.6010252515395966
  0.1997764211840222  0.7975545591133403  0.7993523682213647
  0.3987385563150012  0.9988452592199569  0.0006712642925356
  0.3995921979347826  0.0005559614596403  0.1991086164901120
  0.3991032715915615  0.9973705026521290  0.3984015974350141
  0.3994389312366723  0.0042882200352017  0.6003786921669996
  0.4007636578539545  0.9974309511753360  0.8023011068436749
  0.4006383704023967  0.1991119505241594  0.0007335715777406
  0.4027485810942356  0.1986595525742148  0.2002433832201818
  0.3995536663727986  0.2006112967953213  0.3977380472843223
  0.4004704420003102  0.2007862636371196  0.5997429207077631
  0.4015937479844669  0.1991412875314225  0.8010481587605796
  0.3964067537205004  0.3992828392660820  0.0005033875927608
  0.4000328263707979  0.3995916428983776  0.2004810569927866
  0.3993088033759108  0.4022458888666137  0.3979358061747201
  0.3990022946952016  0.3993837094047140  0.6002019481908668
  0.4009348328679260  0.4001613523221804  0.8003546096909188
  0.3997253874274632  0.5993359683948052  0.0007559462751507
  0.4019812827852893  0.6007543869965549  0.1994775810054459
  0.3985682869068790  0.5998849921077816  0.3989258306448069
  0.3979267753256701  0.5958597242533222  0.6000280988744030
  0.4054511369690937  0.6000193298105854  0.7992076627467944
  0.4011264977406703  0.7986785357995587  0.0020374529964207
  0.4006477239806502  0.8007038635084589  0.2002839248699077
  0.3979008699209114  0.7979301037437158  0.3948743383382920
  0.3996909848001748  0.7989476995490921  0.8043739752763182
  0.5991602380059139  0.9990686897555264  0.9984549545361123
  0.5996516056949692  0.9998238628109817  0.2004092743503769
  0.5984640077745705  0.9977785903488081  0.4007020890382494
  0.6003366195850330  0.0046323019390956  0.6010144412276036
  0.6000537087989823  0.9975393093751598  0.8004883420070472
  0.5999406351932002  0.2000114572440200  0.9981989598217629
  0.6042632426670875  0.1998925961017885  0.2012459240371216
  0.5995911701587299  0.1999445810715096  0.4037778272849750
  0.6008845805135712  0.1993729135396922  0.7965806933632779
  0.5982756918412908  0.3984272187937640  0.0003869067159323
  0.6001120534906343  0.3993108013437356  0.1999491984924897
  0.5987125228160043  0.4026259752768083  0.4010367572152480
  0.6002650717297847  0.3935062770788766  0.6004088324737421
  0.6005366856834907  0.4031768247754375  0.7997146926274434
  0.5997923598433768  0.5988512524009028  0.0009624870316936
  0.6007468556180320  0.5997005469459290  0.1990774555926074
  0.5998290741880949  0.6005775837461617  0.3951927792581633
  0.6002350652685674  0.7995352366508348  0.0022442451068238
  0.6015102730703134  0.8008011351880560  0.2007800316058889
  0.6009642370591438  0.7990517065845116  0.4006225478651483
  0.6044474534414932  0.8032597013274871  0.5999093305917297
  0.6013421856692112  0.7949219831083353  0.7996563364374444
  0.7998470495080575  0.9989322312710667  0.9996632142882005
  0.7997884846204812  0.0034960678972895  0.1995395348267605
  0.8002976804560341  0.9996571823457159  0.4004103736373231
  0.8005376146499397  0.0017915344744510  0.6008323905951837
  0.7998961583488353  0.9986913098165520  0.8014074196646651
  0.7997485117901078  0.1998336171568102  0.0026617273243301
  0.7972851423335120  0.2004488035281958  0.3976901177437172
  0.7985043530727473  0.1998134285276288  0.5982904969675898
  0.8018527295565780  0.3998226161162119  0.9993904048633856
  0.7998156419782302  0.3964364031137225  0.1998446063024330
  0.8022470278640701  0.4008904015514100  0.4003429835795754
  0.8015762742336651  0.3979523457728817  0.6012076817845465
  0.8011082527921851  0.3993378148494391  0.8007703153791869
  0.8010476708055694  0.5988147215740969  0.0014374392918862
  0.8003682645547968  0.5981342473826535  0.1993704744324010
  0.7988643710023960  0.5999454677257591  0.3999584199448678
  0.8015758298082446  0.5979384210437214  0.6001379884372333
  0.7963453317950433  0.5998819501027015  0.7994932951805357
  0.8010291059466655  0.7993568153425463  0.0012484559892190
  0.7993951205408897  0.8012250193932065  0.2003653719403537
  0.8028909109025512  0.7988013595653558  0.3995869366719837
  0.8005786141480639  0.8010317735807427  0.6018751617245842
  0.8008343531006656  0.7991733440357849  0.8002168495826820
  0.9988608159688029  0.8008211742624992  0.2011335812258409
  0.1998968480617317  0.5992847091520306  0.4009001748942489
  0.7999220640323313  0.1995928124815484  0.8013918472188060
  0.9947819510458226  0.1987711439244765  0.1968468716959785
  0.9979585366042238  0.7997766414692363  0.4025864647601373
  0.1995035719266343  0.2005764241530491  0.5996896196746329
  0.2009038782065097  0.3965373583371857  0.9982258760298316
  0.5983375331892907  0.1999235011944122  0.5996215723026732
  0.6009978007450477  0.5990258473066752  0.8079212520552966
  0.8018452770310083  0.1999991599556994  0.2019630468687651
