Zr Ti V  Cr W 
 1.0000000000000000
    12.6172176936866709    0.0115451545700756   -4.4669336730166407
    -6.2903605648566554   10.8649981714077679   -4.4432462987804993
    -0.0385933284248056   -0.0380859578850954   13.2914089255054595
 Zr  Ti  V   Cr  W  
  10   9  91   5   9
Direct
  0.9994690240650311  0.9993975384586350  0.7955226468175429
  0.9958355361677996  0.2015708508857214  0.0058706950253180
  0.0019290799749764  0.4005730447132312  0.6067109265769611
  0.2028477823311954  0.1940157141916670  0.8017995414305661
  0.1833708331380157  0.3943629192966990  0.3865797363467081
  0.3957576284166209  0.3936735295907153  0.3988963976335963
  0.3998429535188960  0.8142435196567480  0.6177697701889577
  0.4757117411694445  0.0691273796545705  0.8740376907560450
  0.5944507084771630  0.3645280555457239  0.9956477106609327
  0.6082733963657447  0.4053926306920799  0.4073597654730902
  0.9865244560874388  0.4012080586526767  0.3897171973701176
  0.0009303412479482  0.6101488549162385  0.0041745126929823
  0.0042021596451801  0.5989333879221720  0.7982408576722895
  0.2184227857405246  0.2154312496526369  0.0360358978403679
  0.1956769337551214  0.1931414108119119  0.5865645244192724
  0.4017118024140056  0.8117792374740879  0.4034635377473654
  0.6026787875501909  0.6021892080548074  0.0009121955866913
  0.6046968245334711  0.7959414138628095  0.8048166025400466
  0.7981652047498347  0.6044634572868884  0.8014734807602540
  0.9932972212797933  0.9840379741828752  0.0065011080660980
  0.9895074740885043  0.9888031234778163  0.1989678072797504
  0.9900035881553413  0.9922800207610558  0.3964697069253625
  0.9729408782783289  0.1780529550343251  0.1963214461335975
  0.9915174046166795  0.1902628259082214  0.3974282862921835
  0.9918911965215956  0.1846397594047291  0.5927240366605744
  0.9990953675447657  0.2222858382048588  0.7969433990865857
  0.0051706628832938  0.4082969857226639  0.9952356501293064
  0.9914513657003697  0.4035763837419481  0.1892603293667014
  0.9976407812453704  0.6052045497534708  0.2030846820120802
  0.9985379431202452  0.6072235166960637  0.3970512828695370
  0.0027046446327328  0.6092297658903443  0.5950648363412065
  0.0021599840672838  0.8069232207375734  0.0045648980540804
  0.9966790622664017  0.7975343312344546  0.2002053581980899
  0.9984586494414106  0.7989878078346341  0.3976102667166152
  0.0007167473028955  0.8016810473441591  0.5977364772605640
  0.9997664379521050  0.7963755226682144  0.8006992223414030
  0.2005324969205127  0.9934453682860794  0.0043768933520947
  0.1946198318608297  0.9906010378111667  0.1975788446577414
  0.1949736631373558  0.9950369403977701  0.3944736710824148
  0.1934656185931885  0.9894552171700994  0.5897656765586639
  0.2193254375350930  0.9837123872502480  0.8068373656493262
  0.1824708697930510  0.1760227389109222  0.2033175462066703
  0.1901482646346108  0.1818374433496432  0.3880629486651262
  0.2113040688337038  0.4194531426323629  0.1950508270779974
  0.2059403642960498  0.4091139782792185  0.8122111783324848
  0.2027334760388807  0.6003776228486389  0.0001018571719822
  0.1915833727101246  0.6073709336450410  0.3913026908305542
  0.2062865984350509  0.6072053203080652  0.6087557632316777
  0.2181981433646720  0.6137708694385402  0.8141567484136404
  0.2002342355741243  0.8012978034939489  0.0040057689796834
  0.2011692246761020  0.8055983237298423  0.2040197900040366
  0.1946779909838435  0.8075781896632090  0.4009932847825420
  0.1840822611057678  0.7988472369757322  0.5991339559770702
  0.1972745826800435  0.7962171262152907  0.8035949487445434
  0.3962888939178268  0.9911485667345309  0.0122625819927909
  0.4000969240084774  0.9973608175088166  0.2012166573375427
  0.4013478844903382  0.0059097308177202  0.3967987080486754
  0.4030205460489160  0.0135517628081480  0.5921865336280017
  0.3991179430871665  0.1947230829663820  0.0174803996985066
  0.4003791420124781  0.1887563703485136  0.1965255814071786
  0.3957202232760893  0.1840962035882034  0.3943732832992080
  0.4017008517532253  0.1979193554611972  0.5912582719490402
  0.3936685565724519  0.1885655698119978  0.7685652519363750
  0.3986974195919701  0.4126334802399238  0.0095181896365362
  0.4182952809022714  0.4174683817724140  0.2032943443705550
  0.4006611623625590  0.4035290963933540  0.6117931927222847
  0.3993340757839706  0.3993086129054895  0.8023080441395868
  0.4036957002904591  0.6034782126294488  0.0042487038063388
  0.4037321123384703  0.6070373545878240  0.2003149684590390
  0.4029506720490332  0.5995794195487377  0.6045004079885519
  0.4098816295064344  0.6020524294680408  0.8072989603821085
  0.4028198597685836  0.7986037737925382  0.0043303000278760
  0.3975378263797524  0.7951283073868587  0.8180764928424422
  0.5998231511581150  0.9876240515040449  0.0001569023514871
  0.5983165315581401  0.9978583640741259  0.1986038255736733
  0.6035599394405500  0.0014469215079717  0.3986116421127150
  0.6107356500227636  0.0117314973508989  0.6009139941964843
  0.6294158039441503  0.0119829977936124  0.8050970957182679
  0.6012785221586845  0.1897357076751400  0.3956563768153201
  0.6024609851801875  0.1993623942812253  0.5938482497893999
  0.6066586663794787  0.1995704459285088  0.7856809043813384
  0.6030068318021322  0.4050900770024962  0.2048221742654884
  0.5976858710755589  0.3977586990428893  0.6046630636277911
  0.6041090941438289  0.6049453557672514  0.2048974365914116
  0.6056387585594613  0.6133490040695161  0.4034826485424850
  0.6071330164173760  0.6109292306358792  0.6170928002029160
  0.6032568378785759  0.8037875864614280  0.0083298492485996
  0.6040998940086681  0.7996257750564749  0.1991533248325413
  0.6048605507911216  0.8028329937262997  0.5988556423138274
  0.7980646015865381  0.9964571596697318  0.0035108623670698
  0.7929603521220697  0.9932456101198616  0.1989454328198790
  0.7969247469387690  0.9984223968994619  0.3948094922003837
  0.8010530822504388  0.0012578871482443  0.5939033302398325
  0.7881728210125410  0.9917822561794614  0.7908979061865020
  0.7794999068115235  0.2059788474507086  0.9963208977968306
  0.7915348009462229  0.1906434588644098  0.3928216569540293
  0.7994915382517052  0.1969698538706951  0.5950944004374017
  0.8003413862497299  0.2010522236831045  0.7951755855382155
  0.8134787313167487  0.4095582438763238  0.9992257559724931
  0.8037852939845902  0.4066907000407072  0.1997652834079868
  0.7919411356310075  0.3961530385029278  0.5952559447997540
  0.8036887006149537  0.6049993747221549  0.0105032274104319
  0.8027913837070271  0.6042041783818309  0.2032102194934070
  0.8043874219338178  0.6055771727318006  0.3980446130452405
  0.8160613593450688  0.6136303506058347  0.6086492258707739
  0.7954781125976050  0.7932420941586392  0.9989054638660722
  0.8010952732636270  0.7994415644035220  0.2026259640169349
  0.8043862604143394  0.8032358139425569  0.4009026861421460
  0.7957778619525328  0.7915857593032456  0.5917290386000649
  0.8060323379331488  0.8046700566790658  0.8009848749743482
  0.9885836386323416  0.9937083985528247  0.5779935880560366
  0.0043829638400466  0.4026007645280075  0.8105727251541439
  0.2073033462294586  0.4112811695603906  0.0046363786463620
  0.5911897959285981  0.1893605884451104  0.1895818701541164
  0.5984552504151576  0.5968891234224671  0.8005134045131744
  0.2087124026572161  0.4058231270234489  0.6101010634475964
  0.1974272307509028  0.6064646728635422  0.1975481730857960
  0.4025366455458346  0.6094825326751321  0.4052289510507956
  0.4023430997050622  0.8028360657097138  0.1982208219408722
  0.6019171064564360  0.4037239839222420  0.7983538484864193
  0.6057865732519410  0.8058490191235687  0.4005734075009083
  0.7843606268806648  0.1921520355345367  0.1922599464453940
  0.7988165292134108  0.3984218701219620  0.3951756436540041
  0.8028695576309144  0.3988689645086570  0.7956369312974612
