Zr Ti V  Cr W 
 1.0000000000000000
    12.2882735461728885    0.0000000000000000   -4.3445607757035454
    -6.1441367710433559   10.6419570608175889   -4.3445607757035454
     0.0000000000000000    0.0000000000000000   13.0336823299999995
 Zr  Ti  V   Cr  W  
  11  14  87  10   2
Direct
  0.9978009263021311  0.4000976705037266  0.2046768121586552
  0.9918579991288011  0.7998059700892057  0.3999517618714473
  0.2023344622749014  0.1969637720536515  0.9976263293267621
  0.2065072216002888  0.2134691280199042  0.2155834494586849
  0.2016781768326061  0.3957465753863904  0.7990733251051909
  0.2195150587437068  0.6195395305821462  0.6157171238034975
  0.4060395751013807  0.5975769517631956  0.8007301554633468
  0.4054802307317083  0.8024466735772573  0.1780860193705432
  0.4174388748916012  0.8179742942223837  0.4185932573762400
  0.4044586897517646  0.9132004125719730  0.7866894154324887
  0.6022146334794078  0.1874128541356882  0.5997757419586610
  0.9886831554916640  0.1874405114003444  0.1898791590699473
  0.9997609585910867  0.2080651402050045  0.4038924265466346
  0.9990984927300985  0.3982485495864984  0.5923302660530526
  0.9852112970075431  0.3961004476531563  0.7981369023144061
  0.1981589052459817  0.9955760510415330  0.1986420608595442
  0.2005389644080235  0.1926514823253852  0.5994942280630146
  0.1940422522957097  0.7945713976635418  0.2017449114428324
  0.4088742342595717  0.2016986236694075  0.4056116109657912
  0.6029009783661498  0.5922243276106338  0.9970372169731717
  0.6017553409906236  0.5954945287399165  0.2020983923041200
  0.5996827355448699  0.8053251907001835  0.0080753878009561
  0.8025774728172571  0.9980248460681720  0.4026389409806055
  0.7993517149777331  0.3992925744715075  0.3964171129180037
  0.7989237889510895  0.7938480655694726  0.9926400896238819
  0.9899129657065266  0.9938339558871081  0.9968971298784276
  0.9989682538684017  0.9952632830287589  0.2012202030263308
  0.0038897819910849  0.0018251547547723  0.3930899843149557
  0.0009210873987717  0.0014523663053197  0.6064175375045415
  0.9902038753039667  0.9889829997590281  0.7965779827248447
  0.9883744686509354  0.1964864996700499  0.9891711683751313
  0.9913034618283666  0.1902791689770234  0.6083482661843308
  0.9934277032581713  0.1924952335115322  0.8008361593584561
  0.9893390422565348  0.3974582415474873  0.9963985729983198
  0.9931477622616963  0.5956036447603196  0.9963149005456128
  0.9944845783282135  0.6024711172678270  0.1966491799594733
  0.9965546797994188  0.5942715790483070  0.3991742120517468
  0.9960364092887167  0.6056947265431190  0.8015993047437485
  0.9988573402189317  0.7957664224079590  0.9912068290377403
  0.9941233312393437  0.8010157229826290  0.1916431952488444
  0.9940962003546795  0.8010347569845852  0.6111083698974820
  0.1927293342328134  0.9869376549072215  0.9943454589936245
  0.2040780497458186  0.9986525512972676  0.4035220725055378
  0.2084825577193885  0.0037296861639287  0.6095523124017358
  0.1997349911245529  0.9988640440996862  0.8025772112864568
  0.2011856625240325  0.1977716972224022  0.4087690866520721
  0.2016655309995759  0.1870107183987867  0.7966152728440529
  0.1983032977283666  0.4034264882650422  0.0069006823903624
  0.2076945892278092  0.4121126256530439  0.2031950961218357
  0.2078719733927813  0.4077139021142623  0.4065988484277430
  0.2147286809289632  0.3962450947479401  0.5866333841528176
  0.1887310755141044  0.5957358771313515  0.0029972269752747
  0.1916423618579557  0.5890987916713800  0.1937733963651248
  0.2081502412598605  0.6104574468220740  0.3992192354516516
  0.1952178246526176  0.6112039819685193  0.8231384276701088
  0.1954835935647891  0.7961244383442830  0.4037903039477521
  0.1883077792296448  0.8044484697367846  0.5916280186011579
  0.1892821555920643  0.8032298038375391  0.8024811999342292
  0.3968421859698537  0.0065209080166976  0.0045653953618631
  0.3999673865201460  0.0045427237704205  0.2008692786923498
  0.4009797163137796  0.0061867852347333  0.6041725464911051
  0.4095211472617293  0.1994997647756733  0.1965716768981876
  0.4030140741005701  0.1957817987200700  0.6084905912920974
  0.4010227295808394  0.3920298247070154  0.9979119165420006
  0.4138826987294932  0.4071963045171834  0.2071552669756410
  0.4183702485346178  0.4130081730276257  0.4112806477594256
  0.4067481636853519  0.3930554016247087  0.5985930528212705
  0.4126901213035110  0.3828622412681520  0.8002965365621372
  0.4043328042276770  0.5986338651825480  0.0135737743520018
  0.3988816482063922  0.5907517452604262  0.1992328431159244
  0.4074214448620420  0.6008042838479810  0.4006485671142244
  0.4176581870831457  0.5957324743846782  0.5901791065111472
  0.3897729579256669  0.8082533071021578  0.9595115503932994
  0.4103792677080374  0.8058287255874887  0.6039689295640656
  0.6020745021741347  0.0066317890594070  0.9949642303003728
  0.5987361861838454  0.0019160354962095  0.1926081287444762
  0.6050147904153788  0.0042774870665878  0.4000310947875556
  0.6109913727792519  0.0084898255243691  0.6696201672889562
  0.5951929429439528  0.1970002350657248  0.9938893668918202
  0.5980812244664517  0.1967750028210577  0.1934230133419483
  0.6043587619754938  0.1998296812193438  0.3909536903148370
  0.6004184555936894  0.3906878473793895  0.9955233167521575
  0.5971230249596219  0.3917317129717332  0.1952778429652745
  0.6006167183278284  0.3973944692800160  0.3985507293837101
  0.6077216116599524  0.4091682804424683  0.6036743673681968
  0.6020140619297758  0.3955981179313233  0.8011984937578968
  0.6050986714782025  0.5982638799383851  0.4067105814603588
  0.6048526111678890  0.5936084205026014  0.7886226642142087
  0.6070057974677490  0.7998060717963369  0.2051716754924384
  0.6106628697008535  0.7975862595570395  0.4018523553879070
  0.6096418316501236  0.7985513197748397  0.6036887755806747
  0.6001433690137692  0.8052031134951761  0.7967967454937391
  0.7926972194885435  0.9943750032911172  0.9886998814694283
  0.7928718833686603  0.9984163863054080  0.6043837909633741
  0.7984617110103055  0.9969563914228846  0.8013801351287709
  0.7911213365164368  0.1949293023882691  0.9914553004198688
  0.7938388766060334  0.2015565934838631  0.1990770798965264
  0.7860455425834111  0.1941512196510956  0.3961032148146181
  0.8014191597552924  0.1923201639625657  0.5924150271214419
  0.7985455137735160  0.1986209291658524  0.8016531429903690
  0.7898300073677723  0.4018559360155962  0.1890599275239621
  0.7941696711668909  0.3972433711301441  0.6001999102482278
  0.7960727274320460  0.4029061660549846  0.8093668282834369
  0.8045614850710505  0.5918665745563584  0.9989298188352081
  0.7949858523609775  0.5916950101629289  0.1910702778440886
  0.7949873556247721  0.5986600441696915  0.3972547285233886
  0.7961004818359950  0.5986078795751034  0.6002381337315272
  0.7993396242008023  0.5973316232233524  0.7999263225049849
  0.8019107400044695  0.7993189909151236  0.2018507429598247
  0.7956450840962465  0.7999903207743628  0.4095023557931255
  0.8002996422551828  0.7995632887358961  0.6025830073528717
  0.7995356561847533  0.7940914819017595  0.7931800621206986
  0.9985962652391157  0.4005249286183254  0.3991216771472308
  0.9953129493810232  0.8003108426886981  0.8019049679800365
  0.1914158926708011  0.8046851582291396  0.9953410888084614
  0.3913298349862541  0.0016001018305422  0.3924323540657239
  0.5402825073134613  0.0067409851718753  0.8005735647441473
  0.4053276313521987  0.1957442917251840  0.9958187152681380
  0.4039076055584062  0.1945913716719762  0.8011322644800537
  0.5975593159280355  0.2002530647292484  0.8064624327949677
  0.6051334714245501  0.5988091464380298  0.5992601213637273
  0.7945963870879816  0.3948323475117372  0.9957763332034687
  0.9947251459591888  0.6039887576155798  0.6022790713687363
  0.7996563882637309  0.0007607351059453  0.1944564724631558
