Zr Ti V  Cr W 
 1.0000000000000000
    15.4411249493602298   -0.0057725826640909    0.0015034816595225
    -0.0057736157285930   15.4404920489432147    0.0129561230258158
     0.0015050534304008    0.0129519398306557   15.4493068869615229
 Zr  Ti  V   Cr  W  
   2   2 100   9  11
Direct
  0.3978595962845813  0.1908880232855268  0.9978088465506488
  0.7997008264423915  0.3939880559282609  0.1459580531699677
  0.2245834939315599  0.0106570566092958  0.9981962010746582
  0.7917718451968081  0.3997884929147493  0.5982863899865973
  0.9918536497872816  0.0000762440299473  0.9999697259907704
  0.9988029274191408  0.9993892815863324  0.2000112008879847
  0.0004803658957411  0.9983101553931558  0.4012896626530686
  0.9988345186585172  0.9975989812007314  0.6007033819424225
  0.9998629729404266  0.0002335791358384  0.8010835718643740
  0.9996818727611900  0.1996888796119495  0.9985363966093974
  0.0025543591597776  0.1999217426203957  0.2018103379223870
  0.9949886523993524  0.2006802469117741  0.4031456826474314
  0.9996706095938425  0.2000009663631072  0.6016912790577177
  0.9998556204341257  0.2012841818461674  0.7979036926226314
  0.0036288312987205  0.4012815658594807  0.1992335660028533
  0.0006163165420467  0.4012210118505720  0.3984011171431109
  0.9998669747053909  0.4035202994929542  0.6010066169250036
  0.9995200092641767  0.3989161668835628  0.8031700115904727
  0.9994950317715822  0.6008743995493313  0.2014781984473294
  0.9990224293057428  0.5996200055598661  0.4053134637304969
  0.9963490501950982  0.5997926583620329  0.7959225866396717
  0.0042248406201748  0.8024972728225408  0.0009885543599695
  0.0015893998191715  0.7996246567078942  0.2009558426469792
  0.0002461358281601  0.7999082987061062  0.3995087596700241
  0.9998385475015044  0.7963898661826213  0.5991771426910253
  0.0013231550665843  0.8008313071222981  0.8012725821303771
  0.1991264287891330  0.0018101350696857  0.4004516421425010
  0.1988354034329942  0.0001497805574786  0.6011544961724266
  0.1980127283104007  0.9987353897650959  0.7982963517533983
  0.1923415209038718  0.2041966033254277  0.0033367182150709
  0.1981516789465442  0.1996117281515123  0.2026543698285104
  0.1977819861673936  0.1988335684058382  0.4021331744803902
  0.1984076121148426  0.1996466615503219  0.6003336509778832
  0.2004940945097729  0.4017637353795093  0.0005778129980823
  0.2012490899666363  0.4005507315061722  0.1990571252615148
  0.2038267879972148  0.3982534937027264  0.3995298790738732
  0.1989620856502481  0.3976185248184949  0.6021907140673752
  0.1993974362078999  0.3997821562679409  0.8020562149434255
  0.2010165264247480  0.6023849362498391  0.9995012307978089
  0.1988951807302067  0.6006354162910371  0.1987073652998324
  0.1984163703358276  0.6002233241142158  0.3980222468994596
  0.1977410139958423  0.6000539755644400  0.6018746013348324
  0.1996473230184961  0.5990455005200002  0.8022108974133759
  0.2049665861404719  0.8024354498137705  0.0009639723325348
  0.1997713286302711  0.8016360421471309  0.1987790755507277
  0.2040909408479109  0.8012123462744605  0.3986361935159723
  0.1997543553181946  0.8009713939640322  0.6004655150819667
  0.1998453222513023  0.8010063629068955  0.8020808517131714
  0.4007827694917039  0.9998343523538682  0.2007871602281512
  0.4003433568816424  0.9983825741265265  0.4006966344487801
  0.3994682797381573  0.9977763059463993  0.5990495828520640
  0.3999052771719315  0.2000092681097091  0.2065423729373956
  0.4000309937515362  0.2022324604974536  0.4041492038635114
  0.3986876708368237  0.4005941921281705  0.2044809131440124
  0.3988357084779479  0.4041732884273913  0.5971596274150147
  0.4004127933978370  0.6000537519174044  0.9987205936710153
  0.3996113049797037  0.5999031047972241  0.4035022044138647
  0.3989685093340212  0.5978230701750652  0.7955265038888019
  0.4044519510797414  0.7987311499750005  0.0000692834155620
  0.3989490220969056  0.7996397814009859  0.2046892539146096
  0.3988541601093732  0.7962585237394232  0.5974967068647011
  0.3994405445392352  0.7981717638151903  0.7982629501216281
  0.6028866153489405  0.9949115661065044  0.9990119466348626
  0.6051263839259526  0.0002315450141696  0.2017331060485783
  0.5983232671733199  0.0001538487200388  0.4004536314898656
  0.5996418534756215  0.9984928494124707  0.6015223720340602
  0.6030608178695702  0.9984936442607281  0.7983948376880783
  0.6051882978942597  0.2006122361403044  0.9997922779240335
  0.5987309168903934  0.1996549317425747  0.2008787858595592
  0.6039301862711305  0.1996925105741631  0.4037260207812241
  0.5995492719066411  0.1981905690756778  0.6014660061291461
  0.5961222170473893  0.2011508953027145  0.7987994136401811
  0.5981850608779895  0.4019098074098965  0.0016895623026982
  0.5966258971885920  0.4008348415929859  0.1979375991374072
  0.5945322583145689  0.4006612163829441  0.3971808332217411
  0.5990956370083512  0.3993918626734101  0.6024589973481670
  0.6003276063279099  0.3993617824651560  0.8041680602255238
  0.5993033515025374  0.6040061122242585  0.9989714134544275
  0.6021289065965937  0.6001609806373267  0.1997932524056150
  0.6019327137055169  0.5996376052171557  0.4007892418679456
  0.5953570586788494  0.6009190194246370  0.6008975445249790
  0.6031703771754916  0.5973665265250955  0.7991557999056974
  0.5986202899766079  0.7992208281119485  0.1968157568596847
  0.5959641171463527  0.7991369702394142  0.3983547737648250
  0.5998641697370745  0.8003763830524475  0.6003702615590573
  0.5984167192263493  0.7992003997577810  0.8032282114521676
  0.8001688193628679  0.9985685176899429  0.6024686157161009
  0.8000703253258693  0.0005858570514223  0.8032003874079231
  0.8001182789957836  0.1930020171572315  0.9988805659704755
  0.8019396198661077  0.1914579251884544  0.2049611449709960
  0.7997614758745136  0.1986878452807441  0.5971880749079407
  0.7997410824676978  0.2013892195849153  0.8006148886957469
  0.0014554888654303  0.4014444269284777  0.0004026923901492
  0.7971557617156546  0.3961910093017013  0.3830199910089170
  0.7994168449423508  0.4028905679057314  0.8345269999121384
  0.8015252417122509  0.6074823316438865  0.9977989576832637
  0.8022858480587948  0.6022745786193630  0.1994452686999994
  0.7989266805857972  0.5976314891119942  0.3995239644895152
  0.8023198269184019  0.5992876909331099  0.6059749906271528
  0.7948263275264248  0.8040171685662908  0.0004655038533597
  0.8012090414323214  0.8038523276618952  0.2013922001824975
  0.7972217907003956  0.7988389171676388  0.4005431451742135
  0.7981757104976871  0.8007419095047028  0.5990220406243688
  0.8002862290898034  0.7962228674303610  0.8010490073867457
  0.0011649833827366  0.6035492303529035  0.9989870477918267
  0.1992932262490045  0.0010234411283665  0.2023142007921095
  0.2005657271550179  0.1995745509081650  0.8001078604948980
  0.4005773057947175  0.9978233062815168  0.7982007512937663
  0.3986257216959747  0.1994504374955089  0.6025155176456197
  0.3996347572060044  0.4027856556720336  0.0022724247681982
  0.3993168498678018  0.3984073979771676  0.8004353369244067
  0.3996578104972434  0.6006342700270815  0.1997664125797176
  0.7995323390956903  0.9989727872817461  0.4000167512323369
  0.0009133232880789  0.6004289789293263  0.6004687108649227
  0.4102693677886075  0.9914341535300054  0.0056420139694497
  0.4019852221511779  0.1980632143711760  0.7992425663580459
  0.3992778618128704  0.4005411832585845  0.4014871808634004
  0.3973093210487770  0.6011494650119867  0.5995993568482734
  0.3996196919524923  0.8014237014210571  0.3998187212805555
  0.5978095437915797  0.7992092936068893  0.0002018089664775
  0.7981994595926182  0.9995537375593900  0.0026701561274247
  0.8001233019203025  0.9986185575705567  0.1954828413012533
  0.7995701225263796  0.2034750961620808  0.3978107294985188
  0.7999322126957029  0.5989569565604562  0.8015159677098546
