Zr Ti V  Cr W 
 1.0000000000000000
    15.4232430954959501    0.0024634115428034    0.0013068356567792
     0.0024630313677734   15.4480188046633575   -0.0049125705009612
     0.0013071056929354   -0.0049160983647616   15.4327482268049074
 Zr  Ti  V   Cr  W  
   1   3 101  12   7
Direct
  0.4011706813179720  0.0102394741397953  0.8098927121363900
  0.1970507116525807  0.8034563349570204  0.2057300167143207
  0.3983392883305282  0.1883796081268380  0.9865201371452759
  0.7963047078458764  0.6096080658136965  0.0019322787464928
  0.9991619244352088  0.9987717331052797  0.0019666549412489
  0.9979226243627851  0.0024331563086564  0.2006431977058328
  0.9994550713107108  0.0005271115949928  0.6012184782856347
  0.9990562690079389  0.0001715776303624  0.8016198980835719
  0.9998027679267258  0.1986622867616596  0.0001826872230641
  0.9990851500085244  0.2011105651592624  0.2007441204707258
  0.9996774597665029  0.1985300571791413  0.3999327871704666
  0.0003574913653484  0.2012439300424498  0.5990268317611303
  0.9992203491462058  0.2007432928265185  0.8002241276233855
  0.9998446843283512  0.3988507380405184  0.1994397969331542
  0.9996858430530529  0.4007802432774475  0.5680483015387598
  0.9996292106106964  0.4003864895700091  0.8010401685454491
  0.0027470504316609  0.6005185460532069  0.0005443916349421
  0.9999847402411053  0.5963801572953474  0.2019951441311962
  0.0007954820182801  0.6015156471046014  0.4018727291408842
  0.0015709976509630  0.5990633586140823  0.5997342596734344
  0.9992744671545295  0.6003579893853217  0.7998026735929468
  0.9969106932623499  0.7992631690436206  0.0002150828686623
  0.9994343167274446  0.8003255252757357  0.2003018046415926
  0.9989841734872824  0.8001497562113485  0.4009099593970203
  0.0000997941601324  0.7999947907846948  0.8004096242009607
  0.1987696348630388  0.9976916880312284  0.0022034669531276
  0.2006406448138062  0.0037702519049351  0.2015363687451230
  0.2001718740207773  0.9963778189927192  0.3998510734127644
  0.2006996260408467  0.0000746666109144  0.6012041071992893
  0.1948197497999418  0.0001981955087700  0.7996728849283241
  0.1983707222390956  0.1981866581466109  0.9989565380742138
  0.2009602331736277  0.1999659450749001  0.1985326170492832
  0.1987613770088389  0.1987122861818631  0.3997344725712901
  0.1996533859869286  0.1998115500034798  0.5986914466024132
  0.1993318655292228  0.2018568466098931  0.7993727597973995
  0.2014752451978467  0.3995307189123520  0.0002671333798474
  0.1995856886882607  0.3985373149172753  0.1993853402570110
  0.2013704681465443  0.3997496365511136  0.3981263327840113
  0.1996020677628939  0.4006024077070253  0.5981208908979668
  0.1995664538480415  0.4000489628951119  0.8017113724250828
  0.1995853933219667  0.6003358587003766  0.0009645655426169
  0.1985268287182176  0.6028414260597005  0.4001067068752686
  0.2036803024257381  0.6007778178648603  0.6008212823268717
  0.1985978109191218  0.5996453353880120  0.7998881699364798
  0.2036592447404876  0.7995365655617439  0.9997977347355022
  0.1994844471260693  0.8007311443980170  0.5991760685196630
  0.3997212668188471  0.9877759002315885  0.0100058256149320
  0.4031052876720922  0.9998611757975991  0.2029693707749952
  0.4032641409606548  0.9984080148627665  0.4017089447410129
  0.3999252973395047  0.9988664624024287  0.6002178249649877
  0.3988843712235770  0.1999265522726886  0.1991765831745956
  0.3988924109734745  0.1998993811877169  0.3991252506244230
  0.3993374018869463  0.2036745304857935  0.5976217476497301
  0.3998260796289881  0.2111505430196516  0.7923715495978811
  0.4005766193697650  0.3976971754714696  0.1965678634664276
  0.4000389947542766  0.4003375490186005  0.3980494490410800
  0.4006770169174478  0.4050936265761432  0.5995334562047422
  0.4004592222057661  0.4035844000961037  0.8011153042052482
  0.3992316388345585  0.6018453364203445  0.0003438988713328
  0.4004173186917616  0.5970197224248540  0.2012833524158737
  0.4010728302861658  0.5998372774397205  0.4029107607728534
  0.3995409566386401  0.6008217419741065  0.7969977007210377
  0.4020592312421840  0.7958063504433849  0.1965616997913067
  0.3961187510955501  0.7986319468197950  0.3995352324214530
  0.4002655777794024  0.7964931876490714  0.6043826941656792
  0.4004201686548977  0.7988203749439127  0.8057374707884652
  0.5996071300851933  0.0000681457908460  0.0076457210651227
  0.5987579741427025  0.0005632361412680  0.5968106344219264
  0.6052553501709933  0.0014147298097666  0.7993376377946766
  0.6008909977149881  0.1991122855276249  0.9992554093429633
  0.5982915905620640  0.1977507753535488  0.1980281698413240
  0.6002954660286608  0.1960664482815256  0.3999985800224924
  0.5995830222313833  0.2006100235473105  0.5994274613344506
  0.6008310703269022  0.2013422297045086  0.7994634113345314
  0.5992230904126759  0.3986698016075483  0.0006454437665195
  0.5999560555239071  0.3976806993606816  0.3982229286137147
  0.6002798435039741  0.3999303487653864  0.5997427778157418
  0.5968668810561307  0.5990250304835978  0.0004275433384217
  0.5992896541458822  0.5982855771082775  0.2020875373515092
  0.5987788880360955  0.6005619639899358  0.4002861366627861
  0.5970291785691977  0.6009845816793086  0.5996841023705737
  0.6012456315160867  0.5995978493094025  0.8000886348634670
  0.6008224504141846  0.7996332006229330  0.0002363769839519
  0.5996676232983467  0.8026822304682689  0.2015773762410718
  0.6039546380885675  0.8035445651037716  0.4009413578033902
  0.6000827314374829  0.8004218810556252  0.6017937925798132
  0.6008118464026926  0.8020430772100855  0.8005908125958033
  0.7990984396691195  0.9956144762722355  0.0014262554350362
  0.7952498852034717  0.0024579800774556  0.2006127495214987
  0.7977426943323147  0.9963386658352004  0.4006587643408067
  0.7999879369294333  0.0002441544057963  0.6008919047116879
  0.7998888383178803  0.9999367026082201  0.8001843360524127
  0.7999883650459347  0.1994118808901100  0.9986767044667780
  0.8017721277755546  0.2014212964105970  0.3999680948159813
  0.8002766295587291  0.2005447850336657  0.6009686902414669
  0.8003889030169236  0.2004991968191753  0.8000257101919065
  0.7992959627941409  0.4000327818125943  0.0000750689407958
  0.8002199965876488  0.4005658849796941  0.2000157018164887
  0.7965486427822828  0.4000081665557992  0.3998700135709160
  0.7997137164434741  0.4010194072857355  0.5989775678947268
  0.7994818336680826  0.4014150378760670  0.8011061737801283
  0.7992069161415206  0.5984813421447561  0.2026421466055716
  0.7995170672218622  0.6004973801209897  0.7975087257021258
  0.8008374622943718  0.7980891590664136  0.2010105322881072
  0.8009035077521384  0.7997255315574465  0.5976586609396143
  0.9987726495163588  0.0003445714122752  0.4008436289438810
  0.0000912096912569  0.3998565710722433  0.0001479949448573
  0.0003005126556028  0.8000679484900940  0.6020916534712597
  0.2005063199022935  0.5962732315594315  0.2010053258034632
  0.1990289323580469  0.8007266343552379  0.8002661042195539
  0.4004625453334552  0.4029872940526239  0.9986758531451864
  0.5997696911995144  0.3980403684744414  0.1994634729443589
  0.6002452261310309  0.4004201931206401  0.8004530843237154
  0.7994249589593319  0.2005766914569922  0.1994384730296704
  0.8000686814732878  0.6005339685648320  0.4010289310383549
  0.7994311019927639  0.6004491640016397  0.5992874885787328
  0.8003793945824558  0.7998827238456157  0.7997465676878726
  0.2007325192224551  0.8012693335618920  0.4024646381200920
  0.4002322369709509  0.6003424289015068  0.6014766432540649
  0.4006739546788491  0.7952043462087508  0.0006815568970239
  0.5987015850689330  0.0001697000315339  0.2050760475656950
  0.5995102071470554  0.0004648430967025  0.3974873282465932
  0.7991309418008197  0.8022903420430286  0.0037870908623043
  0.7996676375441318  0.8014951833815463  0.3982953037206057
